     Program PWSCF v.7.0 starts on 20May2023 at  8:14:48

     Reading input from espresso_347.pwi
Warning: card &CELL ignored
Warning: card / ignored

     Current dimensions of program PWSCF are:
     Max number of different atomic species (ntypx) = 10
     Max number of k-points (npk) =  40000
     Max angular momentum in pseudopotentials (lmaxx) =  4

     gamma-point specific algorithms are used
     Message from routine setup:
     using ibrav=0 with symmetry is DISCOURAGED, use correct ibrav instead

     Subspace diagonalization in iterative solution of the eigenvalue problem:
     a serial algorithm will be used

     Using Slab Decomposition

     bravais-lattice index     =            0
     lattice parameter (alat)  =       8.3388  a.u.
     unit-cell volume          =    2807.5573 (a.u.)^3
     number of atoms/cell      =           12
     number of atomic types    =            3
     number of electrons       =       116.00
     number of Kohn-Sham states=           70
     kinetic-energy cutoff     =      30.0000  Ry
     charge density cutoff     =     240.0000  Ry
     scf convergence threshold =      1.0E-06
     mixing beta               =       0.7000
     number of iterations used =            8  plain     mixing
     Exchange-correlation= SLA  PW   PBE  PBE
                           (   1   4   3   4   0   0   0)

     celldm(1)=   8.338783  celldm(2)=   0.000000  celldm(3)=   0.000000
     celldm(4)=   0.000000  celldm(5)=   0.000000  celldm(6)=   0.000000

     crystal axes: (cart. coord. in units of alat)
               a(1) = (   1.000000   0.000000   0.000000 )
               a(2) = (  -0.500000   0.866025   0.000000 )
               a(3) = (   0.000000   0.000000   5.591006 )

     reciprocal axes: (cart. coord. in units 2 pi/alat)
               b(1) = (  1.000000  0.577350  0.000000 )
               b(2) = (  0.000000  1.154701  0.000000 )
               b(3) = (  0.000000  0.000000  0.178859 )

     PseudoPot. # 1 for Ge read from file:
     /home/pragov/projects/rrg-bengioy-ad/pragov/crystal_structure_design/SSSP/ge_pbe_v1.4.uspp.F.UPF
     MD5 check sum: 9c9eaa91e581c3f09632fb3098b2c6b2
     Pseudo is Ultrasoft + core correction, Zval = 14.0
     Generated by new atomic code, or converted to UPF format
     Using radial grid of  873 points,  6 beta functions with:
                l(1) =   0
                l(2) =   0
                l(3) =   1
                l(4) =   1
                l(5) =   2
                l(6) =   2
     Q(r) pseudized with  8 coefficients,  rinner =    1.400   1.400   1.400
                                                       1.400   1.400

     PseudoPot. # 2 for Bi read from file:
     /home/pragov/projects/rrg-bengioy-ad/pragov/crystal_structure_design/SSSP/Bi_pbe_v1.uspp.F.UPF
     MD5 check sum: cceb9f28ec65b6d7ff33140f5b0b1758
     Pseudo is Ultrasoft + core correction, Zval = 15.0
     Generated by new atomic code, or converted to UPF format
     Using radial grid of  899 points,  6 beta functions with:
                l(1) =   0
                l(2) =   0
                l(3) =   1
                l(4) =   1
                l(5) =   2
                l(6) =   2
     Q(r) pseudized with  6 coefficients,  rinner =    1.000   1.000   1.000
                                                       1.000   1.000

     PseudoPot. # 3 for Te read from file:
     /home/pragov/projects/rrg-bengioy-ad/pragov/crystal_structure_design/SSSP/Te_pbe_v1.uspp.F.UPF
     MD5 check sum: c319670d6894cc26e93307826a071b75
     Pseudo is Ultrasoft + core correction, Zval =  6.0
     Generated by new atomic code, or converted to UPF format
     Using radial grid of  891 points,  5 beta functions with:
                l(1) =   0
                l(2) =   0
                l(3) =   1
                l(4) =   1
                l(5) =   2
     Q(r) pseudized with  6 coefficients,  rinner =    1.800   1.800   1.800
                                                       1.800   1.800

     atomic species   valence    mass     pseudopotential
        Ge            14.00    72.63000     Ge( 1.00)
        Bi            15.00   208.98040     Bi( 1.00)
        Te             6.00   127.60000     Te( 1.00)

     12 Sym. Ops., with inversion, found

                                    s                        frac. trans.

      isym =  1     identity

 cryst.   s( 1) = (     1          0          0      )
                  (     0          1          0      )
                  (     0          0          1      )

 cart.    s( 1) = (  1.0000000 -0.0000000  0.0000000 )
                  (  0.0000000  1.0000000  0.0000000 )
                  (  0.0000000  0.0000000  1.0000000 )

      isym =  2     180 deg rotation - cart. axis [1,0,0]

[...]

      isym =  3     120 deg rotation - cryst. axis [0,0,1]

[...]

      isym =  6     180 deg rotation - cryst. axis [1,1,0]

[...]

      isym =  7     inversion

[...]

      isym =  8     inv. 180 deg rotation - cart. axis [1,0,0]

[...]

      isym =  9     inv. 120 deg rotation - cryst. axis [0,0,1]

 cryst.   s( 9) = (     0         -1          0      )
                  (     1          1          0      )
                  (     0          0         -1      )

 cart.    s( 9) = (  0.5000000  0.8660254  0.0000000 )
                  ( -0.8660254  0.5000000  0.0000000 )
                  (  0.0000000  0.0000000 -1.0000000 )

[...]

 cryst.   s(10) = (     1          1          0      )
                  (    -1          0          0      )
                  (     0          0         -1      )

 cart.    s(10) = (  0.5000000 -0.8660254  0.0000000 )
                  (  0.8660254  0.5000000  0.0000000 )
                  (  0.0000000  0.0000000 -1.0000000 )

[...]

      isym = 12     inv. 180 deg rotation - cryst. axis [1,1,0]

 cryst.   s(12) = (     0         -1          0      )
                  (    -1          0          0      )
                  (     0          0          1      )

 cart.    s(12) = (  0.5000000 -0.8660254  0.0000000 )
                  ( -0.8660254 -0.5000000  0.0000000 )
                  (  0.0000000  0.0000000  1.0000000 )

   Cartesian axes

     site n.     atom                  positions (alat units)
         1           Ge  tau(   1) = (   0.0000000   0.0000000   0.0000000  )
         2           Bi  tau(   2) = (  -0.0000005   0.5773506   4.7368905  )
         3           Bi  tau(   3) = (   0.5000005   0.2886748   2.3291349  )
         4           Bi  tau(   4) = (  -0.0000005   0.5773506   3.2618713  )
         5           Bi  tau(   5) = (   0.5000005   0.2886748   0.8541157  )
         6           Te  tau(   6) = (   0.5000005   0.2886748   5.2129312  )
         7           Te  tau(   7) = (   0.0000000   0.0000000   2.7955031  )
         8           Te  tau(   8) = (   0.0000000   0.0000000   4.3425737  )
         9           Te  tau(   9) = (   0.0000000   0.0000000   1.2484325  )
        10           Te  tau(  10) = (  -0.0000005   0.5773506   0.3780750  )
        11           Te  tau(  11) = (  -0.0000005   0.5773506   1.9354051  )
        12           Te  tau(  12) = (   0.5000005   0.2886748   3.6556011  )

   Crystallographic axes

     site n.     atom                  positions (cryst. coord.)
         1           Ge  tau(   1) = (  0.0000000  0.0000000  0.0000000  )
         2           Bi  tau(   2) = (  0.3333330  0.6666670  0.8472340  )
         3           Bi  tau(   3) = (  0.6666670  0.3333330  0.4165860  )
         4           Bi  tau(   4) = (  0.3333330  0.6666670  0.5834140  )
         5           Bi  tau(   5) = (  0.6666670  0.3333330  0.1527660  )
         6           Te  tau(   6) = (  0.6666670  0.3333330  0.9323780  )
         7           Te  tau(   7) = (  0.0000000  0.0000000  0.5000000  )
         8           Te  tau(   8) = (  0.0000000  0.0000000  0.7767070  )
         9           Te  tau(   9) = (  0.0000000  0.0000000  0.2232930  )
        10           Te  tau(  10) = (  0.3333330  0.6666670  0.0676220  )
        11           Te  tau(  11) = (  0.3333330  0.6666670  0.3461640  )
        12           Te  tau(  12) = (  0.6666670  0.3333330  0.6538360  )

     number of k points=     1  Methfessel-Paxton smearing, width (Ry)=  0.0010
                       cart. coord. in units 2pi/alat
        k(    1) = (   0.0000000   0.0000000   0.0000000), wk =   2.0000000

                       cryst. coord.
        k(    1) = (   0.0000000   0.0000000   0.0000000), wk =   2.0000000

     Check: negative core charge=   -0.000001

     Initial potential from superposition of free atoms

     starting charge     111.9974, renormalised to     116.0000

     negative rho (up, down):  1.705E-01 0.000E+00
     Starting wfcs are   73 randomized atomic wfcs

     Self-consistent Calculation

     iteration #  1     ecut=    30.00 Ry     beta= 0.70
     Davidson diagonalization with overlap

     ethr =  1.00E-02,  avg # of iterations = 10.0

     negative rho (up, down):  1.718E-01 0.000E+00

     total energy              =    -570.51031734 Ry
     estimated scf accuracy    <     646.25725488 Ry

[...]

     c_bands:  3 eigenvalues not converged
     ethr =  1.00E-02,  avg # of iterations = 20.0

[...]

     total energy              =   -1137.31026729 Ry
     estimated scf accuracy    <       0.00000417 Ry

     iteration # 45     ecut=    30.00 Ry     beta= 0.70
     Davidson diagonalization with overlap

     ethr =  3.59E-09,  avg # of iterations =  1.0

[...]

     End of self-consistent calculation

          k = 0.0000 0.0000 0.0000 (  3920 PWs)   bands (ev):

   -17.5831 -17.5719 -17.5719 -17.5530 -17.5530 -15.8633 -15.8633 -15.8628
   -15.8628 -15.8353 -15.8349 -15.8157 -15.8157 -15.8153 -15.8152 -15.7981
   -15.7981 -15.7963 -15.7963 -15.7936 -15.7915 -15.7618 -15.7618 -15.7601
   -15.7601  -5.7932  -5.6711  -5.5905  -5.2860  -4.3136  -3.5189  -3.4586
    -1.9680  -1.9053  -1.2361  -0.7148   0.9082   4.7186   5.0716   5.4163
     5.5897   5.5897   5.6398   5.6398   5.6411   5.6411   5.8490   5.8490
     5.9217   6.0152   6.0152   6.1123   6.3168   6.3168   6.4471   6.4471
     6.9558   7.0689   7.7975   7.8278   7.9126   7.9126   8.1031   8.1031
     8.5494   8.5774   8.5774   9.1052   9.1370   9.1370

     occupation numbers
     1.0000   1.0000   1.0000   1.0000   1.0000   1.0000   1.0000   1.0000
     1.0000   1.0000   1.0000   1.0000   1.0000   1.0000   1.0000   1.0000
     1.0000   1.0000   1.0000   1.0000   1.0000   1.0000   1.0000   1.0000
     1.0000   1.0000   1.0000   1.0000   1.0000   1.0000   1.0000   1.0000
     1.0000   1.0000   1.0000   1.0000   1.0000   1.0000   1.0000   1.0000
     1.0000   1.0000   1.0000   1.0000   1.0000   1.0000   1.0000   1.0000
     1.0000   1.0000   1.0000   1.0000   1.0000   1.0000   1.0000   1.0000
     1.0000   1.0000  -0.0000  -0.0000  -0.0000  -0.0000  -0.0000  -0.0000
    -0.0000  -0.0000  -0.0000  -0.0000  -0.0000  -0.0000

     the Fermi energy is     7.5861 ev

!    total energy              =   -1137.31026728 Ry
     estimated scf accuracy    <       0.00000049 Ry
     smearing contrib. (-TS)   =       0.00000000 Ry
     internal energy E=F+TS    =   -1137.31026728 Ry

     The total energy is F=E-TS. E is the sum of the following terms:
     one-electron contribution =    -521.57568152 Ry
     hartree contribution      =     327.44098906 Ry
     xc contribution           =    -418.76925429 Ry
     ewald contribution        =    -524.40632053 Ry

     convergence has been achieved in  45 iterations

     negative rho (up, down):  1.677E-01 0.000E+00

     Forces acting on atoms (cartesian axes, Ry/au):

     atom    1 type  1   force =     0.00000000    0.00000000    0.00000000
     atom    2 type  2   force =     0.00000000    0.00000000   -0.02496952
     atom    3 type  2   force =     0.00000000   -0.00000000    0.00270394
     atom    4 type  2   force =    -0.00000000    0.00000000   -0.00270394
     atom    5 type  2   force =     0.00000000    0.00000000    0.02496952
     atom    6 type  3   force =    -0.00000000    0.00000000    0.02611644
     atom    7 type  3   force =     0.00000000   -0.00000000    0.00000000
     atom    8 type  3   force =    -0.00000000   -0.00000000    0.03766960
     atom    9 type  3   force =     0.00000000    0.00000000   -0.03766960
     atom   10 type  3   force =     0.00000000   -0.00000000   -0.02611644
     atom   11 type  3   force =    -0.00000000   -0.00000000    0.02827000
     atom   12 type  3   force =     0.00000000    0.00000000   -0.02827000
     The non-local contrib.  to forces
     atom    1 type  1   force =    -0.00000000    0.00000000    0.00000000
     atom    2 type  2   force =     0.00000000    0.00000000    0.04592375
     atom    3 type  2   force =    -0.00000000   -0.00000000   -0.06553739
     atom    4 type  2   force =    -0.00000000   -0.00000000    0.06553739
     atom    5 type  2   force =     0.00000000    0.00000000   -0.04592375
     atom    6 type  3   force =    -0.00000000    0.00000000    0.12810688
     atom    7 type  3   force =    -0.00000000    0.00000000    0.00000000
     atom    8 type  3   force =    -0.00000000   -0.00000000    0.03921678
     atom    9 type  3   force =    -0.00000000   -0.00000000   -0.03921678
     atom   10 type  3   force =     0.00000000   -0.00000000   -0.12810688
     atom   11 type  3   force =     0.00000000    0.00000000    0.00807669
     atom   12 type  3   force =     0.00000000   -0.00000000   -0.00807669
     The ionic contribution  to forces
     atom    1 type  1   force =    -0.00000000    0.00000000   -0.00000000
     atom    2 type  2   force =     0.00000995   -0.00000574  -18.25350161
     atom    3 type  2   force =    -0.00001169    0.00000675   -6.01633116
     atom    4 type  2   force =     0.00001169   -0.00000675    6.01633116
     atom    5 type  2   force =    -0.00000995    0.00000574   18.25350161
     atom    6 type  3   force =    -0.00000986    0.00000569   -4.18571609
     atom    7 type  3   force =    -0.00000000    0.00000000    0.00000000
     atom    8 type  3   force =    -0.00000400    0.00000231  -10.25678258
     atom    9 type  3   force =     0.00000400   -0.00000231   10.25678258
     atom   10 type  3   force =     0.00000986   -0.00000569    4.18571609
     atom   11 type  3   force =     0.00000870   -0.00000502   -5.37367439
     atom   12 type  3   force =    -0.00000870    0.00000502    5.37367439
     The local contribution  to forces
     atom    1 type  1   force =     0.00000549    0.00000254    0.00107010
     atom    2 type  2   force =    -0.00000731    0.00000218   18.19097501
     atom    3 type  2   force =     0.00000885   -0.00000005    6.08427209
     atom    4 type  2   force =    -0.00000788    0.00000223   -6.08415058
     atom    5 type  2   force =     0.00000270   -0.00000046  -18.19059093
     atom    6 type  3   force =     0.00001475   -0.00000618    4.06806705
     atom    7 type  3   force =    -0.00000261   -0.00000496    0.00076218
     atom    8 type  3   force =     0.00000423   -0.00000143   10.25962917
     atom    9 type  3   force =    -0.00001172    0.00001020  -10.25984624
     atom   10 type  3   force =    -0.00000810    0.00000856   -4.06760217
     atom   11 type  3   force =    -0.00000576    0.00000476    5.40115475
     atom   12 type  3   force =     0.00001013   -0.00001209   -5.40213814
     The core correction contribution to forces
     atom    1 type  1   force =     0.00000019    0.00000011    0.00000593
     atom    2 type  2   force =     0.00000006   -0.00000009   -0.00816541
     atom    3 type  2   force =    -0.00000021    0.00000014    0.00089230
     atom    4 type  2   force =     0.00000004   -0.00000018   -0.00088673
     atom    5 type  2   force =    -0.00000031    0.00000004    0.00816714
     atom    6 type  3   force =    -0.00000054   -0.00000010    0.01574491
     atom    7 type  3   force =     0.00000019    0.00000059    0.00001138
     atom    8 type  3   force =    -0.00000018    0.00000009   -0.00435563
     atom    9 type  3   force =     0.00000071   -0.00000071    0.00435017
     atom   10 type  3   force =    -0.00000014   -0.00000037   -0.01574541
     atom   11 type  3   force =    -0.00000018   -0.00000002   -0.00776122
     atom   12 type  3   force =    -0.00000022    0.00000076    0.00774448
     The Hubbard contrib.    to forces
     atom    1 type  1   force =     0.00000000    0.00000000    0.00000000
     atom    2 type  2   force =     0.00000000    0.00000000    0.00000000
     atom    3 type  2   force =     0.00000000    0.00000000    0.00000000
     atom    4 type  2   force =     0.00000000    0.00000000    0.00000000
     atom    5 type  2   force =     0.00000000    0.00000000    0.00000000
     atom    6 type  3   force =     0.00000000    0.00000000    0.00000000
     atom    7 type  3   force =     0.00000000    0.00000000    0.00000000
     atom    8 type  3   force =     0.00000000    0.00000000    0.00000000
     atom    9 type  3   force =     0.00000000    0.00000000    0.00000000
     atom   10 type  3   force =     0.00000000    0.00000000    0.00000000
     atom   11 type  3   force =     0.00000000    0.00000000    0.00000000
     atom   12 type  3   force =     0.00000000    0.00000000    0.00000000
     The SCF correction term to forces
     atom    1 type  1   force =    -0.00000862   -0.00000032   -0.00108888
     atom    2 type  2   force =    -0.00000062    0.00000375   -0.00021381
     atom    3 type  2   force =     0.00000016   -0.00000579   -0.00059020
     atom    4 type  2   force =     0.00000066    0.00000101    0.00046651
     atom    5 type  2   force =     0.00000274   -0.00000334   -0.00019711
     atom    6 type  3   force =     0.00000043   -0.00000026   -0.00007033
     atom    7 type  3   force =    -0.00000018   -0.00000054   -0.00086363
     atom    8 type  3   force =    -0.00000018   -0.00000049   -0.00003529
     atom    9 type  3   force =     0.00000005   -0.00000001    0.00026351
     atom   10 type  3   force =    -0.00000018    0.00000010   -0.00036209
     atom   11 type  3   force =    -0.00000015    0.00000005    0.00056786
     atom   12 type  3   force =    -0.00000014   -0.00000016    0.00061964

     Total force =     0.084036     Total SCF correction =     0.001870

     Computing stress (Cartesian axis) and pressure

     negative rho (up, down):  1.677E-01 0.000E+00
          total   stress  (Ry/bohr**3)                   (kbar)     P=      236.68
   0.00241552  -0.00000000   0.00000000          355.33       -0.00        0.00
  -0.00000000   0.00241552   0.00000000           -0.00      355.33        0.00
  -0.00000000  -0.00000000  -0.00000421           -0.00       -0.00       -0.62

     kinetic stress (kbar)   3950.99     -0.00      0.00
                               -0.00   3950.99      0.00
                                0.00      0.00   3628.40

     local   stress (kbar)  -4218.20     -0.00      0.00
                               -0.00  -4218.20     -0.00
                                0.00     -0.00  10301.11

     nonloc. stress (kbar)   2558.87     -0.00      0.00
                               -0.00   2558.87      0.00
                                0.00      0.00   2609.37

     hartree stress (kbar)   8044.92      0.00     -0.00
                                0.00   8044.92      0.00
                               -0.00      0.00   1066.80

     exc-cor stress (kbar)  12295.69     -0.00      0.00
                               -0.00  12295.69      0.00
                                0.00      0.00  12297.61

     corecor stress (kbar) -15663.24      0.00     -0.00
                                0.00 -15663.24     -0.00
                               -0.00     -0.00 -15654.46

     ewald   stress (kbar)  -6613.70      0.00     -0.00
                                0.00  -6613.70      0.00
                               -0.00      0.00 -14249.46

     hubbard stress (kbar)      0.00      0.00      0.00
                                0.00      0.00      0.00
                                0.00      0.00      0.00

     DFT-D   stress (kbar)      0.00      0.00      0.00
                                0.00      0.00      0.00
                                0.00      0.00      0.00

     XDM     stress (kbar)      0.00      0.00      0.00
                                0.00      0.00      0.00
                                0.00      0.00      0.00

     dft-nl  stress (kbar)      0.00      0.00      0.00
                                0.00      0.00      0.00
                                0.00      0.00      0.00

     TS-vdW  stress (kbar)      0.00      0.00      0.00
                                0.00      0.00      0.00
                                0.00      0.00      0.00

[...]

                                0.00      0.00      0.00

     Writing all to output data dir new_calculations/myprefix.save/

     General routines

     Parallel routines

   This run was terminated on:   8:16:54  20May2023

   JOB DONE.