     Program PWSCF v.7.0 starts on 21May2023 at  5:13:40

     Reading input from espresso_19760.pwi
Warning: card &CELL ignored
Warning: card / ignored

     Current dimensions of program PWSCF are:
     Max number of different atomic species (ntypx) = 10
     Max number of k-points (npk) =  40000
     Max angular momentum in pseudopotentials (lmaxx) =  4
     file O.pbe-n-kjpaw_psl.0.1.UPF: wavefunction(s)  2P renormalized

     gamma-point specific algorithms are used
     Message from routine setup:
     using ibrav=0 with symmetry is DISCOURAGED, use correct ibrav instead

     Subspace diagonalization in iterative solution of the eigenvalue problem:
     a serial algorithm will be used

     Using Slab Decomposition

     bravais-lattice index     =            0
     lattice parameter (alat)  =       9.5957  a.u.
     unit-cell volume          =    2008.3076 (a.u.)^3
     number of atoms/cell      =           16
     number of atomic types    =            4
     number of electrons       =       128.00
     number of Kohn-Sham states=           77
     kinetic-energy cutoff     =      30.0000  Ry
     charge density cutoff     =     240.0000  Ry
     scf convergence threshold =      1.0E-06
     mixing beta               =       0.7000
     number of iterations used =            8  plain     mixing
     Exchange-correlation= SLA  PW   PBX  PBC
                           (   1   4   3   4   0   0   0)

     celldm(1)=   9.595734  celldm(2)=   0.000000  celldm(3)=   0.000000
     celldm(4)=   0.000000  celldm(5)=   0.000000  celldm(6)=   0.000000

     crystal axes: (cart. coord. in units of alat)
               a(1) = (   1.000000   0.000000   0.000000 )
               a(2) = (  -0.548123   0.836398   0.000000 )
               a(3) = (   0.000000   0.000000   2.717582 )

     reciprocal axes: (cart. coord. in units 2 pi/alat)
               b(1) = (  1.000000  0.655337  0.000000 )
               b(2) = (  0.000000  1.195603  0.000000 )
               b(3) = (  0.000000  0.000000  0.367974 )

     PseudoPot. # 1 for Sn read from file:
     /home/pragov/projects/rrg-bengioy-ad/pragov/crystal_structure_design/SSSP/Sn_pbe_v1.uspp.F.UPF
     MD5 check sum: 4cf58ce39ec5d5d420df3dd08604eb00
     Pseudo is Ultrasoft + core correction, Zval = 14.0
     Generated by new atomic code, or converted to UPF format
     Using radial grid of  891 points,  6 beta functions with:
                l(1) =   0
                l(2) =   0
                l(3) =   1
                l(4) =   1
                l(5) =   2
                l(6) =   2
     Q(r) pseudized with  6 coefficients,  rinner =    1.200   1.200   1.200
                                                       1.200   1.200

     PseudoPot. # 2 for P  read from file:
     /home/pragov/projects/rrg-bengioy-ad/pragov/crystal_structure_design/SSSP/P.pbe-n-rrkjus_psl.1.0.0.UPF
     MD5 check sum: 8b930f418f0a4573dca56cd030ffe088
     Pseudo is Ultrasoft + core correction, Zval =  5.0
     Generated using "atomic" code by A. Dal Corso  v.5.1
     Using radial grid of 1147 points,  6 beta functions with:
                l(1) =   0
                l(2) =   0
                l(3) =   1
                l(4) =   1
                l(5) =   2
                l(6) =   2
     Q(r) pseudized with 0 coefficients

     PseudoPot. # 3 for Cl read from file:
     /home/pragov/projects/rrg-bengioy-ad/pragov/crystal_structure_design/SSSP/cl_pbe_v1.4.uspp.F.UPF
     MD5 check sum: fc6f6913ecf08c9257cb748ef0700058
     Pseudo is Ultrasoft + core correction, Zval =  7.0
     Generated by new atomic code, or converted to UPF format
     Using radial grid of  909 points,  6 beta functions with:
                l(1) =   0
                l(2) =   0
                l(3) =   1
                l(4) =   1
                l(5) =   2
                l(6) =   2
     Q(r) pseudized with  8 coefficients,  rinner =    1.300   1.300   1.300
                                                       1.300   1.300

     PseudoPot. # 4 for O  read from file:
     /home/pragov/projects/rrg-bengioy-ad/pragov/crystal_structure_design/SSSP/O.pbe-n-kjpaw_psl.0.1.UPF
     MD5 check sum: 0234752ac141de4415c5fc33072bef88
     Pseudo is Projector augmented-wave + core cor, Zval =  6.0
     Generated using "atomic" code by A. Dal Corso  v.5.0.99 svn rev. 10869
     Shape of augmentation charge: BESSEL
     Using radial grid of 1095 points,  4 beta functions with:
                l(1) =   0
                l(2) =   0
                l(3) =   1
                l(4) =   1
     Q(r) pseudized with 0 coefficients

     atomic species   valence    mass     pseudopotential
        Sn            14.00   118.71000     Sn( 1.00)
        P              5.00    30.97376     P ( 1.00)
        Cl             7.00    35.45000     Cl( 1.00)
        O              6.00    15.99900     O ( 1.00)

      2 Sym. Ops. (no inversion) found ( 1 have fractional translation)

                                    s                        frac. trans.

      isym =  1     identity

 cryst.   s( 1) = (     1          0          0      )
                  (     0          1          0      )
                  (     0          0          1      )

 cart.    s( 1) = (  1.0000000 -0.0000000  0.0000000 )
                  (  0.0000000  1.0000000  0.0000000 )
                  (  0.0000000  0.0000000  1.0000000 )

      isym =  2     inv. 180 deg rotation - cart. axis [0,0,1]

 cryst.   s( 2) = (     1          0          0      )    f =(  0.0000000 )
                  (     0          1          0      )       (  0.0000000 )
                  (     0          0         -1      )       (  0.5000000 )

 cart.    s( 2) = (  1.0000000 -0.0000000  0.0000000 )    f =(  0.0000000 )
                  (  0.0000000  1.0000000  0.0000000 )       (  0.0000000 )
                  (  0.0000000  0.0000000 -1.0000000 )       (  1.3587911 )

   Cartesian axes

     site n.     atom                  positions (alat units)
         1           Sn  tau(   1) = (   0.7068356   0.1921139   2.4094708  )
         2           Sn  tau(   2) = (  -0.2267488   0.6964979   1.0506798  )
         3           Sn  tau(   3) = (  -0.2267488   0.6964979   0.3081113  )
         4           Sn  tau(   4) = (   0.7068356   0.1921139   1.6669024  )
         5           P   tau(   5) = (  -0.3127558   0.7665061   2.0381866  )
         6           P   tau(   6) = (   0.8125327   0.1585510   0.6793955  )
         7           Cl  tau(   7) = (   0.2058116   0.3809450   0.0000000  )
         8           Cl  tau(   8) = (   0.2058116   0.3809450   1.3587911  )
         9           O   tau(   9) = (  -0.2682456   0.6061226   2.2923919  )
        10           O   tau(  10) = (  -0.1047216   0.4577272   0.6793955  )
        11           O   tau(  11) = (   0.9542318   0.0562904   2.0381866  )
        12           O   tau(  12) = (   0.6539912   0.1078694   0.4251902  )
        13           O   tau(  13) = (  -0.2682456   0.6061226   1.7839812  )
        14           O   tau(  14) = (   0.6539912   0.1078694   0.9336009  )
        15           O   tau(  15) = (   0.4402424   0.1633017   2.0381866  )
        16           O   tau(  16) = (  -0.4759548   0.8289717   0.6793955  )

   Crystallographic axes

     site n.     atom                  positions (cryst. coord.)
         1           Sn  tau(   1) = (  0.8327350  0.2296920  0.8866230  )
         2           Sn  tau(   2) = (  0.2296920  0.8327350  0.3866230  )
         3           Sn  tau(   3) = (  0.2296920  0.8327350  0.1133770  )
         4           Sn  tau(   4) = (  0.8327350  0.2296920  0.6133770  )
         5           P   tau(   5) = (  0.1895640  0.9164370  0.7500000  )
         6           P   tau(   6) = (  0.9164370  0.1895640  0.2500000  )
         7           Cl  tau(   7) = (  0.4554590  0.4554590  0.0000000  )
         8           Cl  tau(   8) = (  0.4554590  0.4554590  0.5000000  )
         9           O   tau(   9) = (  0.1289690  0.7246820  0.8435410  )
        10           O   tau(  10) = (  0.1952440  0.5472600  0.2500000  )
        11           O   tau(  11) = (  0.9911210  0.0673010  0.7500000  )
        12           O   tau(  12) = (  0.7246820  0.1289690  0.1564590  )
        13           O   tau(  13) = (  0.1289690  0.7246820  0.6564590  )
        14           O   tau(  14) = (  0.7246820  0.1289690  0.3435410  )
        15           O   tau(  15) = (  0.5472600  0.1952440  0.7500000  )
        16           O   tau(  16) = (  0.0673010  0.9911210  0.2500000  )

     number of k points=     1  Methfessel-Paxton smearing, width (Ry)=  0.0010
                       cart. coord. in units 2pi/alat
        k(    1) = (   0.0000000   0.0000000   0.0000000), wk =   2.0000000

                       cryst. coord.
        k(    1) = (   0.0000000   0.0000000   0.0000000), wk =   2.0000000

     Check: negative core charge=   -0.000007

     Initial potential from superposition of free atoms

     starting charge     123.9995, renormalised to     128.0000

     negative rho (up, down):  3.081E-02 0.000E+00
     Starting wfcs are   84 randomized atomic wfcs
     Checking if some PAW data can be deallocated...

     Self-consistent Calculation

     iteration #  1     ecut=    30.00 Ry     beta= 0.70
     Davidson diagonalization with overlap

     ethr =  1.00E-02,  avg # of iterations =  6.0

     negative rho (up, down):  3.107E-02 0.000E+00

     total energy              =   -1080.16298634 Ry
     estimated scf accuracy    <       2.46769512 Ry

[...]

     total energy              =   -1081.18934400 Ry
     estimated scf accuracy    <       0.00000153 Ry

     iteration #  9     ecut=    30.00 Ry     beta= 0.70
     Davidson diagonalization with overlap

     ethr =  1.20E-09,  avg # of iterations =  3.0

[...]

     End of self-consistent calculation

          k = 0.0000 0.0000 0.0000 (  2775 PWs)   bands (ev):

   -16.5400 -16.5360 -15.7845 -15.7798 -15.7551 -15.7522 -15.7202 -15.7166
   -15.6257 -15.6248 -15.6227 -15.6208 -15.6157 -15.6083 -15.5739 -15.5710
   -15.5562 -15.5536 -15.5521 -15.5466 -15.5364 -15.5318 -13.8681 -13.8593
   -13.7495 -13.7452 -13.5644 -13.5606  -8.1731  -8.1624  -4.8308  -4.8178
    -1.7878  -1.7267  -1.4308  -1.4141  -1.1845  -1.1246  -1.0968  -1.0855
     0.9804   0.9937   1.0537   1.0663   1.3447   1.3828   2.0602   2.1213
     2.3066   2.3270   2.3450   2.4246   2.6254   2.7352   3.0543   3.2458
     3.4384   3.5129   3.5197   3.5395   3.6444   3.7359   4.6170   5.0063
     8.0010   8.6186   8.8179   8.9079   9.0051   9.5962   9.6794   9.8094
    10.4846  10.7696  10.8224  11.5575  11.9523

     occupation numbers
     1.0000   1.0000   1.0000   1.0000   1.0000   1.0000   1.0000   1.0000
     1.0000   1.0000   1.0000   1.0000   1.0000   1.0000   1.0000   1.0000
     1.0000   1.0000   1.0000   1.0000   1.0000   1.0000   1.0000   1.0000
     1.0000   1.0000   1.0000   1.0000   1.0000   1.0000   1.0000   1.0000
     1.0000   1.0000   1.0000   1.0000   1.0000   1.0000   1.0000   1.0000
     1.0000   1.0000   1.0000   1.0000   1.0000   1.0000   1.0000   1.0000
     1.0000   1.0000   1.0000   1.0000   1.0000   1.0000   1.0000   1.0000
     1.0000   1.0000   1.0000   1.0000   1.0000   1.0000   1.0000   1.0000
    -0.0000  -0.0000  -0.0000  -0.0000  -0.0000  -0.0000  -0.0000  -0.0000
    -0.0000  -0.0000  -0.0000  -0.0000  -0.0000

     the Fermi energy is     6.6950 ev

!    total energy              =   -1081.18934402 Ry
     estimated scf accuracy    <       0.00000069 Ry
     smearing contrib. (-TS)   =       0.00000000 Ry
     internal energy E=F+TS    =   -1081.18934402 Ry

     The total energy is F=E-TS. E is the sum of the following terms:
     one-electron contribution =    -472.68385404 Ry
     hartree contribution      =     310.87187914 Ry
     xc contribution           =    -278.21168709 Ry
     ewald contribution        =    -564.99887337 Ry
     one-center paw contrib.   =     -76.16680866 Ry
      -> PAW hartree energy AE =     248.78610781 Ry
      -> PAW hartree energy PS =    -247.92822585 Ry
      -> PAW xc energy AE      =    -139.16337109 Ry
      -> PAW xc energy PS      =      62.13868048 Ry
      -> total E_H with PAW    =     311.72976110 Ry
      -> total E_XC with PAW   =    -355.23637771 Ry

     convergence has been achieved in   9 iterations

     negative rho (up, down):  2.956E-02 0.000E+00

     Forces acting on atoms (cartesian axes, Ry/au):

     atom    1 type  1   force =    -0.01170447    0.01170921   -0.00482944
     atom    2 type  1   force =     0.01596085   -0.00352639   -0.00700103
     atom    3 type  1   force =     0.01596085   -0.00352639    0.00700103
     atom    4 type  1   force =    -0.01170447    0.01170921    0.00482944
     atom    5 type  2   force =    -0.01105444    0.02870721    0.00000000
     atom    6 type  2   force =     0.03011398    0.00644406    0.00000000
     atom    7 type  3   force =    -0.01171320   -0.02176663   -0.00004009
     atom    8 type  3   force =    -0.01171320   -0.02176663    0.00004009
     atom    9 type  4   force =     0.02462873   -0.00948652    0.05725504
     atom   10 type  4   force =     0.03421706    0.00669164    0.00000000
     atom   11 type  4   force =     0.00517369   -0.04081373    0.00000000
     atom   12 type  4   force =    -0.02134166    0.01534626   -0.05710838
     atom   13 type  4   force =     0.02462873   -0.00948652   -0.05725504
     atom   14 type  4   force =    -0.02134166    0.01534626    0.05710838
     atom   15 type  4   force =    -0.01310410    0.03241132    0.00000000
     atom   16 type  4   force =    -0.03700669   -0.01799235    0.00000000
     The non-local contrib.  to forces
     atom    1 type  1   force =     0.03322946    0.31504715   -0.50785481
     atom    2 type  1   force =     0.24489728    0.20032264   -0.50993986
     atom    3 type  1   force =     0.24489728    0.20032264    0.50993986
     atom    4 type  1   force =     0.03322946    0.31504715    0.50785481
     atom    5 type  2   force =    -0.00664142    0.09009618    0.00000000
     atom    6 type  2   force =     0.07889912    0.04380071    0.00000000
     atom    7 type  3   force =    -0.00183677   -0.00338135   -0.00004442
     atom    8 type  3   force =    -0.00183677   -0.00338135    0.00004442
     atom    9 type  4   force =    -0.42322526    0.34816627   -1.62356876
     atom   10 type  4   force =    -0.77409408   -1.25366404    0.00000000
     atom   11 type  4   force =     1.36599501   -0.30820070    0.00000000
     atom   12 type  4   force =     0.52313875   -0.16321883    1.62358479
     atom   13 type  4   force =    -0.42322526    0.34816627    1.62356876
     atom   14 type  4   force =     0.52313875   -0.16321883   -1.62358479
     atom   15 type  4   force =    -0.62447242   -1.33435506    0.00000000
     atom   16 type  4   force =    -1.00645503    0.97375825    0.00000000
     The ionic contribution  to forces
     atom    1 type  1   force =     1.37202976   -3.97689498   14.64825218
     atom    2 type  1   force =    -4.07830758   -1.03226286   14.64825218
     atom    3 type  1   force =    -4.07830758   -1.03226286  -14.64825218
     atom    4 type  1   force =     1.37202976   -3.97689498  -14.64825218
     atom    5 type  2   force =    -0.83561288    0.02049784    0.00000000
     atom    6 type  2   force =     0.47516262   -0.68766964    0.00000000
     atom    7 type  3   force =     0.54241396    1.00397569   -0.00000000
     atom    8 type  3   force =     0.54241396    1.00397569    0.00000000
     atom    9 type  4   force =     1.00270217    0.63327281    7.97713197
     atom   10 type  4   force =     5.32055545    1.37229523    0.00000000
     atom   11 type  4   force =    -1.84600794    0.00572702   -0.00000000
     atom   12 type  4   force =    -0.01993555    1.18576923   -7.97713197
     atom   13 type  4   force =     1.00270217    0.63327281   -7.97713197
     atom   14 type  4   force =    -0.01993555    1.18576923    7.97713197
     atom   15 type  4   force =    -1.76853143    5.20228806   -0.00000000
     atom   16 type  4   force =     1.01662866   -1.54085829    0.00000000
     The local contribution  to forces
     atom    1 type  1   force =    -1.41464895    3.67953698  -14.15700270
     atom    2 type  1   force =     3.85339868    0.83381084  -14.15387838
     atom    3 type  1   force =     3.85341999    0.83381476   14.15357253
     atom    4 type  1   force =    -1.41463320    3.67948020   14.15729916
     atom    5 type  2   force =     0.82993103   -0.07634456    0.00006606
     atom    6 type  2   force =    -0.51893187    0.65225773   -0.00004916
     atom    7 type  3   force =    -0.55215369   -1.02203668   -0.00083467
     atom    8 type  3   force =    -0.55215188   -1.02203096    0.00082191
     atom    9 type  4   force =    -0.55914988   -0.98864323   -6.31152137
     atom   10 type  4   force =    -4.51947758   -0.12249996   -0.00003001
     atom   11 type  4   force =     0.49709274    0.26032032    0.00003297
     atom   12 type  4   force =    -0.52044962   -1.00957188    6.31063772
     atom   13 type  4   force =    -0.55914102   -0.98864102    6.31163514
     atom   14 type  4   force =    -0.52046247   -1.00957883   -6.31075654
     atom   15 type  4   force =     2.37509079   -3.84751371    0.00003708
     atom   16 type  4   force =    -0.05501916    0.55831237   -0.00002696
     The core correction contribution to forces
     atom    1 type  1   force =    -0.00208872   -0.00642303    0.01006174
     atom    2 type  1   force =    -0.00421272   -0.00526257    0.01010002
     atom    3 type  1   force =    -0.00421237   -0.00526251   -0.01010321
     atom    4 type  1   force =    -0.00208844   -0.00642393   -0.01005778
     atom    5 type  2   force =     0.00120977   -0.00534756   -0.00000046
     atom    6 type  2   force =    -0.00513088   -0.00191783    0.00000027
     atom    7 type  3   force =    -0.00010874   -0.00020201   -0.00000138
     atom    8 type  3   force =    -0.00010843   -0.00020198    0.00000115
     atom    9 type  4   force =     0.00439238   -0.00229161    0.01527622
     atom   10 type  4   force =     0.00736151    0.01099365    0.00000059
     atom   11 type  4   force =    -0.01243119    0.00169233   -0.00000063
     atom   12 type  4   force =    -0.00432293    0.00241856   -0.01527527
     atom   13 type  4   force =     0.00439243   -0.00229170   -0.01527681
     atom   14 type  4   force =    -0.00432315    0.00241844    0.01527566
     atom   15 type  4   force =     0.00516418    0.01218134   -0.00000062
     atom   16 type  4   force =     0.00822639   -0.00947091    0.00000062
     The Hubbard contrib.    to forces
     atom    1 type  1   force =     0.00000000    0.00000000    0.00000000
     atom    2 type  1   force =     0.00000000    0.00000000    0.00000000
     atom    3 type  1   force =     0.00000000    0.00000000    0.00000000
     atom    4 type  1   force =     0.00000000    0.00000000    0.00000000
     atom    5 type  2   force =     0.00000000    0.00000000    0.00000000
     atom    6 type  2   force =     0.00000000    0.00000000    0.00000000
     atom    7 type  3   force =     0.00000000    0.00000000    0.00000000
     atom    8 type  3   force =     0.00000000    0.00000000    0.00000000
     atom    9 type  4   force =     0.00000000    0.00000000    0.00000000
     atom   10 type  4   force =     0.00000000    0.00000000    0.00000000
     atom   11 type  4   force =     0.00000000    0.00000000    0.00000000
     atom   12 type  4   force =     0.00000000    0.00000000    0.00000000
     atom   13 type  4   force =     0.00000000    0.00000000    0.00000000
     atom   14 type  4   force =     0.00000000    0.00000000    0.00000000
     atom   15 type  4   force =     0.00000000    0.00000000    0.00000000
     atom   16 type  4   force =     0.00000000    0.00000000    0.00000000
     The SCF correction term to forces
     atom    1 type  1   force =    -0.00023777    0.00049787    0.00171106
     atom    2 type  1   force =     0.00017328   -0.00008310   -0.00152759
     atom    3 type  1   force =     0.00015250   -0.00008324    0.00185144
     atom    4 type  1   force =    -0.00025327    0.00055251   -0.00201765
     atom    5 type  2   force =     0.00004758   -0.00014142   -0.00008368
     atom    6 type  2   force =     0.00010351    0.00002636    0.00006283
     atom    7 type  3   force =    -0.00004005   -0.00006969    0.00083838
     atom    8 type  3   force =    -0.00004095   -0.00007409   -0.00082940
     atom    9 type  4   force =    -0.00010385    0.00006438   -0.00008550
     atom   10 type  4   force =    -0.00013972   -0.00037997    0.00006897
     atom   11 type  4   force =     0.00051359   -0.00029945   -0.00007592
     atom   12 type  4   force =     0.00022138    0.00000581    0.00109131
     atom   13 type  4   force =    -0.00010938    0.00005851   -0.00007264
     atom   14 type  4   force =     0.00022411    0.00000613   -0.00094296
     atom   15 type  4   force =    -0.00036669   -0.00013605   -0.00007912
     atom   16 type  4   force =    -0.00039904    0.00031950    0.00006770

     Total force =     0.161312     Total SCF correction =     0.004257

     Computing stress (Cartesian axis) and pressure

     negative rho (up, down):  2.956E-02 0.000E+00
          total   stress  (Ry/bohr**3)                   (kbar)     P=     -173.71
  -0.00107502  -0.00008741   0.00000000         -158.14      -12.86        0.00
  -0.00008741  -0.00118924   0.00000000          -12.86     -174.94        0.00
   0.00000000   0.00000000  -0.00127821            0.00        0.00     -188.03

     kinetic stress (kbar)  12612.10    -32.65      0.00
                              -32.65  12569.35      0.00
                                0.00      0.00  12469.72

     local   stress (kbar)  -5314.64  -1929.93     -0.00
                            -1929.93  -7844.02      0.00
                               -0.00      0.00  -7781.86

     nonloc. stress (kbar)   4821.20      4.86      0.00
                                4.86   4827.57      0.00
                                0.00      0.00   4857.54

     hartree stress (kbar)   7015.25    830.57      0.00
                              830.57   8103.73     -0.00
                                0.00     -0.00   7651.86

     exc-cor stress (kbar)   5008.42      0.57     -0.00
                                0.57   5009.16      0.00
                               -0.00      0.00   5012.91

     corecor stress (kbar)  -9384.09     -0.14      0.00
                               -0.14  -9384.28     -0.00
                                0.00     -0.00  -9385.83

     ewald   stress (kbar) -14916.38   1113.87     -0.00
                             1113.87 -13456.46      0.00
                               -0.00      0.00 -13012.36

     hubbard stress (kbar)      0.00      0.00      0.00
                                0.00      0.00      0.00
                                0.00      0.00      0.00

     DFT-D   stress (kbar)      0.00      0.00      0.00
                                0.00      0.00      0.00
                                0.00      0.00      0.00

     XDM     stress (kbar)      0.00      0.00      0.00
                                0.00      0.00      0.00
                                0.00      0.00      0.00

     dft-nl  stress (kbar)      0.00      0.00      0.00
                                0.00      0.00      0.00
                                0.00      0.00      0.00

     TS-vdW  stress (kbar)      0.00      0.00      0.00
                                0.00      0.00      0.00
                                0.00      0.00      0.00

[...]

                                0.00      0.00      0.00

     Writing all to output data dir new_calculations/myprefix.save/

     General routines

     Parallel routines

     PAW routines

   This run was terminated on:   5:14: 1  21May2023

   JOB DONE.