     Program PWSCF v.7.0 starts on 20May2023 at 13:50:51

     Reading input from espresso_11376.pwi
Warning: card &CELL ignored
Warning: card / ignored

     Current dimensions of program PWSCF are:
     Max number of different atomic species (ntypx) = 10
     Max number of k-points (npk) =  40000
     Max angular momentum in pseudopotentials (lmaxx) =  4

     gamma-point specific algorithms are used
     Message from routine setup:
     using ibrav=0 with symmetry is DISCOURAGED, use correct ibrav instead

     Subspace diagonalization in iterative solution of the eigenvalue problem:
     a serial algorithm will be used

     Using Slab Decomposition

     bravais-lattice index     =            0
     lattice parameter (alat)  =       7.0061  a.u.
     unit-cell volume          =    2058.5100 (a.u.)^3
     number of atoms/cell      =           14
     number of atomic types    =            3
     number of electrons       =       122.00
     number of Kohn-Sham states=           73
     kinetic-energy cutoff     =      30.0000  Ry
     charge density cutoff     =     240.0000  Ry
     scf convergence threshold =      1.0E-06
     mixing beta               =       0.7000
     number of iterations used =            8  plain     mixing
     Exchange-correlation= SLA  PW   PBE  PBE
                           (   1   4   3   4   0   0   0)

     celldm(1)=   7.006073  celldm(2)=   0.000000  celldm(3)=   0.000000
     celldm(4)=   0.000000  celldm(5)=   0.000000  celldm(6)=   0.000000

     crystal axes: (cart. coord. in units of alat)
               a(1) = (   1.000000   0.000000   0.000000 )
               a(2) = (   0.000000   2.433117   0.000000 )
               a(3) = (  -0.500000  -0.617282   2.460176 )

     reciprocal axes: (cart. coord. in units 2 pi/alat)
               b(1) = (  1.000000  0.000000  0.203238 )
               b(2) = (  0.000000  0.410995  0.103123 )
               b(3) = (  0.000000  0.000000  0.406475 )

     PseudoPot. # 1 for Rb read from file:
     /home/pragov/projects/rrg-bengioy-ad/pragov/crystal_structure_design/SSSP/Rb_ONCV_PBE-1.0.oncvpsp.upf
     MD5 check sum: 55a5172d6bfbce6759a58e35d43f6aa9
     Pseudo is Norm-conserving, Zval =  9.0
     Generated using ONCVPSP code by D. R. Hamann
     Using radial grid of 2308 points,  6 beta functions with:
                l(1) =   0
                l(2) =   0
                l(3) =   1
                l(4) =   1
                l(5) =   2
                l(6) =   2

     PseudoPot. # 2 for V  read from file:
     /home/pragov/projects/rrg-bengioy-ad/pragov/crystal_structure_design/SSSP/v_pbe_v1.4.uspp.F.UPF
     MD5 check sum: 22b79981416ebb76fdaf5b1b8640f6fb
     Pseudo is Ultrasoft + core correction, Zval = 13.0
     Generated by new atomic code, or converted to UPF format
     Using radial grid of  853 points,  6 beta functions with:
                l(1) =   0
                l(2) =   0
                l(3) =   1
                l(4) =   1
                l(5) =   2
                l(6) =   2
     Q(r) pseudized with  8 coefficients,  rinner =    1.100   1.100   1.100
                                                       1.100   1.100

     PseudoPot. # 3 for Se read from file:
     /home/pragov/projects/rrg-bengioy-ad/pragov/crystal_structure_design/SSSP/Se_pbe_v1.uspp.F.UPF
     MD5 check sum: 1b3568f3a8ae88f9a2a0ad0698632c85
     Pseudo is Ultrasoft + core correction, Zval =  6.0
     Generated by new atomic code, or converted to UPF format
     Using radial grid of  877 points,  6 beta functions with:
                l(1) =   0
                l(2) =   0
                l(3) =   1
                l(4) =   1
                l(5) =   2
                l(6) =   2
     Q(r) pseudized with  8 coefficients,  rinner =    1.300   1.300   1.300
                                                       1.300   1.300

     atomic species   valence    mass     pseudopotential
        Rb             9.00    85.46780     Rb( 1.00)
        V             13.00    50.94150     V ( 1.00)
        Se             6.00    78.97100     Se( 1.00)

      4 Sym. Ops., with inversion, found

                                    s                        frac. trans.

      isym =  1     identity

 cryst.   s( 1) = (     1          0          0      )
                  (     0          1          0      )
                  (     0          0          1      )

 cart.    s( 1) = (  1.0000000  0.0000000  0.0000000 )
                  (  0.0000000  1.0000000 -0.0000000 )
                  (  0.0000000  0.0000000  1.0000000 )

      isym =  2     180 deg rotation - cart. axis [1,0,0]

[...]

      isym =  3     inversion

[...]

      isym =  4     inv. 180 deg rotation - cart. axis [1,0,0]

 cryst.   s( 4) = (    -1          0          0      )
                  (     0          1          0      )
                  (     1          0          1      )

 cart.    s( 4) = ( -1.0000000  0.0000000  0.0000000 )
                  (  0.0000000  1.0000000 -0.0000000 )
                  (  0.0000000  0.0000000  1.0000000 )

   Cartesian axes

     site n.     atom                  positions (alat units)
         1           Rb  tau(   1) = (   0.5000000   1.2165584   0.0000000  )
         2           V   tau(   2) = (   0.0000000   0.0000000   0.0000000  )
         3           V   tau(   3) = (   0.0000005  -0.4069969   1.7157978  )
         4           V   tau(   4) = (   0.4999995   2.2228315   0.7443778  )
         5           V   tau(   5) = (   0.0000000   1.2360404   1.4155161  )
         6           V   tau(   6) = (   0.5000000   0.5797942   1.0446594  )
         7           Se  tau(   7) = (   0.5000005   0.3273349   0.3544399  )
         8           Se  tau(   8) = (  -0.0000005   1.4884998   2.1057356  )
         9           Se  tau(   9) = (   0.0000000   1.8952023   0.4321495  )
        10           Se  tau(  10) = (   0.5000000  -0.0793676   2.0280260  )
        11           Se  tau(  11) = (   0.0000005   0.9830127   0.8048194  )
        12           Se  tau(  12) = (   0.4999995   0.8328219   1.6553562  )
        13           Se  tau(  13) = (   0.0000000   0.0812913   1.1772629  )
        14           Se  tau(  14) = (   0.5000000   1.7345434   1.2829127  )

   Crystallographic axes

     site n.     atom                  positions (cryst. coord.)
         1           Rb  tau(   1) = (  0.5000000  0.5000000  0.0000000  )
         2           V   tau(   2) = (  0.0000000  0.0000000  0.0000000  )
         3           V   tau(   3) = (  0.3487150  0.0096640  0.6974290  )
         4           V   tau(   4) = (  0.6512850  0.9903360  0.3025710  )
         5           V   tau(   5) = (  0.2876860  0.6539790  0.5753720  )
         6           V   tau(   6) = (  0.7123140  0.3460210  0.4246280  )
         7           Se  tau(   7) = (  0.5720360  0.1710840  0.1440710  )
         8           Se  tau(   8) = (  0.4279640  0.8289160  0.8559290  )
         9           Se  tau(   9) = (  0.0878290  0.8234840  0.1756580  )
        10           Se  tau(  10) = (  0.9121710  0.1765160  0.8243420  )
        11           Se  tau(  11) = (  0.1635700  0.4870090  0.3271390  )
        12           Se  tau(  12) = (  0.8364300  0.5129910  0.6728610  )
        13           Se  tau(  13) = (  0.2392640  0.1548130  0.4785280  )
        14           Se  tau(  14) = (  0.7607360  0.8451870  0.5214720  )

     number of k points=     1  Methfessel-Paxton smearing, width (Ry)=  0.0010
                       cart. coord. in units 2pi/alat
        k(    1) = (   0.0000000   0.0000000   0.0000000), wk =   2.0000000

                       cryst. coord.
        k(    1) = (   0.0000000   0.0000000   0.0000000), wk =   2.0000000

     Check: negative core charge=   -0.000002

     Initial potential from superposition of free atoms

     starting charge     121.9685, renormalised to     122.0000

     negative rho (up, down):  4.234E-03 0.000E+00
     Starting wfcs are   87 randomized atomic wfcs

     Self-consistent Calculation

     iteration #  1     ecut=    30.00 Ry     beta= 0.70
     Davidson diagonalization with overlap

     ethr =  1.00E-02,  avg # of iterations =  2.0

     Threshold (ethr) on eigenvalues was too large:
     Diagonalizing with lowered threshold

     Davidson diagonalization with overlap

[...]

     negative rho (up, down):  5.447E-03 0.000E+00

     total energy              =   -1122.50021424 Ry
     estimated scf accuracy    <       0.81311292 Ry

[...]

     total energy              =   -1122.92656978 Ry
     estimated scf accuracy    <       0.00000108 Ry

     iteration # 32     ecut=    30.00 Ry     beta= 0.70
     Davidson diagonalization with overlap

     ethr =  8.82E-10,  avg # of iterations =  1.0

[...]

     End of self-consistent calculation

          k = 0.0000 0.0000 0.0000 (  2842 PWs)   bands (ev):

   -55.8636 -55.8631 -55.7637 -55.7598 -55.6016 -29.9158 -29.9139 -29.8404
   -29.7838 -29.7650 -29.6062 -29.6047 -29.6003 -29.5996 -29.5325 -29.5232
   -29.5223 -29.5098 -29.3551 -29.1655 -18.7648  -5.5662  -4.7977  -4.7120
    -4.6554  -4.5260  -4.1997  -4.1038  -3.9512  -2.8633  -2.8146  -2.6152
     3.4220   3.4864   3.8278   3.9065   4.1290   4.4200   4.4729   5.1533
     5.2230   5.4155   5.6029   5.6778   5.7840   5.9733   6.0884   6.1911
     6.2942   6.3293   6.4655   6.5194   6.8700   7.7983   7.9619   8.0319
     8.1999   8.4457   8.6031   8.6191   8.7394   8.7422   8.8409   9.1693
     9.2493   9.2860   9.3506   9.4732   9.6854   9.7952   9.9922  10.0847
    10.4601

     occupation numbers
     1.0000   1.0000   1.0000   1.0000   1.0000   1.0000   1.0000   1.0000
     1.0000   1.0000   1.0000   1.0000   1.0000   1.0000   1.0000   1.0000
     1.0000   1.0000   1.0000   1.0000   1.0000   1.0000   1.0000   1.0000
     1.0000   1.0000   1.0000   1.0000   1.0000   1.0000   1.0000   1.0000
     1.0000   1.0000   1.0000   1.0000   1.0000   1.0000   1.0000   1.0000
     1.0000   1.0000   1.0000   1.0000   1.0000   1.0000   1.0000   1.0000
     1.0000   1.0000   1.0000   1.0000   1.0000   1.0000   1.0000   1.0000
     1.0000   1.0000   1.0000   1.0000   0.5856   0.4144  -0.0000  -0.0000
    -0.0000  -0.0000  -0.0000  -0.0000  -0.0000  -0.0000  -0.0000  -0.0000
    -0.0000

     the Fermi energy is     8.7408 ev

!    total energy              =   -1122.92656906 Ry
     estimated scf accuracy    <       0.00000081 Ry
     smearing contrib. (-TS)   =      -0.00054684 Ry
     internal energy E=F+TS    =   -1122.92602222 Ry

     The total energy is F=E-TS. E is the sum of the following terms:
     one-electron contribution =    -557.10845501 Ry
     hartree contribution      =     321.17829524 Ry
     xc contribution           =    -343.59755189 Ry
     ewald contribution        =    -543.39831056 Ry

     convergence has been achieved in  32 iterations

     negative rho (up, down):  5.626E-03 0.000E+00

     Forces acting on atoms (cartesian axes, Ry/au):

     atom    1 type  1   force =     0.00000000    0.00000000   -0.00000000
     atom    2 type  2   force =     0.00000000    0.00000000    0.00000000
     atom    3 type  2   force =     0.00000000   -0.04200778    0.04922153
     atom    4 type  2   force =     0.00000000    0.04200778   -0.04922153
     atom    5 type  2   force =    -0.00000000    0.02183957    0.00290636
     atom    6 type  2   force =     0.00000000   -0.02183957   -0.00290636
     atom    7 type  3   force =     0.00000000   -0.06330757    0.01258251
     atom    8 type  3   force =     0.00000000    0.06330757   -0.01258251
     atom    9 type  3   force =     0.00000000    0.04440194    0.03942652
     atom   10 type  3   force =     0.00000000   -0.04440194   -0.03942652
     atom   11 type  3   force =     0.00000000   -0.01242033    0.04075704
     atom   12 type  3   force =     0.00000000    0.01242033   -0.04075704
     atom   13 type  3   force =     0.00000000    0.02066795   -0.03724687
     atom   14 type  3   force =     0.00000000   -0.02066795    0.03724687
     The non-local contrib.  to forces
     atom    1 type  1   force =     0.00000000    0.00000000    0.00000000
     atom    2 type  2   force =     0.00000000    0.00000000    0.00000000
     atom    3 type  2   force =     0.00000000    0.04220954    0.05843173
     atom    4 type  2   force =     0.00000000   -0.04220954   -0.05843173
     atom    5 type  2   force =     0.00000000   -0.03670957    0.05437168
     atom    6 type  2   force =     0.00000000    0.03670957   -0.05437168
     atom    7 type  3   force =     0.00000000   -0.10728069    0.04413306
     atom    8 type  3   force =     0.00000000    0.10728069   -0.04413306
     atom    9 type  3   force =     0.00000000    0.07214122   -0.04174327
     atom   10 type  3   force =     0.00000000   -0.07214122    0.04174327
     atom   11 type  3   force =     0.00000000   -0.03107032    0.09984506
     atom   12 type  3   force =     0.00000000    0.03107032   -0.09984506
     atom   13 type  3   force =     0.00000000    0.03677262   -0.04668216
     atom   14 type  3   force =     0.00000000   -0.03677262    0.04668216
     The ionic contribution  to forces
     atom    1 type  1   force =     0.00000000    0.00000000   -0.00000000
     atom    2 type  2   force =     0.00000000    0.00000000   -0.00000000
     atom    3 type  2   force =    -0.00001032    8.07611819    1.10907366
     atom    4 type  2   force =     0.00001032   -8.07611819   -1.10907366
     atom    5 type  2   force =    -0.00001059   -3.37040374    0.68535457
     atom    6 type  2   force =     0.00001059    3.37040374   -0.68535457
     atom    7 type  3   force =    -0.00000147    9.31936704   -2.83926573
     atom    8 type  3   force =     0.00000147   -9.31936704    2.83926573
     atom    9 type  3   force =    -0.00000911  -11.35629658   -3.32384241
     atom   10 type  3   force =     0.00000911   11.35629658    3.32384241
     atom   11 type  3   force =    -0.00000665    4.77753308  -10.14449787
     atom   12 type  3   force =     0.00000665   -4.77753308   10.14449787
     atom   13 type  3   force =    -0.00000729    1.64813261    4.45518139
     atom   14 type  3   force =     0.00000729   -1.64813261   -4.45518139
     The local contribution  to forces
     atom    1 type  1   force =     0.00000012    0.00028795    0.00010261
     atom    2 type  2   force =     0.00000002   -0.00054690    0.00064525
     atom    3 type  2   force =    -0.00000508   -8.15990343   -1.11656348
     atom    4 type  2   force =     0.00000238    8.15904900    1.11601220
     atom    5 type  2   force =     0.00000296    3.42658849   -0.73445036
     atom    6 type  2   force =    -0.00000558   -3.42647834    0.73431838
     atom    7 type  3   force =     0.00001075   -9.28643529    2.81244078
     atom    8 type  3   force =    -0.00000886    9.28576278   -2.81222837
     atom    9 type  3   force =     0.00000665   11.33468369    3.39988066
     atom   10 type  3   force =    -0.00000587  -11.33438437   -3.39954200
     atom   11 type  3   force =     0.00000835   -4.76171016   10.09541677
     atom   12 type  3   force =    -0.00000806    4.76231234  -10.09526981
     atom   13 type  3   force =     0.00000354   -1.65893927   -4.45115294
     atom   14 type  3   force =    -0.00000283    1.65850969    4.45030670
     The core correction contribution to forces
     atom    1 type  1   force =     0.00000000    0.00000000    0.00000000
     atom    2 type  2   force =    -0.00000015   -0.00000076   -0.00000012
     atom    3 type  2   force =     0.00000036   -0.00095362   -0.00227207
     atom    4 type  2   force =    -0.00000037    0.00095595    0.00227487
     atom    5 type  2   force =     0.00000001    0.00163416   -0.00285787
     atom    6 type  2   force =    -0.00000022   -0.00163360    0.00285745
     atom    7 type  3   force =    -0.00000692    0.01102642   -0.00430685
     atom    8 type  3   force =     0.00000717   -0.01103103    0.00430566
     atom    9 type  3   force =     0.00001019   -0.00625599    0.00537240
     atom   10 type  3   force =    -0.00001028    0.00625487   -0.00537678
     atom   11 type  3   force =    -0.00000815    0.00302185   -0.00947358
     atom   12 type  3   force =     0.00000845   -0.00302162    0.00947722
     atom   13 type  3   force =    -0.00000737   -0.00503370    0.00502156
     atom   14 type  3   force =     0.00000754    0.00503582   -0.00502305
     The Hubbard contrib.    to forces
     atom    1 type  1   force =     0.00000000    0.00000000    0.00000000
     atom    2 type  2   force =     0.00000000    0.00000000    0.00000000
     atom    3 type  2   force =     0.00000000    0.00000000    0.00000000
     atom    4 type  2   force =     0.00000000    0.00000000    0.00000000
     atom    5 type  2   force =     0.00000000    0.00000000    0.00000000
     atom    6 type  2   force =     0.00000000    0.00000000    0.00000000
     atom    7 type  3   force =     0.00000000    0.00000000    0.00000000
     atom    8 type  3   force =     0.00000000    0.00000000    0.00000000
     atom    9 type  3   force =     0.00000000    0.00000000    0.00000000
     atom   10 type  3   force =     0.00000000    0.00000000    0.00000000
     atom   11 type  3   force =     0.00000000    0.00000000    0.00000000
     atom   12 type  3   force =     0.00000000    0.00000000    0.00000000
     atom   13 type  3   force =     0.00000000    0.00000000    0.00000000
     atom   14 type  3   force =     0.00000000    0.00000000    0.00000000
     The SCF correction term to forces
     atom    1 type  1   force =    -0.00000015   -0.00028254   -0.00010255
     atom    2 type  2   force =     0.00000043    0.00054605   -0.00063502
     atom    3 type  2   force =     0.00001285    0.00053182    0.00056957
     atom    4 type  2   force =    -0.00001249    0.00034082    0.00001467
     atom    5 type  2   force =     0.00000795    0.00072173    0.00048585
     atom    6 type  2   force =    -0.00000673   -0.00084944   -0.00035842
     atom    7 type  3   force =    -0.00000741   -0.00001530   -0.00042426
     atom    8 type  3   force =     0.00000670    0.00063193    0.00020200
     atom    9 type  3   force =     0.00000172    0.00013666   -0.00025572
     atom   10 type  3   force =    -0.00000172   -0.00042071   -0.00010828
     atom   11 type  3   force =    -0.00000021   -0.00018462   -0.00051727
     atom   12 type  3   force =     0.00000075   -0.00039749    0.00039880
     atom   13 type  3   force =     0.00000499   -0.00026584    0.00035707
     atom   14 type  3   force =    -0.00000471    0.00069024    0.00043423

     Total force =     0.178857     Total SCF correction =     0.002345

     Computing stress (Cartesian axis) and pressure

     negative rho (up, down):  5.626E-03 0.000E+00
          total   stress  (Ry/bohr**3)                   (kbar)     P=      -12.91
   0.00080222   0.00000000  -0.00000000          118.01        0.00       -0.00
   0.00000000  -0.00063183  -0.00005281            0.00      -92.94       -7.77
  -0.00000000  -0.00005281  -0.00043376           -0.00       -7.77      -63.81

     kinetic stress (kbar)  12070.70      0.00     -0.00
                                0.00  11820.30     45.30
                               -0.00     45.30  11709.14

     local   stress (kbar) -15128.72      0.10      0.04
                                0.10   1039.71  -2277.68
                                0.04  -2277.68  -3917.20

     nonloc. stress (kbar)   3025.64      0.00     -0.00
                                0.00   2945.55     10.72
                               -0.00     10.72   2932.45

     hartree stress (kbar)  11938.10     -0.03     -0.01
                               -0.03   4301.39    993.30
                               -0.01    993.30   6712.53

     exc-cor stress (kbar)  11731.67     -0.00     -0.00
                               -0.00  11733.22      1.03
                               -0.00      1.03  11730.61

     corecor stress (kbar) -15291.70      0.00      0.00
                                0.00 -15281.49     -1.69
                                0.00     -1.69 -15278.36

     ewald   stress (kbar)  -8227.68     -0.00     -0.00
                               -0.00 -16651.63   1221.26
                               -0.00   1221.26 -13952.97

     hubbard stress (kbar)      0.00      0.00      0.00
                                0.00      0.00      0.00
                                0.00      0.00      0.00

     DFT-D   stress (kbar)      0.00      0.00      0.00
                                0.00      0.00      0.00
                                0.00      0.00      0.00

     XDM     stress (kbar)      0.00      0.00      0.00
                                0.00      0.00      0.00
                                0.00      0.00      0.00

     dft-nl  stress (kbar)      0.00      0.00      0.00
                                0.00      0.00      0.00
                                0.00      0.00      0.00

     TS-vdW  stress (kbar)      0.00      0.00      0.00
                                0.00      0.00      0.00
                                0.00      0.00      0.00

[...]

                                0.00      0.00      0.00

     Writing all to output data dir new_calculations/myprefix.save/

     General routines

     Parallel routines

   This run was terminated on:  13:51:20  20May2023

   JOB DONE.