     Program PWSCF v.7.0 starts on 20May2023 at  6:43:45

     Reading input from espresso_10204.pwi
Warning: card &CELL ignored
Warning: card / ignored

     Current dimensions of program PWSCF are:
     Max number of different atomic species (ntypx) = 10
     Max number of k-points (npk) =  40000
     Max angular momentum in pseudopotentials (lmaxx) =  4

     gamma-point specific algorithms are used
     Message from routine setup:
     using ibrav=0 with symmetry is DISCOURAGED, use correct ibrav instead

     Subspace diagonalization in iterative solution of the eigenvalue problem:
     a serial algorithm will be used

     Using Slab Decomposition

     bravais-lattice index     =            0
     lattice parameter (alat)  =      13.7394  a.u.
     unit-cell volume          =     687.6618 (a.u.)^3
     number of atoms/cell      =            5
     number of atomic types    =            3
     number of electrons       =        61.00
     number of Kohn-Sham states=           37
     kinetic-energy cutoff     =      30.0000  Ry
     charge density cutoff     =     240.0000  Ry
     scf convergence threshold =      1.0E-06
     mixing beta               =       0.7000
     number of iterations used =            8  plain     mixing
     Exchange-correlation= SLA  PW   PBE  PBE
                           (   1   4   3   4   0   0   0)

     celldm(1)=  13.739430  celldm(2)=   0.000000  celldm(3)=   0.000000
     celldm(4)=   0.000000  celldm(5)=   0.000000  celldm(6)=   0.000000

     crystal axes: (cart. coord. in units of alat)
               a(1) = (   1.000000   0.000000   0.000000 )
               a(2) = (   0.713560   0.700594   0.000000 )
               a(3) = (  -0.856780  -0.350297   0.378444 )

     reciprocal axes: (cart. coord. in units 2 pi/alat)
               b(1) = (  1.000000 -1.018506  1.321198 )
               b(2) = (  0.000000  1.427359  1.321198 )
               b(3) = (  0.000000  0.000000  2.642396 )

     PseudoPot. # 1 for Tl read from file:
     /home/pragov/projects/rrg-bengioy-ad/pragov/crystal_structure_design/SSSP/Tl_pbe_v1.2.uspp.F.UPF
     MD5 check sum: b76cf1f7e72655a2b2c53cf6385d7059
     Pseudo is Ultrasoft + core correction, Zval = 13.0
     Generated by new atomic code, or converted to UPF format
     Using radial grid of  899 points,  6 beta functions with:
                l(1) =   0
                l(2) =   0
                l(3) =   1
                l(4) =   1
                l(5) =   2
                l(6) =   2
     Q(r) pseudized with  6 coefficients,  rinner =    1.100   1.100   1.100
                                                       1.100   1.100

     PseudoPot. # 2 for Ni read from file:
     /home/pragov/projects/rrg-bengioy-ad/pragov/crystal_structure_design/SSSP/ni_pbe_v1.4.uspp.F.UPF
     MD5 check sum: 1ee80287db30b12d2bc1f57a5b5d6409
     Pseudo is Ultrasoft + core correction, Zval = 18.0
     Generated by new atomic code, or converted to UPF format
     Using radial grid of  865 points,  6 beta functions with:
                l(1) =   0
                l(2) =   0
                l(3) =   1
                l(4) =   1
                l(5) =   2
                l(6) =   2
     Q(r) pseudized with 10 coefficients,  rinner =    0.980   0.980   0.980
                                                       0.980   0.980

     PseudoPot. # 3 for Se read from file:
     /home/pragov/projects/rrg-bengioy-ad/pragov/crystal_structure_design/SSSP/Se_pbe_v1.uspp.F.UPF
     MD5 check sum: 1b3568f3a8ae88f9a2a0ad0698632c85
     Pseudo is Ultrasoft + core correction, Zval =  6.0
     Generated by new atomic code, or converted to UPF format
     Using radial grid of  877 points,  6 beta functions with:
                l(1) =   0
                l(2) =   0
                l(3) =   1
                l(4) =   1
                l(5) =   2
                l(6) =   2
     Q(r) pseudized with  8 coefficients,  rinner =    1.300   1.300   1.300
                                                       1.300   1.300

     atomic species   valence    mass     pseudopotential
        Tl            13.00   204.38000     Tl( 1.00)
        Ni            18.00    58.69340     Ni( 1.00)
        Se             6.00    78.97100     Se( 1.00)

      4 Sym. Ops., with inversion, found

                                    s                        frac. trans.

      isym =  1     identity

 cryst.   s( 1) = (     1          0          0      )
                  (     0          1          0      )
                  (     0          0          1      )

 cart.    s( 1) = (  1.0000000 -0.0000000  0.0000000 )
                  (  0.0000000  1.0000000  0.0000000 )
                  (  0.0000000  0.0000000  1.0000000 )

      isym =  2     180 deg rotation - cart. axis [0,0,1]

[...]

      isym =  3     inversion

[...]

      isym =  4     inv. 180 deg rotation - cart. axis [0,0,1]

 cryst.   s( 4) = (     1          0          0      )
                  (     0          1          0      )
                  (    -1         -1         -1      )

 cart.    s( 4) = (  1.0000000 -0.0000000 -0.0000000 )
                  (  0.0000000  1.0000000 -0.0000000 )
                  (  0.0000000  0.0000000 -1.0000000 )

   Cartesian axes

     site n.     atom                  positions (alat units)
         1           Tl  tau(   1) = (   0.0000000   0.0000000   0.0000000  )
         2           Ni  tau(   2) = (   0.5000000   0.0000000   0.1892222  )
         3           Ni  tau(   3) = (   0.3567799   0.3502972   0.1892222  )
         4           Se  tau(   4) = (   1.1125441   0.4548672   0.0000000  )
         5           Se  tau(   5) = (   0.6010156   0.2457272   0.0000000  )

   Crystallographic axes

     site n.     atom                  positions (cryst. coord.)
         1           Tl  tau(   1) = (  0.0000000  0.0000000  0.0000000  )
         2           Ni  tau(   2) = (  0.7500000  0.2500000  0.5000000  )
         3           Ni  tau(   3) = (  0.2500000  0.7500000  0.5000000  )
         4           Se  tau(   4) = (  0.6492590  0.6492590  0.0000000  )
         5           Se  tau(   5) = (  0.3507410  0.3507410  0.0000000  )

     number of k points=     1  Methfessel-Paxton smearing, width (Ry)=  0.0010
                       cart. coord. in units 2pi/alat
        k(    1) = (   0.0000000   0.0000000   0.0000000), wk =   2.0000000

                       cryst. coord.
        k(    1) = (   0.0000000   0.0000000   0.0000000), wk =   2.0000000

     Check: negative core charge=   -0.000005

     Initial potential from superposition of free atoms

     starting charge      56.9950, renormalised to      61.0000

     negative rho (up, down):  5.376E-02 0.000E+00
     Starting wfcs are   43 randomized atomic wfcs

     Self-consistent Calculation

     iteration #  1     ecut=    30.00 Ry     beta= 0.70
     Davidson diagonalization with overlap

     ethr =  1.00E-02,  avg # of iterations =  4.0

     negative rho (up, down):  4.629E-02 0.000E+00

     total energy              =    -875.23731935 Ry
     estimated scf accuracy    <      59.93904902 Ry

[...]

     total energy              =    -917.73128619 Ry
     estimated scf accuracy    <       0.00000869 Ry

     iteration # 36     ecut=    30.00 Ry     beta= 0.70
     Davidson diagonalization with overlap

     ethr =  1.91E-09,  avg # of iterations =  2.0

[...]

     End of self-consistent calculation

          k = 0.0000 0.0000 0.0000 (   938 PWs)   bands (ev):

   -92.9412 -92.9084 -53.6379 -53.4902 -53.1088 -52.9613 -52.9389 -52.8334
    -4.1221  -3.0601  -2.5309  -2.3235  -2.2790  -2.2735  -2.2245   2.3456
     5.8385   6.0573   6.2840   6.3341   6.8748   6.9093   7.8891   8.7976
     8.8681   9.4816   9.5695   9.6683  10.5651  11.0003  11.0094  11.0122
    11.9003  14.4872  14.9566  14.9857  15.0548

     occupation numbers
     1.0000   1.0000   1.0000   1.0000   1.0000   1.0000   1.0000   1.0000
     1.0000   1.0000   1.0000   1.0000   1.0000   1.0000   1.0000   1.0000
     1.0000   1.0000   1.0000   1.0000   1.0000   1.0000   1.0000   1.0000
     1.0000   1.0000   1.0000   1.0000   1.0000   0.8878   0.3834   0.2288
    -0.0000  -0.0000  -0.0000  -0.0000  -0.0000

     the Fermi energy is    11.0075 ev

!    total energy              =    -917.73128681 Ry
     estimated scf accuracy    <       0.00000014 Ry
     smearing contrib. (-TS)   =      -0.00055000 Ry
     internal energy E=F+TS    =    -917.73073681 Ry

     The total energy is F=E-TS. E is the sum of the following terms:
     one-electron contribution =    -736.66384122 Ry
     hartree contribution      =     400.59119045 Ry
     xc contribution           =    -192.86262662 Ry
     ewald contribution        =    -388.79545943 Ry

     convergence has been achieved in  36 iterations

     negative rho (up, down):  5.135E-02 0.000E+00

     Forces acting on atoms (cartesian axes, Ry/au):

     atom    1 type  1   force =     0.00000000    0.00000000    0.00000000
     atom    2 type  2   force =     0.00000000    0.00000000   -0.00517694
     atom    3 type  2   force =     0.00000000    0.00000000    0.00517694
     atom    4 type  3   force =    -0.02332415   -0.00132218    0.00000000
     atom    5 type  3   force =     0.02332415    0.00132218   -0.00000000
     The non-local contrib.  to forces
     atom    1 type  1   force =     0.00000000    0.00000000    0.00000000
     atom    2 type  2   force =     0.00000000    0.00000000   -0.05577764
     atom    3 type  2   force =     0.00000000    0.00000000    0.05577764
     atom    4 type  3   force =     0.12672071    0.07082397   -0.00000000
     atom    5 type  3   force =    -0.12672071   -0.07082397    0.00000000
     The ionic contribution  to forces
     atom    1 type  1   force =     0.00000000    0.00000000    0.00000000
     atom    2 type  2   force =     0.00000000    0.00000000   -0.00000000
     atom    3 type  2   force =    -0.00000000   -0.00000000   -0.00000000
     atom    4 type  3   force =   -18.03440541   -7.37342473    0.00000000
     atom    5 type  3   force =    18.03440541    7.37342473   -0.00000000
     The local contribution  to forces
     atom    1 type  1   force =    -0.00011664   -0.00004312    0.00001536
     atom    2 type  2   force =    -0.01151131    0.00933224    0.04931187
     atom    3 type  2   force =     0.01185831   -0.00915958   -0.04930266
     atom    4 type  3   force =    17.89747679    7.30869782    0.00091216
     atom    5 type  3   force =   -17.89749627   -7.30867159   -0.00089210
     The core correction contribution to forces
     atom    1 type  1   force =     0.00000321    0.00000216    0.00000028
     atom    2 type  2   force =    -0.00037339    0.00027176    0.00142927
     atom    3 type  2   force =     0.00037427   -0.00027063   -0.00142874
     atom    4 type  3   force =    -0.01333404   -0.00747463   -0.00035462
     atom    5 type  3   force =     0.01332908    0.00747505    0.00035683
     The Hubbard contrib.    to forces
     atom    1 type  1   force =     0.00000000    0.00000000    0.00000000
     atom    2 type  2   force =     0.00000000    0.00000000    0.00000000
     atom    3 type  2   force =     0.00000000    0.00000000    0.00000000
     atom    4 type  3   force =     0.00000000    0.00000000    0.00000000
     atom    5 type  3   force =     0.00000000    0.00000000    0.00000000
     The SCF correction term to forces
     atom    1 type  1   force =     0.00015704    0.00005934   -0.00001396
     atom    2 type  2   force =    -0.00027473   -0.00003252   -0.00012977
     atom    3 type  2   force =    -0.00019585   -0.00018147    0.00014138
     atom    4 type  3   force =     0.00019723    0.00005948   -0.00001419
     atom    5 type  3   force =    -0.00021393   -0.00007793    0.00000989

     Total force =     0.033840     Total SCF correction =     0.000555

     Computing stress (Cartesian axis) and pressure

     negative rho (up, down):  5.135E-02 0.000E+00
          total   stress  (Ry/bohr**3)                   (kbar)     P=     -485.67
  -0.00277261  -0.00026324   0.00000000         -407.87      -38.72        0.00
  -0.00026324  -0.00318979   0.00000000          -38.72     -469.23        0.00
   0.00000000   0.00000000  -0.00394218            0.00        0.00     -579.91

     kinetic stress (kbar)  17477.57    -30.35     -0.00
                              -30.35  17414.37     -0.00
                               -0.00     -0.00  17432.51

     local   stress (kbar)  31315.65  35959.12      5.52
                            35959.12 -41417.12    -46.14
                                5.52    -46.14 -56340.29

     nonloc. stress (kbar)  10826.55   -213.29     -0.00
                             -213.29  10909.27     -0.00
                               -0.00     -0.00  10995.85

     hartree stress (kbar)   3089.41 -17111.05     -2.40
                           -17111.05  37760.05     14.15
                               -2.40     14.15  44845.28

     exc-cor stress (kbar)  14336.19     -2.04     -0.30
                               -2.04  14336.71      0.21
                               -0.30      0.21  14337.22

     corecor stress (kbar) -21867.63      4.37      0.35
                                4.37 -21867.99     -0.52
                                0.35     -0.52 -21869.23

     ewald   stress (kbar) -55585.61 -18645.49      0.00
                           -18645.49 -17604.52      0.00
                                0.00      0.00  -9981.26

     hubbard stress (kbar)      0.00      0.00      0.00
                                0.00      0.00      0.00
                                0.00      0.00      0.00

     DFT-D   stress (kbar)      0.00      0.00      0.00
                                0.00      0.00      0.00
                                0.00      0.00      0.00

     XDM     stress (kbar)      0.00      0.00      0.00
                                0.00      0.00      0.00
                                0.00      0.00      0.00

     dft-nl  stress (kbar)      0.00      0.00      0.00
                                0.00      0.00      0.00
                                0.00      0.00      0.00

     TS-vdW  stress (kbar)      0.00      0.00      0.00
                                0.00      0.00      0.00
                                0.00      0.00      0.00

[...]

                                0.00      0.00      0.00

     Writing all to output data dir new_calculations/myprefix.save/

     General routines

     Parallel routines

   This run was terminated on:   6:44:12  20May2023

   JOB DONE.