     Program PWSCF v.7.0 starts on 21May2023 at  2:46:23

     Reading input from espresso_11772.pwi
Warning: card &CELL ignored
Warning: card / ignored

     Current dimensions of program PWSCF are:
     Max number of different atomic species (ntypx) = 10
     Max number of k-points (npk) =  40000
     Max angular momentum in pseudopotentials (lmaxx) =  4

     gamma-point specific algorithms are used
     Message from routine setup:
     using ibrav=0 with symmetry is DISCOURAGED, use correct ibrav instead

     Subspace diagonalization in iterative solution of the eigenvalue problem:
     a serial algorithm will be used

     Using Slab Decomposition

     bravais-lattice index     =            0
     lattice parameter (alat)  =       8.5423  a.u.
     unit-cell volume          =    1667.9612 (a.u.)^3
     number of atoms/cell      =           12
     number of atomic types    =            2
     number of electrons       =       152.00
     number of Kohn-Sham states=           91
     kinetic-energy cutoff     =      30.0000  Ry
     charge density cutoff     =     240.0000  Ry
     scf convergence threshold =      1.0E-06
     mixing beta               =       0.7000
     number of iterations used =            8  plain     mixing
     Exchange-correlation=  SLA  PW   PBX  PBC
                           (   1   4   3   4   0   0   0)

     celldm(1)=   8.542269  celldm(2)=   0.000000  celldm(3)=   0.000000
     celldm(4)=   0.000000  celldm(5)=   0.000000  celldm(6)=   0.000000

     crystal axes: (cart. coord. in units of alat)
               a(1) = (   1.000000   0.000000   0.000000 )
               a(2) = (   0.000000   1.465442   0.000000 )
               a(3) = (   0.000000   0.000000   1.825986 )

     reciprocal axes: (cart. coord. in units 2 pi/alat)
               b(1) = (  1.000000  0.000000  0.000000 )
               b(2) = (  0.000000  0.682388  0.000000 )
               b(3) = (  0.000000  0.000000  0.547649 )

     PseudoPot. # 1 for Sc read from file:
     /home/pragov/projects/rrg-bengioy-ad/pragov/crystal_structure_design/SSSP/Sc_ONCV_PBE-1.0.oncvpsp.upf
     MD5 check sum: e21af8023abb52e52cb7cd3133e4a229
     Pseudo is Norm-conserving, Zval = 11.0
     Generated using ONCVPSP code by D. R. Hamann
     Using radial grid of 1662 points,  6 beta functions with:
                l(1) =   0
                l(2) =   0
                l(3) =   1
                l(4) =   1
                l(5) =   2
                l(6) =   2

     PseudoPot. # 2 for Pt read from file:
     /home/pragov/projects/rrg-bengioy-ad/pragov/crystal_structure_design/SSSP/pt_pbe_v1.4.uspp.F.UPF
     MD5 check sum: f09d6de1a584b5a045c4fc126da2d0c4
     Pseudo is Ultrasoft + core correction, Zval = 16.0
     Generated by new atomic code, or converted to UPF format
     Using radial grid of  985 points,  6 beta functions with:
                l(1) =   0
                l(2) =   0
                l(3) =   1
                l(4) =   1
                l(5) =   2
                l(6) =   2
     Q(r) pseudized with  8 coefficients,  rinner =    1.300   1.300   1.300
                                                       1.300   1.300

     atomic species   valence    mass     pseudopotential
        Sc            11.00    44.95591     Sc( 1.00)
        Pt            16.00   195.08400     Pt( 1.00)

      8 Sym. Ops., with inversion, found ( 6 have fractional translation)

                                    s                        frac. trans.

      isym =  1     identity

 cryst.   s( 1) = (     1          0          0      )
                  (     0          1          0      )
                  (     0          0          1      )

 cart.    s( 1) = (  1.0000000  0.0000000  0.0000000 )
                  (  0.0000000  1.0000000  0.0000000 )
                  (  0.0000000  0.0000000  1.0000000 )

      isym =  2     180 deg rotation - cart. axis [0,0,1]

 cryst.   s( 2) = (    -1          0          0      )    f =(  0.0000000 )
                  (     0         -1          0      )       ( -0.5000000 )
                  (     0          0          1      )       ( -0.5000000 )

 cart.    s( 2) = ( -1.0000000  0.0000000  0.0000000 )    f =(  0.0000000 )
                  (  0.0000000 -1.0000000  0.0000000 )       ( -0.7327212 )
                  (  0.0000000  0.0000000  1.0000000 )       ( -0.9129930 )

[...]

      isym =  4     180 deg rotation - cart. axis [1,0,0]

[...]

      isym =  5     inversion

 cryst.   s( 5) = (    -1          0          0      )
                  (     0         -1          0      )
                  (     0          0         -1      )

 cart.    s( 5) = ( -1.0000000  0.0000000  0.0000000 )
                  (  0.0000000 -1.0000000  0.0000000 )
                  (  0.0000000  0.0000000 -1.0000000 )

      isym =  6     inv. 180 deg rotation - cart. axis [0,0,1]

[...]

      isym =  8     inv. 180 deg rotation - cart. axis [1,0,0]

 cryst.   s( 8) = (    -1          0          0      )    f =(  0.5000000 )
                  (     0          1          0      )       (  0.0000000 )
                  (     0          0          1      )       (  0.0000000 )

 cart.    s( 8) = ( -1.0000000  0.0000000  0.0000000 )    f =(  0.5000000 )
                  (  0.0000000  1.0000000  0.0000000 )       (  0.0000000 )
                  (  0.0000000  0.0000000  1.0000000 )       (  0.0000000 )

   Cartesian axes

     site n.     atom                  positions (alat units)
         1           Sc  tau(   1) = (   0.2500000   1.4466232   0.5955216  )
         2           Sc  tau(   2) = (   0.7500000   0.0188192   1.2304645  )
         3           Sc  tau(   3) = (   0.2500000   0.7139020   0.3174714  )
         4           Sc  tau(   4) = (   0.7500000   0.7515404   1.5085147  )
         5           Sc  tau(   5) = (   0.7500000   0.9497606   0.7726021  )
         6           Sc  tau(   6) = (   0.2500000   0.5156819   1.0533840  )
         7           Sc  tau(   7) = (   0.7500000   0.2170394   0.1403909  )
         8           Sc  tau(   8) = (   0.2500000   1.2484031   1.6855951  )
         9           Pt  tau(   9) = (   0.2500000   0.3799013   1.6482318  )
        10           Pt  tau(  10) = (   0.7500000   1.0855412   0.1777543  )
        11           Pt  tau(  11) = (   0.2500000   1.1126225   1.0907473  )
        12           Pt  tau(  12) = (   0.7500000   0.3528199   0.7352388  )

   Crystallographic axes

     site n.     atom                  positions (cryst. coord.)
         1           Sc  tau(   1) = (  0.2500000  0.9871580  0.3261370  )
         2           Sc  tau(   2) = (  0.7500000  0.0128420  0.6738630  )
         3           Sc  tau(   3) = (  0.2500000  0.4871580  0.1738630  )
         4           Sc  tau(   4) = (  0.7500000  0.5128420  0.8261370  )
         5           Sc  tau(   5) = (  0.7500000  0.6481050  0.4231150  )
         6           Sc  tau(   6) = (  0.2500000  0.3518950  0.5768850  )
         7           Sc  tau(   7) = (  0.7500000  0.1481050  0.0768850  )
         8           Sc  tau(   8) = (  0.2500000  0.8518950  0.9231150  )
         9           Pt  tau(   9) = (  0.2500000  0.2592400  0.9026530  )
        10           Pt  tau(  10) = (  0.7500000  0.7407600  0.0973470  )
        11           Pt  tau(  11) = (  0.2500000  0.7592400  0.5973470  )
        12           Pt  tau(  12) = (  0.7500000  0.2407600  0.4026530  )

     number of k points=     1  Methfessel-Paxton smearing, width (Ry)=  0.0010
                       cart. coord. in units 2pi/alat
        k(    1) = (   0.0000000   0.0000000   0.0000000), wk =   2.0000000

                       cryst. coord.
        k(    1) = (   0.0000000   0.0000000   0.0000000), wk =   2.0000000

     Check: negative core charge=   -0.000001

     Initial potential from superposition of free atoms

     starting charge     149.9788, renormalised to     152.0000

     negative rho (up, down):  7.466E-01 0.000E+00
     Starting wfcs are  128 randomized atomic wfcs

     Self-consistent Calculation

     iteration #  1     ecut=    30.00 Ry     beta= 0.70
     Davidson diagonalization with overlap

     ethr =  1.00E-02,  avg # of iterations =  2.0

     negative rho (up, down):  6.615E-01 0.000E+00

     total energy              =   -1573.29373212 Ry
     estimated scf accuracy    <       8.27599557 Ry

[...]

     total energy              =   -1578.61843790 Ry
     estimated scf accuracy    <       0.00000189 Ry

     iteration # 25     ecut=    30.00 Ry     beta= 0.70
     Davidson diagonalization with overlap

     ethr =  1.07E-09,  avg # of iterations =  5.0

[...]

     End of self-consistent calculation

          k = 0.0000 0.0000 0.0000 (  2313 PWs)   bands (ev):

   -39.8804 -39.8799 -39.8798 -39.8794 -39.7777 -39.7757 -39.7744 -39.7732
   -39.6798 -39.6789 -39.6774 -39.6772 -36.3892 -36.3809 -36.3775 -36.3742
   -36.1411 -36.1407 -36.1240 -36.1221 -15.1370 -15.1177 -15.1144 -15.0681
   -15.0244 -15.0204 -14.9997 -14.9742 -14.9363 -14.9331 -14.9236 -14.8996
   -14.8957 -14.8564 -14.8250 -14.8036 -14.7569 -14.7551 -14.7345 -14.7119
   -14.7057 -14.6912 -14.6583 -14.6361   6.4317   8.2515   8.6016   8.7071
     8.9231   9.1257   9.2357   9.2431   9.2979   9.3016   9.4796   9.5549
     9.5587   9.5627   9.5679   9.5705   9.5887   9.7114   9.8422   9.8455
     9.8759  10.0339  10.0666  10.1407  10.8479  11.3148  12.6012  12.8246
    12.9118  12.9481  13.0456  13.1242  13.1356  13.9800  14.1923  14.4162
    14.5510  14.5646  14.5664  14.5718  14.7436  14.7777  14.9894  15.0896
    15.1793  15.2753  15.3340

     occupation numbers
     1.0000   1.0000   1.0000   1.0000   1.0000   1.0000   1.0000   1.0000
     1.0000   1.0000   1.0000   1.0000   1.0000   1.0000   1.0000   1.0000
     1.0000   1.0000   1.0000   1.0000   1.0000   1.0000   1.0000   1.0000
     1.0000   1.0000   1.0000   1.0000   1.0000   1.0000   1.0000   1.0000
     1.0000   1.0000   1.0000   1.0000   1.0000   1.0000   1.0000   1.0000
     1.0000   1.0000   1.0000   1.0000   1.0000   1.0000   1.0000   1.0000
     1.0000   1.0000   1.0000   1.0000   1.0000   1.0000   1.0000   1.0000
     1.0000   1.0000   1.0000   1.0000   1.0000   1.0000   1.0000   1.0000
     1.0000   1.0000   1.0000   1.0000   1.0000   1.0000   1.0000   1.0000
     1.0000   1.0000   1.0000   0.8241   0.1759  -0.0000  -0.0000  -0.0000
    -0.0000  -0.0000  -0.0000  -0.0000  -0.0000  -0.0000  -0.0000  -0.0000
    -0.0000  -0.0000  -0.0000

     the Fermi energy is    13.1299 ev

!    total energy              =   -1578.61843772 Ry
     estimated scf accuracy    <       0.00000050 Ry
     smearing contrib. (-TS)   =      -0.00030436 Ry
     internal energy E=F+TS    =   -1578.61813336 Ry

     The total energy is F=E-TS. E is the sum of the following terms:
     one-electron contribution =    -477.22505527 Ry
     hartree contribution      =     298.76027595 Ry
     xc contribution           =    -322.99142202 Ry
     ewald contribution        =   -1077.16193202 Ry

     convergence has been achieved in  25 iterations

     negative rho (up, down):  6.900E-01 0.000E+00

     Forces acting on atoms (cartesian axes, Ry/au):

     atom    1 type  1   force =     0.00000000    0.00169074   -0.01434625
     atom    2 type  1   force =     0.00000000   -0.00169074    0.01434625
     atom    3 type  1   force =     0.00000000    0.00169074    0.01434625
     atom    4 type  1   force =     0.00000000   -0.00169074   -0.01434625
     atom    5 type  1   force =    -0.00000000   -0.02579197   -0.05374662
     atom    6 type  1   force =     0.00000000    0.02579197    0.05374662
     atom    7 type  1   force =     0.00000000   -0.02579197    0.05374662
     atom    8 type  1   force =    -0.00000000    0.02579197   -0.05374662
     atom    9 type  2   force =     0.00000000   -0.00106331   -0.02575726
     atom   10 type  2   force =     0.00000000    0.00106331    0.02575726
     atom   11 type  2   force =     0.00000000   -0.00106331    0.02575726
     atom   12 type  2   force =     0.00000000    0.00106331   -0.02575726
     The non-local contrib.  to forces
     atom    1 type  1   force =     0.00000000    0.04756279   -0.02300791
     atom    2 type  1   force =     0.00000000   -0.04756279    0.02300791
     atom    3 type  1   force =     0.00000000    0.04756279    0.02300791
     atom    4 type  1   force =     0.00000000   -0.04756279   -0.02300791
     atom    5 type  1   force =     0.00000000    0.02352930    0.02691163
     atom    6 type  1   force =     0.00000000   -0.02352930   -0.02691163
     atom    7 type  1   force =     0.00000000    0.02352930   -0.02691163
     atom    8 type  1   force =     0.00000000   -0.02352930    0.02691163
     atom    9 type  2   force =     0.00000000   -0.01319721   -0.01006556
     atom   10 type  2   force =     0.00000000    0.01319721    0.01006556
     atom   11 type  2   force =     0.00000000   -0.01319721    0.01006556
     atom   12 type  2   force =     0.00000000    0.01319721   -0.01006556
     The ionic contribution  to forces
     atom    1 type  1   force =    -0.00000000   -0.39791206   -3.71373038
     atom    2 type  1   force =     0.00000000    0.39791206    3.71373038
     atom    3 type  1   force =     0.00000000   -0.39791206    3.71373038
     atom    4 type  1   force =     0.00000000    0.39791206   -3.71373038
     atom    5 type  1   force =     0.00000000    1.24741705   -0.38939018
     atom    6 type  1   force =    -0.00000000   -1.24741705    0.38939018
     atom    7 type  1   force =     0.00000000    1.24741705    0.38939018
     atom    8 type  1   force =    -0.00000000   -1.24741705   -0.38939018
     atom    9 type  2   force =     0.00000000    0.31671608   -1.98081170
     atom   10 type  2   force =     0.00000000   -0.31671608    1.98081170
     atom   11 type  2   force =    -0.00000000    0.31671608    1.98081170
     atom   12 type  2   force =     0.00000000   -0.31671608   -1.98081170
     The local contribution  to forces
     atom    1 type  1   force =    -0.00000538    0.35191424    3.72192974
     atom    2 type  1   force =     0.00000666   -0.35179209   -3.72175620
     atom    3 type  1   force =     0.00000804    0.35218268   -3.72333275
     atom    4 type  1   force =    -0.00000786   -0.35226465    3.72267345
     atom    5 type  1   force =    -0.00000137   -1.29687883    0.30893501
     atom    6 type  1   force =     0.00000210    1.29719794   -0.30771296
     atom    7 type  1   force =     0.00000021   -1.29664651   -0.30937550
     atom    8 type  1   force =    -0.00000080    1.29629187    0.30886696
     atom    9 type  2   force =     0.00000560   -0.29700373    1.96633371
     atom   10 type  2   force =    -0.00000967    0.29783549   -1.96807879
     atom   11 type  2   force =    -0.00000578   -0.29923334   -1.96603063
     atom   12 type  2   force =     0.00000355    0.29829836    1.96687889
     The core correction contribution to forces
     atom    1 type  1   force =     0.00000000    0.00000000    0.00000000
     atom    2 type  1   force =     0.00000000    0.00000000    0.00000000
     atom    3 type  1   force =     0.00000000    0.00000000    0.00000000
     atom    4 type  1   force =     0.00000000    0.00000000    0.00000000
     atom    5 type  1   force =     0.00000000    0.00000000    0.00000000
     atom    6 type  1   force =     0.00000000    0.00000000    0.00000000
     atom    7 type  1   force =     0.00000000    0.00000000    0.00000000
     atom    8 type  1   force =     0.00000000    0.00000000    0.00000000
     atom    9 type  2   force =     0.00000052   -0.00654534   -0.00174142
     atom   10 type  2   force =    -0.00000027    0.00655232    0.00173621
     atom   11 type  2   force =    -0.00000052   -0.00655016    0.00174034
     atom   12 type  2   force =     0.00000036    0.00654813   -0.00173768
     The Hubbard contrib.    to forces
     atom    1 type  1   force =     0.00000000    0.00000000    0.00000000
     atom    2 type  1   force =     0.00000000    0.00000000    0.00000000
     atom    3 type  1   force =     0.00000000    0.00000000    0.00000000
     atom    4 type  1   force =     0.00000000    0.00000000    0.00000000
     atom    5 type  1   force =     0.00000000    0.00000000    0.00000000
     atom    6 type  1   force =     0.00000000    0.00000000    0.00000000
     atom    7 type  1   force =     0.00000000    0.00000000    0.00000000
     atom    8 type  1   force =     0.00000000    0.00000000    0.00000000
     atom    9 type  2   force =     0.00000000    0.00000000    0.00000000
     atom   10 type  2   force =     0.00000000    0.00000000    0.00000000
     atom   11 type  2   force =     0.00000000    0.00000000    0.00000000
     atom   12 type  2   force =     0.00000000    0.00000000    0.00000000
     The SCF correction term to forces
     atom    1 type  1   force =     0.00000552    0.00013103    0.00042766
     atom    2 type  1   force =    -0.00000656   -0.00024337   -0.00062117
     atom    3 type  1   force =    -0.00000840   -0.00015275    0.00092854
     atom    4 type  1   force =     0.00000817    0.00021526   -0.00024426
     atom    5 type  1   force =     0.00000208    0.00017817   -0.00023547
     atom    6 type  1   force =    -0.00000348   -0.00049976   -0.00102351
     atom    7 type  1   force =    -0.00000162   -0.00012853    0.00064268
     atom    8 type  1   force =     0.00000180    0.00048750   -0.00010807
     atom    9 type  2   force =    -0.00000606   -0.00109227    0.00054842
     atom   10 type  2   force =     0.00000961    0.00023985    0.00120610
     atom   11 type  2   force =     0.00000542    0.00125718   -0.00082272
     atom   12 type  2   force =    -0.00000336   -0.00031308   -0.00005139

     Total force =     0.133074     Total SCF correction =     0.003011

     Computing stress (Cartesian axis) and pressure

     negative rho (up, down):  6.900E-01 0.000E+00
          total   stress  (Ry/bohr**3)                   (kbar)     P=      -88.64
  -0.00146949   0.00000000   0.00000000         -216.17        0.00        0.00
   0.00000000  -0.00006164   0.00000000            0.00       -9.07        0.00
   0.00000000   0.00000000  -0.00027648            0.00        0.00      -40.67

     kinetic stress (kbar)  28392.38      0.00      0.00
                                0.00  28320.37      0.00
                                0.00      0.00  28427.62

     local   stress (kbar)   5070.54     -0.00      0.00
                               -0.00   5702.21      0.03
                                0.00      0.03   5840.01

     nonloc. stress (kbar)  -4885.93      0.00      0.00
                                0.00  -4651.24      0.00
                                0.00      0.00  -4685.36

     hartree stress (kbar)   8984.83      0.00     -0.00
                                0.00   8757.42     -0.00
                               -0.00     -0.00   8606.77

     exc-cor stress (kbar)   7209.80     -0.00     -0.00
                               -0.00   7204.47     -0.00
                               -0.00     -0.00   7208.02

     corecor stress (kbar) -13586.73     -0.00      0.00
                               -0.00 -13588.32      0.00
                                0.00      0.00 -13592.97

     ewald   stress (kbar) -31401.05      0.00      0.00
                                0.00 -31753.98     -0.00
                                0.00     -0.00 -31844.77

     hubbard stress (kbar)      0.00      0.00      0.00
                                0.00      0.00      0.00
                                0.00      0.00      0.00

     DFT-D   stress (kbar)      0.00      0.00      0.00
                                0.00      0.00      0.00
                                0.00      0.00      0.00

     XDM     stress (kbar)      0.00      0.00      0.00
                                0.00      0.00      0.00
                                0.00      0.00      0.00

     dft-nl  stress (kbar)      0.00      0.00      0.00
                                0.00      0.00      0.00
                                0.00      0.00      0.00

     TS-vdW  stress (kbar)      0.00      0.00      0.00
                                0.00      0.00      0.00
                                0.00      0.00      0.00

[...]

                                0.00      0.00      0.00

     Writing all to output data dir new_calculations/myprefix.save/

     General routines

     Parallel routines

   This run was terminated on:   2:47:48  21May2023

   JOB DONE.