     Program PWSCF v.7.0 starts on 20May2023 at 13: 8:39

     Reading input from espresso_17365.pwi
Warning: card &CELL ignored
Warning: card / ignored

     Current dimensions of program PWSCF are:
     Max number of different atomic species (ntypx) = 10
     Max number of k-points (npk) =  40000
     Max angular momentum in pseudopotentials (lmaxx) =  4

     gamma-point specific algorithms are used
     Message from routine setup:
     using ibrav=0 with symmetry is DISCOURAGED, use correct ibrav instead

     Subspace diagonalization in iterative solution of the eigenvalue problem:
     a serial algorithm will be used

     Using Slab Decomposition

     bravais-lattice index     =            0
     lattice parameter (alat)  =      23.1627  a.u.
     unit-cell volume          =    1297.1079 (a.u.)^3
     number of atoms/cell      =            6
     number of atomic types    =            2
     number of electrons       =        48.00
     number of Kohn-Sham states=           29
     kinetic-energy cutoff     =      30.0000  Ry
     charge density cutoff     =     240.0000  Ry
     scf convergence threshold =      1.0E-06
     mixing beta               =       0.7000
     number of iterations used =            8  plain     mixing
     Exchange-correlation= SLA  PW   PBE  PBE
                           (   1   4   3   4   0   0   0)

     celldm(1)=  23.162713  celldm(2)=   0.000000  celldm(3)=   0.000000
     celldm(4)=   0.000000  celldm(5)=   0.000000  celldm(6)=   0.000000

     crystal axes: (cart. coord. in units of alat)
               a(1) = (   1.000000   0.000000   0.000000 )
               a(2) = (   0.938462   0.345383   0.000000 )
               a(3) = (   0.938462   0.167209   0.302209 )

     reciprocal axes: (cart. coord. in units 2 pi/alat)
               b(1) = (  1.000000 -2.717167 -1.601961 )
               b(2) = (  0.000000  2.895340 -1.601961 )
               b(3) = (  0.000000  0.000000  3.308968 )

     PseudoPot. # 1 for Ce read from file:
     /home/pragov/projects/rrg-bengioy-ad/pragov/crystal_structure_design/SSSP/Ce.GGA-PBE-paw-v1.0.UPF
     MD5 check sum: f2b950f613061344c13339c8d844425d
     Pseudo is Projector augmented-wave + core cor, Zval = 12.0
     Generated using ATOMPAW code
     Shape of augmentation charge: BESSEL
     Using radial grid of 1102 points,  8 beta functions with:
                l(1) =   0
                l(2) =   0
                l(3) =   1
                l(4) =   1
                l(5) =   2
                l(6) =   2
                l(7) =   3
                l(8) =   3
     Q(r) pseudized with 0 coefficients

     PseudoPot. # 2 for Se read from file:
     /home/pragov/projects/rrg-bengioy-ad/pragov/crystal_structure_design/SSSP/Se_pbe_v1.uspp.F.UPF
     MD5 check sum: 1b3568f3a8ae88f9a2a0ad0698632c85
     Pseudo is Ultrasoft + core correction, Zval =  6.0
     Generated by new atomic code, or converted to UPF format
     Using radial grid of  877 points,  6 beta functions with:
                l(1) =   0
                l(2) =   0
                l(3) =   1
                l(4) =   1
                l(5) =   2
                l(6) =   2
     Q(r) pseudized with  8 coefficients,  rinner =    1.300   1.300   1.300
                                                       1.300   1.300

     atomic species   valence    mass     pseudopotential
        Ce            12.00   140.11600     Ce( 1.00)
        Se             6.00    78.97100     Se( 1.00)

      2 Sym. Ops., with inversion, found

                                    s                        frac. trans.

      isym =  1     identity

 cryst.   s( 1) = (     1          0          0      )
                  (     0          1          0      )
                  (     0          0          1      )

 cart.    s( 1) = (  1.0000000  0.0000000 -0.0000000 )
                  (  0.0000000  1.0000000 -0.0000000 )
                  (  0.0000000  0.0000000  1.0000000 )

      isym =  2     inversion

 cryst.   s( 2) = (    -1          0          0      )
                  (     0         -1          0      )
                  (     0          0         -1      )

 cart.    s( 2) = ( -1.0000000 -0.0000000  0.0000000 )
                  (  0.0000000 -1.0000000  0.0000000 )
                  (  0.0000000  0.0000000 -1.0000000 )

   Cartesian axes

     site n.     atom                  positions (alat units)
         1           Ce  tau(   1) = (   2.6363930   0.4697354   0.2769422  )
         2           Ce  tau(   2) = (   0.2405310   0.0428562   0.0252668  )
         3           Se  tau(   3) = (   2.2740271   0.4051714   0.2388772  )
         4           Se  tau(   4) = (   0.6028968   0.1074202   0.0633318  )
         5           Se  tau(   5) = (   1.7934226   0.3195404   0.1883916  )
         6           Se  tau(   6) = (   1.0835013   0.1930512   0.1138173  )

   Crystallographic axes

     site n.     atom                  positions (cryst. coord.)
         1           Ce  tau(   1) = (  0.9163930  0.9163930  0.9163930  )
         2           Ce  tau(   2) = (  0.0836070  0.0836070  0.0836070  )
         3           Se  tau(   3) = (  0.7904370  0.7904370  0.7904370  )
         4           Se  tau(   4) = (  0.2095630  0.2095630  0.2095630  )
         5           Se  tau(   5) = (  0.6233820  0.6233820  0.6233820  )
         6           Se  tau(   6) = (  0.3766180  0.3766180  0.3766180  )

     number of k points=     1  Methfessel-Paxton smearing, width (Ry)=  0.0010
                       cart. coord. in units 2pi/alat
        k(    1) = (   0.0000000   0.0000000   0.0000000), wk =   2.0000000

                       cryst. coord.
        k(    1) = (   0.0000000   0.0000000   0.0000000), wk =   2.0000000

     Initial potential from superposition of free atoms

     starting charge      47.9857, renormalised to      48.0000
     Starting wfcs are   80 randomized atomic wfcs
     Checking if some PAW data can be deallocated...

     Self-consistent Calculation

     iteration #  1     ecut=    30.00 Ry     beta= 0.70
     Davidson diagonalization with overlap

     ethr =  1.00E-02,  avg # of iterations =  1.0

     total energy              =   -1138.71625506 Ry
     estimated scf accuracy    <       0.49342902 Ry

[...]

     total energy              =   -1139.10192083 Ry
     estimated scf accuracy    <       0.00000284 Ry

     iteration # 31     ecut=    30.00 Ry     beta= 0.70
     Davidson diagonalization with overlap

     ethr =  5.91E-09,  avg # of iterations =  5.0

     End of self-consistent calculation

          k = 0.0000 0.0000 0.0000 (  1799 PWs)   bands (ev):

   -27.6947 -27.6939 -11.0000 -10.9843 -10.2789 -10.2788 -10.2782 -10.2781
    -5.9768  -5.6997  -5.1020  -4.7852   2.8037   3.7199   3.7199   3.8301
     3.8301   3.9455   4.3917   5.2641   5.2641   5.4408   5.4408   5.8610
     7.0626   7.0673   7.2558   7.2578   7.2582

     occupation numbers
     1.0000   1.0000   1.0000   1.0000   1.0000   1.0000   1.0000   1.0000
     1.0000   1.0000   1.0000   1.0000   1.0000   1.0000   1.0000   1.0000
     1.0000   1.0000   1.0000   1.0000   1.0000   1.0000   1.0000   1.0000
    -0.0000  -0.0000  -0.0000  -0.0000  -0.0000

     the Fermi energy is     6.2935 ev

!    total energy              =   -1139.10192075 Ry
     estimated scf accuracy    <       0.00000042 Ry
     smearing contrib. (-TS)   =       0.00000000 Ry
     internal energy E=F+TS    =   -1139.10192075 Ry

     The total energy is F=E-TS. E is the sum of the following terms:
     one-electron contribution =     -57.82650310 Ry
     hartree contribution      =      52.60850921 Ry
     xc contribution           =    -139.79680814 Ry
     ewald contribution        =    -177.45152476 Ry
     one-center paw contrib.   =    -816.63559396 Ry
      -> PAW hartree energy AE =      87.77301004 Ry
      -> PAW hartree energy PS =     -87.26882788 Ry
      -> PAW xc energy AE      =    -834.24080425 Ry
      -> PAW xc energy PS      =      17.10102813 Ry
      -> total E_H with PAW    =      53.11269136 Ry
      -> total E_XC with PAW   =    -956.93658425 Ry

     convergence has been achieved in  31 iterations

     Forces acting on atoms (cartesian axes, Ry/au):

     atom    1 type  1   force =     0.00141895    0.00026882    0.00014747
     atom    2 type  1   force =    -0.00141895   -0.00026882   -0.00014747
     atom    3 type  2   force =    -0.12928047   -0.02302939   -0.01357991
     atom    4 type  2   force =     0.12928047    0.02302939    0.01357991
     atom    5 type  2   force =    -0.12874352   -0.02293261   -0.01351990
     atom    6 type  2   force =     0.12874352    0.02293261    0.01351990
     The non-local contrib.  to forces
     atom    1 type  1   force =    -0.00250233   -0.00043839   -0.00025960
     atom    2 type  1   force =     0.00250233    0.00043839    0.00025960
     atom    3 type  2   force =     0.01949706    0.00347133    0.00206504
     atom    4 type  2   force =    -0.01949706   -0.00347133   -0.00206504
     atom    5 type  2   force =     0.02929938    0.00526266    0.00308442
     atom    6 type  2   force =    -0.02929938   -0.00526266   -0.00308442
     The ionic contribution  to forces
     atom    1 type  1   force =     0.23249313    0.04142412    0.02442243
     atom    2 type  1   force =    -0.23249313   -0.04142412   -0.02442243
     atom    3 type  2   force =     4.99036644    0.88915111    0.52421680
     atom    4 type  2   force =    -4.99036644   -0.88915111   -0.52421680
     atom    5 type  2   force =     5.21383783    0.92896780    0.54769162
     atom    6 type  2   force =    -5.21383783   -0.92896780   -0.54769162
     The local contribution  to forces
     atom    1 type  1   force =    -0.22888509   -0.04070690   -0.02401352
     atom    2 type  1   force =     0.22883959    0.04081784    0.02404710
     atom    3 type  2   force =    -5.13410196   -0.91476628   -0.53934362
     atom    4 type  2   force =     5.13383586    0.91468226    0.53930432
     atom    5 type  2   force =    -5.36548025   -0.95594662   -0.56365385
     atom    6 type  2   force =     5.36584919    0.95612469    0.56366277
     The core correction contribution to forces
     atom    1 type  1   force =     0.00000156    0.00000034    0.00000018
     atom    2 type  1   force =    -0.00000178   -0.00000027   -0.00000017
     atom    3 type  2   force =    -0.00525020   -0.00093851   -0.00055549
     atom    4 type  2   force =     0.00524350    0.00093126    0.00055205
     atom    5 type  2   force =    -0.00651790   -0.00115959   -0.00068471
     atom    6 type  2   force =     0.00653165    0.00117897    0.00068625
     The Hubbard contrib.    to forces
     atom    1 type  1   force =     0.00000000    0.00000000    0.00000000
     atom    2 type  1   force =     0.00000000    0.00000000    0.00000000
     atom    3 type  2   force =     0.00000000    0.00000000    0.00000000
     atom    4 type  2   force =     0.00000000    0.00000000    0.00000000
     atom    5 type  2   force =     0.00000000    0.00000000    0.00000000
     atom    6 type  2   force =     0.00000000    0.00000000    0.00000000
     The SCF correction term to forces
     atom    1 type  1   force =     0.00023516    0.00001946   -0.00002026
     atom    2 type  1   force =    -0.00034248   -0.00007084   -0.00004981
     atom    3 type  2   force =     0.00016648    0.00003029    0.00002197
     atom    4 type  2   force =     0.00002290    0.00001566   -0.00001001
     atom    5 type  2   force =     0.00019123    0.00000794    0.00005518
     atom    6 type  2   force =    -0.00042630   -0.00007579   -0.00004054

     Total force =     0.263492     Total SCF correction =     0.000663

     Computing stress (Cartesian axis) and pressure

          total   stress  (Ry/bohr**3)                   (kbar)     P=      -14.18
  -0.00075953  -0.00018102  -0.00010681         -111.73      -26.63      -15.71
  -0.00018102   0.00022471  -0.00001908          -26.63       33.06       -2.81
  -0.00010681  -0.00001908   0.00024564          -15.71       -2.81       36.13

     kinetic stress (kbar)   4933.00    -57.34    -33.80
                              -57.34   5244.64     -6.02
                              -33.80     -6.02   5251.30

     local   stress (kbar)   3219.14   2093.02   1233.94
                             2093.02  -8154.90    219.84
                             1233.94    219.84  -8398.22

     nonloc. stress (kbar)   5665.19     -7.01     -4.11
                               -7.01   5703.23     -0.73
                               -4.11     -0.73   5704.05

     hartree stress (kbar)  -1121.65   -849.47   -500.81
                             -849.47   3494.61    -89.23
                             -500.81    -89.23   3593.37

     exc-cor stress (kbar)   9727.79     -1.29     -0.76
                               -1.29   9734.82     -0.14
                               -0.76     -0.14   9734.97

     corecor stress (kbar) -11409.09      1.99      1.17
                                1.99 -11419.89      0.21
                                1.17      0.21 -11420.12

     ewald   stress (kbar) -11126.11  -1206.52   -711.33
                            -1206.52  -4569.46   -126.74
                             -711.33   -126.74  -4429.22

     hubbard stress (kbar)      0.00      0.00      0.00
                                0.00      0.00      0.00
                                0.00      0.00      0.00

     DFT-D   stress (kbar)      0.00      0.00      0.00
                                0.00      0.00      0.00
                                0.00      0.00      0.00

     XDM     stress (kbar)      0.00      0.00      0.00
                                0.00      0.00      0.00
                                0.00      0.00      0.00

     dft-nl  stress (kbar)      0.00      0.00      0.00
                                0.00      0.00      0.00
                                0.00      0.00      0.00

     TS-vdW  stress (kbar)      0.00      0.00      0.00
                                0.00      0.00      0.00
                                0.00      0.00      0.00

[...]

                                0.00      0.00      0.00

     Writing all to output data dir new_calculations/myprefix.save/

     General routines

     Parallel routines

     PAW routines

   This run was terminated on:  13:10: 2  20May2023

   JOB DONE.