     Program PWSCF v.7.0 starts on 20May2023 at 14:40:30

     Reading input from espresso_14458.pwi
Warning: card &CELL ignored
Warning: card / ignored

     Current dimensions of program PWSCF are:
     Max number of different atomic species (ntypx) = 10
     Max number of k-points (npk) =  40000
     Max angular momentum in pseudopotentials (lmaxx) =  4
     file Cd.pbe-dn-rrkjus_psl.0.3.1.UPF: wavefunction(s)  4D renormalized

     gamma-point specific algorithms are used
     Message from routine setup:
     using ibrav=0 with symmetry is DISCOURAGED, use correct ibrav instead

     Subspace diagonalization in iterative solution of the eigenvalue problem:
     a serial algorithm will be used

     Using Slab Decomposition

     bravais-lattice index     =            0
     lattice parameter (alat)  =      15.8611  a.u.
     unit-cell volume          =    2808.3488 (a.u.)^3
     number of atoms/cell      =           12
     number of atomic types    =            4
     number of electrons       =       102.00
     number of Kohn-Sham states=           61
     kinetic-energy cutoff     =      30.0000  Ry
     charge density cutoff     =     240.0000  Ry
     scf convergence threshold =      1.0E-06
     mixing beta               =       0.7000
     number of iterations used =            8  plain     mixing
     Exchange-correlation= SLA  PW   PBE  PBE
                           (   1   4   3   4   0   0   0)

     celldm(1)=  15.861110  celldm(2)=   0.000000  celldm(3)=   0.000000
     celldm(4)=   0.000000  celldm(5)=   0.000000  celldm(6)=   0.000000

     crystal axes: (cart. coord. in units of alat)
               a(1) = (   1.000000   0.000000   0.000000 )
               a(2) = (  -0.859661   0.510864   0.000000 )
               a(3) = (   0.000000   0.000000   1.377668 )

     reciprocal axes: (cart. coord. in units 2 pi/alat)
               b(1) = (  1.000000  1.682758  0.000000 )
               b(2) = (  0.000000  1.957467  0.000000 )
               b(3) = (  0.000000  0.000000  0.725864 )

     PseudoPot. # 1 for Cs read from file:
     /home/pragov/projects/rrg-bengioy-ad/pragov/crystal_structure_design/SSSP/Cs_pbe_v1.uspp.F.UPF
     MD5 check sum: 3476d69cb178dfad3ffaa59df4e07ca4
     Pseudo is Ultrasoft + core correction, Zval =  9.0
     Generated by new atomic code, or converted to UPF format
     Using radial grid of  905 points,  6 beta functions with:
                l(1) =   0
                l(2) =   0
                l(3) =   1
                l(4) =   1
                l(5) =   2
                l(6) =   2
     Q(r) pseudized with  6 coefficients,  rinner =    1.500   1.500   1.500
                                                       1.500   1.500

     PseudoPot. # 2 for Ce read from file:
     /home/pragov/projects/rrg-bengioy-ad/pragov/crystal_structure_design/SSSP/Ce.GGA-PBE-paw-v1.0.UPF
     MD5 check sum: f2b950f613061344c13339c8d844425d
     Pseudo is Projector augmented-wave + core cor, Zval = 12.0
     Generated using ATOMPAW code
     Shape of augmentation charge: BESSEL
     Using radial grid of 1102 points,  8 beta functions with:
                l(1) =   0
                l(2) =   0
                l(3) =   1
                l(4) =   1
                l(5) =   2
                l(6) =   2
                l(7) =   3
                l(8) =   3
     Q(r) pseudized with 0 coefficients

     PseudoPot. # 3 for Cd read from file:
     /home/pragov/projects/rrg-bengioy-ad/pragov/crystal_structure_design/SSSP/Cd.pbe-dn-rrkjus_psl.0.3.1.UPF
     MD5 check sum: 558e9f355611b531a870a69ef6ace9e2
     Pseudo is Ultrasoft + core correction, Zval = 12.0
     Generated using "atomic" code by A. Dal Corso  v.5.0.99 svn rev. 10869
     Using radial grid of 1239 points,  6 beta functions with:
                l(1) =   0
                l(2) =   0
                l(3) =   1
                l(4) =   1
                l(5) =   2
                l(6) =   2
     Q(r) pseudized with 0 coefficients

     PseudoPot. # 4 for Se read from file:
     /home/pragov/projects/rrg-bengioy-ad/pragov/crystal_structure_design/SSSP/Se_pbe_v1.uspp.F.UPF
     MD5 check sum: 1b3568f3a8ae88f9a2a0ad0698632c85
     Pseudo is Ultrasoft + core correction, Zval =  6.0
     Generated by new atomic code, or converted to UPF format
     Using radial grid of  877 points,  6 beta functions with:
                l(1) =   0
                l(2) =   0
                l(3) =   1
                l(4) =   1
                l(5) =   2
                l(6) =   2
     Q(r) pseudized with  8 coefficients,  rinner =    1.300   1.300   1.300
                                                       1.300   1.300

     atomic species   valence    mass     pseudopotential
        Cs             9.00   132.90545     Cs( 1.00)
        Ce            12.00   140.11600     Ce( 1.00)
        Cd            12.00   112.41400     Cd( 1.00)
        Se             6.00    78.97100     Se( 1.00)

      4 Sym. Ops., with inversion, found ( 2 have fractional translation)

                                    s                        frac. trans.

      isym =  1     identity

 cryst.   s( 1) = (     1          0          0      )
                  (     0          1          0      )
                  (     0          0          1      )

 cart.    s( 1) = (  1.0000000  0.0000000  0.0000000 )
                  (  0.0000000  1.0000000  0.0000000 )
                  (  0.0000000  0.0000000  1.0000000 )

      isym =  2     180 deg rotation - cart. axis [0,0,1]

 cryst.   s( 2) = (    -1          0          0      )    f =(  0.0000000 )
                  (     0         -1          0      )       (  0.0000000 )
                  (     0          0          1      )       ( -0.5000000 )

 cart.    s( 2) = ( -1.0000000 -0.0000000  0.0000000 )    f =( -0.0000000 )
                  (  0.0000000 -1.0000000  0.0000000 )       (  0.0000000 )
                  (  0.0000000  0.0000000  1.0000000 )       ( -0.6888342 )

      isym =  3     inversion

 cryst.   s( 3) = (    -1          0          0      )
                  (     0         -1          0      )
                  (     0          0         -1      )

 cart.    s( 3) = ( -1.0000000 -0.0000000  0.0000000 )
                  (  0.0000000 -1.0000000  0.0000000 )
                  (  0.0000000  0.0000000 -1.0000000 )

      isym =  4     inv. 180 deg rotation - cart. axis [0,0,1]

 cryst.   s( 4) = (     1          0          0      )    f =(  0.0000000 )
                  (     0          1          0      )       (  0.0000000 )
                  (     0          0         -1      )       (  0.5000000 )

 cart.    s( 4) = (  1.0000000  0.0000000  0.0000000 )    f =(  0.0000000 )
                  (  0.0000000  1.0000000  0.0000000 )       (  0.0000000 )
                  (  0.0000000  0.0000000 -1.0000000 )       (  0.6888342 )

   Cartesian axes

     site n.     atom                  positions (alat units)
         1           Cs  tau(   1) = (   0.5210089   0.1315828   0.3444171  )
         2           Cs  tau(   2) = (  -0.3806702   0.3792816   1.0332513  )
         3           Ce  tau(   3) = (   0.0000000   0.0000000   0.0000000  )
         4           Ce  tau(   4) = (   0.0000000   0.0000000   0.6888342  )
         5           Cd  tau(   5) = (  -0.0029897   0.2755296   0.3444171  )
         6           Cd  tau(   6) = (   0.1433284   0.2353348   1.0332513  )
         7           Se  tau(   7) = (  -0.7486637   0.4803724   0.3444171  )
         8           Se  tau(   8) = (  -0.1538008   0.3169587   0.6163592  )
         9           Se  tau(   9) = (   0.2941395   0.1939057   1.3051933  )
        10           Se  tau(  10) = (   0.2941395   0.1939057   0.7613092  )
        11           Se  tau(  11) = (  -0.1538008   0.3169587   0.0724750  )
        12           Se  tau(  12) = (   0.8890024   0.0304920   1.0332513  )

   Crystallographic axes

     site n.     atom                  positions (cryst. coord.)
         1           Cs  tau(   1) = (  0.7424310  0.2575690  0.2500000  )
         2           Cs  tau(   2) = (  0.2575690  0.7424310  0.7500000  )
         3           Ce  tau(   3) = (  0.0000000  0.0000000  0.0000000  )
         4           Ce  tau(   4) = (  0.0000000  0.0000000  0.5000000  )
         5           Cd  tau(   5) = (  0.4606600  0.5393400  0.2500000  )
         6           Cd  tau(   6) = (  0.5393400  0.4606600  0.7500000  )
         7           Se  tau(   7) = (  0.0596870  0.9403130  0.2500000  )
         8           Se  tau(   8) = (  0.3795640  0.6204360  0.4473930  )
         9           Se  tau(   9) = (  0.6204360  0.3795640  0.9473930  )
        10           Se  tau(  10) = (  0.6204360  0.3795640  0.5526070  )
        11           Se  tau(  11) = (  0.3795640  0.6204360  0.0526070  )
        12           Se  tau(  12) = (  0.9403130  0.0596870  0.7500000  )

     number of k points=     1  Methfessel-Paxton smearing, width (Ry)=  0.0010
                       cart. coord. in units 2pi/alat
        k(    1) = (   0.0000000   0.0000000   0.0000000), wk =   2.0000000

                       cryst. coord.
        k(    1) = (   0.0000000   0.0000000   0.0000000), wk =   2.0000000

     Initial potential from superposition of free atoms

     starting charge     101.8971, renormalised to     102.0000
     Starting wfcs are  132 randomized atomic wfcs
     Checking if some PAW data can be deallocated...

     Self-consistent Calculation

     iteration #  1     ecut=    30.00 Ry     beta= 0.70
     Davidson diagonalization with overlap

     ethr =  1.00E-02,  avg # of iterations =  2.0

     total energy              =   -1594.80801021 Ry
     estimated scf accuracy    <       1.99699769 Ry

[...]

     c_bands:  2 eigenvalues not converged
     ethr =  4.13E-05,  avg # of iterations = 20.0

[...]

     c_bands:  2 eigenvalues not converged
     ethr =  2.57E-06,  avg # of iterations = 20.0

[...]

     total energy              =   -1597.02597940 Ry
     estimated scf accuracy    <       0.00005212 Ry

     iteration #100     ecut=    30.00 Ry     beta= 0.70
     Davidson diagonalization with overlap

     ethr =  1.14E-08,  avg # of iterations =  1.0

     End of self-consistent calculation

          k = 0.0000 0.0000 0.0000 (  3914 PWs)   bands (ev):

   -28.2634 -28.2630 -15.7975 -15.7964 -11.3761 -11.3559 -11.2770 -11.1987
   -10.9595 -10.9592  -6.5439  -6.2655  -6.2480  -6.1310  -5.9540  -5.8705
    -2.7561  -2.7443  -2.6572  -2.6474  -2.5852  -2.5782  -2.4487  -2.4363
    -2.4183  -2.4175  -2.4147  -2.4141  -2.3953  -2.3576  -2.2771  -2.2380
     1.6552   1.9572   2.6481   3.0618   3.2380   3.2779   3.4985   3.7655
     3.8760   3.8798   4.0025   4.2310   4.4564   4.6374   4.7513   4.8721
     4.8975   4.9587   7.0978   7.1024   7.1048   7.1896   7.1918   7.1942
     7.2255   7.2473   7.3304   7.4063   7.4335

     occupation numbers
     1.0000   1.0000   1.0000   1.0000   1.0000   1.0000   1.0000   1.0000
     1.0000   1.0000   1.0000   1.0000   1.0000   1.0000   1.0000   1.0000
     1.0000   1.0000   1.0000   1.0000   1.0000   1.0000   1.0000   1.0000
     1.0000   1.0000   1.0000   1.0000   1.0000   1.0000   1.0000   1.0000
     1.0000   1.0000   1.0000   1.0000   1.0000   1.0000   1.0000   1.0000
     1.0000   1.0000   1.0000   1.0000   1.0000   1.0000   1.0000   1.0000
     1.0000   1.0000   0.5593   0.2801   0.1606  -0.0000  -0.0000  -0.0000
    -0.0000  -0.0000  -0.0000  -0.0000  -0.0000

     the Fermi energy is     7.0987 ev

!    total energy              =   -1597.02597869 Ry
     estimated scf accuracy    <       0.00000096 Ry
     smearing contrib. (-TS)   =      -0.00064066 Ry
     internal energy E=F+TS    =   -1597.02533803 Ry

     The total energy is F=E-TS. E is the sum of the following terms:
     one-electron contribution =    -244.72309281 Ry
     hartree contribution      =     179.96216111 Ry
     xc contribution           =    -345.53959261 Ry
     ewald contribution        =    -369.87520639 Ry
     one-center paw contrib.   =    -816.84960733 Ry
      -> PAW hartree energy AE =      88.58790393 Ry
      -> PAW hartree energy PS =     -87.99543081 Ry
      -> PAW xc energy AE      =    -834.63137860 Ry
      -> PAW xc energy PS      =      17.18929814 Ry
      -> total E_H with PAW    =     180.55463423 Ry
      -> total E_XC with PAW   =   -1162.98167306 Ry

     convergence has been achieved in 100 iterations

     Forces acting on atoms (cartesian axes, Ry/au):

     atom    1 type  1   force =    -0.00592930    0.00162945    0.00000000
     atom    2 type  1   force =     0.00592930   -0.00162945    0.00000000
     atom    3 type  2   force =     0.00000000    0.00000000    0.00000000
     atom    4 type  2   force =    -0.00000000   -0.00000000    0.00000000
     atom    5 type  3   force =    -0.02589844    0.00712546    0.00000000
     atom    6 type  3   force =     0.02589844   -0.00712546   -0.00000000
     atom    7 type  4   force =     0.03429795   -0.00943100    0.00000000
     atom    8 type  4   force =     0.05026632   -0.01380855    0.02161065
     atom    9 type  4   force =    -0.05026632    0.01380855    0.02161065
     atom   10 type  4   force =    -0.05026632    0.01380855   -0.02161065
     atom   11 type  4   force =     0.05026632   -0.01380855   -0.02161065
     atom   12 type  4   force =    -0.03429795    0.00943100    0.00000000
     The non-local contrib.  to forces
     atom    1 type  1   force =    -0.00641520    0.00176252    0.00000000
     atom    2 type  1   force =     0.00641520   -0.00176252    0.00000000
     atom    3 type  2   force =     0.00000000    0.00000000    0.00000000
     atom    4 type  2   force =     0.00000000    0.00000000    0.00000000
     atom    5 type  3   force =     0.13052563   -0.03585068    0.00000000
     atom    6 type  3   force =    -0.13052563    0.03585068    0.00000000
     atom    7 type  4   force =    -0.17673202    0.04853683    0.00000000
     atom    8 type  4   force =     0.07823317   -0.02148892   -0.12350798
     atom    9 type  4   force =    -0.07823317    0.02148892   -0.12350798
     atom   10 type  4   force =    -0.07823317    0.02148892    0.12350798
     atom   11 type  4   force =     0.07823317   -0.02148892    0.12350798
     atom   12 type  4   force =     0.17673202   -0.04853683    0.00000000
     The ionic contribution  to forces
     atom    1 type  1   force =    -0.87048819    0.23913033    0.00000000
     atom    2 type  1   force =     0.87048819   -0.23913033    0.00000000
     atom    3 type  2   force =    -0.00000000   -0.00000000   -0.00000000
     atom    4 type  2   force =    -0.00000000   -0.00000000    0.00000000
     atom    5 type  3   force =    -2.70311796    0.74256894    0.00000000
     atom    6 type  3   force =     2.70311796   -0.74256894    0.00000000
     atom    7 type  4   force =     6.59017460   -1.81037566    0.00000000
     atom    8 type  4   force =    -7.40153818    2.03326397    2.64373049
     atom    9 type  4   force =     7.40153818   -2.03326397    2.64373049
     atom   10 type  4   force =     7.40153818   -2.03326397   -2.64373049
     atom   11 type  4   force =    -7.40153818    2.03326397   -2.64373049
     atom   12 type  4   force =    -6.59017460    1.81037566    0.00000000
     The local contribution  to forces
     atom    1 type  1   force =     0.87079341   -0.23921175    0.00025180
     atom    2 type  1   force =    -0.87056317    0.23915082   -0.00021103
     atom    3 type  2   force =    -0.00016779    0.00009796   -0.00054442
     atom    4 type  2   force =     0.00011811   -0.00002377    0.00035660
     atom    5 type  3   force =     2.55276063   -0.70126583    0.00076230
     atom    6 type  3   force =    -2.55357316    0.70147947   -0.00084575
     atom    7 type  4   force =    -6.39903947    1.75787358    0.00048618
     atom    8 type  4   force =     7.38100345   -2.02762636   -2.51300953
     atom    9 type  4   force =    -7.38060773    2.02752138   -2.51356092
     atom   10 type  4   force =    -7.38106689    2.02763829    2.51330892
     atom   11 type  4   force =     7.38057532   -2.02751110    2.51322269
     atom   12 type  4   force =     6.39919388   -1.75790996   -0.00038273
     The core correction contribution to forces
     atom    1 type  1   force =     0.00029270   -0.00008014   -0.00000003
     atom    2 type  1   force =    -0.00028736    0.00007923    0.00000162
     atom    3 type  2   force =    -0.00000004    0.00000005   -0.00000015
     atom    4 type  2   force =     0.00000012   -0.00000003    0.00000003
     atom    5 type  3   force =    -0.00668713    0.00183717    0.00000034
     atom    6 type  3   force =     0.00667103   -0.00183275   -0.00000365
     atom    7 type  4   force =     0.02009311   -0.00551812   -0.00000123
     atom    8 type  4   force =    -0.00749212    0.00205839    0.01459936
     atom    9 type  4   force =     0.00749079   -0.00205713    0.01459161
     atom   10 type  4   force =     0.00748735   -0.00205688   -0.01459065
     atom   11 type  4   force =    -0.00749262    0.00205797   -0.01459801
     atom   12 type  4   force =    -0.02007731    0.00551413    0.00000325
     The Hubbard contrib.    to forces
     atom    1 type  1   force =     0.00000000    0.00000000    0.00000000
     atom    2 type  1   force =     0.00000000    0.00000000    0.00000000
     atom    3 type  2   force =     0.00000000    0.00000000    0.00000000
     atom    4 type  2   force =     0.00000000    0.00000000    0.00000000
     atom    5 type  3   force =     0.00000000    0.00000000    0.00000000
     atom    6 type  3   force =     0.00000000    0.00000000    0.00000000
     atom    7 type  4   force =     0.00000000    0.00000000    0.00000000
     atom    8 type  4   force =     0.00000000    0.00000000    0.00000000
     atom    9 type  4   force =     0.00000000    0.00000000    0.00000000
     atom   10 type  4   force =     0.00000000    0.00000000    0.00000000
     atom   11 type  4   force =     0.00000000    0.00000000    0.00000000
     atom   12 type  4   force =     0.00000000    0.00000000    0.00000000
     The SCF correction term to forces
     atom    1 type  1   force =    -0.00008152    0.00002129   -0.00028629
     atom    2 type  1   force =    -0.00009305    0.00002615    0.00025743
     atom    3 type  2   force =     0.00018864   -0.00006314    0.00047044
     atom    4 type  2   force =    -0.00003504   -0.00003204   -0.00028275
     atom    5 type  3   force =     0.00055438   -0.00014957   -0.00079237
     atom    6 type  3   force =     0.00014222   -0.00003935    0.00085315
     atom    7 type  4   force =    -0.00013848    0.00003872   -0.00049908
     atom    8 type  4   force =     0.00006997   -0.00001368   -0.00015586
     atom    9 type  4   force =    -0.00043542    0.00011813    0.00031885
     atom   10 type  4   force =    -0.00002238    0.00001002   -0.00005176
     atom   11 type  4   force =     0.00046702   -0.00012580   -0.00006028
     atom   12 type  4   force =     0.00008786   -0.00002565    0.00041678

     Total force =     0.129564     Total SCF correction =     0.001801

     Computing stress (Cartesian axis) and pressure

          total   stress  (Ry/bohr**3)                   (kbar)     P=       -9.19
  -0.00029757   0.00018225   0.00000000          -43.77       26.81        0.00
   0.00018225   0.00031578   0.00000000           26.81       46.45        0.00
   0.00000000   0.00000000  -0.00020556            0.00        0.00      -30.24

     kinetic stress (kbar)   6329.88     46.76      0.00
                               46.76   6487.25      0.00
                                0.00      0.00   6308.64

     local   stress (kbar)   3793.68  -3758.53     -0.00
                            -3758.53  -8855.72     -0.00
                               -0.00     -0.00 -10058.13

     nonloc. stress (kbar)   4020.00      7.27      0.00
                                7.27   4044.49      0.00
                                0.00      0.00   4015.00

     hartree stress (kbar)   -860.91   1703.49      0.05
                             1703.49   4872.24     -0.01
                                0.05     -0.01   5415.33

     exc-cor stress (kbar)  11053.58      0.70      0.00
                                0.70  11055.95     -0.00
                                0.00     -0.00  11056.09

     corecor stress (kbar) -13108.62     -1.92      0.00
                               -1.92 -13115.10     -0.00
                                0.00     -0.00 -13106.64

     ewald   stress (kbar) -11271.38   2029.02     -0.00
                             2029.02  -4442.66      0.00
                               -0.00      0.00  -3660.51

     hubbard stress (kbar)      0.00      0.00      0.00
                                0.00      0.00      0.00
                                0.00      0.00      0.00

     DFT-D   stress (kbar)      0.00      0.00      0.00
                                0.00      0.00      0.00
                                0.00      0.00      0.00

     XDM     stress (kbar)      0.00      0.00      0.00
                                0.00      0.00      0.00
                                0.00      0.00      0.00

     dft-nl  stress (kbar)      0.00      0.00      0.00
                                0.00      0.00      0.00
                                0.00      0.00      0.00

     TS-vdW  stress (kbar)      0.00      0.00      0.00
                                0.00      0.00      0.00
                                0.00      0.00      0.00

[...]

                                0.00      0.00      0.00

     Writing all to output data dir new_calculations/myprefix.save/

     General routines

     Parallel routines

     PAW routines

   This run was terminated on:  14:45:13  20May2023

   JOB DONE.