     Program PWSCF v.7.0 starts on 21May2023 at  5:56: 8

     Reading input from espresso_15531.pwi
Warning: card &CELL ignored
Warning: card / ignored

     Current dimensions of program PWSCF are:
     Max number of different atomic species (ntypx) = 10
     Max number of k-points (npk) =  40000
     Max angular momentum in pseudopotentials (lmaxx) =  4

     gamma-point specific algorithms are used
     Message from routine setup:
     using ibrav=0 with symmetry is DISCOURAGED, use correct ibrav instead

     Subspace diagonalization in iterative solution of the eigenvalue problem:
     a serial algorithm will be used

     Using Slab Decomposition

     bravais-lattice index     =            0
     lattice parameter (alat)  =      14.2331  a.u.
     unit-cell volume          =    2038.8398 (a.u.)^3
     number of atoms/cell      =           10
     number of atomic types    =            4
     number of electrons       =        77.00
     number of Kohn-Sham states=           47
     kinetic-energy cutoff     =      30.0000  Ry
     charge density cutoff     =     240.0000  Ry
     scf convergence threshold =      1.0E-06
     mixing beta               =       0.7000
     number of iterations used =            8  plain     mixing
     Exchange-correlation=  SLA  PW   PBX  PBC
                           (   1   4   3   4   0   0   0)

     celldm(1)=  14.233096  celldm(2)=   0.000000  celldm(3)=   0.000000
     celldm(4)=   0.000000  celldm(5)=   0.000000  celldm(6)=   0.000000

     crystal axes: (cart. coord. in units of alat)
               a(1) = (   1.000000   0.000000   0.000000 )
               a(2) = (   0.500000   0.866025   0.000000 )
               a(3) = (   0.500000   0.288675   0.816497 )

     reciprocal axes: (cart. coord. in units 2 pi/alat)
               b(1) = (  1.000000 -0.577350 -0.408248 )
               b(2) = (  0.000000  1.154701 -0.408248 )
               b(3) = (  0.000000  0.000000  1.224745 )

     PseudoPot. # 1 for Rb read from file:
     /home/pragov/projects/rrg-bengioy-ad/pragov/crystal_structure_design/SSSP/Rb_ONCV_PBE-1.0.oncvpsp.upf
     MD5 check sum: 55a5172d6bfbce6759a58e35d43f6aa9
     Pseudo is Norm-conserving, Zval =  9.0
     Generated using ONCVPSP code by D. R. Hamann
     Using radial grid of 2308 points,  6 beta functions with:
                l(1) =   0
                l(2) =   0
                l(3) =   1
                l(4) =   1
                l(5) =   2
                l(6) =   2

     PseudoPot. # 2 for Li read from file:
     /home/pragov/projects/rrg-bengioy-ad/pragov/crystal_structure_design/SSSP/li_pbe_v1.4.uspp.F.UPF
     MD5 check sum: e912e257baa3777c20ea3d68f190483c
     Pseudo is Ultrasoft, Zval =  3.0
     Generated by new atomic code, or converted to UPF format
     Using radial grid of  751 points,  5 beta functions with:
                l(1) =   0
                l(2) =   0
                l(3) =   0
                l(4) =   1
                l(5) =   1
     Q(r) pseudized with 10 coefficients,  rinner =    1.150   1.150   1.150

     PseudoPot. # 3 for Nd read from file:
     /home/pragov/projects/rrg-bengioy-ad/pragov/crystal_structure_design/SSSP/Nd.GGA-PBE-paw-v1.0.UPF
     MD5 check sum: 1d1e94942b6eb1cde76049b71bb7dcb0
     Pseudo is Projector augmented-wave + core cor, Zval = 14.0
     Generated using ATOMPAW code
     Shape of augmentation charge: BESSEL
     Using radial grid of 1105 points,  8 beta functions with:
                l(1) =   0
                l(2) =   0
                l(3) =   1
                l(4) =   1
                l(5) =   2
                l(6) =   2
                l(7) =   3
                l(8) =   3
     Q(r) pseudized with 0 coefficients

     PseudoPot. # 4 for Cl read from file:
     /home/pragov/projects/rrg-bengioy-ad/pragov/crystal_structure_design/SSSP/cl_pbe_v1.4.uspp.F.UPF
     MD5 check sum: fc6f6913ecf08c9257cb748ef0700058
     Pseudo is Ultrasoft + core correction, Zval =  7.0
     Generated by new atomic code, or converted to UPF format
     Using radial grid of  909 points,  6 beta functions with:
                l(1) =   0
                l(2) =   0
                l(3) =   1
                l(4) =   1
                l(5) =   2
                l(6) =   2
     Q(r) pseudized with  8 coefficients,  rinner =    1.300   1.300   1.300
                                                       1.300   1.300

     atomic species   valence    mass     pseudopotential
        Rb             9.00    85.46780     Rb( 1.00)
        Li             3.00     6.94000     Li( 1.00)
        Nd            14.00   144.24200     Nd( 1.00)
        Cl             7.00    35.45000     Cl( 1.00)

     12 Sym. Ops., with inversion, found

                                    s                        frac. trans.

      isym =  1     identity

 cryst.   s( 1) = (     1          0          0      )
                  (     0          1          0      )
                  (     0          0          1      )

 cart.    s( 1) = (  1.0000000  0.0000000  0.0000000 )
                  (  0.0000000  1.0000000  0.0000000 )
                  (  0.0000000  0.0000000  1.0000000 )

      isym =  2     180 deg rotation - cart. axis [1,0,0]

[...]

      isym =  3     120 deg rotation - cryst. axis [0,0,1]

[...]

      isym =  6     180 deg rotation - cryst. axis [1,1,0]

[...]

      isym =  7     inversion

[...]

      isym =  8     inv. 180 deg rotation - cart. axis [1,0,0]

[...]

      isym =  9     inv. 120 deg rotation - cryst. axis [0,0,1]

 cryst.   s( 9) = (     1         -1          0      )
                  (     1          0          0      )
                  (     1          0         -1      )

 cart.    s( 9) = (  0.5000000  0.8660254 -0.0000000 )
                  ( -0.8660254  0.5000000 -0.0000000 )
                  (  0.0000000  0.0000000 -1.0000000 )

[...]

 cryst.   s(10) = (     0          1          0      )
                  (    -1          1          0      )
                  (     0          1         -1      )

 cart.    s(10) = (  0.5000000 -0.8660254  0.0000000 )
                  (  0.8660254  0.5000000 -0.0000000 )
                  (  0.0000000  0.0000000 -1.0000000 )

[...]

      isym = 12     inv. 180 deg rotation - cryst. axis [1,1,0]

 cryst.   s(12) = (     1         -1          0      )
                  (     0         -1          0      )
                  (     0         -1          1      )

 cart.    s(12) = (  0.5000000 -0.8660254  0.0000000 )
                  ( -0.8660254 -0.5000000  0.0000000 )
                  (  0.0000000  0.0000000  1.0000000 )

   Cartesian axes

     site n.     atom                  positions (alat units)
         1           Rb  tau(   1) = (   1.5000000   0.8660254   0.6123724  )
         2           Rb  tau(   2) = (   0.5000000   0.2886751   0.2041241  )
         3           Li  tau(   3) = (   1.0000000   0.5773503   0.4082483  )
         4           Nd  tau(   4) = (   0.0000000   0.0000000   0.0000000  )
         5           Cl  tau(   5) = (   1.0000000   0.2955976   0.2090190  )
         6           Cl  tau(   6) = (   0.7559950   0.4364739   0.6074775  )
         7           Cl  tau(   7) = (   1.0000000   0.8591030   0.6074775  )
         8           Cl  tau(   8) = (   0.7559950   0.7182266   0.2090190  )
         9           Cl  tau(   9) = (   1.2440050   0.4364739   0.6074775  )
        10           Cl  tau(  10) = (   1.2440050   0.7182266   0.2090190  )

   Crystallographic axes

     site n.     atom                  positions (cryst. coord.)
         1           Rb  tau(   1) = (  0.7500000  0.7500000  0.7500000  )
         2           Rb  tau(   2) = (  0.2500000  0.2500000  0.2500000  )
         3           Li  tau(   3) = (  0.5000000  0.5000000  0.5000000  )
         4           Nd  tau(   4) = (  0.0000000  0.0000000  0.0000000  )
         5           Cl  tau(   5) = (  0.7440050  0.2559950  0.2559950  )
         6           Cl  tau(   6) = (  0.2559950  0.2559950  0.7440050  )
         7           Cl  tau(   7) = (  0.2559950  0.7440050  0.7440050  )
         8           Cl  tau(   8) = (  0.2559950  0.7440050  0.2559950  )
         9           Cl  tau(   9) = (  0.7440050  0.2559950  0.7440050  )
        10           Cl  tau(  10) = (  0.7440050  0.7440050  0.2559950  )

     number of k points=     1  Methfessel-Paxton smearing, width (Ry)=  0.0010
                       cart. coord. in units 2pi/alat
        k(    1) = (   0.0000000   0.0000000   0.0000000), wk =   2.0000000

                       cryst. coord.
        k(    1) = (   0.0000000   0.0000000   0.0000000), wk =   2.0000000

     Initial potential from superposition of free atoms

     starting charge      76.4935, renormalised to      77.0000

     negative rho (up, down):  9.406E-02 0.000E+00
     Starting wfcs are   71 randomized atomic wfcs
     Checking if some PAW data can be deallocated...

     Self-consistent Calculation

     iteration #  1     ecut=    30.00 Ry     beta= 0.70
     Davidson diagonalization with overlap

     ethr =  1.00E-02,  avg # of iterations =  3.0
     Minimization algorithm failed to find Fermi energy: reverting to bisection
     Possible cause: smearing is larger than the electronic band-gap.

     Threshold (ethr) on eigenvalues was too large:
     Diagonalizing with lowered threshold

     Davidson diagonalization with overlap

     ethr =  6.04E-04,  avg # of iterations =  2.0

     negative rho (up, down):  9.673E-02 0.000E+00

     total energy              =    -850.46729915 Ry
     estimated scf accuracy    <       0.43836679 Ry

[...]

     total energy              =    -850.66906126 Ry
     estimated scf accuracy    <       0.00000138 Ry

     iteration # 33     ecut=    30.00 Ry     beta= 0.70
     Davidson diagonalization with overlap

     ethr =  1.79E-09,  avg # of iterations =  2.0

[...]

     End of self-consistent calculation

          k = 0.0000 0.0000 0.0000 (  2837 PWs)   bands (ev):

   -41.8460 -32.8484 -22.9051 -22.9032 -14.3836 -14.3835 -14.3589 -10.9248
   -10.5593 -10.5593 -10.3494 -10.3493 -10.3473  -7.0080  -7.0080  -7.0080
    -6.9788  -6.9788  -6.9788  -0.6382   0.3029   0.3029   0.3056   0.3868
     0.3868   0.3869   0.5780   0.5780   1.3711   1.3711   1.3713   1.6036
     1.6063   1.6064   1.9579   1.9603   1.9603   4.5019   4.5020   4.5023
     4.6699   4.7402   4.7403   4.7689   6.9117   7.1778   7.1904

     occupation numbers
     1.0000   1.0000   1.0000   1.0000   1.0000   1.0000   1.0000   1.0000
     1.0000   1.0000   1.0000   1.0000   1.0000   1.0000   1.0000   1.0000
     1.0000   1.0000   1.0000   1.0000   1.0000   1.0000   1.0000   1.0000
     1.0000   1.0000   1.0000   1.0000   1.0000   1.0000   1.0000   1.0000
     1.0000   1.0000   1.0000   1.0000   1.0000   0.5085   0.5060   0.4855
    -0.0000  -0.0000  -0.0000  -0.0000  -0.0000  -0.0000  -0.0000

     the Fermi energy is     4.5021 ev

!    total energy              =    -850.66906079 Ry
     estimated scf accuracy    <       0.00000084 Ry
     smearing contrib. (-TS)   =      -0.00084591 Ry
     internal energy E=F+TS    =    -850.66821488 Ry

     The total energy is F=E-TS. E is the sum of the following terms:
     one-electron contribution =    -138.82093092 Ry
     hartree contribution      =      99.38313624 Ry
     xc contribution           =     -89.32306272 Ry
     ewald contribution        =    -291.82802930 Ry
     one-center paw contrib.   =    -430.07932817 Ry
      -> PAW hartree energy AE =      80.92026014 Ry
      -> PAW hartree energy PS =     -80.50183654 Ry
      -> PAW xc energy AE      =    -443.02140026 Ry
      -> PAW xc energy PS      =      12.52364848 Ry
      -> total E_H with PAW    =      99.80155984 Ry
      -> total E_XC with PAW   =    -519.82081450 Ry

     convergence has been achieved in  33 iterations

     negative rho (up, down):  9.262E-02 0.000E+00

     Forces acting on atoms (cartesian axes, Ry/au):

     atom    1 type  1   force =    -0.00000000    0.00000000    0.00006778
     atom    2 type  1   force =     0.00000000   -0.00000000   -0.00006778
     atom    3 type  2   force =     0.00000000    0.00000000   -0.00000000
     atom    4 type  3   force =     0.00000000    0.00000000   -0.00000000
     atom    5 type  4   force =     0.00000000   -0.00868705   -0.00586666
     atom    6 type  4   force =    -0.00752321   -0.00434353    0.00586666
     atom    7 type  4   force =     0.00000000    0.00868705    0.00586666
     atom    8 type  4   force =    -0.00752321    0.00434353   -0.00586666
     atom    9 type  4   force =     0.00752321   -0.00434353    0.00586666
     atom   10 type  4   force =     0.00752321    0.00434353   -0.00586666
     The non-local contrib.  to forces
     atom    1 type  1   force =     0.00000000    0.00000000   -0.00000329
     atom    2 type  1   force =     0.00000000    0.00000000    0.00000329
     atom    3 type  2   force =     0.00000000   -0.00000000    0.00000000
     atom    4 type  3   force =    -0.00000000   -0.00000000    0.00000000
     atom    5 type  4   force =     0.00000000   -0.01805594   -0.01162603
     atom    6 type  4   force =    -0.01563691   -0.00902797    0.01162603
     atom    7 type  4   force =     0.00000000    0.01805594    0.01162603
     atom    8 type  4   force =    -0.01563691    0.00902797   -0.01162603
     atom    9 type  4   force =     0.01563691   -0.00902797    0.01162603
     atom   10 type  4   force =     0.01563691    0.00902797   -0.01162603
     The ionic contribution  to forces
     atom    1 type  1   force =     0.00000000   -0.00000000    0.00000000
     atom    2 type  1   force =     0.00000000    0.00000000   -0.00000000
     atom    3 type  2   force =    -0.00000000   -0.00000000    0.00000000
     atom    4 type  3   force =     0.00000000   -0.00000000    0.00000000
     atom    5 type  4   force =    -0.00000000    3.04093277    2.15026418
     atom    6 type  4   force =     2.63352503    1.52046638   -2.15026418
     atom    7 type  4   force =     0.00000000   -3.04093277   -2.15026418
     atom    8 type  4   force =     2.63352503   -1.52046638    2.15026418
     atom    9 type  4   force =    -2.63352503    1.52046638   -2.15026418
     atom   10 type  4   force =    -2.63352503   -1.52046638    2.15026418
     The local contribution  to forces
     atom    1 type  1   force =     0.00002169    0.00000476    0.00008836
     atom    2 type  1   force =    -0.00002140   -0.00000656   -0.00008697
     atom    3 type  2   force =    -0.00000094    0.00000064    0.00000019
     atom    4 type  3   force =    -0.00000395    0.00000127   -0.00001064
     atom    5 type  4   force =     0.00003255   -3.03110324   -2.14417068
     atom    6 type  4   force =    -2.62489474   -1.51547044    2.14409105
     atom    7 type  4   force =    -0.00003030    3.03110430    2.14416721
     atom    8 type  4   force =    -2.62497458    1.51555819   -2.14413462
     atom    9 type  4   force =     2.62498039   -1.51555907    2.14413620
     atom   10 type  4   force =     2.62488972    1.51547076   -2.14409027
     The core correction contribution to forces
     atom    1 type  1   force =     0.00000000    0.00000000    0.00000000
     atom    2 type  1   force =     0.00000000    0.00000000    0.00000000
     atom    3 type  2   force =     0.00000000    0.00000000    0.00000000
     atom    4 type  3   force =    -0.00000000    0.00000000   -0.00000000
     atom    5 type  4   force =    -0.00000034   -0.00043066   -0.00034477
     atom    6 type  4   force =    -0.00037312   -0.00021565    0.00034465
     atom    7 type  4   force =     0.00000035    0.00043079    0.00034484
     atom    8 type  4   force =    -0.00037461    0.00021588   -0.00034588
     atom    9 type  4   force =     0.00037263   -0.00021479    0.00034434
     atom   10 type  4   force =     0.00037329    0.00021570   -0.00034482
     The Hubbard contrib.    to forces
     atom    1 type  1   force =     0.00000000    0.00000000    0.00000000
     atom    2 type  1   force =     0.00000000    0.00000000    0.00000000
     atom    3 type  2   force =     0.00000000    0.00000000    0.00000000
     atom    4 type  3   force =     0.00000000    0.00000000    0.00000000
     atom    5 type  4   force =     0.00000000    0.00000000    0.00000000
     atom    6 type  4   force =     0.00000000    0.00000000    0.00000000
     atom    7 type  4   force =     0.00000000    0.00000000    0.00000000
     atom    8 type  4   force =     0.00000000    0.00000000    0.00000000
     atom    9 type  4   force =     0.00000000    0.00000000    0.00000000
     atom   10 type  4   force =     0.00000000    0.00000000    0.00000000
     The SCF correction term to forces
     atom    1 type  1   force =    -0.00002104   -0.00000320   -0.00001748
     atom    2 type  1   force =     0.00002119    0.00000569    0.00001570
     atom    3 type  2   force =     0.00000129   -0.00000095   -0.00000001
     atom    4 type  3   force =    -0.00000082    0.00000007    0.00000870
     atom    5 type  4   force =    -0.00004277   -0.00002486    0.00001363
     atom    6 type  4   force =    -0.00014637   -0.00010008    0.00007176
     atom    7 type  4   force =     0.00004191    0.00002549   -0.00000906
     atom    8 type  4   force =    -0.00006707    0.00000148   -0.00002535
     atom    9 type  4   force =     0.00006005    0.00000015    0.00002203
     atom   10 type  4   force =     0.00015197    0.00009975   -0.00007305

     Total force =     0.025677     Total SCF correction =     0.000301

     Computing stress (Cartesian axis) and pressure

     negative rho (up, down):  9.262E-02 0.000E+00
          total   stress  (Ry/bohr**3)                   (kbar)     P=       17.98
   0.00011833   0.00000000   0.00000000           17.41        0.00        0.00
   0.00000000   0.00011833  -0.00000000            0.00       17.41       -0.00
   0.00000000  -0.00000000   0.00012994            0.00       -0.00       19.11

     kinetic stress (kbar)   5778.13     -0.00     -0.00
                               -0.00   5778.13     -0.00
                                0.00     -0.00   5785.94

     local   stress (kbar)  -3274.32      0.04     -0.47
                                0.04  -3274.64     -0.36
                               -0.47     -0.36  -3283.59

     nonloc. stress (kbar)   3871.88     -0.00      0.00
                                0.00   3871.88     -0.00
                                0.00     -0.00   3873.68

     hartree stress (kbar)   2389.72     -0.03      0.13
                               -0.03   2389.83      0.10
                                0.13      0.10   2391.07

     exc-cor stress (kbar)   -100.90     -0.00     -0.00
                               -0.00   -100.90     -0.00
                               -0.00     -0.00   -100.87

     corecor stress (kbar)  -1628.41     -0.00     -0.00
                               -0.00  -1628.41     -0.00
                               -0.00     -0.00  -1628.52

     ewald   stress (kbar)  -7018.60     -0.00      0.00
                               -0.00  -7018.60      0.00
                                0.00      0.00  -7018.60

     hubbard stress (kbar)      0.00      0.00      0.00
                                0.00      0.00      0.00
                                0.00      0.00      0.00

     DFT-D   stress (kbar)      0.00      0.00      0.00
                                0.00      0.00      0.00
                                0.00      0.00      0.00

     XDM     stress (kbar)      0.00      0.00      0.00
                                0.00      0.00      0.00
                                0.00      0.00      0.00

     dft-nl  stress (kbar)      0.00      0.00      0.00
                                0.00      0.00      0.00
                                0.00      0.00      0.00

     TS-vdW  stress (kbar)      0.00      0.00      0.00
                                0.00      0.00      0.00
                                0.00      0.00      0.00

[...]

                                0.00      0.00      0.00

     Writing all to output data dir new_calculations/myprefix.save/

     General routines

     Parallel routines

     PAW routines

   This run was terminated on:   5:58:31  21May2023

   JOB DONE.