     Program PWSCF v.7.0 starts on 20May2023 at 12:14:48

     Reading input from espresso_11340.pwi
Warning: card &CELL ignored
Warning: card / ignored

     Current dimensions of program PWSCF are:
     Max number of different atomic species (ntypx) = 10
     Max number of k-points (npk) =  40000
     Max angular momentum in pseudopotentials (lmaxx) =  4

     gamma-point specific algorithms are used
     Message from routine setup:
     using ibrav=0 with symmetry is DISCOURAGED, use correct ibrav instead

     Subspace diagonalization in iterative solution of the eigenvalue problem:
     a serial algorithm will be used

     Using Slab Decomposition

     bravais-lattice index     =            0
     lattice parameter (alat)  =       7.4696  a.u.
     unit-cell volume          =    3682.3267 (a.u.)^3
     number of atoms/cell      =           20
     number of atomic types    =            3
     number of electrons       =       192.00
     number of Kohn-Sham states=          115
     kinetic-energy cutoff     =      30.0000  Ry
     charge density cutoff     =     240.0000  Ry
     scf convergence threshold =      1.0E-06
     mixing beta               =       0.7000
     number of iterations used =            8  plain     mixing
     Exchange-correlation=  SLA  PW   PBX  PBC
                           (   1   4   3   4   0   0   0)

     celldm(1)=   7.469634  celldm(2)=   0.000000  celldm(3)=   0.000000
     celldm(4)=   0.000000  celldm(5)=   0.000000  celldm(6)=   0.000000

     crystal axes: (cart. coord. in units of alat)
               a(1) = (   1.000000   0.000000   0.000000 )
               a(2) = (   0.000000   2.910825   0.000000 )
               a(3) = (   0.000000   0.000000   3.035346 )

     reciprocal axes: (cart. coord. in units 2 pi/alat)
               b(1) = (  1.000000  0.000000  0.000000 )
               b(2) = (  0.000000  0.343545  0.000000 )
               b(3) = (  0.000000  0.000000  0.329452 )

     PseudoPot. # 1 for Sb read from file:
     /home/pragov/projects/rrg-bengioy-ad/pragov/crystal_structure_design/SSSP/sb_pbe_v1.4.uspp.F.UPF
     MD5 check sum: 9bc50dfb53373b713f5709b9110fe27f
     Pseudo is Ultrasoft + core correction, Zval = 15.0
     Generated by new atomic code, or converted to UPF format
     Using radial grid of  891 points,  6 beta functions with:
                l(1) =   0
                l(2) =   0
                l(3) =   1
                l(4) =   1
                l(5) =   2
                l(6) =   2
     Q(r) pseudized with  8 coefficients,  rinner =    1.350   1.350   1.350
                                                       1.350   1.350

     PseudoPot. # 2 for Se read from file:
     /home/pragov/projects/rrg-bengioy-ad/pragov/crystal_structure_design/SSSP/Se_pbe_v1.uspp.F.UPF
     MD5 check sum: 1b3568f3a8ae88f9a2a0ad0698632c85
     Pseudo is Ultrasoft + core correction, Zval =  6.0
     Generated by new atomic code, or converted to UPF format
     Using radial grid of  877 points,  6 beta functions with:
                l(1) =   0
                l(2) =   0
                l(3) =   1
                l(4) =   1
                l(5) =   2
                l(6) =   2
     Q(r) pseudized with  8 coefficients,  rinner =    1.300   1.300   1.300
                                                       1.300   1.300

     PseudoPot. # 3 for S  read from file:
     /home/pragov/projects/rrg-bengioy-ad/pragov/crystal_structure_design/SSSP/s_pbe_v1.4.uspp.F.UPF
     MD5 check sum: 88d86576ff6df21479756cfb9bdac1df
     Pseudo is Ultrasoft + core correction, Zval =  6.0
     Generated by new atomic code, or converted to UPF format
     Using radial grid of  907 points,  6 beta functions with:
                l(1) =   0
                l(2) =   0
                l(3) =   1
                l(4) =   1
                l(5) =   2
                l(6) =   2
     Q(r) pseudized with  8 coefficients,  rinner =    1.300   1.300   1.300
                                                       1.300   1.300

     atomic species   valence    mass     pseudopotential
        Sb            15.00   121.76000     Sb( 1.00)
        Se             6.00    78.97100     Se( 1.00)
        S              6.00    32.06000     S ( 1.00)

      4 Sym. Ops. (no inversion) found ( 2 have fractional translation)

                                    s                        frac. trans.

      isym =  1     identity

 cryst.   s( 1) = (     1          0          0      )
                  (     0          1          0      )
                  (     0          0          1      )

 cart.    s( 1) = (  1.0000000  0.0000000  0.0000000 )
                  (  0.0000000  1.0000000  0.0000000 )
                  (  0.0000000  0.0000000  1.0000000 )

      isym =  2     180 deg rotation - cart. axis [0,0,1]

 cryst.   s( 2) = (    -1          0          0      )    f =(  0.0000000 )
                  (     0         -1          0      )       (  0.0000000 )
                  (     0          0          1      )       ( -0.5000000 )

 cart.    s( 2) = ( -1.0000000  0.0000000  0.0000000 )    f =(  0.0000000 )
                  (  0.0000000 -1.0000000  0.0000000 )       (  0.0000000 )
                  (  0.0000000  0.0000000  1.0000000 )       ( -1.5176732 )

      isym =  3     inv. 180 deg rotation - cart. axis [0,1,0]

 cryst.   s( 3) = (     1          0          0      )    f =(  0.0000000 )
                  (     0         -1          0      )       (  0.0000000 )
                  (     0          0          1      )       ( -0.5000000 )

 cart.    s( 3) = (  1.0000000  0.0000000  0.0000000 )    f =(  0.0000000 )
                  (  0.0000000 -1.0000000  0.0000000 )       (  0.0000000 )
                  (  0.0000000  0.0000000  1.0000000 )       ( -1.5176732 )

      isym =  4     inv. 180 deg rotation - cart. axis [1,0,0]

 cryst.   s( 4) = (    -1          0          0      )
                  (     0          1          0      )
                  (     0          0          1      )

 cart.    s( 4) = ( -1.0000000  0.0000000  0.0000000 )
                  (  0.0000000  1.0000000  0.0000000 )
                  (  0.0000000  0.0000000  1.0000000 )

   Cartesian axes

     site n.     atom                  positions (alat units)
         1           Sb  tau(   1) = (   0.5000000   0.6070089   1.9632226  )
         2           Sb  tau(   2) = (   0.5000000   2.3038162   0.4455494  )
         3           Sb  tau(   3) = (   0.0000000   0.8314801   1.0734715  )
         4           Sb  tau(   4) = (   0.0000000   2.0793450   2.5911447  )
         5           Sb  tau(   5) = (   0.0000000   2.6839030   1.6300903  )
         6           Sb  tau(   6) = (   0.0000000   0.2269221   0.1124171  )
         7           Sb  tau(   7) = (   0.5000000   1.7014006   1.4170393  )
         8           Sb  tau(   8) = (   0.5000000   1.2094245   2.9347126  )
         9           Se  tau(   9) = (   0.5000000   1.2962632   0.8703127  )
        10           Se  tau(  10) = (   0.5000000   1.6145619   2.3879860  )
        11           Se  tau(  11) = (   0.0000000   1.0963448   1.6836035  )
        12           Se  tau(  12) = (   0.0000000   1.8144803   0.1659302  )
        13           Se  tau(  13) = (   0.5000000   0.3387531   1.3571429  )
        14           Se  tau(  14) = (   0.5000000   2.5720720   2.8748161  )
        15           S   tau(  15) = (   0.5000000   2.3553553   1.8962507  )
        16           S   tau(  16) = (   0.5000000   0.5554698   0.3785775  )
        17           S   tau(  17) = (   0.0000000   2.0221356   1.1489151  )
        18           S   tau(  18) = (   0.0000000   0.8886895   2.6665883  )
        19           S   tau(  19) = (   0.0000000   0.1699340   2.1366866  )
        20           S   tau(  20) = (   0.0000000   2.7408911   0.6190134  )

   Crystallographic axes

     site n.     atom                  positions (cryst. coord.)
         1           Sb  tau(   1) = (  0.5000000  0.2085350  0.6467870  )
         2           Sb  tau(   2) = (  0.5000000  0.7914650  0.1467870  )
         3           Sb  tau(   3) = (  0.0000000  0.2856510  0.3536570  )
         4           Sb  tau(   4) = (  0.0000000  0.7143490  0.8536570  )
         5           Sb  tau(   5) = (  0.0000000  0.9220420  0.5370360  )
         6           Sb  tau(   6) = (  0.0000000  0.0779580  0.0370360  )
         7           Sb  tau(   7) = (  0.5000000  0.5845080  0.4668460  )
         8           Sb  tau(   8) = (  0.5000000  0.4154920  0.9668460  )
         9           Se  tau(   9) = (  0.5000000  0.4453250  0.2867260  )
        10           Se  tau(  10) = (  0.5000000  0.5546750  0.7867260  )
        11           Se  tau(  11) = (  0.0000000  0.3766440  0.5546660  )
        12           Se  tau(  12) = (  0.0000000  0.6233560  0.0546660  )
        13           Se  tau(  13) = (  0.5000000  0.1163770  0.4471130  )
        14           Se  tau(  14) = (  0.5000000  0.8836230  0.9471130  )
        15           S   tau(  15) = (  0.5000000  0.8091710  0.6247230  )
        16           S   tau(  16) = (  0.5000000  0.1908290  0.1247230  )
        17           S   tau(  17) = (  0.0000000  0.6946950  0.3785120  )
        18           S   tau(  18) = (  0.0000000  0.3053050  0.8785120  )
        19           S   tau(  19) = (  0.0000000  0.0583800  0.7039350  )
        20           S   tau(  20) = (  0.0000000  0.9416200  0.2039350  )

     number of k points=     1  Methfessel-Paxton smearing, width (Ry)=  0.0010
                       cart. coord. in units 2pi/alat
        k(    1) = (   0.0000000   0.0000000   0.0000000), wk =   2.0000000

                       cryst. coord.
        k(    1) = (   0.0000000   0.0000000   0.0000000), wk =   2.0000000

     Check: negative core charge=   -0.000003

     Initial potential from superposition of free atoms

     starting charge     183.9993, renormalised to     192.0000
     Starting wfcs are  120 randomized atomic wfcs

     Self-consistent Calculation

     iteration #  1     ecut=    30.00 Ry     beta= 0.70
     Davidson diagonalization with overlap

     ethr =  1.00E-02,  avg # of iterations =  3.0

     total energy              =   -1881.24505615 Ry
     estimated scf accuracy    <       6.23833964 Ry

[...]

     total energy              =   -1884.15510544 Ry
     estimated scf accuracy    <       0.00001336 Ry

     iteration # 15     ecut=    30.00 Ry     beta= 0.70
     Davidson diagonalization with overlap

     ethr =  6.96E-09,  avg # of iterations =  2.0

     End of self-consistent calculation

          k = 0.0000 0.0000 0.0000 (  5128 PWs)   bands (ev):

   -22.7510 -22.7505 -22.7285 -22.7280 -22.7194 -22.7191 -22.6953 -22.6950
   -22.6936 -22.6927 -22.6860 -22.6857 -22.6806 -22.6799 -22.6747 -22.6746
   -22.6734 -22.6722 -22.6517 -22.6504 -22.6499 -22.6497 -22.6459 -22.6445
   -22.6333 -22.6328 -22.6324 -22.6315 -22.6025 -22.6019 -22.6009 -22.6009
   -22.5968 -22.5933 -22.5922 -22.5915 -22.5914 -22.5888 -22.5847 -22.5825
    -7.2529  -7.0600  -6.5576  -6.5163  -6.2634  -6.1424  -5.5650  -5.4979
    -5.4685  -5.3367  -5.1818  -5.1362  -2.2247  -2.1055  -1.9997  -1.5946
    -1.4075  -1.3100  -0.3658  -0.0421   2.2230   2.2662   2.6754   2.8286
     3.1593   3.3047   3.3558   3.4490   3.6070   3.7647   3.9020   4.0246
     4.1738   4.1911   4.4149   4.4266   4.4799   4.5332   4.8156   4.8438
     5.0273   5.2814   5.3706   5.5830   5.6293   5.7297   5.7658   5.9006
     5.9258   5.9824   6.0899   6.1405   6.3734   6.5058   6.5938   6.6270
     7.8364   7.9458   8.0758   8.0782   8.4141   8.5366   8.8382   8.9468
     9.0917   9.1081   9.2134   9.3324   9.4143   9.5642   9.6016   9.7732
     9.7748   9.9378  10.3198

     occupation numbers
     1.0000   1.0000   1.0000   1.0000   1.0000   1.0000   1.0000   1.0000
     1.0000   1.0000   1.0000   1.0000   1.0000   1.0000   1.0000   1.0000
     1.0000   1.0000   1.0000   1.0000   1.0000   1.0000   1.0000   1.0000
     1.0000   1.0000   1.0000   1.0000   1.0000   1.0000   1.0000   1.0000
     1.0000   1.0000   1.0000   1.0000   1.0000   1.0000   1.0000   1.0000
     1.0000   1.0000   1.0000   1.0000   1.0000   1.0000   1.0000   1.0000
     1.0000   1.0000   1.0000   1.0000   1.0000   1.0000   1.0000   1.0000
     1.0000   1.0000   1.0000   1.0000   1.0000   1.0000   1.0000   1.0000
     1.0000   1.0000   1.0000   1.0000   1.0000   1.0000   1.0000   1.0000
     1.0000   1.0000   1.0000   1.0000   1.0000   1.0000   1.0000   1.0000
     1.0000   1.0000   1.0000   1.0000   1.0000   1.0000   1.0000   1.0000
     1.0000   1.0000   1.0000   1.0000   1.0000   1.0000   1.0000   1.0000
    -0.0000  -0.0000  -0.0000  -0.0000  -0.0000  -0.0000  -0.0000  -0.0000
    -0.0000  -0.0000  -0.0000  -0.0000  -0.0000  -0.0000  -0.0000  -0.0000
    -0.0000  -0.0000  -0.0000

     the Fermi energy is     7.3300 ev

!    total energy              =   -1884.15510711 Ry
     estimated scf accuracy    <       0.00000031 Ry
     smearing contrib. (-TS)   =       0.00000000 Ry
     internal energy E=F+TS    =   -1884.15510711 Ry

     The total energy is F=E-TS. E is the sum of the following terms:
     one-electron contribution =    -829.96568982 Ry
     hartree contribution      =     507.93885878 Ry
     xc contribution           =    -581.26284789 Ry
     ewald contribution        =    -980.86542818 Ry

     convergence has been achieved in  15 iterations

     Forces acting on atoms (cartesian axes, Ry/au):

     atom    1 type  1   force =     0.00000000   -0.01559142    0.00319410
     atom    2 type  1   force =     0.00000000    0.01559142    0.00319410
     atom    3 type  1   force =     0.00000000    0.00709222   -0.00081496
     atom    4 type  1   force =     0.00000000   -0.00709222   -0.00081496
     atom    5 type  1   force =     0.00000000   -0.01146376    0.01863912
     atom    6 type  1   force =     0.00000000    0.01146376    0.01863912
     atom    7 type  1   force =     0.00000000    0.01656987   -0.01262259
     atom    8 type  1   force =     0.00000000   -0.01656987   -0.01262259
     atom    9 type  2   force =     0.00000000   -0.00348588    0.00817003
     atom   10 type  2   force =     0.00000000    0.00348588    0.00817003
     atom   11 type  2   force =     0.00000000   -0.00877592    0.01244432
     atom   12 type  2   force =     0.00000000    0.00877592    0.01244432
     atom   13 type  2   force =    -0.00000000    0.00366225   -0.00983353
     atom   14 type  2   force =     0.00000000   -0.00366225   -0.00983353
     atom   15 type  3   force =     0.00000000    0.00632243    0.00045754
     atom   16 type  3   force =     0.00000000   -0.00632243    0.00045754
     atom   17 type  3   force =     0.00000000   -0.00496447   -0.00488009
     atom   18 type  3   force =     0.00000000    0.00496447   -0.00488009
     atom   19 type  3   force =     0.00000000    0.00963063   -0.01475394
     atom   20 type  3   force =     0.00000000   -0.00963063   -0.01475394
     The non-local contrib.  to forces
     atom    1 type  1   force =     0.00000000   -0.22740823   -0.38412912
     atom    2 type  1   force =     0.00000000    0.22740823   -0.38412912
     atom    3 type  1   force =     0.00000000    0.27403339    0.32147984
     atom    4 type  1   force =     0.00000000   -0.27403339    0.32147984
     atom    5 type  1   force =     0.00000000   -0.01374948    0.46790847
     atom    6 type  1   force =     0.00000000    0.01374948    0.46790847
     atom    7 type  1   force =     0.00000000    0.11768984   -0.45751623
     atom    8 type  1   force =     0.00000000   -0.11768984   -0.45751623
     atom    9 type  2   force =     0.00000000   -0.01316691    0.20429624
     atom   10 type  2   force =     0.00000000    0.01316691    0.20429624
     atom   11 type  2   force =     0.00000000   -0.12449884   -0.16486564
     atom   12 type  2   force =     0.00000000    0.12449884   -0.16486564
     atom   13 type  2   force =     0.00000000    0.10103579    0.17398389
     atom   14 type  2   force =     0.00000000   -0.10103579    0.17398389
     atom   15 type  3   force =     0.00000000   -0.05395182   -0.03835500
     atom   16 type  3   force =    -0.00000000    0.05395182   -0.03835500
     atom   17 type  3   force =     0.00000000    0.05988895    0.05739366
     atom   18 type  3   force =    -0.00000000   -0.05988895    0.05739366
     atom   19 type  3   force =     0.00000000   -0.05707118   -0.16719482
     atom   20 type  3   force =     0.00000000    0.05707118   -0.16719482
     The ionic contribution  to forces
     atom    1 type  1   force =     0.00000000    4.78696616    8.13029016
     atom    2 type  1   force =    -0.00000000   -4.78696616    8.13029016
     atom    3 type  1   force =     0.00000000   -1.90075617   -7.76138331
     atom    4 type  1   force =     0.00000000    1.90075617   -7.76138331
     atom    5 type  1   force =     0.00000000   -2.86742999   -6.16958582
     atom    6 type  1   force =    -0.00000000    2.86742999   -6.16958582
     atom    7 type  1   force =     0.00000000    0.33492519    5.34759123
     atom    8 type  1   force =    -0.00000000   -0.33492519    5.34759123
     atom    9 type  2   force =    -0.00000000    2.09186728   -5.67950684
     atom   10 type  2   force =    -0.00000000   -2.09186728   -5.67950684
     atom   11 type  2   force =    -0.00000000    4.22119407    4.30450998
     atom   12 type  2   force =    -0.00000000   -4.22119407    4.30450998
     atom   13 type  2   force =     0.00000000   -3.32531223   -4.89534380
     atom   14 type  2   force =     0.00000000    3.32531223   -4.89534380
     atom   15 type  3   force =    -0.00000000   -3.23946238    3.07338484
     atom   16 type  3   force =     0.00000000    3.23946238    3.07338484
     atom   17 type  3   force =     0.00000000    2.54358938   -3.17106684
     atom   18 type  3   force =    -0.00000000   -2.54358938   -3.17106684
     atom   19 type  3   force =     0.00000000   -1.80425452    6.82111040
     atom   20 type  3   force =    -0.00000000    1.80425452    6.82111040
     The local contribution  to forces
     atom    1 type  1   force =     0.00000646   -4.57803969   -7.74485070
     atom    2 type  1   force =    -0.00000190    4.57848497   -7.74468061
     atom    3 type  1   force =     0.00000721    1.63451393    7.44105596
     atom    4 type  1   force =    -0.00000324   -1.63452828    7.44030547
     atom    5 type  1   force =    -0.00000047    2.86759287    5.72533063
     atom    6 type  1   force =    -0.00000369   -2.86788625    5.72515961
     atom    7 type  1   force =    -0.00000348   -0.43222319   -4.90608440
     atom    8 type  1   force =     0.00000449    0.43194745   -4.90694355
     atom    9 type  2   force =     0.00000242   -2.08269328    5.50584576
     atom   10 type  2   force =     0.00000227    2.08265910    5.50548822
     atom   11 type  2   force =     0.00000140   -4.11937553   -4.14552042
     atom   12 type  2   force =     0.00000076    4.11950403   -4.14562789
     atom   13 type  2   force =     0.00000198    3.23888485    4.73100552
     atom   14 type  2   force =    -0.00000229   -3.23881524    4.73088536
     atom   15 type  3   force =     0.00000056    3.29627725   -3.03612926
     atom   16 type  3   force =     0.00000196   -3.29633217   -3.03613349
     atom   17 type  3   force =     0.00000291   -2.60422918    3.11152370
     atom   18 type  3   force =    -0.00000276    2.60414210    3.11126779
     atom   19 type  3   force =     0.00000132    1.86739498   -6.67755214
     atom   20 type  3   force =     0.00000333   -1.86728567   -6.67757143
     The core correction contribution to forces
     atom    1 type  1   force =     0.00000013    0.00263376    0.00162680
     atom    2 type  1   force =    -0.00000001   -0.00263027    0.00162794
     atom    3 type  1   force =     0.00000033   -0.00179220   -0.00143516
     atom    4 type  1   force =    -0.00000014    0.00179093   -0.00143792
     atom    5 type  1   force =    -0.00000001    0.00201868   -0.00444916
     atom    6 type  1   force =    -0.00000007   -0.00201574   -0.00445242
     atom    7 type  1   force =    -0.00000006   -0.00325347    0.00396274
     atom    8 type  1   force =     0.00000008    0.00324448    0.00395575
     atom    9 type  2   force =     0.00000028    0.00053098   -0.02233969
     atom   10 type  2   force =     0.00000019   -0.00053574   -0.02233968
     atom   11 type  2   force =    -0.00000023    0.01369802    0.01848150
     atom   12 type  2   force =    -0.00000008   -0.01369931    0.01848004
     atom   13 type  2   force =     0.00000017   -0.01097561   -0.01931188
     atom   14 type  2   force =    -0.00000036    0.01098143   -0.01931291
     atom   15 type  3   force =    -0.00000024    0.00367256    0.00158144
     atom   16 type  3   force =     0.00000011   -0.00366935    0.00157806
     atom   17 type  3   force =    -0.00000008   -0.00409902   -0.00264192
     atom   18 type  3   force =     0.00000002    0.00409794   -0.00263925
     atom   19 type  3   force =     0.00000001    0.00355674    0.00879774
     atom   20 type  3   force =     0.00000008   -0.00355558    0.00879387
     The Hubbard contrib.    to forces
     atom    1 type  1   force =     0.00000000    0.00000000    0.00000000
     atom    2 type  1   force =     0.00000000    0.00000000    0.00000000
     atom    3 type  1   force =     0.00000000    0.00000000    0.00000000
     atom    4 type  1   force =     0.00000000    0.00000000    0.00000000
     atom    5 type  1   force =     0.00000000    0.00000000    0.00000000
     atom    6 type  1   force =     0.00000000    0.00000000    0.00000000
     atom    7 type  1   force =     0.00000000    0.00000000    0.00000000
     atom    8 type  1   force =     0.00000000    0.00000000    0.00000000
     atom    9 type  2   force =     0.00000000    0.00000000    0.00000000
     atom   10 type  2   force =     0.00000000    0.00000000    0.00000000
     atom   11 type  2   force =     0.00000000    0.00000000    0.00000000
     atom   12 type  2   force =     0.00000000    0.00000000    0.00000000
     atom   13 type  2   force =     0.00000000    0.00000000    0.00000000
     atom   14 type  2   force =     0.00000000    0.00000000    0.00000000
     atom   15 type  3   force =     0.00000000    0.00000000    0.00000000
     atom   16 type  3   force =     0.00000000    0.00000000    0.00000000
     atom   17 type  3   force =     0.00000000    0.00000000    0.00000000
     atom   18 type  3   force =     0.00000000    0.00000000    0.00000000
     atom   19 type  3   force =     0.00000000    0.00000000    0.00000000
     atom   20 type  3   force =     0.00000000    0.00000000    0.00000000
     The SCF correction term to forces
     atom    1 type  1   force =    -0.00000742    0.00026051    0.00023693
     atom    2 type  1   force =     0.00000223   -0.00070143    0.00006524
     atom    3 type  1   force =    -0.00000477    0.00109467   -0.00055364
     atom    4 type  1   force =     0.00000603   -0.00107625    0.00020179
     atom    5 type  1   force =     0.00000136    0.00011909   -0.00058029
     atom    6 type  1   force =     0.00000506    0.00020122   -0.00041594
     atom    7 type  1   force =     0.00000263   -0.00056428   -0.00059654
     atom    8 type  1   force =    -0.00000613    0.00085745    0.00027029
     atom    9 type  2   force =    -0.00000025   -0.00004690   -0.00015521
     atom   10 type  2   force =    -0.00000121    0.00003994    0.00022136
     atom   11 type  2   force =    -0.00000087    0.00020059   -0.00017306
     atom   12 type  2   force =    -0.00000036   -0.00033935   -0.00008073
     atom   13 type  2   force =    -0.00000018    0.00005105   -0.00018456
     atom   14 type  2   force =     0.00000080   -0.00008328   -0.00006928
     atom   15 type  3   force =    -0.00000066   -0.00017999   -0.00001604
     atom   16 type  3   force =    -0.00000161    0.00029808   -0.00006582
     atom   17 type  3   force =    -0.00000161   -0.00013526   -0.00013155
     atom   18 type  3   force =     0.00000150    0.00018210    0.00016690
     atom   19 type  3   force =     0.00000023    0.00004109    0.00010389
     atom   20 type  3   force =    -0.00000065   -0.00007863    0.00004853

     Total force =     0.063827     Total SCF correction =     0.002436

     Computing stress (Cartesian axis) and pressure

          total   stress  (Ry/bohr**3)                   (kbar)     P=        6.23
   0.00130527   0.00000000   0.00000000          192.01        0.00        0.00
   0.00000000  -0.00064290   0.00000000            0.00      -94.57        0.00
   0.00000000   0.00000000  -0.00053537            0.00        0.00      -78.76

     kinetic stress (kbar)  10089.15      0.00      0.00
                                0.00   9835.38      0.00
                                0.00      0.00   9856.09

     local   stress (kbar)  -7434.67     -0.00      0.00
                               -0.00  -3165.98     -0.00
                                0.00     -0.00   3555.56

     nonloc. stress (kbar)   2362.95      0.00      0.00
                                0.00   2304.85      0.00
                                0.00      0.00   2330.58

     hartree stress (kbar)   8909.55     -0.00      0.00
                               -0.00   7122.31      0.01
                                0.00      0.01   4259.76

     exc-cor stress (kbar)  10694.40      0.00     -0.00
                                0.00  10695.35     -0.00
                               -0.00     -0.00  10693.78

     corecor stress (kbar) -14307.32     -0.00      0.00
                               -0.00 -14299.34      0.00
                                0.00      0.00 -14299.18

     ewald   stress (kbar) -10122.05     -0.00      0.00
                               -0.00 -12587.14      0.00
                                0.00      0.00 -16475.35

     hubbard stress (kbar)      0.00      0.00      0.00
                                0.00      0.00      0.00
                                0.00      0.00      0.00

     DFT-D   stress (kbar)      0.00      0.00      0.00
                                0.00      0.00      0.00
                                0.00      0.00      0.00

     XDM     stress (kbar)      0.00      0.00      0.00
                                0.00      0.00      0.00
                                0.00      0.00      0.00

     dft-nl  stress (kbar)      0.00      0.00      0.00
                                0.00      0.00      0.00
                                0.00      0.00      0.00

     TS-vdW  stress (kbar)      0.00      0.00      0.00
                                0.00      0.00      0.00
                                0.00      0.00      0.00

[...]

                                0.00      0.00      0.00

     Writing all to output data dir new_calculations/myprefix.save/

     General routines

     Parallel routines

   This run was terminated on:  12:15:46  20May2023

   JOB DONE.