     Program PWSCF v.7.0 starts on 20May2023 at 21:45:51

     Reading input from espresso_10744.pwi
Warning: card &CELL ignored
Warning: card / ignored

     Current dimensions of program PWSCF are:
     Max number of different atomic species (ntypx) = 10
     Max number of k-points (npk) =  40000
     Max angular momentum in pseudopotentials (lmaxx) =  4
     file K.pbe-spn-kjpaw_psl.1.0.0.UPF: wavefunction(s)  3S renormalized
     file Pb.pbe-dn-kjpaw_psl.0.2.2.UPF: wavefunction(s)  6S renormalized

     gamma-point specific algorithms are used
     Message from routine setup:
     using ibrav=0 with symmetry is DISCOURAGED, use correct ibrav instead

     Subspace diagonalization in iterative solution of the eigenvalue problem:
     a serial algorithm will be used

     Using Slab Decomposition

     bravais-lattice index     =            0
     lattice parameter (alat)  =      16.4221  a.u.
     unit-cell volume          =    3487.8412 (a.u.)^3
     number of atoms/cell      =           13
     number of atomic types    =            3
     number of electrons       =       111.00
     number of Kohn-Sham states=           67
     kinetic-energy cutoff     =      30.0000  Ry
     charge density cutoff     =     240.0000  Ry
     scf convergence threshold =      1.0E-06
     mixing beta               =       0.7000
     number of iterations used =            8  plain     mixing
     Exchange-correlation=  SLA  PW   PBX  PBC
                           (   1   4   3   4   0   0   0)

     celldm(1)=  16.422141  celldm(2)=   0.000000  celldm(3)=   0.000000
     celldm(4)=   0.000000  celldm(5)=   0.000000  celldm(6)=   0.000000

     crystal axes: (cart. coord. in units of alat)
               a(1) = (   1.000000   0.000000   0.000000 )
               a(2) = (   0.486359   0.914197   0.000000 )
               a(3) = (   0.497422   0.296025   0.861445 )

     reciprocal axes: (cart. coord. in units 2 pi/alat)
               b(1) = (  1.000000 -0.532006 -0.394610 )
               b(2) = (  0.000000  1.093856 -0.375890 )
               b(3) = (  0.000000  0.000000  1.160840 )

     PseudoPot. # 1 for K  read from file:
     /home/pragov/projects/rrg-bengioy-ad/pragov/crystal_structure_design/SSSP/K.pbe-spn-kjpaw_psl.1.0.0.UPF
     MD5 check sum: 7d58810084cac21f60fbe77ea2b688fd
     Pseudo is Projector augmented-wave + core cor, Zval =  9.0
     Generated using "atomic" code by A. Dal Corso  v.5.1
     Shape of augmentation charge: PSQ
     Using radial grid of 1165 points,  6 beta functions with:
                l(1) =   0
                l(2) =   0
                l(3) =   1
                l(4) =   1
                l(5) =   2
                l(6) =   2
     Q(r) pseudized with 0 coefficients

     PseudoPot. # 2 for Pb read from file:
     /home/pragov/projects/rrg-bengioy-ad/pragov/crystal_structure_design/SSSP/Pb.pbe-dn-kjpaw_psl.0.2.2.UPF
     MD5 check sum: 9d431e6316058b74ade52399a6cf67da
     Pseudo is Projector augmented-wave + core cor, Zval = 14.0
     Generated using "atomic" code by A. Dal Corso  v.5.0.99 svn rev. 10869
     Shape of augmentation charge: PSQ
     Using radial grid of 1281 points,  6 beta functions with:
                l(1) =   0
                l(2) =   0
                l(3) =   1
                l(4) =   1
                l(5) =   2
                l(6) =   2
     Q(r) pseudized with 0 coefficients

     PseudoPot. # 3 for Cl read from file:
     /home/pragov/projects/rrg-bengioy-ad/pragov/crystal_structure_design/SSSP/cl_pbe_v1.4.uspp.F.UPF
     MD5 check sum: fc6f6913ecf08c9257cb748ef0700058
     Pseudo is Ultrasoft + core correction, Zval =  7.0
     Generated by new atomic code, or converted to UPF format
     Using radial grid of  909 points,  6 beta functions with:
                l(1) =   0
                l(2) =   0
                l(3) =   1
                l(4) =   1
                l(5) =   2
                l(6) =   2
     Q(r) pseudized with  8 coefficients,  rinner =    1.300   1.300   1.300
                                                       1.300   1.300

     atomic species   valence    mass     pseudopotential
        K              9.00    39.09830     K ( 1.00)
        Pb            14.00   207.20000     Pb( 1.00)
        Cl             7.00    35.45000     Cl( 1.00)

      2 Sym. Ops., with inversion, found

                                    s                        frac. trans.

      isym =  1     identity

 cryst.   s( 1) = (     1          0          0      )
                  (     0          1          0      )
                  (     0          0          1      )

 cart.    s( 1) = (  1.0000000 -0.0000000 -0.0000000 )
                  (  0.0000000  1.0000000  0.0000000 )
                  (  0.0000000  0.0000000  1.0000000 )

      isym =  2     inversion

 cryst.   s( 2) = (    -1          0          0      )
                  (     0         -1          0      )
                  (     0          0         -1      )

 cart.    s( 2) = ( -1.0000000  0.0000000  0.0000000 )
                  (  0.0000000 -1.0000000 -0.0000000 )
                  (  0.0000000  0.0000000 -1.0000000 )

   Cartesian axes

     site n.     atom                  positions (alat units)
         1           K   tau(   1) = (   0.0000000   0.0000000   0.0000000  )
         2           K   tau(   2) = (   0.4918903   0.6051110   0.4307224  )
         3           K   tau(   3) = (   0.9918903   0.6051110   0.4307224  )
         4           Pb  tau(   4) = (   0.7487110   0.1480124   0.4307224  )
         5           Pb  tau(   5) = (   0.2487110   0.1480124   0.4307224  )
         6           Cl  tau(   6) = (   0.7359072   0.4222168   0.6105094  )
         7           Cl  tau(   7) = (   1.2478734   0.7880051   0.2509354  )
         8           Cl  tau(   8) = (   0.7345183   0.8035134   0.2541168  )
         9           Cl  tau(   9) = (   1.2492624   0.4067086   0.6073281  )
        10           Cl  tau(  10) = (   1.0104988   0.2768121   0.2516763  )
        11           Cl  tau(  11) = (   0.9732818   0.9334099   0.6097686  )
        12           Cl  tau(  12) = (   0.4811149   0.2715189   0.2556906  )
        13           Cl  tau(  13) = (   1.5026657   0.9387031   0.6057542  )

   Crystallographic axes

     site n.     atom                  positions (cryst. coord.)
         1           K   tau(   1) = (  0.0000000  0.0000000  0.0000000  )
         2           K   tau(   2) = (  0.0000000  0.5000000  0.5000000  )
         3           K   tau(   3) = (  0.5000000  0.5000000  0.5000000  )
         4           Pb  tau(   4) = (  0.5000000 -0.0000000  0.5000000  )
         5           Pb  tau(   5) = (  0.0000000 -0.0000000  0.5000000  )
         6           Cl  tau(   6) = (  0.2703720  0.2323600  0.7087040  )
         7           Cl  tau(   7) = (  0.7296280  0.7676400  0.2912960  )
         8           Cl  tau(   8) = (  0.2067670  0.7834080  0.2949890  )
         9           Cl  tau(   9) = (  0.7932330  0.2165920  0.7050110  )
        10           Cl  tau(  10) = (  0.7639190  0.2081900  0.2921560  )
        11           Cl  tau(  11) = (  0.2360810  0.7918100  0.7078440  )
        12           Cl  tau(  12) = (  0.2357670  0.2008910  0.2968160  )
        13           Cl  tau(  13) = (  0.7642330  0.7991090  0.7031840  )

     number of k points=     1  Methfessel-Paxton smearing, width (Ry)=  0.0010
                       cart. coord. in units 2pi/alat
        k(    1) = (   0.0000000   0.0000000   0.0000000), wk =   2.0000000

                       cryst. coord.
        k(    1) = (   0.0000000   0.0000000   0.0000000), wk =   2.0000000

     Check: negative core charge=   -0.000002

     Initial potential from superposition of free atoms

     starting charge     110.9387, renormalised to     111.0000

     negative rho (up, down):  1.201E-01 0.000E+00
     Starting wfcs are   74 randomized atomic wfcs
     Checking if some PAW data can be deallocated...

     Self-consistent Calculation

     iteration #  1     ecut=    30.00 Ry     beta= 0.70
     Davidson diagonalization with overlap

     ethr =  1.00E-02,  avg # of iterations =  7.0

     Threshold (ethr) on eigenvalues was too large:
     Diagonalizing with lowered threshold

     Davidson diagonalization with overlap

[...]

     negative rho (up, down):  1.244E-01 0.000E+00

     total energy              =   -2347.50253894 Ry
     estimated scf accuracy    <       0.64967949 Ry

[...]

     total energy              =   -2347.77589289 Ry
     estimated scf accuracy    <       0.00000227 Ry

     iteration # 10     ecut=    30.00 Ry     beta= 0.70
     Davidson diagonalization with overlap

     ethr =  2.05E-09,  avg # of iterations =  4.0

[...]

     End of self-consistent calculation

          k = 0.0000 0.0000 0.0000 (  4820 PWs)   bands (ev):

   -27.8916 -27.8577 -27.6567 -15.5108 -15.5058 -15.3494 -15.3431 -15.3099
   -15.2514 -15.2396 -15.1925 -15.1837 -15.1312 -13.4112 -13.2434 -13.0840
   -13.0388 -12.8304 -12.7113 -12.6062 -12.3850 -11.4090 -11.3944 -11.3650
   -11.3221 -11.3045 -11.2555 -11.1734 -11.1168 -11.0283  -6.7120  -6.2016
    -2.5928  -2.4905  -2.4104  -1.8460  -1.8001  -1.6486  -1.5139  -1.2955
    -1.1635  -1.0814  -1.0778  -1.0146  -1.0116  -0.9388  -0.8943  -0.8311
    -0.8021  -0.7527  -0.6592  -0.5745  -0.5004  -0.3881  -0.0235   0.3854
     3.8237   5.0242   5.2022   5.5366   5.5468   5.5813   6.0402   7.0634
     7.1456   7.3130   7.6367

     occupation numbers
     1.0000   1.0000   1.0000   1.0000   1.0000   1.0000   1.0000   1.0000
     1.0000   1.0000   1.0000   1.0000   1.0000   1.0000   1.0000   1.0000
     1.0000   1.0000   1.0000   1.0000   1.0000   1.0000   1.0000   1.0000
     1.0000   1.0000   1.0000   1.0000   1.0000   1.0000   1.0000   1.0000
     1.0000   1.0000   1.0000   1.0000   1.0000   1.0000   1.0000   1.0000
     1.0000   1.0000   1.0000   1.0000   1.0000   1.0000   1.0000   1.0000
     1.0000   1.0000   1.0000   1.0000   1.0000   1.0000   1.0000   0.5000
    -0.0000  -0.0000  -0.0000  -0.0000  -0.0000  -0.0000  -0.0000  -0.0000
    -0.0000  -0.0000  -0.0000

     the Fermi energy is     0.3854 ev

!    total energy              =   -2347.77589352 Ry
     estimated scf accuracy    <       0.00000043 Ry
     smearing contrib. (-TS)   =      -0.00028209 Ry
     internal energy E=F+TS    =   -2347.77561143 Ry

     The total energy is F=E-TS. E is the sum of the following terms:
     one-electron contribution =    -430.86849203 Ry
     hartree contribution      =     257.93870466 Ry
     xc contribution           =    -198.18895709 Ry
     ewald contribution        =    -353.44273088 Ry
     one-center paw contrib.   =   -1623.21413608 Ry
      -> PAW hartree energy AE =     305.15668426 Ry
      -> PAW hartree energy PS =    -304.11616558 Ry
      -> PAW xc energy AE      =   -1743.26164977 Ry
      -> PAW xc energy PS      =     119.00699500 Ry
      -> total E_H with PAW    =     258.97922334 Ry
      -> total E_XC with PAW   =   -1822.44361186 Ry

     convergence has been achieved in  10 iterations

     negative rho (up, down):  1.195E-01 0.000E+00

     Forces acting on atoms (cartesian axes, Ry/au):

     atom    1 type  1   force =     0.00000000    0.00000000    0.00000000
     atom    2 type  1   force =     0.00000000    0.00000000    0.00000000
     atom    3 type  1   force =     0.00000000    0.00000000    0.00000000
     atom    4 type  2   force =     0.00000000    0.00000000    0.00000000
     atom    5 type  2   force =     0.00000000    0.00000000    0.00000000
     atom    6 type  3   force =    -0.00087854   -0.00275528   -0.00359928
     atom    7 type  3   force =     0.00087854    0.00275528    0.00359928
     atom    8 type  3   force =    -0.00064685   -0.00127819   -0.00040059
     atom    9 type  3   force =     0.00064685    0.00127819    0.00040059
     atom   10 type  3   force =    -0.00123933   -0.00171515    0.00150433
     atom   11 type  3   force =     0.00123933    0.00171515   -0.00150433
     atom   12 type  3   force =     0.00322310    0.00094873    0.00289682
     atom   13 type  3   force =    -0.00322310   -0.00094873   -0.00289682
     The non-local contrib.  to forces
     atom    1 type  1   force =     0.00000000    0.00000000    0.00000000
     atom    2 type  1   force =     0.00000000    0.00000000    0.00000000
     atom    3 type  1   force =     0.00000000    0.00000000    0.00000000
     atom    4 type  2   force =     0.00000000    0.00000000    0.00000000
     atom    5 type  2   force =     0.00000000    0.00000000    0.00000000
     atom    6 type  3   force =    -0.02097508   -0.04103285   -0.05567909
     atom    7 type  3   force =     0.02097508    0.04103285    0.05567909
     atom    8 type  3   force =    -0.02520653    0.05692621    0.06947739
     atom    9 type  3   force =     0.02520653   -0.05692621   -0.06947739
     atom   10 type  3   force =     0.00745128   -0.05397201    0.07092947
     atom   11 type  3   force =    -0.00745128    0.05397201   -0.07092947
     atom   12 type  3   force =    -0.01466726   -0.02942850    0.10497745
     atom   13 type  3   force =     0.01466726    0.02942850   -0.10497745
     The ionic contribution  to forces
     atom    1 type  1   force =    -0.00000000   -0.00000000   -0.00000000
     atom    2 type  1   force =     0.00000000    0.00000000   -0.00000000
     atom    3 type  1   force =    -0.00000000    0.00000000   -0.00000000
     atom    4 type  2   force =    -0.00000000   -0.00000000   -0.00000000
     atom    5 type  2   force =    -0.00000000   -0.00000000    0.00000000
     atom    6 type  3   force =     1.88080464    4.05798283    5.46778283
     atom    7 type  3   force =    -1.88080464   -4.05798283   -5.46778283
     atom    8 type  3   force =     1.94744239   -5.16282182   -6.26789182
     atom    9 type  3   force =    -1.94744239    5.16282182    6.26789182
     atom   10 type  3   force =    -0.92901257    5.28924127   -7.62897982
     atom   11 type  3   force =     0.92901257   -5.28924127    7.62897982
     atom   12 type  3   force =     1.32659411    3.44439188   -9.58795122
     atom   13 type  3   force =    -1.32659411   -3.44439188    9.58795122
     The local contribution  to forces
     atom    1 type  1   force =     0.00000193    0.00001738    0.00000898
     atom    2 type  1   force =    -0.00002074    0.00000567    0.00001669
     atom    3 type  1   force =    -0.00000158    0.00001134    0.00000344
     atom    4 type  2   force =     0.00000097    0.00000528    0.00001588
     atom    5 type  2   force =    -0.00000783    0.00000670   -0.00000116
     atom    6 type  3   force =    -1.86117065   -4.02048495   -5.41675956
     atom    7 type  3   force =     1.86116817    4.02047293    5.41675521
     atom    8 type  3   force =    -1.92343150    5.10610127    6.19967694
     atom    9 type  3   force =     1.92342890   -5.10610840   -6.19967841
     atom   10 type  3   force =     0.92081680   -5.23810606    7.56099964
     atom   11 type  3   force =    -0.92081642    5.23811651   -7.56099613
     atom   12 type  3   force =    -1.30940116   -3.41466254    9.48824396
     atom   13 type  3   force =     1.30939278    3.41466335   -9.48825096
     The core correction contribution to forces
     atom    1 type  1   force =     0.00000009    0.00000048    0.00000016
     atom    2 type  1   force =    -0.00000053    0.00000011    0.00000030
     atom    3 type  1   force =    -0.00000004    0.00000028    0.00000019
     atom    4 type  2   force =    -0.00000076    0.00000039    0.00000038
     atom    5 type  2   force =    -0.00000048    0.00000016   -0.00000015
     atom    6 type  3   force =     0.00043232    0.00088340    0.00110304
     atom    7 type  3   force =    -0.00043246   -0.00088338   -0.00110311
     atom    8 type  3   force =     0.00052701   -0.00135831   -0.00152703
     atom    9 type  3   force =    -0.00052665    0.00135789    0.00152707
     atom   10 type  3   force =    -0.00024685    0.00115024   -0.00147126
     atom   11 type  3   force =     0.00024666   -0.00114987    0.00147120
     atom   12 type  3   force =     0.00039349    0.00059268   -0.00227923
     atom   13 type  3   force =    -0.00039379   -0.00059273    0.00227852
     The Hubbard contrib.    to forces
     atom    1 type  1   force =     0.00000000    0.00000000    0.00000000
     atom    2 type  1   force =     0.00000000    0.00000000    0.00000000
     atom    3 type  1   force =     0.00000000    0.00000000    0.00000000
     atom    4 type  2   force =     0.00000000    0.00000000    0.00000000
     atom    5 type  2   force =     0.00000000    0.00000000    0.00000000
     atom    6 type  3   force =     0.00000000    0.00000000    0.00000000
     atom    7 type  3   force =     0.00000000    0.00000000    0.00000000
     atom    8 type  3   force =     0.00000000    0.00000000    0.00000000
     atom    9 type  3   force =     0.00000000    0.00000000    0.00000000
     atom   10 type  3   force =     0.00000000    0.00000000    0.00000000
     atom   11 type  3   force =     0.00000000    0.00000000    0.00000000
     atom   12 type  3   force =     0.00000000    0.00000000    0.00000000
     atom   13 type  3   force =     0.00000000    0.00000000    0.00000000
     The SCF correction term to forces
     atom    1 type  1   force =    -0.00000073   -0.00000731   -0.00000704
     atom    2 type  1   force =     0.00000681   -0.00000730   -0.00001589
     atom    3 type  1   force =     0.00000119   -0.00000647    0.00000601
     atom    4 type  2   force =    -0.00000306   -0.00000276   -0.00001726
     atom    5 type  2   force =     0.00000917   -0.00001294   -0.00000022
     atom    6 type  3   force =     0.00002955   -0.00010592   -0.00004622
     atom    7 type  3   force =    -0.00002831    0.00011350    0.00005119
     atom    8 type  3   force =     0.00002203   -0.00012711   -0.00013629
     atom    9 type  3   force =    -0.00001928    0.00013155    0.00013727
     atom   10 type  3   force =    -0.00024873   -0.00002633    0.00002533
     atom   11 type  3   force =     0.00024705    0.00002004   -0.00003074
     atom   12 type  3   force =     0.00030232    0.00005516   -0.00009813
     atom   13 type  3   force =    -0.00029684   -0.00005602    0.00009786

     Total force =     0.009995     Total SCF correction =     0.000659

     Computing stress (Cartesian axis) and pressure

     negative rho (up, down):  1.195E-01 0.000E+00
          total   stress  (Ry/bohr**3)                   (kbar)     P=       -3.02
  -0.00000855   0.00000417  -0.00000136           -1.26        0.61       -0.20
   0.00000417  -0.00002369   0.00000382            0.61       -3.49        0.56
  -0.00000136   0.00000382  -0.00002926           -0.20        0.56       -4.30

     kinetic stress (kbar)   6228.53      0.09      3.21
                                0.09   6230.56     -6.72
                                3.21     -6.72   6246.91

     local   stress (kbar) -11601.59   -272.04    -59.01
                             -272.04  -8004.58  -1445.70
                              -59.01  -1445.70   1493.00

     nonloc. stress (kbar)   3008.61     -0.36      0.80
                               -0.36   3009.84      2.01
                                0.80      2.01   3008.86

     hartree stress (kbar)   6158.94    122.07     38.03
                              122.07   4496.59    651.64
                               38.03    651.64    223.43

     exc-cor stress (kbar)   2159.81      0.07     -0.18
                                0.07   2159.74      0.34
                               -0.18      0.34   2158.47

     corecor stress (kbar)  -4026.31      0.00     -0.04
                                0.00  -4026.43     -0.03
                               -0.04     -0.03  -4026.45

     ewald   stress (kbar)  -1929.26    150.78     16.99
                              150.78  -3869.20    799.03
                               16.99    799.03  -9108.53

     hubbard stress (kbar)      0.00      0.00      0.00
                                0.00      0.00      0.00
                                0.00      0.00      0.00

     DFT-D   stress (kbar)      0.00      0.00      0.00
                                0.00      0.00      0.00
                                0.00      0.00      0.00

     XDM     stress (kbar)      0.00      0.00      0.00
                                0.00      0.00      0.00
                                0.00      0.00      0.00

     dft-nl  stress (kbar)      0.00      0.00      0.00
                                0.00      0.00      0.00
                                0.00      0.00      0.00

     TS-vdW  stress (kbar)      0.00      0.00      0.00
                                0.00      0.00      0.00
                                0.00      0.00      0.00

[...]

                                0.00      0.00      0.00

     Writing all to output data dir new_calculations/myprefix.save/

     General routines

     Parallel routines

     PAW routines

   This run was terminated on:  21:46:36  20May2023

   JOB DONE.