     Program PWSCF v.7.0 starts on 20May2023 at 20:59:32

     Reading input from espresso_821.pwi
Warning: card &CELL ignored
Warning: card / ignored

     Current dimensions of program PWSCF are:
     Max number of different atomic species (ntypx) = 10
     Max number of k-points (npk) =  40000
     Max angular momentum in pseudopotentials (lmaxx) =  4
     file Cd.pbe-dn-rrkjus_psl.0.3.1.UPF: wavefunction(s)  4D renormalized

     gamma-point specific algorithms are used
     Message from routine setup:
     using ibrav=0 with symmetry is DISCOURAGED, use correct ibrav instead

     Subspace diagonalization in iterative solution of the eigenvalue problem:
     a serial algorithm will be used

     Using Slab Decomposition

     bravais-lattice index     =            0
     lattice parameter (alat)  =      10.1796  a.u.
     unit-cell volume          =     745.9008 (a.u.)^3
     number of atoms/cell      =            4
     number of atomic types    =            3
     number of electrons       =        48.00
     number of Kohn-Sham states=           29
     kinetic-energy cutoff     =      30.0000  Ry
     charge density cutoff     =     240.0000  Ry
     scf convergence threshold =      1.0E-06
     mixing beta               =       0.7000
     number of iterations used =            8  plain     mixing
     Exchange-correlation= PBE
                           (   1   4   3   4   0   0   0)

     celldm(1)=  10.179631  celldm(2)=   0.000000  celldm(3)=   0.000000
     celldm(4)=   0.000000  celldm(5)=   0.000000  celldm(6)=   0.000000

     crystal axes: (cart. coord. in units of alat)
               a(1) = (   1.000000   0.000000   0.000000 )
               a(2) = (   0.500000   0.866025   0.000000 )
               a(3) = (   0.500000   0.288675   0.816497 )

     reciprocal axes: (cart. coord. in units 2 pi/alat)
               b(1) = (  1.000000 -0.577350 -0.408248 )
               b(2) = (  0.000000  1.154701 -0.408248 )
               b(3) = (  0.000000  0.000000  1.224745 )

     PseudoPot. # 1 for Ca read from file:
     /home/pragov/projects/rrg-bengioy-ad/pragov/crystal_structure_design/SSSP/Ca_pbe_v1.uspp.F.UPF
     MD5 check sum: 403a4c14b9e4d4dfdc3024c9a3812218
     Pseudo is Ultrasoft + core correction, Zval = 10.0
     Generated by new atomic code, or converted to UPF format
     Using radial grid of  845 points,  6 beta functions with:
                l(1) =   0
                l(2) =   0
                l(3) =   1
                l(4) =   1
                l(5) =   2
                l(6) =   2
     Q(r) pseudized with  8 coefficients,  rinner =    1.500   1.500   1.500
                                                       1.500   1.500

     PseudoPot. # 2 for Tl read from file:
     /home/pragov/projects/rrg-bengioy-ad/pragov/crystal_structure_design/SSSP/Tl_pbe_v1.2.uspp.F.UPF
     MD5 check sum: b76cf1f7e72655a2b2c53cf6385d7059
     Pseudo is Ultrasoft + core correction, Zval = 13.0
     Generated by new atomic code, or converted to UPF format
     Using radial grid of  899 points,  6 beta functions with:
                l(1) =   0
                l(2) =   0
                l(3) =   1
                l(4) =   1
                l(5) =   2
                l(6) =   2
     Q(r) pseudized with  6 coefficients,  rinner =    1.100   1.100   1.100
                                                       1.100   1.100

     PseudoPot. # 3 for Cd read from file:
     /home/pragov/projects/rrg-bengioy-ad/pragov/crystal_structure_design/SSSP/Cd.pbe-dn-rrkjus_psl.0.3.1.UPF
     MD5 check sum: 558e9f355611b531a870a69ef6ace9e2
     Pseudo is Ultrasoft + core correction, Zval = 12.0
     Generated using "atomic" code by A. Dal Corso  v.5.0.99 svn rev. 10869
     Using radial grid of 1239 points,  6 beta functions with:
                l(1) =   0
                l(2) =   0
                l(3) =   1
                l(4) =   1
                l(5) =   2
                l(6) =   2
     Q(r) pseudized with 0 coefficients

     atomic species   valence    mass     pseudopotential
        Ca            10.00    40.07800     Ca( 1.00)
        Tl            13.00   204.38000     Tl( 1.00)
        Cd            12.00   112.41400     Cd( 1.00)

     12 Sym. Ops., with inversion, found

                                    s                        frac. trans.

      isym =  1     identity

 cryst.   s( 1) = (     1          0          0      )
                  (     0          1          0      )
                  (     0          0          1      )

 cart.    s( 1) = (  1.0000000  0.0000000 -0.0000000 )
                  (  0.0000000  1.0000000 -0.0000000 )
                  (  0.0000000  0.0000000  1.0000000 )

      isym =  2     180 deg rotation - cart. axis [1,0,0]

[...]

      isym =  3     120 deg rotation - cryst. axis [0,0,1]

[...]

      isym =  6     180 deg rotation - cryst. axis [1,1,0]

[...]

      isym =  7     inversion

[...]

      isym =  8     inv. 180 deg rotation - cart. axis [1,0,0]

[...]

      isym =  9     inv. 120 deg rotation - cryst. axis [0,0,1]

 cryst.   s( 9) = (     1         -1          0      )
                  (     1          0          0      )
                  (     1          0         -1      )

 cart.    s( 9) = (  0.5000000  0.8660254 -0.0000000 )
                  ( -0.8660254  0.5000000 -0.0000000 )
                  (  0.0000000  0.0000000 -1.0000000 )

[...]

 cryst.   s(10) = (     0          1          0      )
                  (    -1          1          0      )
                  (     0          1         -1      )

 cart.    s(10) = (  0.5000000 -0.8660254  0.0000000 )
                  (  0.8660254  0.5000000 -0.0000000 )
                  (  0.0000000  0.0000000 -1.0000000 )

[...]

      isym = 12     inv. 180 deg rotation - cryst. axis [1,1,0]

 cryst.   s(12) = (     1         -1          0      )
                  (     0         -1          0      )
                  (     0         -1          1      )

 cart.    s(12) = (  0.5000000 -0.8660254  0.0000000 )
                  ( -0.8660254 -0.5000000  0.0000000 )
                  (  0.0000000  0.0000000  1.0000000 )

   Cartesian axes

     site n.     atom                  positions (alat units)
         1           Ca  tau(   1) = (   1.0000000   0.5773503   0.4082483  )
         2           Tl  tau(   2) = (   0.5000000   0.2886751   0.2041241  )
         3           Tl  tau(   3) = (   1.5000000   0.8660254   0.6123724  )
         4           Cd  tau(   4) = (   0.0000000   0.0000000   0.0000000  )

   Crystallographic axes

     site n.     atom                  positions (cryst. coord.)
         1           Ca  tau(   1) = (  0.5000000  0.5000000  0.5000000  )
         2           Tl  tau(   2) = (  0.2500000  0.2500000  0.2500000  )
         3           Tl  tau(   3) = (  0.7500000  0.7500000  0.7500000  )
         4           Cd  tau(   4) = (  0.0000000  0.0000000  0.0000000  )

     number of k points=     1  Methfessel-Paxton smearing, width (Ry)=  0.0010
                       cart. coord. in units 2pi/alat
        k(    1) = (   0.0000000   0.0000000   0.0000000), wk =   2.0000000

                       cryst. coord.
        k(    1) = (   0.0000000   0.0000000   0.0000000), wk =   2.0000000

     Check: negative core charge=   -0.000004

     Initial potential from superposition of free atoms

     starting charge      47.9799, renormalised to      48.0000

     negative rho (up, down):  1.030E-01 0.000E+00
     Starting wfcs are   37 randomized atomic wfcs

     Self-consistent Calculation

     iteration #  1     ecut=    30.00 Ry     beta= 0.70
     Davidson diagonalization with overlap

     ethr =  1.00E-02,  avg # of iterations =  2.0

     Threshold (ethr) on eigenvalues was too large:
     Diagonalizing with lowered threshold

     Davidson diagonalization with overlap

[...]

     negative rho (up, down):  1.047E-01 0.000E+00

     total energy              =    -486.28626418 Ry
     estimated scf accuracy    <       0.39885819 Ry

[...]

     ethr =  8.31E-04,  avg # of iterations =  5.0
     Minimization algorithm failed to find Fermi energy: reverting to bisection
     Possible cause: smearing is larger than the electronic band-gap.

[...]

     total energy              =    -486.44385686 Ry
     estimated scf accuracy    <       0.00001446 Ry

     iteration # 51     ecut=    30.00 Ry     beta= 0.70
     Davidson diagonalization with overlap

     ethr =  3.12E-09,  avg # of iterations =  1.0

[...]

     End of self-consistent calculation

          k = 0.0000 0.0000 0.0000 (  1043 PWs)   bands (ev):

   -30.3305 -11.4208 -11.4208 -11.4208  -1.3187  -1.3187  -1.2465  -1.2465
    -1.2465  -1.1157  -1.1157  -1.1157  -0.8692  -0.8692  -0.1992  -0.1992
    -0.1992  -0.1774  -0.1774   1.0337   6.0491   9.6147   9.6147   9.6147
     9.6240  11.3130  11.3132  11.3133  13.2468

     occupation numbers
     1.0000   1.0000   1.0000   1.0000   1.0000   1.0000   1.0000   1.0000
     1.0000   1.0000   1.0000   1.0000   1.0000   1.0000   1.0000   1.0000
     1.0000   1.0000   1.0000   1.0000   1.0000   0.8801   0.8792   0.8787
     0.3619  -0.0000  -0.0000  -0.0000  -0.0000

     the Fermi energy is     9.6217 ev

!    total energy              =    -486.44385652 Ry
     estimated scf accuracy    <       0.00000094 Ry
     smearing contrib. (-TS)   =      -0.00056070 Ry
     internal energy E=F+TS    =    -486.44329582 Ry

     The total energy is F=E-TS. E is the sum of the following terms:
     one-electron contribution =    -103.31958277 Ry
     hartree contribution      =      88.87571138 Ry
     xc contribution           =    -179.16670687 Ry
     ewald contribution        =    -292.83271755 Ry

     convergence has been achieved in  51 iterations

     negative rho (up, down):  1.039E-01 0.000E+00

     Forces acting on atoms (cartesian axes, Ry/au):

     atom    1 type  1   force =     0.00000000    0.00000000    0.00000000
     atom    2 type  2   force =     0.00000000   -0.00000000   -0.00057353
     atom    3 type  2   force =     0.00000000   -0.00000000    0.00057353
     atom    4 type  3   force =     0.00000000    0.00000000   -0.00000000
     The non-local contrib.  to forces
     atom    1 type  1   force =     0.00000000    0.00000000   -0.00000000
     atom    2 type  2   force =     0.00000000    0.00000000   -0.00101854
     atom    3 type  2   force =     0.00000000   -0.00000000    0.00101854
     atom    4 type  3   force =     0.00000000    0.00000000    0.00000000
     The ionic contribution  to forces
     atom    1 type  1   force =     0.00000000    0.00000000   -0.00000000
     atom    2 type  2   force =     0.00000000   -0.00000000   -0.00000000
     atom    3 type  2   force =    -0.00000000    0.00000000    0.00000000
     atom    4 type  3   force =    -0.00000000   -0.00000000    0.00000000
     The local contribution  to forces
     atom    1 type  1   force =     0.00000575   -0.00000452   -0.00000609
     atom    2 type  2   force =    -0.00149036    0.00313924    0.00126645
     atom    3 type  2   force =     0.00147523   -0.00313705   -0.00125693
     atom    4 type  3   force =     0.00000024    0.00000153   -0.00000694
     The core correction contribution to forces
     atom    1 type  1   force =     0.00000004   -0.00000004    0.00000002
     atom    2 type  2   force =    -0.00006503    0.00015009    0.00005550
     atom    3 type  2   force =     0.00006451   -0.00015010   -0.00005482
     atom    4 type  3   force =     0.00000003    0.00000003   -0.00000019
     The Hubbard contrib.    to forces
     atom    1 type  1   force =     0.00000000    0.00000000    0.00000000
     atom    2 type  2   force =     0.00000000    0.00000000    0.00000000
     atom    3 type  2   force =     0.00000000    0.00000000    0.00000000
     atom    4 type  3   force =     0.00000000    0.00000000    0.00000000
     The SCF correction term to forces
     atom    1 type  1   force =    -0.00000415    0.00000345    0.00000081
     atom    2 type  2   force =     0.00108783   -0.00198291   -0.00087622
     atom    3 type  2   force =    -0.00107575    0.00198343    0.00086743
     atom    4 type  3   force =     0.00000015   -0.00000156    0.00000676

     Total force =     0.000811     Total SCF correction =     0.003424
     SCF correction compared to forces is large: reduce conv_thr to get better values

     Computing stress (Cartesian axis) and pressure

     negative rho (up, down):  1.039E-01 0.000E+00
          total   stress  (Ry/bohr**3)                   (kbar)     P=       30.05
   0.00020346   0.00000000  -0.00000000           29.93        0.00       -0.00
  -0.00000000   0.00020346  -0.00000000           -0.00       29.93       -0.00
  -0.00000000  -0.00000000   0.00020594           -0.00       -0.00       30.29

     kinetic stress (kbar)  11470.30      0.00     -0.00
                                0.00  11470.30     -0.00
                               -0.00     -0.00  11470.46

     local   stress (kbar)   2202.28      0.38     -0.13
                                0.38   2203.13      0.16
                               -0.13      0.16   2203.37

     nonloc. stress (kbar)   5119.89     -0.00     -0.00
                               -0.00   5119.89     -0.00
                               -0.00     -0.00   5119.78

     hartree stress (kbar)   5843.00     -0.21      0.07
                               -0.21   5842.48     -0.06
                                0.07     -0.06   5842.41

     exc-cor stress (kbar)  19132.73     -0.01      0.00
                               -0.01  19132.71     -0.00
                                0.00     -0.00  19132.71

     corecor stress (kbar) -24487.80      0.00     -0.00
                                0.00 -24487.81      0.01
                               -0.00      0.01 -24487.80

     ewald   stress (kbar) -19250.63     -0.00     -0.00
                               -0.00 -19250.63     -0.00
                               -0.00     -0.00 -19250.63

     hubbard stress (kbar)      0.00      0.00      0.00
                                0.00      0.00      0.00
                                0.00      0.00      0.00

     DFT-D   stress (kbar)      0.00      0.00      0.00
                                0.00      0.00      0.00
                                0.00      0.00      0.00

     XDM     stress (kbar)      0.00      0.00      0.00
                                0.00      0.00      0.00
                                0.00      0.00      0.00

     dft-nl  stress (kbar)      0.00      0.00      0.00
                                0.00      0.00      0.00
                                0.00      0.00      0.00

     TS-vdW  stress (kbar)      0.00      0.00      0.00
                                0.00      0.00      0.00
                                0.00      0.00      0.00

[...]

                                0.00      0.00      0.00

     Writing all to output data dir new_calculations/myprefix.save/

     General routines

     Parallel routines

   This run was terminated on:  20:59:52  20May2023

   JOB DONE.