     Program PWSCF v.7.0 starts on 21May2023 at  3:52:50

     Reading input from espresso_2919.pwi
Warning: card &CELL ignored
Warning: card / ignored

     Current dimensions of program PWSCF are:
     Max number of different atomic species (ntypx) = 10
     Max number of k-points (npk) =  40000
     Max angular momentum in pseudopotentials (lmaxx) =  4
     file In.pbe-dn-rrkjus_psl.0.2.2.UPF: wavefunction(s)  5S renormalized

     gamma-point specific algorithms are used
     Message from routine setup:
     using ibrav=0 with symmetry is DISCOURAGED, use correct ibrav instead

     Subspace diagonalization in iterative solution of the eigenvalue problem:
     a serial algorithm will be used

     Using Slab Decomposition

     bravais-lattice index     =            0
     lattice parameter (alat)  =       9.0382  a.u.
     unit-cell volume          =     891.1249 (a.u.)^3
     number of atoms/cell      =            4
     number of atomic types    =            2
     number of electrons       =        58.00
     number of Kohn-Sham states=           35
     kinetic-energy cutoff     =      30.0000  Ry
     charge density cutoff     =     240.0000  Ry
     scf convergence threshold =      1.0E-06
     mixing beta               =       0.7000
     number of iterations used =            8  plain     mixing
     Exchange-correlation= SLA  PW   PBE  PBE
                           (   1   4   3   4   0   0   0)

     celldm(1)=   9.038174  celldm(2)=   0.000000  celldm(3)=   0.000000
     celldm(4)=   0.000000  celldm(5)=   0.000000  celldm(6)=   0.000000

     crystal axes: (cart. coord. in units of alat)
               a(1) = (   1.000000   0.000000   0.000000 )
               a(2) = (  -0.761520   0.648142   0.000000 )
               a(3) = (   0.000000   0.000000   1.862201 )

     reciprocal axes: (cart. coord. in units 2 pi/alat)
               b(1) = (  1.000000  1.174928  0.000000 )
               b(2) = (  0.000000  1.542873  0.000000 )
               b(3) = (  0.000000  0.000000  0.536999 )

     PseudoPot. # 1 for In read from file:
     /home/pragov/projects/rrg-bengioy-ad/pragov/crystal_structure_design/SSSP/In.pbe-dn-rrkjus_psl.0.2.2.UPF
     MD5 check sum: 25e7c42c3b55b68f4bf926be2e7201a4
     Pseudo is Ultrasoft + core correction, Zval = 13.0
     Generated using "atomic" code by A. Dal Corso  v.5.0.99 svn rev. 10869
     Using radial grid of 1241 points,  6 beta functions with:
                l(1) =   0
                l(2) =   0
                l(3) =   1
                l(4) =   1
                l(5) =   2
                l(6) =   2
     Q(r) pseudized with 0 coefficients

     PseudoPot. # 2 for Bi read from file:
     /home/pragov/projects/rrg-bengioy-ad/pragov/crystal_structure_design/SSSP/Bi_pbe_v1.uspp.F.UPF
     MD5 check sum: cceb9f28ec65b6d7ff33140f5b0b1758
     Pseudo is Ultrasoft + core correction, Zval = 15.0
     Generated by new atomic code, or converted to UPF format
     Using radial grid of  899 points,  6 beta functions with:
                l(1) =   0
                l(2) =   0
                l(3) =   1
                l(4) =   1
                l(5) =   2
                l(6) =   2
     Q(r) pseudized with  6 coefficients,  rinner =    1.000   1.000   1.000
                                                       1.000   1.000

     atomic species   valence    mass     pseudopotential
        In            13.00   114.81800     In( 1.00)
        Bi            15.00   208.98040     Bi( 1.00)

      2 Sym. Ops. (no inversion) found

                                    s                        frac. trans.

      isym =  1     identity

 cryst.   s( 1) = (     1          0          0      )
                  (     0          1          0      )
                  (     0          0          1      )

 cart.    s( 1) = (  1.0000000 -0.0000000  0.0000000 )
                  (  0.0000000  1.0000000  0.0000000 )
                  (  0.0000000  0.0000000  1.0000000 )

      isym =  2     180 deg rotation - cart. axis [0,0,1]

 cryst.   s( 2) = (    -1          0          0      )
                  (     0         -1          0      )
                  (     0          0          1      )

 cart.    s( 2) = ( -1.0000000  0.0000000  0.0000000 )
                  (  0.0000000 -1.0000000  0.0000000 )
                  (  0.0000000  0.0000000  1.0000000 )

   Cartesian axes

     site n.     atom                  positions (alat units)
         1           In  tau(   1) = (   0.1192401   0.3240708   0.0000000  )
         2           Bi  tau(   2) = (   0.0000000   0.0000000   0.9311004  )
         3           Bi  tau(   3) = (  -0.3807599   0.3240708   1.4031254  )
         4           Bi  tau(   4) = (   0.5000000   0.0000000   0.4590753  )

   Crystallographic axes

     site n.     atom                  positions (cryst. coord.)
         1           In  tau(   1) = (  0.5000000  0.5000000  0.0000000  )
         2           Bi  tau(   2) = (  0.0000000  0.0000000  0.5000000  )
         3           Bi  tau(   3) = (  0.0000000  0.5000000  0.7534770  )
         4           Bi  tau(   4) = (  0.5000000  0.0000000  0.2465230  )

     number of k points=     1  Methfessel-Paxton smearing, width (Ry)=  0.0010
                       cart. coord. in units 2pi/alat
        k(    1) = (   0.0000000   0.0000000   0.0000000), wk =   2.0000000

                       cryst. coord.
        k(    1) = (   0.0000000   0.0000000   0.0000000), wk =   2.0000000

     Check: negative core charge=   -0.000004

     Initial potential from superposition of free atoms

     starting charge      54.9962, renormalised to      58.0000

     negative rho (up, down):  1.315E-01 0.000E+00
     Starting wfcs are   36 randomized atomic wfcs

     Self-consistent Calculation

     iteration #  1     ecut=    30.00 Ry     beta= 0.70
     Davidson diagonalization with overlap

     ethr =  1.00E-02,  avg # of iterations =  6.0

     negative rho (up, down):  1.232E-01 0.000E+00

     total energy              =    -698.23473950 Ry
     estimated scf accuracy    <       4.27666710 Ry

[...]

     total energy              =    -700.44997993 Ry
     estimated scf accuracy    <       0.00000751 Ry

     iteration # 14     ecut=    30.00 Ry     beta= 0.70
     Davidson diagonalization with overlap

     ethr =  1.29E-08,  avg # of iterations =  1.0

[...]

     End of self-consistent calculation

          k = 0.0000 0.0000 0.0000 (  1236 PWs)   bands (ev):

   -14.2454 -13.9867 -13.7373 -13.5456 -13.5060 -13.3661 -13.3640 -13.0098
   -13.0087 -12.9914 -12.9867 -12.6714 -12.6539 -12.6527 -12.6513  -4.3303
    -4.1252  -4.1127  -4.0430  -3.9191  -3.2284  -1.7059  -0.8106   4.5013
     7.1676   7.2291   9.3115   9.9136  10.0347  10.0534  13.0370  13.5832
    13.9372  14.3567  14.3748

     occupation numbers
     1.0000   1.0000   1.0000   1.0000   1.0000   1.0000   1.0000   1.0000
     1.0000   1.0000   1.0000   1.0000   1.0000   1.0000   1.0000   1.0000
     1.0000   1.0000   1.0000   1.0000   1.0000   1.0000   1.0000   1.0000
     1.0000   1.0000   1.0000   1.0000   0.9552   0.0448  -0.0000  -0.0000
    -0.0000  -0.0000  -0.0000

     the Fermi energy is    10.0441 ev

!    total energy              =    -700.44998014 Ry
     estimated scf accuracy    <       0.00000017 Ry
     smearing contrib. (-TS)   =      -0.00001985 Ry
     internal energy E=F+TS    =    -700.44996029 Ry

     The total energy is F=E-TS. E is the sum of the following terms:
     one-electron contribution =    -201.88458646 Ry
     hartree contribution      =     139.82864004 Ry
     xc contribution           =    -241.41847855 Ry
     ewald contribution        =    -396.97553533 Ry

     convergence has been achieved in  14 iterations

     negative rho (up, down):  1.291E-01 0.000E+00

     Forces acting on atoms (cartesian axes, Ry/au):

     atom    1 type  1   force =     0.00000000    0.00000000   -0.00002538
     atom    2 type  2   force =     0.00000000    0.00000000   -0.00041038
     atom    3 type  2   force =     0.00000000    0.00000000   -0.07859059
     atom    4 type  2   force =     0.00000000    0.00000000    0.07902635
     The non-local contrib.  to forces
     atom    1 type  1   force =     0.00000000    0.00000000    0.00023663
     atom    2 type  2   force =     0.00000000    0.00000000   -0.00036579
     atom    3 type  2   force =     0.00000000    0.00000000    0.11153371
     atom    4 type  2   force =     0.00000000    0.00000000   -0.11110075
     The ionic contribution  to forces
     atom    1 type  1   force =    -0.00000000    0.00000000    0.00000000
     atom    2 type  2   force =     0.00000000   -0.00000000    0.00000000
     atom    3 type  2   force =    -0.00000000    0.00000000    1.84301570
     atom    4 type  2   force =     0.00000000   -0.00000000   -1.84301570
     The local contribution  to forces
     atom    1 type  1   force =    -0.00000831    0.00007611   -0.00028929
     atom    2 type  2   force =    -0.00007456    0.00000849    0.00061502
     atom    3 type  2   force =     0.00001093    0.00005939   -2.02158604
     atom    4 type  2   force =     0.00016560    0.00000665    2.02104828
     The core correction contribution to forces
     atom    1 type  1   force =     0.00000207    0.00000471   -0.00001576
     atom    2 type  2   force =    -0.00000645    0.00000063    0.00000798
     atom    3 type  2   force =     0.00000729    0.00000473   -0.01187799
     atom    4 type  2   force =     0.00000207    0.00000221    0.01185930
     The Hubbard contrib.    to forces
     atom    1 type  1   force =     0.00000000    0.00000000    0.00000000
     atom    2 type  2   force =     0.00000000    0.00000000    0.00000000
     atom    3 type  2   force =     0.00000000    0.00000000    0.00000000
     atom    4 type  2   force =     0.00000000    0.00000000    0.00000000
     The SCF correction term to forces
     atom    1 type  1   force =    -0.00003503   -0.00001640    0.00004188
     atom    2 type  2   force =     0.00003623   -0.00001822   -0.00066875
     atom    3 type  2   force =    -0.00001961   -0.00002212    0.00032286
     atom    4 type  2   force =    -0.00020409    0.00004259    0.00023407

     Total force =     0.111453     Total SCF correction =     0.000810

     Computing stress (Cartesian axis) and pressure

     negative rho (up, down):  1.291E-01 0.000E+00
          total   stress  (Ry/bohr**3)                   (kbar)     P=       -3.62
   0.00308287  -0.00308365   0.00000000          453.51     -453.62        0.00
  -0.00308365  -0.00416337   0.00000000         -453.62     -612.45        0.00
   0.00000000   0.00000000   0.00100676            0.00        0.00      148.10

     kinetic stress (kbar)   8203.87   -486.31      0.00
                             -486.31   7061.14      0.00
                                0.00      0.00   8062.14

     local   stress (kbar)   -766.89   -513.81      0.33
                             -513.81  -1974.23     -0.13
                                0.33     -0.13   -775.71

     nonloc. stress (kbar)  13748.45   -210.37      0.00
                             -210.37  13254.05      0.00
                                0.00      0.00  13980.74

     hartree stress (kbar)   7548.21    182.58     -0.17
                              182.58   7977.24      0.07
                               -0.17      0.07   7557.18

     exc-cor stress (kbar)  22371.82     -2.70     -0.00
                               -2.70  22365.47      0.00
                               -0.00      0.00  22380.15

     corecor stress (kbar) -28496.26     10.07      0.00
                               10.07 -28472.60     -0.00
                                0.00     -0.00 -28503.72

     ewald   stress (kbar) -22155.70    566.92     -0.00
                              566.92 -20823.53      0.00
                               -0.00      0.00 -22552.68

     hubbard stress (kbar)      0.00      0.00      0.00
                                0.00      0.00      0.00
                                0.00      0.00      0.00

     DFT-D   stress (kbar)      0.00      0.00      0.00
                                0.00      0.00      0.00
                                0.00      0.00      0.00

     XDM     stress (kbar)      0.00      0.00      0.00
                                0.00      0.00      0.00
                                0.00      0.00      0.00

     dft-nl  stress (kbar)      0.00      0.00      0.00
                                0.00      0.00      0.00
                                0.00      0.00      0.00

     TS-vdW  stress (kbar)      0.00      0.00      0.00
                                0.00      0.00      0.00
                                0.00      0.00      0.00

[...]

                                0.00      0.00      0.00

     Writing all to output data dir new_calculations/myprefix.save/

     General routines

     Parallel routines

   This run was terminated on:   3:53:29  21May2023

   JOB DONE.