     Program PWSCF v.7.0 starts on 20May2023 at 18:42:30

     Reading input from espresso_18511.pwi
Warning: card &CELL ignored
Warning: card / ignored

     Current dimensions of program PWSCF are:
     Max number of different atomic species (ntypx) = 10
     Max number of k-points (npk) =  40000
     Max angular momentum in pseudopotentials (lmaxx) =  4
     file Pb.pbe-dn-kjpaw_psl.0.2.2.UPF: wavefunction(s)  6S renormalized

     gamma-point specific algorithms are used
     Message from routine setup:
     using ibrav=0 with symmetry is DISCOURAGED, use correct ibrav instead

     Subspace diagonalization in iterative solution of the eigenvalue problem:
     a serial algorithm will be used

     Using Slab Decomposition

     bravais-lattice index     =            0
     lattice parameter (alat)  =      12.8803  a.u.
     unit-cell volume          =    1778.8897 (a.u.)^3
     number of atoms/cell      =           12
     number of atomic types    =            4
     number of electrons       =       124.00
     number of Kohn-Sham states=           74
     kinetic-energy cutoff     =      30.0000  Ry
     charge density cutoff     =     240.0000  Ry
     scf convergence threshold =      1.0E-06
     mixing beta               =       0.7000
     number of iterations used =            8  plain     mixing
     Exchange-correlation=  SLA  PW   PBX  PBC
                           (   1   4   3   4   0   0   0)

     celldm(1)=  12.880272  celldm(2)=   0.000000  celldm(3)=   0.000000
     celldm(4)=   0.000000  celldm(5)=   0.000000  celldm(6)=   0.000000

     crystal axes: (cart. coord. in units of alat)
               a(1) = (   1.000000   0.000000   0.000000 )
               a(2) = (  -0.833793   0.552078   0.000000 )
               a(3) = (   0.000000   0.000000   1.507903 )

     reciprocal axes: (cart. coord. in units 2 pi/alat)
               b(1) = (  1.000000  1.510280  0.000000 )
               b(2) = (  0.000000  1.811338  0.000000 )
               b(3) = (  0.000000  0.000000  0.663172 )

     PseudoPot. # 1 for Y  read from file:
     /home/pragov/projects/rrg-bengioy-ad/pragov/crystal_structure_design/SSSP/Y_pbe_v1.uspp.F.UPF
     MD5 check sum: 2cf71db95cafeb975fc457bd7f14888e
     Pseudo is Ultrasoft + core correction, Zval = 11.0
     Generated by new atomic code, or converted to UPF format
     Using radial grid of  885 points,  6 beta functions with:
                l(1) =   0
                l(2) =   0
                l(3) =   1
                l(4) =   1
                l(5) =   2
                l(6) =   2
     Q(r) pseudized with  6 coefficients,  rinner =    1.200   1.200   1.200
                                                       1.200   1.200

     PseudoPot. # 2 for Cu read from file:
     /home/pragov/projects/rrg-bengioy-ad/pragov/crystal_structure_design/SSSP/Cu_pbe_v1.2.uspp.F.UPF
     MD5 check sum: 6e991ff952a84172a2a52a1c1e996048
     Pseudo is Ultrasoft + core correction, Zval = 19.0
     Generated by new atomic code, or converted to UPF format
     Using radial grid of  867 points,  6 beta functions with:
                l(1) =   0
                l(2) =   0
                l(3) =   1
                l(4) =   1
                l(5) =   2
                l(6) =   2
     Q(r) pseudized with  8 coefficients,  rinner =    1.150   1.150   1.150
                                                       1.150   1.150

     PseudoPot. # 3 for Pb read from file:
     /home/pragov/projects/rrg-bengioy-ad/pragov/crystal_structure_design/SSSP/Pb.pbe-dn-kjpaw_psl.0.2.2.UPF
     MD5 check sum: 9d431e6316058b74ade52399a6cf67da
     Pseudo is Projector augmented-wave + core cor, Zval = 14.0
     Generated using "atomic" code by A. Dal Corso  v.5.0.99 svn rev. 10869
     Shape of augmentation charge: PSQ
     Using radial grid of 1281 points,  6 beta functions with:
                l(1) =   0
                l(2) =   0
                l(3) =   1
                l(4) =   1
                l(5) =   2
                l(6) =   2
     Q(r) pseudized with 0 coefficients

     PseudoPot. # 4 for S  read from file:
     /home/pragov/projects/rrg-bengioy-ad/pragov/crystal_structure_design/SSSP/s_pbe_v1.4.uspp.F.UPF
     MD5 check sum: 88d86576ff6df21479756cfb9bdac1df
     Pseudo is Ultrasoft + core correction, Zval =  6.0
     Generated by new atomic code, or converted to UPF format
     Using radial grid of  907 points,  6 beta functions with:
                l(1) =   0
                l(2) =   0
                l(3) =   1
                l(4) =   1
                l(5) =   2
                l(6) =   2
     Q(r) pseudized with  8 coefficients,  rinner =    1.300   1.300   1.300
                                                       1.300   1.300

     atomic species   valence    mass     pseudopotential
        Y             11.00    88.90584     Y ( 1.00)
        Cu            19.00    63.54600     Cu( 1.00)
        Pb            14.00   207.20000     Pb( 1.00)
        S              6.00    32.06000     S ( 1.00)

      4 Sym. Ops., with inversion, found ( 2 have fractional translation)

                                    s                        frac. trans.

      isym =  1     identity

 cryst.   s( 1) = (     1          0          0      )
                  (     0          1          0      )
                  (     0          0          1      )

 cart.    s( 1) = (  1.0000000 -0.0000000  0.0000000 )
                  (  0.0000000  1.0000000  0.0000000 )
                  (  0.0000000  0.0000000  1.0000000 )

      isym =  2     180 deg rotation - cart. axis [0,0,1]

 cryst.   s( 2) = (    -1          0          0      )    f =( -0.0000000 )
                  (     0         -1          0      )       (  0.0000000 )
                  (     0          0          1      )       (  0.5000000 )

 cart.    s( 2) = ( -1.0000000  0.0000000  0.0000000 )    f =( -0.0000000 )
                  (  0.0000000 -1.0000000  0.0000000 )       (  0.0000000 )
                  (  0.0000000  0.0000000  1.0000000 )       (  0.7539517 )

      isym =  3     inversion

 cryst.   s( 3) = (    -1          0          0      )
                  (     0         -1          0      )
                  (     0          0         -1      )

 cart.    s( 3) = ( -1.0000000  0.0000000  0.0000000 )
                  (  0.0000000 -1.0000000  0.0000000 )
                  (  0.0000000  0.0000000 -1.0000000 )

      isym =  4     inv. 180 deg rotation - cart. axis [0,0,1]

 cryst.   s( 4) = (     1          0          0      )    f =(  0.0000000 )
                  (     0          1          0      )       (  0.0000000 )
                  (     0          0         -1      )       (  0.5000000 )

 cart.    s( 4) = (  1.0000000 -0.0000000  0.0000000 )    f =(  0.0000000 )
                  (  0.0000000  1.0000000  0.0000000 )       (  0.0000000 )
                  (  0.0000000  0.0000000 -1.0000000 )       (  0.7539517 )

   Cartesian axes

     site n.     atom                  positions (alat units)
         1           Y   tau(   1) = (   0.0831037   0.2760390   0.7539517  )
         2           Y   tau(   2) = (   0.0831037   0.2760390   0.0000000  )
         3           Cu  tau(   3) = (   0.9373063   0.0188744   0.3769759  )
         4           Cu  tau(   4) = (  -0.7710988   0.5332035   1.1309276  )
         5           Pb  tau(   5) = (  -0.3726065   0.4132342   0.3769759  )
         6           Pb  tau(   6) = (   0.5388140   0.1388437   1.1309276  )
         7           S   tau(   7) = (  -0.0525070   0.3168657   1.1309276  )
         8           S   tau(   8) = (   0.2187145   0.2352123   0.3769759  )
         9           S   tau(   9) = (  -0.5800286   0.4756803   1.4050418  )
        10           S   tau(  10) = (  -0.5800286   0.4756803   0.8568134  )
        11           S   tau(  11) = (   0.7462361   0.0763977   0.1028616  )
        12           S   tau(  12) = (   0.7462361   0.0763977   0.6510901  )

   Crystallographic axes

     site n.     atom                  positions (cryst. coord.)
         1           Y   tau(   1) = (  0.5000000  0.5000000  0.5000000  )
         2           Y   tau(   2) = (  0.5000000  0.5000000  0.0000000  )
         3           Cu  tau(   3) = (  0.9658120  0.0341880  0.2500000  )
         4           Cu  tau(   4) = (  0.0341880  0.9658120  0.7500000  )
         5           Pb  tau(   5) = (  0.2514930  0.7485070  0.2500000  )
         6           Pb  tau(   6) = (  0.7485070  0.2514930  0.7500000  )
         7           S   tau(   7) = (  0.4260490  0.5739510  0.7500000  )
         8           S   tau(   8) = (  0.5739510  0.4260490  0.2500000  )
         9           S   tau(   9) = (  0.1383820  0.8616180  0.9317850  )
        10           S   tau(  10) = (  0.1383820  0.8616180  0.5682150  )
        11           S   tau(  11) = (  0.8616180  0.1383820  0.0682150  )
        12           S   tau(  12) = (  0.8616180  0.1383820  0.4317850  )

     number of k points=     1  Methfessel-Paxton smearing, width (Ry)=  0.0010
                       cart. coord. in units 2pi/alat
        k(    1) = (   0.0000000   0.0000000   0.0000000), wk =   2.0000000

                       cryst. coord.
        k(    1) = (   0.0000000   0.0000000   0.0000000), wk =   2.0000000

     Check: negative core charge=   -0.000003

     Initial potential from superposition of free atoms

     starting charge     121.9861, renormalised to     124.0000

     negative rho (up, down):  8.724E-02 0.000E+00
     Starting wfcs are   94 randomized atomic wfcs
     Checking if some PAW data can be deallocated...

     Self-consistent Calculation

     iteration #  1     ecut=    30.00 Ry     beta= 0.70
     Davidson diagonalization with overlap

     ethr =  1.00E-02,  avg # of iterations =  2.0

     negative rho (up, down):  8.602E-02 0.000E+00

     total energy              =   -2866.27214950 Ry
     estimated scf accuracy    <       4.02594567 Ry

[...]

     total energy              =   -2868.43340892 Ry
     estimated scf accuracy    <       0.00000803 Ry

     iteration # 16     ecut=    30.00 Ry     beta= 0.70
     Davidson diagonalization with overlap

     ethr =  6.48E-09,  avg # of iterations =  3.0

[...]

     End of self-consistent calculation

          k = 0.0000 0.0000 0.0000 (  2490 PWs)   bands (ev):

  -102.3772-102.3749 -59.7989 -59.7967 -59.7708 -59.7694 -59.7671 -59.7669
   -33.4090 -33.4086 -13.5381 -13.5342 -13.4718 -13.4401 -13.2734 -13.2727
    -8.5553  -8.5533  -8.4756  -8.4737  -8.4560  -8.4520  -8.4514  -8.4497
    -8.4492  -8.4455  -4.1573  -3.5092  -3.2237  -3.0555  -2.8733  -2.5549
     0.5936   0.7171   3.9744   4.8541   4.8965   5.0405   5.4544   5.5647
     5.7043   5.9074   6.1303   6.2331   6.2883   6.3226   6.4110   6.5623
     6.8974   6.9737   7.1046   7.1819   7.7132   7.7146   8.3792   8.3981
     8.4278   8.5962   8.6717   8.9546   9.0424   9.1035  10.8427  10.9138
    11.1154  11.2988  11.6714  11.7460  11.7795  12.2541  12.2704  12.3431
    12.5493  13.0197

     occupation numbers
     1.0000   1.0000   1.0000   1.0000   1.0000   1.0000   1.0000   1.0000
     1.0000   1.0000   1.0000   1.0000   1.0000   1.0000   1.0000   1.0000
     1.0000   1.0000   1.0000   1.0000   1.0000   1.0000   1.0000   1.0000
     1.0000   1.0000   1.0000   1.0000   1.0000   1.0000   1.0000   1.0000
     1.0000   1.0000   1.0000   1.0000   1.0000   1.0000   1.0000   1.0000
     1.0000   1.0000   1.0000   1.0000   1.0000   1.0000   1.0000   1.0000
     1.0000   1.0000   1.0000   1.0000   1.0000   1.0000   1.0000   1.0000
     1.0000   1.0000   1.0000   1.0000   1.0000   1.0000  -0.0000  -0.0000
    -0.0000  -0.0000  -0.0000  -0.0000  -0.0000  -0.0000  -0.0000  -0.0000
    -0.0000  -0.0000

     the Fermi energy is     9.5411 ev

!    total energy              =   -2868.43340998 Ry
     estimated scf accuracy    <       0.00000085 Ry
     smearing contrib. (-TS)   =       0.00000000 Ry
     internal energy E=F+TS    =   -2868.43340998 Ry

     The total energy is F=E-TS. E is the sum of the following terms:
     one-electron contribution =    -984.95032066 Ry
     hartree contribution      =     557.39263047 Ry
     xc contribution           =    -261.64120521 Ry
     ewald contribution        =    -722.28587881 Ry
     one-center paw contrib.   =   -1456.94863577 Ry
      -> PAW hartree energy AE =     191.82989457 Ry
      -> PAW hartree energy PS =    -191.40684701 Ry
      -> PAW xc energy AE      =   -1544.57835925 Ry
      -> PAW xc energy PS      =      87.20667592 Ry
      -> total E_H with PAW    =     557.81567803 Ry
      -> total E_XC with PAW   =   -1719.01288854 Ry

     convergence has been achieved in  16 iterations

     negative rho (up, down):  8.712E-02 0.000E+00

     Forces acting on atoms (cartesian axes, Ry/au):

     atom    1 type  1   force =     0.00000000    0.00000000    0.00000000
     atom    2 type  1   force =     0.00000000    0.00000000    0.00000000
     atom    3 type  2   force =    -0.03265950    0.00981875    0.00000000
     atom    4 type  2   force =     0.03265950   -0.00981875    0.00000000
     atom    5 type  3   force =    -0.02416639    0.00727977    0.00000000
     atom    6 type  3   force =     0.02416639   -0.00727977    0.00000000
     atom    7 type  4   force =    -0.03477577    0.01046826   -0.00000000
     atom    8 type  4   force =     0.03477577   -0.01046826    0.00000000
     atom    9 type  4   force =    -0.05346854    0.01609879    0.00776435
     atom   10 type  4   force =    -0.05346854    0.01609879   -0.00776435
     atom   11 type  4   force =     0.05346854   -0.01609879   -0.00776435
     atom   12 type  4   force =     0.05346854   -0.01609879    0.00776435
     The non-local contrib.  to forces
     atom    1 type  1   force =     0.00000000    0.00000000    0.00000000
     atom    2 type  1   force =     0.00000000    0.00000000    0.00000000
     atom    3 type  2   force =     0.49037227   -0.14763513    0.00000000
     atom    4 type  2   force =    -0.49037227    0.14763513    0.00000000
     atom    5 type  3   force =     0.03115464   -0.00937838    0.00000000
     atom    6 type  3   force =    -0.03115464    0.00937838    0.00000000
     atom    7 type  4   force =     0.13466080   -0.04054377    0.00000000
     atom    8 type  4   force =    -0.13466080    0.04054377    0.00000000
     atom    9 type  4   force =    -0.03516117    0.01058411   -0.01948365
     atom   10 type  4   force =    -0.03516117    0.01058411    0.01948365
     atom   11 type  4   force =     0.03516117   -0.01058411    0.01948365
     atom   12 type  4   force =     0.03516117   -0.01058411   -0.01948365
     The ionic contribution  to forces
     atom    1 type  1   force =    -0.00000000   -0.00000000   -0.00000000
     atom    2 type  1   force =    -0.00000000   -0.00000000    0.00000000
     atom    3 type  2   force =     2.00138661   -0.60253350    0.00000000
     atom    4 type  2   force =    -2.00138661    0.60253350   -0.00000000
     atom    5 type  3   force =    -6.04582567    1.82014434    0.00000000
     atom    6 type  3   force =     6.04582567   -1.82014434   -0.00000000
     atom    7 type  4   force =    -8.98088241    2.70376673   -0.00000000
     atom    8 type  4   force =     8.98088241   -2.70376673   -0.00000000
     atom    9 type  4   force =     8.11161093   -2.44206557    7.37839910
     atom   10 type  4   force =     8.11161093   -2.44206557   -7.37839910
     atom   11 type  4   force =    -8.11161093    2.44206557   -7.37839910
     atom   12 type  4   force =    -8.11161093    2.44206557    7.37839910
     The local contribution  to forces
     atom    1 type  1   force =     0.00071261   -0.00021453   -0.00103688
     atom    2 type  1   force =     0.00072484   -0.00022081    0.00106882
     atom    3 type  2   force =    -2.52453994    0.76002751   -0.00027240
     atom    4 type  2   force =     2.52593429   -0.76045261    0.00025972
     atom    5 type  3   force =     5.99118533   -1.80367937   -0.00037083
     atom    6 type  3   force =    -5.99314877    1.80427461    0.00038302
     atom    7 type  4   force =     8.81987672   -2.65529707    0.00012241
     atom    8 type  4   force =    -8.81914392    2.65506493   -0.00010454
     atom    9 type  4   force =    -8.13156622    2.44807241   -7.35135617
     atom   10 type  4   force =    -8.13162183    2.44809271    7.35140207
     atom   11 type  4   force =     8.13151893   -2.44807430    7.35247775
     atom   12 type  4   force =     8.13157991   -2.44808743   -7.35251738
     The core correction contribution to forces
     atom    1 type  1   force =     0.00000681   -0.00000250   -0.00000620
     atom    2 type  1   force =     0.00000710   -0.00000219    0.00000705
     atom    3 type  2   force =    -0.00067190    0.00020235   -0.00000020
     atom    4 type  2   force =     0.00067036   -0.00020181    0.00000008
     atom    5 type  3   force =    -0.00037676    0.00011398   -0.00000209
     atom    6 type  3   force =     0.00034900   -0.00010530    0.00000265
     atom    7 type  4   force =    -0.00774038    0.00233032   -0.00000045
     atom    8 type  4   force =     0.00775685   -0.00233567    0.00000094
     atom    9 type  4   force =     0.00165087   -0.00049679    0.00066973
     atom   10 type  4   force =     0.00164844   -0.00049638   -0.00067410
     atom   11 type  4   force =    -0.00164888    0.00049642   -0.00067274
     atom   12 type  4   force =    -0.00164713    0.00049568    0.00067583
     The Hubbard contrib.    to forces
     atom    1 type  1   force =     0.00000000    0.00000000    0.00000000
     atom    2 type  1   force =     0.00000000    0.00000000    0.00000000
     atom    3 type  2   force =     0.00000000    0.00000000    0.00000000
     atom    4 type  2   force =     0.00000000    0.00000000    0.00000000
     atom    5 type  3   force =     0.00000000    0.00000000    0.00000000
     atom    6 type  3   force =     0.00000000    0.00000000    0.00000000
     atom    7 type  4   force =     0.00000000    0.00000000    0.00000000
     atom    8 type  4   force =     0.00000000    0.00000000    0.00000000
     atom    9 type  4   force =     0.00000000    0.00000000    0.00000000
     atom   10 type  4   force =     0.00000000    0.00000000    0.00000000
     atom   11 type  4   force =     0.00000000    0.00000000    0.00000000
     atom   12 type  4   force =     0.00000000    0.00000000    0.00000000
     The SCF correction term to forces
     atom    1 type  1   force =    -0.00066732    0.00019913    0.00105110
     atom    2 type  1   force =    -0.00068026    0.00020757   -0.00108449
     atom    3 type  2   force =     0.00063292   -0.00019954    0.00031904
     atom    4 type  2   force =    -0.00234680    0.00070997   -0.00032322
     atom    5 type  3   force =    -0.00026622    0.00006551    0.00040193
     atom    6 type  3   force =     0.00233284   -0.00069683   -0.00039950
     atom    7 type  4   force =    -0.00053189    0.00016064   -0.00013090
     atom    8 type  4   force =     0.00009981   -0.00002596    0.00013451
     atom    9 type  4   force =     0.00001519   -0.00000490   -0.00051986
     atom   10 type  4   force =     0.00005805   -0.00001968    0.00040856
     atom   11 type  4   force =     0.00004571   -0.00000648   -0.00064512
     atom   12 type  4   force =     0.00000916    0.00000247    0.00073990

     Total force =     0.137664     Total SCF correction =     0.004244

     Computing stress (Cartesian axis) and pressure

     negative rho (up, down):  8.712E-02 0.000E+00
          total   stress  (Ry/bohr**3)                   (kbar)     P=      -32.42
  -0.00060639   0.00036415   0.00000000          -89.20       53.57        0.00
   0.00036415   0.00049359   0.00000000           53.57       72.61        0.00
   0.00000000   0.00000000  -0.00054844            0.00        0.00      -80.68

     kinetic stress (kbar)  13094.32     82.60      0.00
                               82.60  13343.86      0.00
                                0.00      0.00  13123.94

     local   stress (kbar)  -4429.35  -4873.02     -0.02
                            -4873.02 -19148.60      0.00
                               -0.02      0.00 -11164.75

     nonloc. stress (kbar)   7936.79      8.78      0.00
                                8.78   7963.28      0.00
                                0.00      0.00   7938.45

     hartree stress (kbar)  12093.83   2249.65      0.02
                             2249.65  18889.02     -0.00
                                0.02     -0.00  15110.67

     exc-cor stress (kbar)   3725.72      0.08      0.00
                                0.08   3725.96     -0.00
                                0.00     -0.00   3727.73

     corecor stress (kbar)  -8765.19     -1.10      0.00
                               -1.10  -8768.53     -0.00
                                0.00     -0.00  -8765.08

     ewald   stress (kbar) -23745.32   2586.59     -0.00
                             2586.59 -15932.38      0.00
                               -0.00      0.00 -20051.64

     hubbard stress (kbar)      0.00      0.00      0.00
                                0.00      0.00      0.00
                                0.00      0.00      0.00

     DFT-D   stress (kbar)      0.00      0.00      0.00
                                0.00      0.00      0.00
                                0.00      0.00      0.00

     XDM     stress (kbar)      0.00      0.00      0.00
                                0.00      0.00      0.00
                                0.00      0.00      0.00

     dft-nl  stress (kbar)      0.00      0.00      0.00
                                0.00      0.00      0.00
                                0.00      0.00      0.00

     TS-vdW  stress (kbar)      0.00      0.00      0.00
                                0.00      0.00      0.00
                                0.00      0.00      0.00

[...]

                                0.00      0.00      0.00

     Writing all to output data dir new_calculations/myprefix.save/

     General routines

     Parallel routines

     PAW routines

   This run was terminated on:  18:43:14  20May2023

   JOB DONE.