     Program PWSCF v.7.0 starts on 21May2023 at 13: 5: 9

     Reading input from espresso_21925.pwi
Warning: card &CELL ignored
Warning: card / ignored

     Current dimensions of program PWSCF are:
     Max number of different atomic species (ntypx) = 10
     Max number of k-points (npk) =  40000
     Max angular momentum in pseudopotentials (lmaxx) =  4
     file Ba.pbe-spn-kjpaw_psl.1.0.0.UPF: wavefunction(s)  5S 6S renormalized

     gamma-point specific algorithms are used
     Message from routine setup:
     using ibrav=0 with symmetry is DISCOURAGED, use correct ibrav instead

     Subspace diagonalization in iterative solution of the eigenvalue problem:
     a serial algorithm will be used

     Using Slab Decomposition

     bravais-lattice index     =            0
     lattice parameter (alat)  =      13.3950  a.u.
     unit-cell volume          =    3448.8002 (a.u.)^3
     number of atoms/cell      =           20
     number of atomic types    =            3
     number of electrons       =       160.00
     number of Kohn-Sham states=           96
     kinetic-energy cutoff     =      30.0000  Ry
     charge density cutoff     =     240.0000  Ry
     scf convergence threshold =      1.0E-06
     mixing beta               =       0.7000
     number of iterations used =            8  plain     mixing
     Exchange-correlation=  SLA  PW   PBX  PBC
                           (   1   4   3   4   0   0   0)

     celldm(1)=  13.394961  celldm(2)=   0.000000  celldm(3)=   0.000000
     celldm(4)=   0.000000  celldm(5)=   0.000000  celldm(6)=   0.000000

     crystal axes: (cart. coord. in units of alat)
               a(1) = (   1.000000   0.000000   0.000000 )
               a(2) = (   0.000000   1.009403   0.000000 )
               a(3) = (   0.000000   0.000000   1.421605 )

     reciprocal axes: (cart. coord. in units 2 pi/alat)
               b(1) = (  1.000000  0.000000  0.000000 )
               b(2) = (  0.000000  0.990685  0.000000 )
               b(3) = (  0.000000  0.000000  0.703430 )

     PseudoPot. # 1 for Ba read from file:
     /home/pragov/projects/rrg-bengioy-ad/pragov/crystal_structure_design/SSSP/Ba.pbe-spn-kjpaw_psl.1.0.0.UPF
     MD5 check sum: c432291d3e53af55f19d5e8866385beb
     Pseudo is Projector augmented-wave + core cor, Zval = 10.0
     Generated using "atomic" code by A. Dal Corso  v.5.1
     Shape of augmentation charge: PSQ
     Using radial grid of 1251 points,  7 beta functions with:
                l(1) =   0
                l(2) =   0
                l(3) =   0
                l(4) =   1
                l(5) =   1
                l(6) =   2
                l(7) =   2
     Q(r) pseudized with 0 coefficients

     PseudoPot. # 2 for Zr read from file:
     /home/pragov/projects/rrg-bengioy-ad/pragov/crystal_structure_design/SSSP/Zr_pbe_v1.uspp.F.UPF
     MD5 check sum: 5db81b1e868ab7776c4564c113de050b
     Pseudo is Ultrasoft + core correction, Zval = 12.0
     Generated by new atomic code, or converted to UPF format
     Using radial grid of  887 points,  6 beta functions with:
                l(1) =   0
                l(2) =   0
                l(3) =   1
                l(4) =   1
                l(5) =   2
                l(6) =   2
     Q(r) pseudized with  6 coefficients,  rinner =    1.200   1.200   1.200
                                                       1.200   1.200

     PseudoPot. # 3 for S  read from file:
     /home/pragov/projects/rrg-bengioy-ad/pragov/crystal_structure_design/SSSP/s_pbe_v1.4.uspp.F.UPF
     MD5 check sum: 88d86576ff6df21479756cfb9bdac1df
     Pseudo is Ultrasoft + core correction, Zval =  6.0
     Generated by new atomic code, or converted to UPF format
     Using radial grid of  907 points,  6 beta functions with:
                l(1) =   0
                l(2) =   0
                l(3) =   1
                l(4) =   1
                l(5) =   2
                l(6) =   2
     Q(r) pseudized with  8 coefficients,  rinner =    1.300   1.300   1.300
                                                       1.300   1.300

     atomic species   valence    mass     pseudopotential
        Ba            10.00   137.32700     Ba( 1.00)
        Zr            12.00    91.22400     Zr( 1.00)
        S              6.00    32.06000     S ( 1.00)

      8 Sym. Ops., with inversion, found ( 6 have fractional translation)

                                    s                        frac. trans.

      isym =  1     identity

 cryst.   s( 1) = (     1          0          0      )
                  (     0          1          0      )
                  (     0          0          1      )

 cart.    s( 1) = (  1.0000000  0.0000000  0.0000000 )
                  (  0.0000000  1.0000000  0.0000000 )
                  (  0.0000000  0.0000000  1.0000000 )

      isym =  2     180 deg rotation - cart. axis [0,0,1]

 cryst.   s( 2) = (    -1          0          0      )    f =(  0.0000000 )
                  (     0         -1          0      )       ( -0.0000000 )
                  (     0          0          1      )       (  0.5000000 )

 cart.    s( 2) = ( -1.0000000  0.0000000  0.0000000 )    f =(  0.0000000 )
                  (  0.0000000 -1.0000000  0.0000000 )       ( -0.0000000 )
                  (  0.0000000  0.0000000  1.0000000 )       (  0.7108027 )

[...]

      isym =  4     180 deg rotation - cart. axis [1,0,0]

[...]

      isym =  5     inversion

 cryst.   s( 5) = (    -1          0          0      )
                  (     0         -1          0      )
                  (     0          0         -1      )

 cart.    s( 5) = ( -1.0000000  0.0000000  0.0000000 )
                  (  0.0000000 -1.0000000  0.0000000 )
                  (  0.0000000  0.0000000 -1.0000000 )

      isym =  6     inv. 180 deg rotation - cart. axis [0,0,1]

[...]

      isym =  8     inv. 180 deg rotation - cart. axis [1,0,0]

 cryst.   s( 8) = (    -1          0          0      )    f =(  0.5000000 )
                  (     0          1          0      )       ( -0.5000000 )
                  (     0          0          1      )       (  0.0000000 )

 cart.    s( 8) = ( -1.0000000  0.0000000  0.0000000 )    f =(  0.5000000 )
                  (  0.0000000  1.0000000  0.0000000 )       ( -0.5047015 )
                  (  0.0000000  0.0000000  1.0000000 )       (  0.0000000 )

   Cartesian axes

     site n.     atom                  positions (alat units)
         1           Ba  tau(   1) = (   0.0086030   0.0431429   0.3554014  )
         2           Ba  tau(   2) = (   0.5086030   0.4615586   1.0662041  )
         3           Ba  tau(   3) = (   0.4913970   0.5478444   0.3554014  )
         4           Ba  tau(   4) = (   0.9913970   0.9662602   1.0662041  )
         5           Zr  tau(   5) = (   0.5000000   0.0000000   0.0000000  )
         6           Zr  tau(   6) = (   0.0000000   0.5047015   0.0000000  )
         7           Zr  tau(   7) = (   0.0000000   0.5047015   0.7108027  )
         8           Zr  tau(   8) = (   0.5000000   0.0000000   0.7108027  )
         9           S   tau(   9) = (   0.5609080   1.0031741   0.3554014  )
        10           S   tau(  10) = (   0.0609080   0.5109306   1.0662041  )
        11           S   tau(  11) = (   0.9390920   0.4984725   0.3554014  )
        12           S   tau(  12) = (   0.4390920   0.0062290   1.0662041  )
        13           S   tau(  13) = (   0.7866230   0.2151876   1.3764140  )
        14           S   tau(  14) = (   0.2866230   0.2895140   0.0451914  )
        15           S   tau(  15) = (   0.7133770   0.7198891   0.7559941  )
        16           S   tau(  16) = (   0.2133770   0.7942155   0.6656113  )
        17           S   tau(  17) = (   0.2133770   0.7942155   0.0451914  )
        18           S   tau(  18) = (   0.7133770   0.7198891   1.3764140  )
        19           S   tau(  19) = (   0.2866230   0.2895140   0.6656113  )
        20           S   tau(  20) = (   0.7866230   0.2151876   0.7559941  )

   Crystallographic axes

     site n.     atom                  positions (cryst. coord.)
         1           Ba  tau(   1) = (  0.0086030  0.0427410  0.2500000  )
         2           Ba  tau(   2) = (  0.5086030  0.4572590  0.7500000  )
         3           Ba  tau(   3) = (  0.4913970  0.5427410  0.2500000  )
         4           Ba  tau(   4) = (  0.9913970  0.9572590  0.7500000  )
         5           Zr  tau(   5) = (  0.5000000  0.0000000  0.0000000  )
         6           Zr  tau(   6) = (  0.0000000  0.5000000  0.0000000  )
         7           Zr  tau(   7) = (  0.0000000  0.5000000  0.5000000  )
         8           Zr  tau(   8) = (  0.5000000  0.0000000  0.5000000  )
         9           S   tau(   9) = (  0.5609080  0.9938290  0.2500000  )
        10           S   tau(  10) = (  0.0609080  0.5061710  0.7500000  )
        11           S   tau(  11) = (  0.9390920  0.4938290  0.2500000  )
        12           S   tau(  12) = (  0.4390920  0.0061710  0.7500000  )
        13           S   tau(  13) = (  0.7866230  0.2131830  0.9682110  )
        14           S   tau(  14) = (  0.2866230  0.2868170  0.0317890  )
        15           S   tau(  15) = (  0.7133770  0.7131830  0.5317890  )
        16           S   tau(  16) = (  0.2133770  0.7868170  0.4682110  )
        17           S   tau(  17) = (  0.2133770  0.7868170  0.0317890  )
        18           S   tau(  18) = (  0.7133770  0.7131830  0.9682110  )
        19           S   tau(  19) = (  0.2866230  0.2868170  0.4682110  )
        20           S   tau(  20) = (  0.7866230  0.2131830  0.5317890  )

     number of k points=     1  Methfessel-Paxton smearing, width (Ry)=  0.0010
                       cart. coord. in units 2pi/alat
        k(    1) = (   0.0000000   0.0000000   0.0000000), wk =   2.0000000

                       cryst. coord.
        k(    1) = (   0.0000000   0.0000000   0.0000000), wk =   2.0000000

     Check: negative core charge=   -0.000002

     Initial potential from superposition of free atoms

     starting charge     159.9229, renormalised to     160.0000

     negative rho (up, down):  2.391E-01 0.000E+00
     Starting wfcs are  120 randomized atomic wfcs
     Checking if some PAW data can be deallocated...

     Self-consistent Calculation

     iteration #  1     ecut=    30.00 Ry     beta= 0.70
     Davidson diagonalization with overlap

     ethr =  1.00E-02,  avg # of iterations =  2.0

     negative rho (up, down):  2.468E-01 0.000E+00

     total energy              =   -2431.77631707 Ry
     estimated scf accuracy    <       1.96759293 Ry

[...]

     total energy              =   -2432.72340260 Ry
     estimated scf accuracy    <       0.00000414 Ry

     iteration # 19     ecut=    30.00 Ry     beta= 0.70
     Davidson diagonalization with overlap

     ethr =  7.64E-10,  avg # of iterations =  4.0

[...]

     End of self-consistent calculation

          k = 0.0000 0.0000 0.0000 (  4801 PWs)   bands (ev):

   -42.2097 -42.2090 -42.2081 -42.2077 -20.2510 -20.2503 -20.2375 -20.2368
   -20.2041 -20.2034 -20.1904 -20.1897 -20.1618 -20.1595 -20.1462 -20.1446
   -19.2966 -19.2916 -19.2886 -19.2853  -5.2990  -4.9601  -4.9130  -4.8350
    -4.7887  -4.7484  -4.7129  -4.5878  -4.5854  -4.5273  -4.5139  -4.4855
    -4.4661  -3.9649  -3.6955  -3.6499  -3.6447  -3.6373  -3.5772  -3.5557
    -3.5521  -3.5282  -3.1978  -3.1484   2.8956   3.2472   3.5735   3.7517
     3.9117   3.9507   3.9714   4.3052   4.3175   4.3538   4.6854   4.8413
     4.8440   4.8532   4.9466   5.1009   5.1055   5.3568   5.4002   5.4363
     5.6100   5.6739   6.0874   6.1416   6.4504   6.4920   6.5012   6.8537
     6.8896   6.9733   6.9790   7.1099   7.1451   7.1994   7.2423   7.2514
     8.0150   8.1040   8.1472   8.2593   9.4662   9.4905   9.7437   9.8486
     9.9437  10.1076  10.2710  10.5683  10.9078  10.9194  10.9450  11.0925

     occupation numbers
     1.0000   1.0000   1.0000   1.0000   1.0000   1.0000   1.0000   1.0000
     1.0000   1.0000   1.0000   1.0000   1.0000   1.0000   1.0000   1.0000
     1.0000   1.0000   1.0000   1.0000   1.0000   1.0000   1.0000   1.0000
     1.0000   1.0000   1.0000   1.0000   1.0000   1.0000   1.0000   1.0000
     1.0000   1.0000   1.0000   1.0000   1.0000   1.0000   1.0000   1.0000
     1.0000   1.0000   1.0000   1.0000   1.0000   1.0000   1.0000   1.0000
     1.0000   1.0000   1.0000   1.0000   1.0000   1.0000   1.0000   1.0000
     1.0000   1.0000   1.0000   1.0000   1.0000   1.0000   1.0000   1.0000
     1.0000   1.0000   1.0000   1.0000   1.0000   1.0000   1.0000   1.0000
     1.0000   1.0000   1.0000   1.0000   1.0000   1.0000   1.0000   1.0000
    -0.0000  -0.0000  -0.0000  -0.0000  -0.0000  -0.0000  -0.0000  -0.0000
    -0.0000  -0.0000  -0.0000  -0.0000  -0.0000  -0.0000  -0.0000  -0.0000

     the Fermi energy is     7.8802 ev

!    total energy              =   -2432.72340229 Ry
     estimated scf accuracy    <       0.00000089 Ry
     smearing contrib. (-TS)   =       0.00000000 Ry
     internal energy E=F+TS    =   -2432.72340229 Ry

     The total energy is F=E-TS. E is the sum of the following terms:
     one-electron contribution =    -163.34344411 Ry
     hartree contribution      =     147.40423987 Ry
     xc contribution           =    -254.11097898 Ry
     ewald contribution        =    -662.85557161 Ry
     one-center paw contrib.   =   -1499.81764746 Ry
      -> PAW hartree energy AE =     114.37972689 Ry
      -> PAW hartree energy PS =    -113.92850514 Ry
      -> PAW xc energy AE      =   -1576.84150164 Ry
      -> PAW xc energy PS      =      76.57263244 Ry
      -> total E_H with PAW    =     147.85546162 Ry
      -> total E_XC with PAW   =   -1754.37984819 Ry

     convergence has been achieved in  19 iterations

     negative rho (up, down):  2.525E-01 0.000E+00

     Forces acting on atoms (cartesian axes, Ry/au):

     atom    1 type  1   force =     0.00705877    0.01197108   -0.00000000
     atom    2 type  1   force =     0.00705877   -0.01197108    0.00000000
     atom    3 type  1   force =    -0.00705877    0.01197108    0.00000000
     atom    4 type  1   force =    -0.00705877   -0.01197108   -0.00000000
     atom    5 type  2   force =    -0.00000000    0.00000000    0.00000000
     atom    6 type  2   force =    -0.00000000    0.00000000   -0.00000000
     atom    7 type  2   force =     0.00000000    0.00000000   -0.00000000
     atom    8 type  2   force =     0.00000000    0.00000000    0.00000000
     atom    9 type  3   force =     0.01996768   -0.00894713    0.00000000
     atom   10 type  3   force =     0.01996768    0.00894713    0.00000000
     atom   11 type  3   force =    -0.01996768   -0.00894713    0.00000000
     atom   12 type  3   force =    -0.01996768    0.00894713    0.00000000
     atom   13 type  3   force =     0.01020555   -0.01277355   -0.02965200
     atom   14 type  3   force =     0.01020555    0.01277355    0.02965200
     atom   15 type  3   force =    -0.01020555   -0.01277355    0.02965200
     atom   16 type  3   force =    -0.01020555    0.01277355   -0.02965200
     atom   17 type  3   force =    -0.01020555    0.01277355    0.02965200
     atom   18 type  3   force =    -0.01020555   -0.01277355   -0.02965200
     atom   19 type  3   force =     0.01020555    0.01277355   -0.02965200
     atom   20 type  3   force =     0.01020555   -0.01277355    0.02965200
     The non-local contrib.  to forces
     atom    1 type  1   force =     0.00170587   -0.00325603   -0.00000000
     atom    2 type  1   force =     0.00170587    0.00325603   -0.00000000
     atom    3 type  1   force =    -0.00170587   -0.00325603    0.00000000
     atom    4 type  1   force =    -0.00170587    0.00325603    0.00000000
     atom    5 type  2   force =     0.00000000    0.00000000    0.00000000
     atom    6 type  2   force =     0.00000000    0.00000000    0.00000000
     atom    7 type  2   force =     0.00000000    0.00000000    0.00000000
     atom    8 type  2   force =     0.00000000    0.00000000    0.00000000
     atom    9 type  3   force =    -0.02221887   -0.00711320    0.00000000
     atom   10 type  3   force =    -0.02221887    0.00711320   -0.00000000
     atom   11 type  3   force =     0.02221887   -0.00711320   -0.00000000
     atom   12 type  3   force =     0.02221887    0.00711320    0.00000000
     atom   13 type  3   force =    -0.02209149    0.02707235    0.00637309
     atom   14 type  3   force =    -0.02209149   -0.02707235   -0.00637309
     atom   15 type  3   force =     0.02209149    0.02707235   -0.00637309
     atom   16 type  3   force =     0.02209149   -0.02707235    0.00637309
     atom   17 type  3   force =     0.02209149   -0.02707235   -0.00637309
     atom   18 type  3   force =     0.02209149    0.02707235    0.00637309
     atom   19 type  3   force =    -0.02209149   -0.02707235    0.00637309
     atom   20 type  3   force =    -0.02209149    0.02707235   -0.00637309
     The ionic contribution  to forces
     atom    1 type  1   force =    -0.34912896   -1.07373652   -0.00000000
     atom    2 type  1   force =    -0.34912896    1.07373652    0.00000000
     atom    3 type  1   force =     0.34912896   -1.07373652   -0.00000000
     atom    4 type  1   force =     0.34912896    1.07373652    0.00000000
     atom    5 type  2   force =     0.00000000    0.00000000   -0.00000000
     atom    6 type  2   force =     0.00000000    0.00000000   -0.00000000
     atom    7 type  2   force =    -0.00000000    0.00000000   -0.00000000
     atom    8 type  2   force =     0.00000000   -0.00000000   -0.00000000
     atom    9 type  3   force =     1.03236023    0.43835979   -0.00000000
     atom   10 type  3   force =     1.03236023   -0.43835979    0.00000000
     atom   11 type  3   force =    -1.03236023    0.43835979    0.00000000
     atom   12 type  3   force =    -1.03236023   -0.43835979    0.00000000
     atom   13 type  3   force =     0.66132624   -0.47366451   -0.51254308
     atom   14 type  3   force =     0.66132624    0.47366451    0.51254308
     atom   15 type  3   force =    -0.66132624   -0.47366451    0.51254308
     atom   16 type  3   force =    -0.66132624    0.47366451   -0.51254308
     atom   17 type  3   force =    -0.66132624    0.47366451    0.51254308
     atom   18 type  3   force =    -0.66132624   -0.47366451   -0.51254308
     atom   19 type  3   force =     0.66132624    0.47366451   -0.51254308
     atom   20 type  3   force =     0.66132624   -0.47366451    0.51254308
     The local contribution  to forces
     atom    1 type  1   force =     0.35436216    1.08891556   -0.00041357
     atom    2 type  1   force =     0.35483722   -1.08918590   -0.00014953
     atom    3 type  1   force =    -0.35457936    1.08911695    0.00103812
     atom    4 type  1   force =    -0.35459509   -1.08932562   -0.00086797
     atom    5 type  2   force =     0.00002725   -0.00006398   -0.00011096
     atom    6 type  2   force =    -0.00002213    0.00004732   -0.00011254
     atom    7 type  2   force =    -0.00000410    0.00005846    0.00011920
     atom    8 type  2   force =     0.00002870   -0.00005989    0.00011588
     atom    9 type  3   force =    -0.99130218   -0.44060367    0.00020118
     atom   10 type  3   force =    -0.99148873    0.44054663   -0.00029537
     atom   11 type  3   force =     0.99147046   -0.44050292    0.00029238
     atom   12 type  3   force =     0.99132224    0.44054851   -0.00020155
     atom   13 type  3   force =    -0.62986863    0.43558419    0.47675172
     atom   14 type  3   force =    -0.63049631   -0.43500388   -0.47686533
     atom   15 type  3   force =     0.63051734    0.43493783   -0.47684307
     atom   16 type  3   force =     0.62985068   -0.43568833    0.47694580
     atom   17 type  3   force =     0.62986623   -0.43559109   -0.47685995
     atom   18 type  3   force =     0.63048354    0.43500926    0.47675696
     atom   19 type  3   force =    -0.63052507   -0.43491584    0.47695546
     atom   20 type  3   force =    -0.62985677    0.43566624   -0.47682684
     The core correction contribution to forces
     atom    1 type  1   force =    -0.00012344   -0.00017564   -0.00000838
     atom    2 type  1   force =    -0.00011713    0.00016999   -0.00000018
     atom    3 type  1   force =     0.00012097   -0.00017059    0.00001385
     atom    4 type  1   force =     0.00012057    0.00017026   -0.00001023
     atom    5 type  2   force =     0.00000026   -0.00000051   -0.00000043
     atom    6 type  2   force =    -0.00000015    0.00000034   -0.00000040
     atom    7 type  2   force =    -0.00000002    0.00000047    0.00000050
     atom    8 type  2   force =     0.00000026   -0.00000039    0.00000046
     atom    9 type  3   force =     0.00124090    0.00033960    0.00000035
     atom   10 type  3   force =     0.00124163   -0.00034026   -0.00000041
     atom   11 type  3   force =    -0.00124171    0.00034046    0.00000053
     atom   12 type  3   force =    -0.00124077   -0.00034002   -0.00000040
     atom   13 type  3   force =     0.00116549   -0.00149065   -0.00033829
     atom   14 type  3   force =     0.00116394    0.00149154    0.00033824
     atom   15 type  3   force =    -0.00116498   -0.00149185    0.00033857
     atom   16 type  3   force =    -0.00116540    0.00149084   -0.00033799
     atom   17 type  3   force =    -0.00116567    0.00149088    0.00033814
     atom   18 type  3   force =    -0.00116431   -0.00149163   -0.00033860
     atom   19 type  3   force =     0.00116464    0.00149210   -0.00033819
     atom   20 type  3   force =     0.00116514   -0.00149092    0.00033842
     The Hubbard contrib.    to forces
     atom    1 type  1   force =     0.00000000    0.00000000    0.00000000
     atom    2 type  1   force =     0.00000000    0.00000000    0.00000000
     atom    3 type  1   force =     0.00000000    0.00000000    0.00000000
     atom    4 type  1   force =     0.00000000    0.00000000    0.00000000
     atom    5 type  2   force =     0.00000000    0.00000000    0.00000000
     atom    6 type  2   force =     0.00000000    0.00000000    0.00000000
     atom    7 type  2   force =     0.00000000    0.00000000    0.00000000
     atom    8 type  2   force =     0.00000000    0.00000000    0.00000000
     atom    9 type  3   force =     0.00000000    0.00000000    0.00000000
     atom   10 type  3   force =     0.00000000    0.00000000    0.00000000
     atom   11 type  3   force =     0.00000000    0.00000000    0.00000000
     atom   12 type  3   force =     0.00000000    0.00000000    0.00000000
     atom   13 type  3   force =     0.00000000    0.00000000    0.00000000
     atom   14 type  3   force =     0.00000000    0.00000000    0.00000000
     atom   15 type  3   force =     0.00000000    0.00000000    0.00000000
     atom   16 type  3   force =     0.00000000    0.00000000    0.00000000
     atom   17 type  3   force =     0.00000000    0.00000000    0.00000000
     atom   18 type  3   force =     0.00000000    0.00000000    0.00000000
     atom   19 type  3   force =     0.00000000    0.00000000    0.00000000
     atom   20 type  3   force =     0.00000000    0.00000000    0.00000000
     The SCF correction term to forces
     atom    1 type  1   force =     0.00007620    0.00000192   -0.00012871
     atom    2 type  1   force =    -0.00006327   -0.00007040    0.00024908
     atom    3 type  1   force =     0.00000730    0.00002069   -0.00036948
     atom    4 type  1   force =    -0.00003008    0.00009605    0.00030749
     atom    5 type  2   force =    -0.00002523    0.00006236    0.00011370
     atom    6 type  2   force =     0.00002370   -0.00004710    0.00011728
     atom    7 type  2   force =     0.00000739   -0.00005689   -0.00012316
     atom    8 type  2   force =    -0.00002650    0.00005998   -0.00011910
     atom    9 type  3   force =    -0.00012018    0.00006429   -0.00018838
     atom   10 type  3   force =     0.00008143   -0.00001300    0.00027808
     atom   11 type  3   force =    -0.00006299   -0.00002561   -0.00027397
     atom   12 type  3   force =     0.00010038   -0.00001483    0.00019026
     atom   13 type  3   force =    -0.00029746   -0.00024278    0.00010473
     atom   14 type  3   force =     0.00026561   -0.00028179    0.00000632
     atom   15 type  3   force =    -0.00030354    0.00034014   -0.00000572
     atom   16 type  3   force =     0.00031524    0.00034811   -0.00008336
     atom   17 type  3   force =     0.00029802    0.00025064   -0.00000213
     atom   18 type  3   force =    -0.00025993    0.00027482    0.00009410
     atom   19 type  3   force =     0.00030500   -0.00035709   -0.00009844
     atom   20 type  3   force =    -0.00031194   -0.00032966   -0.00002665

     Total force =     0.108904     Total SCF correction =     0.001468

     Computing stress (Cartesian axis) and pressure

     negative rho (up, down):  2.525E-01 0.000E+00
          total   stress  (Ry/bohr**3)                   (kbar)     P=       26.11
   0.00030051   0.00000000   0.00000000           44.21        0.00        0.00
   0.00000000   0.00032270   0.00000000            0.00       47.47        0.00
   0.00000000   0.00000000  -0.00009082            0.00        0.00      -13.36

     kinetic stress (kbar)   7813.73      0.00      0.00
                                0.00   7842.58      0.00
                                0.00      0.00   7777.95

     local   stress (kbar)  -3869.89     -0.00      0.00
                               -0.00  -3769.72     -0.01
                                0.00     -0.01  -4155.03

     nonloc. stress (kbar)   5857.70      0.00      0.00
                                0.00   5854.79      0.00
                                0.00      0.00   5852.31

     hartree stress (kbar)   2063.37      0.00     -0.00
                                0.00   2037.84      0.00
                               -0.00      0.00   2186.17

     exc-cor stress (kbar)   2894.00     -0.00      0.00
                               -0.00   2893.89      0.00
                                0.00      0.00   2895.35

     corecor stress (kbar)  -5274.92      0.00      0.00
                                0.00  -5274.91     -0.00
                                0.00     -0.00  -5273.46

     ewald   stress (kbar)  -9439.78     -0.00      0.00
                               -0.00  -9536.99      0.00
                                0.00      0.00  -9296.66

     hubbard stress (kbar)      0.00      0.00      0.00
                                0.00      0.00      0.00
                                0.00      0.00      0.00

     DFT-D   stress (kbar)      0.00      0.00      0.00
                                0.00      0.00      0.00
                                0.00      0.00      0.00

     XDM     stress (kbar)      0.00      0.00      0.00
                                0.00      0.00      0.00
                                0.00      0.00      0.00

     dft-nl  stress (kbar)      0.00      0.00      0.00
                                0.00      0.00      0.00
                                0.00      0.00      0.00

     TS-vdW  stress (kbar)      0.00      0.00      0.00
                                0.00      0.00      0.00
                                0.00      0.00      0.00

[...]

                                0.00      0.00      0.00

     Writing all to output data dir new_calculations/myprefix.save/

     General routines

     Parallel routines

     PAW routines

   This run was terminated on:  13: 6:11  21May2023

   JOB DONE.