     Program PWSCF v.7.0 starts on 20May2023 at 19:27:19

     Reading input from espresso_10637.pwi
Warning: card &CELL ignored
Warning: card / ignored

     Current dimensions of program PWSCF are:
     Max number of different atomic species (ntypx) = 10
     Max number of k-points (npk) =  40000
     Max angular momentum in pseudopotentials (lmaxx) =  4
     file Ba.pbe-spn-kjpaw_psl.1.0.0.UPF: wavefunction(s)  5S 6S renormalized
     file Pb.pbe-dn-kjpaw_psl.0.2.2.UPF: wavefunction(s)  6S renormalized
     file O.pbe-n-kjpaw_psl.0.1.UPF: wavefunction(s)  2P renormalized

     gamma-point specific algorithms are used
     Message from routine setup:
     using ibrav=0 with symmetry is DISCOURAGED, use correct ibrav instead

     Subspace diagonalization in iterative solution of the eigenvalue problem:
     a serial algorithm will be used

     Using Slab Decomposition

     bravais-lattice index     =            0
     lattice parameter (alat)  =      11.6329  a.u.
     unit-cell volume          =    1116.5378 (a.u.)^3
     number of atoms/cell      =           10
     number of atomic types    =            3
     number of electrons       =        84.00
     number of Kohn-Sham states=           50
     kinetic-energy cutoff     =      30.0000  Ry
     charge density cutoff     =     240.0000  Ry
     scf convergence threshold =      1.0E-06
     mixing beta               =       0.7000
     number of iterations used =            8  plain     mixing
     Exchange-correlation= SLA  PW   PBX  PBC
                           (   1   4   3   4   0   0   0)

     celldm(1)=  11.632902  celldm(2)=   0.000000  celldm(3)=   0.000000
     celldm(4)=   0.000000  celldm(5)=   0.000000  celldm(6)=   0.000000

     crystal axes: (cart. coord. in units of alat)
               a(1) = (   1.000000   0.000000   0.000000 )
               a(2) = (  -0.006338   0.999980   0.000000 )
               a(3) = (  -0.490094  -0.506685   0.709280 )

     reciprocal axes: (cart. coord. in units 2 pi/alat)
               b(1) = (  1.000000  0.006338  0.695501 )
               b(2) = (  0.000000  1.000020  0.714378 )
               b(3) = (  0.000000  0.000000  1.409880 )

     PseudoPot. # 1 for Ba read from file:
     /home/pragov/projects/rrg-bengioy-ad/pragov/crystal_structure_design/SSSP/Ba.pbe-spn-kjpaw_psl.1.0.0.UPF
     MD5 check sum: c432291d3e53af55f19d5e8866385beb
     Pseudo is Projector augmented-wave + core cor, Zval = 10.0
     Generated using "atomic" code by A. Dal Corso  v.5.1
     Shape of augmentation charge: PSQ
     Using radial grid of 1251 points,  7 beta functions with:
                l(1) =   0
                l(2) =   0
                l(3) =   0
                l(4) =   1
                l(5) =   1
                l(6) =   2
                l(7) =   2
     Q(r) pseudized with 0 coefficients

     PseudoPot. # 2 for Pb read from file:
     /home/pragov/projects/rrg-bengioy-ad/pragov/crystal_structure_design/SSSP/Pb.pbe-dn-kjpaw_psl.0.2.2.UPF
     MD5 check sum: 9d431e6316058b74ade52399a6cf67da
     Pseudo is Projector augmented-wave + core cor, Zval = 14.0
     Generated using "atomic" code by A. Dal Corso  v.5.0.99 svn rev. 10869
     Shape of augmentation charge: PSQ
     Using radial grid of 1281 points,  6 beta functions with:
                l(1) =   0
                l(2) =   0
                l(3) =   1
                l(4) =   1
                l(5) =   2
                l(6) =   2
     Q(r) pseudized with 0 coefficients

     PseudoPot. # 3 for O  read from file:
     /home/pragov/projects/rrg-bengioy-ad/pragov/crystal_structure_design/SSSP/O.pbe-n-kjpaw_psl.0.1.UPF
     MD5 check sum: 0234752ac141de4415c5fc33072bef88
     Pseudo is Projector augmented-wave + core cor, Zval =  6.0
     Generated using "atomic" code by A. Dal Corso  v.5.0.99 svn rev. 10869
     Shape of augmentation charge: BESSEL
     Using radial grid of 1095 points,  4 beta functions with:
                l(1) =   0
                l(2) =   0
                l(3) =   1
                l(4) =   1
     Q(r) pseudized with 0 coefficients

     atomic species   valence    mass     pseudopotential
        Ba            10.00   137.32700     Ba( 1.00)
        Pb            14.00   207.20000     Pb( 1.00)
        O              6.00    15.99900     O ( 1.00)

      2 Sym. Ops., with inversion, found

                                    s                        frac. trans.

      isym =  1     identity

 cryst.   s( 1) = (     1          0          0      )
                  (     0          1          0      )
                  (     0          0          1      )

 cart.    s( 1) = (  1.0000000 -0.0000000  0.0000000 )
                  (  0.0000000  1.0000000 -0.0000000 )
                  (  0.0000000  0.0000000  1.0000000 )

      isym =  2     inversion

 cryst.   s( 2) = (    -1          0          0      )
                  (     0         -1          0      )
                  (     0          0         -1      )

 cart.    s( 2) = ( -1.0000000  0.0000000 -0.0000000 )
                  (  0.0000000 -1.0000000  0.0000000 )
                  (  0.0000000  0.0000000 -1.0000000 )

   Cartesian axes

     site n.     atom                  positions (alat units)
         1           Ba  tau(   1) = (   0.7486573   0.7465957   0.0047444  )
         2           Ba  tau(   2) = (  -0.2450892  -0.2533003   0.7045361  )
         3           Pb  tau(   3) = (   0.2549530  -0.2533423   0.3546402  )
         4           Pb  tau(   4) = (   0.7517841   0.2466477   0.3546402  )
         5           O   tau(   5) = (   0.2053560   0.7098407   0.0000000  )
         6           O   tau(   6) = (   0.0362331   0.4608368   0.4047629  )
         7           O   tau(   7) = (   0.4673350   0.0324586   0.3045175  )
         8           O   tau(   8) = (  -0.0365220  -0.0434915   0.3546402  )
         9           O   tau(   9) = (   0.7883061   0.2901392   0.0000000  )
        10           O   tau(  10) = (   0.5400902   0.5367869   0.3546402  )

   Crystallographic axes

     site n.     atom                  positions (cryst. coord.)
         1           Ba  tau(   1) = (  0.7566890  0.7500000  0.0066890  )
         2           Ba  tau(   2) = (  0.2433110  0.2500000  0.9933110  )
         3           Pb  tau(   3) = (  0.5000000  0.0000000  0.5000000  )
         4           Pb  tau(   4) = (  1.0000000  0.5000000  0.5000000  )
         5           O   tau(   5) = (  0.2098550  0.7098550  0.0000000  )
         6           O   tau(   6) = (  0.3206670  0.7500000  0.5706670  )
         7           O   tau(   7) = (  0.6793330  0.2500000  0.4293330  )
         8           O   tau(   8) = (  0.2098550  0.2098550  0.5000000  )
         9           O   tau(   9) = (  0.7901450  0.2901450  0.0000000  )
        10           O   tau(  10) = (  0.7901450  0.7901450  0.5000000  )

     number of k points=     1  Methfessel-Paxton smearing, width (Ry)=  0.0010
                       cart. coord. in units 2pi/alat
        k(    1) = (   0.0000000   0.0000000   0.0000000), wk =   2.0000000

                       cryst. coord.
        k(    1) = (   0.0000000   0.0000000   0.0000000), wk =   2.0000000

     Check: negative core charge=   -0.000008

     Initial potential from superposition of free atoms

     starting charge      83.9613, renormalised to      84.0000
     Starting wfcs are   52 randomized atomic wfcs
     Checking if some PAW data can be deallocated...

     Self-consistent Calculation

     iteration #  1     ecut=    30.00 Ry     beta= 0.70
     Davidson diagonalization with overlap

     ethr =  1.00E-02,  avg # of iterations =  7.0

     negative rho (up, down):  2.261E-02 0.000E+00

     total energy              =   -2861.28349721 Ry
     estimated scf accuracy    <       3.04746474 Ry

[...]

     negative rho (up, down):  7.451E-05 0.000E+00

[...]

     total energy              =   -2862.92484807 Ry
     estimated scf accuracy    <       0.00000311 Ry

     iteration # 36     ecut=    30.00 Ry     beta= 0.70
     Davidson diagonalization with overlap

     ethr =  1.44E-09,  avg # of iterations =  2.0

     End of self-consistent calculation

          k = 0.0000 0.0000 0.0000 (  1562 PWs)   bands (ev):

   -16.7992 -16.7140  -8.3057  -8.2917  -8.1317  -7.2656  -7.1886  -7.1480
    -6.1824  -6.1226  -5.9479  -5.9280  -5.9220  -5.8672  -5.8418  -5.8404
    -4.1260  -4.0890  -2.2357  -2.0320  -1.9456  -1.9388  -1.9321  -1.9103
     0.2800   5.0934   5.3019   5.3578   6.0495   7.5783   7.6727   7.7082
     7.8563   8.0189   8.2602   8.4448   8.4710   8.5678   8.5701   8.7478
     8.9283   8.9740   8.9799  13.3069  13.5274  13.6183  13.7121  14.2610
    14.6929  15.2495

     occupation numbers
     1.0000   1.0000   1.0000   1.0000   1.0000   1.0000   1.0000   1.0000
     1.0000   1.0000   1.0000   1.0000   1.0000   1.0000   1.0000   1.0000
     1.0000   1.0000   1.0000   1.0000   1.0000   1.0000   1.0000   1.0000
     1.0000   1.0000   1.0000   1.0000   1.0000   1.0000   1.0000   1.0000
     1.0000   1.0000   1.0000   1.0000   1.0000   1.0000   1.0000   1.0000
     1.0000   0.6783   0.3217  -0.0000  -0.0000  -0.0000  -0.0000  -0.0000
    -0.0000  -0.0000

     the Fermi energy is     8.9770 ev

!    total energy              =   -2862.92484774 Ry

     total all-electron energy =   -116973.249371 Ry
     estimated scf accuracy    <       0.00000067 Ry
     smearing contrib. (-TS)   =      -0.00048806 Ry
     internal energy E=F+TS    =   -2862.92435968 Ry

     The total energy is F=E-TS. E is the sum of the following terms:
     one-electron contribution =    -123.94204914 Ry
     hartree contribution      =     129.07423887 Ry
     xc contribution           =    -174.66029630 Ry
     ewald contribution        =    -429.25948477 Ry
     one-center paw contrib.   =   -2264.13676834 Ry
      -> PAW hartree energy AE =     431.61104877 Ry
      -> PAW hartree energy PS =    -430.42204647 Ry
      -> PAW xc energy AE      =   -2436.26076560 Ry
      -> PAW xc energy PS      =     170.93499497 Ry
      -> total E_H with PAW    =     130.26324116 Ry
      -> total E_XC with PAW   =   -2439.98606693 Ry

     convergence has been achieved in  36 iterations

     Forces acting on atoms (cartesian axes, Ry/au):

     atom    1 type  1   force =     0.00877305   -0.00849781    0.01207782
     atom    2 type  1   force =    -0.00877305    0.00849781   -0.01207782
     atom    3 type  2   force =     0.00000000    0.00000000    0.00000000
     atom    4 type  2   force =     0.00000000    0.00000000    0.00000000
     atom    5 type  3   force =    -0.04417163   -0.04489631   -0.00049663
     atom    6 type  3   force =     0.03905681   -0.03621613    0.05082715
     atom    7 type  3   force =    -0.03905681    0.03621613   -0.05082715
     atom    8 type  3   force =    -0.04250399   -0.04587711   -0.00009761
     atom    9 type  3   force =     0.04417163    0.04489631    0.00049663
     atom   10 type  3   force =     0.04250399    0.04587711    0.00009761
     The non-local contrib.  to forces
     atom    1 type  1   force =    -0.00244282    0.00229986   -0.00391712
     atom    2 type  1   force =     0.00244282   -0.00229986    0.00391712
     atom    3 type  2   force =     0.00000000    0.00000000    0.00000000
     atom    4 type  2   force =     0.00000000    0.00000000    0.00000000
     atom    5 type  3   force =     0.18336212    0.18561064    0.00539057
     atom    6 type  3   force =    -0.20966692    0.20784230   -0.29115055
     atom    7 type  3   force =     0.20966692   -0.20784230    0.29115055
     atom    8 type  3   force =     0.18131771    0.18789857    0.00160023
     atom    9 type  3   force =    -0.18336212   -0.18561064   -0.00539057
     atom   10 type  3   force =    -0.18131771   -0.18789857   -0.00160023
     The ionic contribution  to forces
     atom    1 type  1   force =    -0.45297921    0.45011731   -0.63009504
     atom    2 type  1   force =     0.45297921   -0.45011730    0.63009504
     atom    3 type  2   force =    -0.00000000   -0.00000000    0.00000000
     atom    4 type  2   force =    -0.00000000    0.00000000    0.00000000
     atom    5 type  3   force =    -0.61871322   -0.62264708   -0.00000000
     atom    6 type  3   force =     0.99363215   -0.98735441    1.38214441
     atom    7 type  3   force =    -0.99363214    0.98735441   -1.38214441
     atom    8 type  3   force =    -0.61871322   -0.62264708    0.00000000
     atom    9 type  3   force =     0.61871322    0.62264708   -0.00000000
     atom   10 type  3   force =     0.61871322    0.62264708    0.00000000
     The local contribution  to forces
     atom    1 type  1   force =     0.46393853   -0.46021121    0.64551344
     atom    2 type  1   force =    -0.46386056    0.46109714   -0.64629026
     atom    3 type  2   force =    -0.00030409   -0.00032848    0.00002145
     atom    4 type  2   force =     0.00037008    0.00025769    0.00005466
     atom    5 type  3   force =     0.39366717    0.39462283   -0.00599354
     atom    6 type  3   force =    -0.74768913    0.74619612   -1.04402046
     atom    7 type  3   force =     0.74751509   -0.74601855    1.04376053
     atom    8 type  3   force =     0.39736436    0.39128036   -0.00180617
     atom    9 type  3   force =    -0.39371358   -0.39459223    0.00597330
     atom   10 type  3   force =    -0.39737943   -0.39126183    0.00174134
     The core correction contribution to forces
     atom    1 type  1   force =     0.00014363   -0.00010020    0.00015982
     atom    2 type  1   force =    -0.00014268    0.00012941   -0.00017828
     atom    3 type  2   force =    -0.00000022    0.00000056   -0.00000044
     atom    4 type  2   force =    -0.00000039    0.00000020   -0.00000044
     atom    5 type  3   force =    -0.00238446   -0.00241296   -0.00004754
     atom    6 type  3   force =     0.00274016   -0.00269825    0.00370816
     atom    7 type  3   force =    -0.00274220    0.00270059   -0.00371131
     atom    8 type  3   force =    -0.00239719   -0.00241578   -0.00001507
     atom    9 type  3   force =     0.00238395    0.00241341    0.00004658
     atom   10 type  3   force =     0.00239654    0.00241651    0.00001444
     The Hubbard contrib.    to forces
     atom    1 type  1   force =     0.00000000    0.00000000    0.00000000
     atom    2 type  1   force =     0.00000000    0.00000000    0.00000000
     atom    3 type  2   force =     0.00000000    0.00000000    0.00000000
     atom    4 type  2   force =     0.00000000    0.00000000    0.00000000
     atom    5 type  3   force =     0.00000000    0.00000000    0.00000000
     atom    6 type  3   force =     0.00000000    0.00000000    0.00000000
     atom    7 type  3   force =     0.00000000    0.00000000    0.00000000
     atom    8 type  3   force =     0.00000000    0.00000000    0.00000000
     atom    9 type  3   force =     0.00000000    0.00000000    0.00000000
     atom   10 type  3   force =     0.00000000    0.00000000    0.00000000
     The SCF correction term to forces
     atom    1 type  1   force =     0.00016924   -0.00022133    0.00009238
     atom    2 type  1   force =    -0.00013553    0.00007064    0.00005423
     atom    3 type  2   force =     0.00030862    0.00033458   -0.00003098
     atom    4 type  2   force =    -0.00037722   -0.00025625   -0.00006325
     atom    5 type  3   force =    -0.00012630   -0.00005200    0.00012829
     atom    6 type  3   force =    -0.00002303   -0.00013169    0.00005144
     atom    7 type  3   force =     0.00007194    0.00009220    0.00002333
     atom    8 type  3   force =    -0.00009249    0.00002668    0.00009589
     atom    9 type  3   force =     0.00012708    0.00005640   -0.00015827
     atom   10 type  3   force =     0.00007453   -0.00000623   -0.00008545

     Total force =     0.164887     Total SCF correction =     0.000824

     Computing stress (Cartesian axis) and pressure

          total   stress  (Ry/bohr**3)                   (kbar)     P=      -95.78
  -0.00061235   0.00013264   0.00001799          -90.08       19.51        2.65
   0.00013264  -0.00061336  -0.00003342           19.51      -90.23       -4.92
   0.00001799  -0.00003342  -0.00072762            2.65       -4.92     -107.04

     kinetic stress (kbar)  18138.61     24.30    -26.45
                               24.30  18139.12     20.72
                              -26.45     20.72  18111.49

     local   stress (kbar)  -3533.86    -63.84   -429.48
                              -63.84  -3529.52    431.58
                             -429.48    431.58  -3444.40

     nonloc. stress (kbar)   3426.79    -11.50     -3.11
                              -11.50   3422.02      2.36
                               -3.11      2.36   3437.48

     hartree stress (kbar)   5700.97     90.18    138.48
                               90.18   5701.13   -138.47
                              138.48   -138.47   5603.57

     exc-cor stress (kbar)   6323.92     -0.84      0.76
                               -0.84   6323.86     -0.79
                                0.76     -0.79   6324.71

     corecor stress (kbar) -11293.01     -1.18      0.13
                               -1.18 -11293.11     -0.04
                                0.13     -0.04 -11291.71

     ewald   stress (kbar) -18853.50    -17.61    322.31
                              -17.61 -18853.73   -320.27
                              322.31   -320.27 -18848.18

     hubbard stress (kbar)      0.00      0.00      0.00
                                0.00      0.00      0.00
                                0.00      0.00      0.00

     DFT-D   stress (kbar)      0.00      0.00      0.00
                                0.00      0.00      0.00
                                0.00      0.00      0.00

     XDM     stress (kbar)      0.00      0.00      0.00
                                0.00      0.00      0.00
                                0.00      0.00      0.00

     dft-nl  stress (kbar)      0.00      0.00      0.00
                                0.00      0.00      0.00
                                0.00      0.00      0.00

     TS-vdW  stress (kbar)      0.00      0.00      0.00
                                0.00      0.00      0.00
                                0.00      0.00      0.00

[...]

                                0.00      0.00      0.00

     Writing all to output data dir new_calculations/myprefix.save/

     General routines

     Parallel routines

     PAW routines

   This run was terminated on:  19:28: 8  20May2023

   JOB DONE.