     Program PWSCF v.7.0 starts on 21May2023 at  6:55:31

     Reading input from espresso_14150.pwi
Warning: card &CELL ignored
Warning: card / ignored

     Current dimensions of program PWSCF are:
     Max number of different atomic species (ntypx) = 10
     Max number of k-points (npk) =  40000
     Max angular momentum in pseudopotentials (lmaxx) =  4
     file O.pbe-n-kjpaw_psl.0.1.UPF: wavefunction(s)  2P renormalized

     gamma-point specific algorithms are used
     Message from routine setup:
     using ibrav=0 with symmetry is DISCOURAGED, use correct ibrav instead

     Subspace diagonalization in iterative solution of the eigenvalue problem:
     a serial algorithm will be used

     Using Slab Decomposition

     bravais-lattice index     =            0
     lattice parameter (alat)  =      11.3522  a.u.
     unit-cell volume          =    2013.3997 (a.u.)^3
     number of atoms/cell      =           20
     number of atomic types    =            4
     number of electrons       =       192.00
     number of Kohn-Sham states=          115
     kinetic-energy cutoff     =      30.0000  Ry
     charge density cutoff     =     240.0000  Ry
     scf convergence threshold =      1.0E-06
     mixing beta               =       0.7000
     number of iterations used =            8  plain     mixing
     Exchange-correlation= SLA  PW   PBX  PBC
                           (   1   4   3   4   0   0   0)

     celldm(1)=  11.352186  celldm(2)=   0.000000  celldm(3)=   0.000000
     celldm(4)=   0.000000  celldm(5)=   0.000000  celldm(6)=   0.000000

     crystal axes: (cart. coord. in units of alat)
               a(1) = (   1.000000   0.000000   0.000000 )
               a(2) = (   0.000000   0.983252   0.000000 )
               a(3) = (   0.000000   0.985580   1.399673 )

     reciprocal axes: (cart. coord. in units 2 pi/alat)
               b(1) = (  1.000000  0.000000  0.000000 )
               b(2) = (  0.000000  1.017033 -0.716144 )
               b(3) = (  0.000000  0.000000  0.714452 )

     PseudoPot. # 1 for Sr read from file:
     /home/pragov/projects/rrg-bengioy-ad/pragov/crystal_structure_design/SSSP/Sr_pbe_v1.uspp.F.UPF
     MD5 check sum: 6b418c05fbe9db5448babca5e47b7a5b
     Pseudo is Ultrasoft + core correction, Zval = 10.0
     Generated by new atomic code, or converted to UPF format
     Using radial grid of  883 points,  6 beta functions with:
                l(1) =   0
                l(2) =   0
                l(3) =   1
                l(4) =   1
                l(5) =   2
                l(6) =   2
     Q(r) pseudized with  6 coefficients,  rinner =    1.400   1.400   1.400
                                                       1.400   1.400

     PseudoPot. # 2 for Lu read from file:
     /home/pragov/projects/rrg-bengioy-ad/pragov/crystal_structure_design/SSSP/Lu.GGA-PBE-paw-v1.0.UPF
     MD5 check sum: 9ceca61ee0c17e9380a83635bfffa61d
     Pseudo is Projector augmented-wave + core cor, Zval = 25.0
     Generated using ATOMPAW code
     Shape of augmentation charge: BESSEL
     Using radial grid of 1118 points,  8 beta functions with:
                l(1) =   0
                l(2) =   0
                l(3) =   1
                l(4) =   1
                l(5) =   2
                l(6) =   2
                l(7) =   3
                l(8) =   3
     Q(r) pseudized with 0 coefficients

     PseudoPot. # 3 for Bi read from file:
     /home/pragov/projects/rrg-bengioy-ad/pragov/crystal_structure_design/SSSP/Bi_pbe_v1.uspp.F.UPF
     MD5 check sum: cceb9f28ec65b6d7ff33140f5b0b1758
     Pseudo is Ultrasoft + core correction, Zval = 15.0
     Generated by new atomic code, or converted to UPF format
     Using radial grid of  899 points,  6 beta functions with:
                l(1) =   0
                l(2) =   0
                l(3) =   1
                l(4) =   1
                l(5) =   2
                l(6) =   2
     Q(r) pseudized with  6 coefficients,  rinner =    1.000   1.000   1.000
                                                       1.000   1.000

     PseudoPot. # 4 for O  read from file:
     /home/pragov/projects/rrg-bengioy-ad/pragov/crystal_structure_design/SSSP/O.pbe-n-kjpaw_psl.0.1.UPF
     MD5 check sum: 0234752ac141de4415c5fc33072bef88
     Pseudo is Projector augmented-wave + core cor, Zval =  6.0
     Generated using "atomic" code by A. Dal Corso  v.5.0.99 svn rev. 10869
     Shape of augmentation charge: BESSEL
     Using radial grid of 1095 points,  4 beta functions with:
                l(1) =   0
                l(2) =   0
                l(3) =   1
                l(4) =   1
     Q(r) pseudized with 0 coefficients

     atomic species   valence    mass     pseudopotential
        Sr            10.00    87.62000     Sr( 1.00)
        Lu            25.00   174.96680     Lu( 1.00)
        Bi            15.00   208.98040     Bi( 1.00)
        O              6.00    15.99900     O ( 1.00)

      4 Sym. Ops., with inversion, found ( 2 have fractional translation)

                                    s                        frac. trans.

      isym =  1     identity

 cryst.   s( 1) = (     1          0          0      )
                  (     0          1          0      )
                  (     0          0          1      )

 cart.    s( 1) = (  1.0000000  0.0000000  0.0000000 )
                  (  0.0000000  1.0000000 -0.0000000 )
                  (  0.0000000  0.0000000  1.0000000 )

      isym =  2     180 deg rotation - cart. axis [1,0,0]

 cryst.   s( 2) = (     1          0          0      )    f =( -0.5000000 )
                  (     0         -1          0      )       (  0.0000000 )
                  (     0          0         -1      )       (  0.5000000 )

 cart.    s( 2) = (  1.0000000  0.0000000  0.0000000 )    f =( -0.5000000 )
                  (  0.0000000 -1.0000000  0.0000000 )       (  0.4927900 )
                  (  0.0000000  0.0000000 -1.0000000 )       (  0.6998366 )

      isym =  3     inversion

 cryst.   s( 3) = (    -1          0          0      )
                  (     0         -1          0      )
                  (     0          0         -1      )

 cart.    s( 3) = ( -1.0000000  0.0000000  0.0000000 )
                  (  0.0000000 -1.0000000  0.0000000 )
                  (  0.0000000  0.0000000 -1.0000000 )

      isym =  4     inv. 180 deg rotation - cart. axis [1,0,0]

 cryst.   s( 4) = (    -1          0          0      )    f =(  0.5000000 )
                  (     0          1          0      )       (  0.0000000 )
                  (     0          0          1      )       (  0.5000000 )

 cart.    s( 4) = ( -1.0000000  0.0000000  0.0000000 )    f =(  0.5000000 )
                  (  0.0000000  1.0000000 -0.0000000 )       (  0.4927900 )
                  (  0.0000000  0.0000000  1.0000000 )       (  0.6998366 )

   Cartesian axes

     site n.     atom                  positions (alat units)
         1           Sr  tau(   1) = (   0.4591070   0.9944830   1.0500950  )
         2           Sr  tau(   2) = (   0.9591070   1.4671390   1.0494148  )
         3           Sr  tau(   3) = (   0.0408930   0.5016930   0.3502584  )
         4           Sr  tau(   4) = (   0.5408930   0.9743490   0.3495782  )
         5           Lu  tau(   5) = (   0.5000000   0.4916260   0.0000000  )
         6           Lu  tau(   6) = (   0.0000000   0.9844160   0.6998366  )
         7           Bi  tau(   7) = (   0.0000000   0.0000000   0.0000000  )
         8           Bi  tau(   8) = (   0.5000000   0.4927900   0.6998366  )
         9           O   tau(   9) = (   0.7055400   1.1916268   0.7638283  )
        10           O   tau(  10) = (   0.2055400   1.2699952   1.3356815  )
        11           O   tau(  11) = (   0.2944600   0.7772052   0.6358449  )
        12           O   tau(  12) = (   0.7944600   0.6988368   0.0639917  )
        13           O   tau(  13) = (   0.2111290   1.2766580   0.7647492  )
        14           O   tau(  14) = (   0.7111290   1.1849640   1.3347606  )
        15           O   tau(  15) = (   0.7888710   0.6921740   0.6349240  )
        16           O   tau(  16) = (   0.2888710   0.7838680   0.0649126  )
        17           O   tau(  17) = (   0.0286910   0.8996578   1.0545866  )
        18           O   tau(  18) = (   0.5286910   1.5619642   1.0449232  )
        19           O   tau(  19) = (   0.9713090   1.0691743   0.3450866  )
        20           O   tau(  20) = (   0.4713090   0.4068678   0.3547500  )

   Crystallographic axes

     site n.     atom                  positions (cryst. coord.)
         1           Sr  tau(   1) = (  0.4591070  0.2594030  0.7502430  )
         2           Sr  tau(   2) = (  0.9591070  0.7405970  0.7497570  )
         3           Sr  tau(   3) = (  0.0408930  0.2594030  0.2502430  )
         4           Sr  tau(   4) = (  0.5408930  0.7405970  0.2497570  )
         5           Lu  tau(   5) = (  0.5000000  0.5000000  0.0000000  )
         6           Lu  tau(   6) = (  0.0000000  0.5000000  0.5000000  )
         7           Bi  tau(   7) = (  0.0000000  0.0000000  0.0000000  )
         8           Bi  tau(   8) = (  0.5000000  0.0000000  0.5000000  )
         9           O   tau(   9) = (  0.7055400  0.6649130  0.5457190  )
        10           O   tau(  10) = (  0.2055400  0.3350870  0.9542810  )
        11           O   tau(  11) = (  0.2944600  0.3350870  0.4542810  )
        12           O   tau(  12) = (  0.7944600  0.6649130  0.0457190  )
        13           O   tau(  13) = (  0.2111290  0.7507330  0.5463770  )
        14           O   tau(  14) = (  0.7111290  0.2492670  0.9536230  )
        15           O   tau(  15) = (  0.7888710  0.2492670  0.4536230  )
        16           O   tau(  16) = (  0.2888710  0.7507330  0.0463770  )
        17           O   tau(  17) = (  0.0286910  0.1597460  0.7534520  )
        18           O   tau(  18) = (  0.5286910  0.8402540  0.7465480  )
        19           O   tau(  19) = (  0.9713090  0.8402540  0.2465480  )
        20           O   tau(  20) = (  0.4713090  0.1597460  0.2534520  )

     number of k points=     1  Methfessel-Paxton smearing, width (Ry)=  0.0010
                       cart. coord. in units 2pi/alat
        k(    1) = (   0.0000000   0.0000000   0.0000000), wk =   2.0000000

                       cryst. coord.
        k(    1) = (   0.0000000   0.0000000   0.0000000), wk =   2.0000000

     Check: negative core charge=   -0.000012

     Initial potential from superposition of free atoms

     starting charge     189.8577, renormalised to     192.0000

     negative rho (up, down):  3.443E-01 0.000E+00
     Starting wfcs are  182 randomized atomic wfcs
     Checking if some PAW data can be deallocated...

     Self-consistent Calculation

     iteration #  1     ecut=    30.00 Ry     beta= 0.70
     Davidson diagonalization with overlap

     ethr =  1.00E-02,  avg # of iterations =  2.0

     negative rho (up, down):  3.423E-01 0.000E+00

     total energy              =   -3297.69756941 Ry
     estimated scf accuracy    <      15.81290512 Ry

[...]

     total energy              =   -3312.29878592 Ry
     estimated scf accuracy    <       0.00001863 Ry

[...]
    -7.2136  -7.1668  -6.8871  -6.7897  -6.7749  -6.7747  -6.7074  -6.6747
    -6.4650  -6.4606  -5.3359  -5.3231  -5.2879  -5.2433  -5.2170  -5.1699
    -5.1595  -5.0420  -4.8819  -4.8518  -4.8330  -4.7450   0.4977   0.6537
     5.7189   5.7731   5.7917   5.8680   5.8775   6.0471   6.2925   6.7820
     6.9705   6.9922   7.0918   7.3787   7.4078   7.4619   7.4739   7.4895
     7.6143   7.6233   7.6495   7.6558   7.6761   7.6876   7.7401   7.7519
     7.7683   7.7941   7.8326   7.8661   7.8677   7.8781   8.0443   8.0592
     8.2850   8.2968   8.3649   8.4408   8.5623   8.6039   8.6401   8.6678
     8.7860   8.7936   8.8145   8.8353   8.8378   9.0312   9.0775   9.0980
    10.8407  10.9050  15.1972  15.2437  15.3435  15.4542  15.4628  15.5877
    15.7454  15.7777  15.8942  16.0184  16.1153  16.4814  16.6010  16.7571
    16.8383  16.8600  17.1816

     occupation numbers
     1.0000   1.0000   1.0000   1.0000   1.0000   1.0000   1.0000   1.0000
     1.0000   1.0000   1.0000   1.0000   1.0000   1.0000   1.0000   1.0000
     1.0000   1.0000   1.0000   1.0000   1.0000   1.0000   1.0000   1.0000
     1.0000   1.0000   1.0000   1.0000   1.0000   1.0000   1.0000   1.0000
     1.0000   1.0000   1.0000   1.0000   1.0000   1.0000   1.0000   1.0000
     1.0000   1.0000   1.0000   1.0000   1.0000   1.0000   1.0000   1.0000
     1.0000   1.0000   1.0000   1.0000   1.0000   1.0000   1.0000   1.0000
     1.0000   1.0000   1.0000   1.0000   1.0000   1.0000   1.0000   1.0000
     1.0000   1.0000   1.0000   1.0000   1.0000   1.0000   1.0000   1.0000
     1.0000   1.0000   1.0000   1.0000   1.0000   1.0000   1.0000   1.0000
     1.0000   1.0000   1.0000   1.0000   1.0000   1.0000   1.0000   1.0000
     1.0000   1.0000   1.0000   1.0000   1.0000   1.0000   1.0000   1.0000
    -0.0000  -0.0000  -0.0000  -0.0000  -0.0000  -0.0000  -0.0000  -0.0000
    -0.0000  -0.0000  -0.0000  -0.0000  -0.0000  -0.0000  -0.0000  -0.0000
    -0.0000  -0.0000  -0.0000

     the Fermi energy is     9.6726 ev

!    total energy              =   -3312.29878897 Ry
     estimated scf accuracy    <       0.00000064 Ry
     smearing contrib. (-TS)   =       0.00000000 Ry
     internal energy E=F+TS    =   -3312.29878897 Ry

     The total energy is F=E-TS. E is the sum of the following terms:
     one-electron contribution =   -1212.50486515 Ry
     hartree contribution      =     648.60360187 Ry
     xc contribution           =    -375.71260295 Ry
     ewald contribution        =   -1276.70364504 Ry
     one-center paw contrib.   =   -1095.98127770 Ry
      -> PAW hartree energy AE =    1339.08842043 Ry
      -> PAW hartree energy PS =   -1200.88117100 Ry
      -> PAW xc energy AE      =   -1404.59520865 Ry
      -> PAW xc energy PS      =     170.40668152 Ry
      -> total E_H with PAW    =     786.81085130 Ry
      -> total E_XC with PAW   =   -1609.90113008 Ry

     convergence has been achieved in  17 iterations

     negative rho (up, down):  3.590E-01 0.000E+00

     Forces acting on atoms (cartesian axes, Ry/au):

     atom    1 type  1   force =    -0.01109691    0.00729642   -0.00151091
     atom    2 type  1   force =    -0.01109691   -0.00729642    0.00151091
     atom    3 type  1   force =     0.01109691    0.00729642   -0.00151091
     atom    4 type  1   force =     0.01109691   -0.00729642    0.00151091
     atom    5 type  2   force =     0.00000000    0.00000000    0.00000000
     atom    6 type  2   force =     0.00000000    0.00000000    0.00000000
     atom    7 type  3   force =     0.00000000    0.00000000    0.00000000
     atom    8 type  3   force =     0.00000000   -0.00000000    0.00000000
     atom    9 type  4   force =    -0.02318814   -0.00529926    0.01740470
     atom   10 type  4   force =    -0.02318814    0.00529926   -0.01740470
     atom   11 type  4   force =     0.02318814    0.00529926   -0.01740470
     atom   12 type  4   force =     0.02318814   -0.00529926    0.01740470
     atom   13 type  4   force =     0.00565167    0.02159558    0.01556645
     atom   14 type  4   force =     0.00565167   -0.02159558   -0.01556645
     atom   15 type  4   force =    -0.00565167   -0.02159558   -0.01556645
     atom   16 type  4   force =    -0.00565167    0.02159558    0.01556645
     atom   17 type  4   force =     0.01239093   -0.01303039    0.02631880
     atom   18 type  4   force =     0.01239093    0.01303039   -0.02631880
     atom   19 type  4   force =    -0.01239093    0.01303039   -0.02631880
     atom   20 type  4   force =    -0.01239093   -0.01303039    0.02631880
     The non-local contrib.  to forces
     atom    1 type  1   force =     0.00871720   -0.00264992    0.00100399
     atom    2 type  1   force =     0.00871720    0.00264992   -0.00100399
     atom    3 type  1   force =    -0.00871720   -0.00264992    0.00100399
     atom    4 type  1   force =    -0.00871720    0.00264992   -0.00100399
     atom    5 type  2   force =     0.00000000    0.00000000    0.00000000
     atom    6 type  2   force =     0.00000000    0.00000000    0.00000000
     atom    7 type  3   force =     0.00000000    0.00000000    0.00000000
     atom    8 type  3   force =     0.00000000    0.00000000   -0.00000000
     atom    9 type  4   force =    -0.17935438    0.50085082   -0.14846168
     atom   10 type  4   force =    -0.17935438   -0.50085082    0.14846168
     atom   11 type  4   force =     0.17935438   -0.50085082    0.14846168
     atom   12 type  4   force =     0.17935438    0.50085082   -0.14846168
     atom   13 type  4   force =     0.49127035    0.17290611   -0.14717760
     atom   14 type  4   force =     0.49127035   -0.17290611    0.14717760
     atom   15 type  4   force =    -0.49127035   -0.17290611    0.14717760
     atom   16 type  4   force =    -0.49127035    0.17290611   -0.14717760
     atom   17 type  4   force =    -0.07641780    0.25244841    0.43998515
     atom   18 type  4   force =    -0.07641780   -0.25244841   -0.43998515
     atom   19 type  4   force =     0.07641780   -0.25244841   -0.43998515
     atom   20 type  4   force =     0.07641780    0.25244841    0.43998515
     The ionic contribution  to forces
     atom    1 type  1   force =     1.83510282   -0.74786345   -0.09748282
     atom    2 type  1   force =     1.83510282    0.74786345    0.09748282
     atom    3 type  1   force =    -1.83510282   -0.74786345   -0.09748282
     atom    4 type  1   force =    -1.83510282    0.74786345    0.09748282
     atom    5 type  2   force =    -0.00000000    0.00000000    0.00000000
     atom    6 type  2   force =     0.00000000    0.00000000    0.00000000
     atom    7 type  3   force =    -0.00000000   -0.00000000   -0.00000000
     atom    8 type  3   force =    -0.00000000    0.00000000    0.00000000
     atom    9 type  4   force =    -4.51366810    1.11049674    2.04798182
     atom   10 type  4   force =    -4.51366810   -1.11049674   -2.04798182
     atom   11 type  4   force =     4.51366810   -1.11049674   -2.04798182
     atom   12 type  4   force =     4.51366810    1.11049674    2.04798182
     atom   13 type  4   force =     1.52558335    4.73100398    2.10976919
     atom   14 type  4   force =     1.52558335   -4.73100398   -2.10976919
     atom   15 type  4   force =    -1.52558335   -4.73100398   -2.10976919
     atom   16 type  4   force =    -1.52558335    4.73100398    2.10976919
     atom   17 type  4   force =     0.28168452   -3.42147739    4.21538956
     atom   18 type  4   force =     0.28168452    3.42147739   -4.21538956
     atom   19 type  4   force =    -0.28168452    3.42147739   -4.21538956
     atom   20 type  4   force =    -0.28168452   -3.42147739    4.21538956
     The local contribution  to forces
     atom    1 type  1   force =    -1.85400338    0.75719014    0.09489823
     atom    2 type  1   force =    -1.85432711   -0.75731471   -0.09500009
     atom    3 type  1   force =     1.85376699    0.75723498    0.09507945
     atom    4 type  1   force =     1.85452487   -0.75715377   -0.09484015
     atom    5 type  2   force =     0.00122500   -0.00035859   -0.00110810
     atom    6 type  2   force =    -0.00089129    0.00014335   -0.00108650
     atom    7 type  3   force =    -0.00028135    0.00003079    0.00012469
     atom    8 type  3   force =     0.00020049    0.00000579    0.00010899
     atom    9 type  4   force =     4.66781178   -1.61088387   -1.88398888
     atom   10 type  4   force =     4.66758040    1.61054281    1.88378900
     atom   11 type  4   force =    -4.66781054    1.61087315    1.88385507
     atom   12 type  4   force =    -4.66751414   -1.61053138   -1.88389899
     atom   13 type  4   force =    -2.00543563   -4.88028494   -1.94883708
     atom   14 type  4   force =    -2.00510598    4.88010434    1.94867916
     atom   15 type  4   force =     2.00534177    4.88027626    1.94872412
     atom   16 type  4   force =     2.00527556   -4.88003043   -1.94870899
     atom   17 type  4   force =    -0.19397635    3.15889154   -4.62376626
     atom   18 type  4   force =    -0.19389680   -3.15879688    4.62381645
     atom   19 type  4   force =     0.19394877   -3.15902847    4.62379917
     atom   20 type  4   force =     0.19397728    3.15863150   -4.62382042
     The core correction contribution to forces
     atom    1 type  1   force =    -0.00072821    0.00041500   -0.00006385
     atom    2 type  1   force =    -0.00072904   -0.00041622    0.00007047
     atom    3 type  1   force =     0.00072611    0.00041559   -0.00007001
     atom    4 type  1   force =     0.00073053   -0.00041318    0.00006403
     atom    5 type  2   force =     0.00000001   -0.00000000   -0.00000001
     atom    6 type  2   force =    -0.00000000    0.00000000   -0.00000001
     atom    7 type  3   force =     0.00001286   -0.00000368   -0.00000996
     atom    8 type  3   force =    -0.00000604   -0.00000432   -0.00001198
     atom    9 type  4   force =     0.00213315   -0.00599973    0.00175856
     atom   10 type  4   force =     0.00213216    0.00599856   -0.00176010
     atom   11 type  4   force =    -0.00213372    0.00599950   -0.00175982
     atom   12 type  4   force =    -0.00213055   -0.00599807    0.00175889
     atom   13 type  4   force =    -0.00594479   -0.00214808    0.00171440
     atom   14 type  4   force =    -0.00594379    0.00214603   -0.00171627
     atom   15 type  4   force =     0.00594362    0.00214704   -0.00171506
     atom   16 type  4   force =     0.00594627   -0.00214662    0.00171593
     atom   17 type  4   force =     0.00106428   -0.00293629   -0.00525412
     atom   18 type  4   force =     0.00106260    0.00293608    0.00525207
     atom   19 type  4   force =    -0.00106174    0.00293493    0.00525244
     atom   20 type  4   force =    -0.00106449   -0.00293715   -0.00525382
     The Hubbard contrib.    to forces
     atom    1 type  1   force =     0.00000000    0.00000000    0.00000000
     atom    2 type  1   force =     0.00000000    0.00000000    0.00000000
     atom    3 type  1   force =     0.00000000    0.00000000    0.00000000
     atom    4 type  1   force =     0.00000000    0.00000000    0.00000000
     atom    5 type  2   force =     0.00000000    0.00000000    0.00000000
     atom    6 type  2   force =     0.00000000    0.00000000    0.00000000
     atom    7 type  3   force =     0.00000000    0.00000000    0.00000000
     atom    8 type  3   force =     0.00000000    0.00000000    0.00000000
     atom    9 type  4   force =     0.00000000    0.00000000    0.00000000
     atom   10 type  4   force =     0.00000000    0.00000000    0.00000000
     atom   11 type  4   force =     0.00000000    0.00000000    0.00000000
     atom   12 type  4   force =     0.00000000    0.00000000    0.00000000
     atom   13 type  4   force =     0.00000000    0.00000000    0.00000000
     atom   14 type  4   force =     0.00000000    0.00000000    0.00000000
     atom   15 type  4   force =     0.00000000    0.00000000    0.00000000
     atom   16 type  4   force =     0.00000000    0.00000000    0.00000000
     atom   17 type  4   force =     0.00000000    0.00000000    0.00000000
     atom   18 type  4   force =     0.00000000    0.00000000    0.00000000
     atom   19 type  4   force =     0.00000000    0.00000000    0.00000000
     atom   20 type  4   force =     0.00000000    0.00000000    0.00000000
     The SCF correction term to forces
     atom    1 type  1   force =    -0.00018745    0.00021311    0.00026529
     atom    2 type  1   force =     0.00013177   -0.00008260    0.00009784
     atom    3 type  1   force =     0.00040193    0.00015753   -0.00016667
     atom    4 type  1   force =    -0.00032617   -0.00023231   -0.00032130
     atom    5 type  2   force =    -0.00142595    0.00039113    0.00129878
     atom    6 type  2   force =     0.00103766   -0.00018821    0.00127340
     atom    7 type  3   force =     0.00043238   -0.00005610   -0.00023485
     atom    8 type  3   force =    -0.00028033   -0.00004673   -0.00023197
     atom    9 type  4   force =    -0.00011574    0.00024185    0.00008826
     atom   10 type  4   force =     0.00014751    0.00012927    0.00005733
     atom   11 type  4   force =     0.00007023   -0.00024118   -0.00002246
     atom   12 type  4   force =    -0.00012935   -0.00011396   -0.00002056
     atom   13 type  4   force =     0.00020993    0.00009994    0.00005281
     atom   14 type  4   force =    -0.00013740    0.00005534    0.00002208
     atom   15 type  4   force =    -0.00017017   -0.00013940    0.00002979
     atom   16 type  4   force =     0.00011341   -0.00015831   -0.00001378
     atom   17 type  4   force =     0.00011175    0.00000613   -0.00002625
     atom   18 type  4   force =    -0.00009856   -0.00015970   -0.00001407
     atom   19 type  4   force =     0.00008502    0.00004653   -0.00007485
     atom   20 type  4   force =    -0.00011475    0.00027112   -0.00007158

     Total force =     0.105905     Total SCF correction =     0.002861

     Computing stress (Cartesian axis) and pressure

     negative rho (up, down):  3.590E-01 0.000E+00
          total   stress  (Ry/bohr**3)                   (kbar)     P=     -275.99
  -0.00182530   0.00000000   0.00000000         -268.51        0.00        0.00
   0.00000000  -0.00174996  -0.00000988            0.00     -257.43       -1.45
   0.00000000  -0.00000988  -0.00205320            0.00       -1.45     -302.04

     kinetic stress (kbar)  18039.79      0.00      0.00
                                0.00  18002.14      2.64
                                0.00      2.64  17905.25

     local   stress (kbar)  -9301.86     -0.10      0.01
                               -0.10 -10016.20   -644.50
                                0.01   -644.50 -10118.72

     nonloc. stress (kbar)  13469.01      0.00      0.00
                                0.00  13471.63      1.97
                                0.00      1.97  13476.32

     hartree stress (kbar)  15570.88      0.08      0.00
                                0.08  15822.21    287.75
                                0.00    287.75  15995.85

     exc-cor stress (kbar)   3659.39      0.00     -0.00
                                0.00   3660.11     -0.07
                               -0.00     -0.07   3659.50

     corecor stress (kbar) -10281.43      0.00      0.00
                                0.00 -10281.27     -0.03
                                0.00     -0.03 -10280.76

     ewald   stress (kbar) -31424.29     -0.00     -0.00
                               -0.00 -30916.05    350.78
                               -0.00    350.78 -30939.49

     hubbard stress (kbar)      0.00      0.00      0.00
                                0.00      0.00      0.00
                                0.00      0.00      0.00

     DFT-D   stress (kbar)      0.00      0.00      0.00
                                0.00      0.00      0.00
                                0.00      0.00      0.00

     XDM     stress (kbar)      0.00      0.00      0.00
                                0.00      0.00      0.00
                                0.00      0.00      0.00

     dft-nl  stress (kbar)      0.00      0.00      0.00
                                0.00      0.00      0.00
                                0.00      0.00      0.00

     TS-vdW  stress (kbar)      0.00      0.00      0.00
                                0.00      0.00      0.00
                                0.00      0.00      0.00

[...]

                                0.00      0.00      0.00

     Writing all to output data dir new_calculations/myprefix.save/

     General routines

     Parallel routines

     PAW routines

   This run was terminated on:   6:56:48  21May2023

   JOB DONE.