     Program PWSCF v.7.0 starts on 20May2023 at 17:42:20

     Reading input from espresso_9552.pwi
Warning: card &CELL ignored
Warning: card / ignored

     Current dimensions of program PWSCF are:
     Max number of different atomic species (ntypx) = 10
     Max number of k-points (npk) =  40000
     Max angular momentum in pseudopotentials (lmaxx) =  4

     gamma-point specific algorithms are used
     Message from routine setup:
     using ibrav=0 with symmetry is DISCOURAGED, use correct ibrav instead

     Subspace diagonalization in iterative solution of the eigenvalue problem:
     a serial algorithm will be used

     Using Slab Decomposition

     bravais-lattice index     =            0
     lattice parameter (alat)  =      10.1952  a.u.
     unit-cell volume          =     725.8236 (a.u.)^3
     number of atoms/cell      =            6
     number of atomic types    =            2
     number of electrons       =       114.00
     number of Kohn-Sham states=           68
     kinetic-energy cutoff     =      30.0000  Ry
     charge density cutoff     =     240.0000  Ry
     scf convergence threshold =      1.0E-06
     mixing beta               =       0.7000
     number of iterations used =            8  plain     mixing
     Exchange-correlation= SLA  PW   PBE  PBE
                           (   1   4   3   4   0   0   0)

     celldm(1)=  10.195243  celldm(2)=   0.000000  celldm(3)=   0.000000
     celldm(4)=   0.000000  celldm(5)=   0.000000  celldm(6)=   0.000000

     crystal axes: (cart. coord. in units of alat)
               a(1) = (   1.000000   0.000000   0.000000 )
               a(2) = (  -0.500000   0.866025   0.000000 )
               a(3) = (   0.000000   0.000000   0.790875 )

     reciprocal axes: (cart. coord. in units 2 pi/alat)
               b(1) = (  1.000000  0.577350  0.000000 )
               b(2) = (  0.000000  1.154701  0.000000 )
               b(3) = (  0.000000  0.000000  1.264423 )

     PseudoPot. # 1 for Nd read from file:
     /home/pragov/projects/rrg-bengioy-ad/pragov/crystal_structure_design/SSSP/Nd.GGA-PBE-paw-v1.0.UPF
     MD5 check sum: 1d1e94942b6eb1cde76049b71bb7dcb0
     Pseudo is Projector augmented-wave + core cor, Zval = 14.0
     Generated using ATOMPAW code
     Shape of augmentation charge: BESSEL
     Using radial grid of 1105 points,  8 beta functions with:
                l(1) =   0
                l(2) =   0
                l(3) =   1
                l(4) =   1
                l(5) =   2
                l(6) =   2
                l(7) =   3
                l(8) =   3
     Q(r) pseudized with 0 coefficients

     PseudoPot. # 2 for Zn read from file:
     /home/pragov/projects/rrg-bengioy-ad/pragov/crystal_structure_design/SSSP/Zn_pbe_v1.uspp.F.UPF
     MD5 check sum: df62231357ef9e81f77b2b3087fa5675
     Pseudo is Ultrasoft, Zval = 20.0
     Generated by new atomic code, or converted to UPF format
     Using radial grid of  943 points,  6 beta functions with:
                l(1) =   0
                l(2) =   0
                l(3) =   1
                l(4) =   1
                l(5) =   2
                l(6) =   2
     Q(r) pseudized with  8 coefficients,  rinner =    1.100   1.100   1.100
                                                       1.100   1.100

     atomic species   valence    mass     pseudopotential
        Nd            14.00   144.24200     Nd( 1.00)
        Zn            20.00    65.38000     Zn( 1.00)

     24 Sym. Ops., with inversion, found

                                    s                        frac. trans.

      isym =  1     identity

 cryst.   s( 1) = (     1          0          0      )
                  (     0          1          0      )
                  (     0          0          1      )

 cart.    s( 1) = (  1.0000000  0.0000000  0.0000000 )
                  (  0.0000000  1.0000000  0.0000000 )
                  (  0.0000000  0.0000000  1.0000000 )

      isym =  2     180 deg rotation - cart. axis [0,0,1]

[...]

      isym =  4     180 deg rotation - cart. axis [1,0,0]

[...]

      isym =  5      60 deg rotation - cryst. axis [0,0,1]

[...]

 cryst.   s( 9) = (     0         -1          0      )
                  (    -1          0          0      )
                  (     0          0         -1      )

 cart.    s( 9) = (  0.5000000 -0.8660254  0.0000000 )
                  ( -0.8660254 -0.5000000  0.0000000 )
                  (  0.0000000  0.0000000 -1.0000000 )

[...]

 cryst.   s(10) = (     1          1          0      )
                  (     0         -1          0      )
                  (     0          0         -1      )

 cart.    s(10) = (  0.5000000  0.8660254  0.0000000 )
                  (  0.8660254 -0.5000000  0.0000000 )
                  (  0.0000000  0.0000000 -1.0000000 )

[...]

      isym = 12     180 deg rotation - cryst. axis [1,1,0]

[...]

      isym = 13     inversion

[...]

      isym = 14     inv. 180 deg rotation - cart. axis [0,0,1]

[...]

      isym = 16     inv. 180 deg rotation - cart. axis [1,0,0]

[...]

      isym = 17     inv.  60 deg rotation - cryst. axis [0,0,1]

[...]

      isym = 24     inv. 180 deg rotation - cryst. axis [1,1,0]

 cryst.   s(24) = (     0         -1          0      )
                  (    -1          0          0      )
                  (     0          0          1      )

 cart.    s(24) = (  0.5000000 -0.8660254  0.0000000 )
                  ( -0.8660254 -0.5000000  0.0000000 )
                  (  0.0000000  0.0000000  1.0000000 )

   Cartesian axes

     site n.     atom                  positions (alat units)
         1           Nd  tau(   1) = (   0.0000000   0.0000000   0.0000000  )
         2           Zn  tau(   2) = (  -0.2500000   0.4330127   0.3954374  )
         3           Zn  tau(   3) = (  -0.0000005   0.5773506   0.0000000  )
         4           Zn  tau(   4) = (   0.5000005   0.2886748   0.0000000  )
         5           Zn  tau(   5) = (   0.5000000   0.0000000   0.3954374  )
         6           Zn  tau(   6) = (   0.2500000   0.4330127   0.3954374  )

   Crystallographic axes

     site n.     atom                  positions (cryst. coord.)
         1           Nd  tau(   1) = (  0.0000000  0.0000000  0.0000000  )
         2           Zn  tau(   2) = (  0.0000000  0.5000000  0.5000000  )
         3           Zn  tau(   3) = (  0.3333330  0.6666670  0.0000000  )
         4           Zn  tau(   4) = (  0.6666670  0.3333330  0.0000000  )
         5           Zn  tau(   5) = (  0.5000000  0.0000000  0.5000000  )
         6           Zn  tau(   6) = (  0.5000000  0.5000000  0.5000000  )

     number of k points=     1  Methfessel-Paxton smearing, width (Ry)=  0.0010
                       cart. coord. in units 2pi/alat
        k(    1) = (   0.0000000   0.0000000   0.0000000), wk =   2.0000000

                       cryst. coord.
        k(    1) = (   0.0000000   0.0000000   0.0000000), wk =   2.0000000

     Initial potential from superposition of free atoms

     starting charge     113.9931, renormalised to     114.0000
     Starting wfcs are   97 randomized atomic wfcs
     Checking if some PAW data can be deallocated...

     Self-consistent Calculation

     iteration #  1     ecut=    30.00 Ry     beta= 0.70
     Davidson diagonalization with overlap

     ethr =  1.00E-02,  avg # of iterations =  2.0

     total energy              =   -2832.37368625 Ry
     estimated scf accuracy    <      12.25982428 Ry

[...]

     total energy              =   -2844.60923189 Ry
     estimated scf accuracy    <       0.00000193 Ry

     iteration # 81     ecut=    30.00 Ry     beta= 0.70
     Davidson diagonalization with overlap

     ethr =  8.84E-10,  avg # of iterations =  1.0

     End of self-consistent calculation

          k = 0.0000 0.0000 0.0000 (  1007 PWs)   bands (ev):

  -113.3186-113.3153-113.2663-113.2584-113.2584 -67.4055 -67.4055 -67.3975
   -67.3975 -67.3929 -67.3899 -67.3836 -67.3835 -67.3736 -67.3590 -67.3590
   -67.3418 -67.3416 -67.3216 -67.3216 -24.1112  -5.4440  -5.4440  -5.1163
     3.6618   5.1026   5.3216   5.3216   5.3836   5.3836   5.3851   5.5717
     5.5717   5.6611   5.7516   5.7750   5.7750   5.9554   5.9554   5.9885
     5.9886   6.0499   6.1172   6.1306   6.1306   6.2474   6.2474   6.4670
     6.5308   6.5308   9.5949  10.4467  10.4467  11.9100  12.4714  12.6813
    12.6813  12.6849  12.7835  12.7836  13.0083  13.3949  13.3949  13.5555
    15.9932  15.9932  16.3545  17.5641

     occupation numbers
     1.0000   1.0000   1.0000   1.0000   1.0000   1.0000   1.0000   1.0000
     1.0000   1.0000   1.0000   1.0000   1.0000   1.0000   1.0000   1.0000
     1.0000   1.0000   1.0000   1.0000   1.0000   1.0000   1.0000   1.0000
     1.0000   1.0000   1.0000   1.0000   1.0000   1.0000   1.0000   1.0000
     1.0000   1.0000   1.0000   1.0000   1.0000   1.0000   1.0000   1.0000
     1.0000   1.0000   1.0000   1.0000   1.0000   1.0000   1.0000   1.0000
     1.0000   1.0000   1.0000   1.0000   1.0000   1.0000   1.0000   0.7368
     0.7364   0.5268  -0.0000  -0.0000  -0.0000  -0.0000  -0.0000  -0.0000
    -0.0000  -0.0000  -0.0000  -0.0000

     the Fermi energy is    12.6853 ev

!    total energy              =   -2844.60923070 Ry
     estimated scf accuracy    <       0.00000084 Ry
     smearing contrib. (-TS)   =      -0.00071007 Ry
     internal energy E=F+TS    =   -2844.60852063 Ry

     The total energy is F=E-TS. E is the sum of the following terms:
     one-electron contribution =   -2046.14046529 Ry
     hartree contribution      =    1071.14789626 Ry
     xc contribution           =    -224.67835682 Ry
     ewald contribution        =   -1214.94042004 Ry
     one-center paw contrib.   =    -429.99717473 Ry
      -> PAW hartree energy AE =      80.86987395 Ry
      -> PAW hartree energy PS =     -80.44456749 Ry
      -> PAW xc energy AE      =    -442.93012831 Ry
      -> PAW xc energy PS      =      12.50764712 Ry
      -> total E_H with PAW    =    1071.57320272 Ry
      -> total E_XC with PAW   =    -655.10083801 Ry

     convergence has been achieved in  81 iterations

     Forces acting on atoms (cartesian axes, Ry/au):

     atom    1 type  1   force =     0.00000000    0.00000000   -0.00000000
     atom    2 type  2   force =     0.00000000    0.00000000   -0.00000000
     atom    3 type  2   force =    -0.00000000    0.00000000    0.00000000
     atom    4 type  2   force =     0.00000000    0.00000000    0.00000000
     atom    5 type  2   force =     0.00000000    0.00000000    0.00000000
     atom    6 type  2   force =     0.00000000    0.00000000    0.00000000
     The non-local contrib.  to forces
     atom    1 type  1   force =     0.00000000    0.00000000    0.00000000
     atom    2 type  2   force =    -0.00000000   -0.00000000   -0.00000000
     atom    3 type  2   force =     0.00000000   -0.00000000    0.00000000
     atom    4 type  2   force =     0.00000000    0.00000000   -0.00000000
     atom    5 type  2   force =     0.00000000   -0.00000000    0.00000000
     atom    6 type  2   force =    -0.00000000   -0.00000000    0.00000000
     The ionic contribution  to forces
     atom    1 type  1   force =    -0.00000000    0.00000000   -0.00000000
     atom    2 type  2   force =    -0.00000000   -0.00000000    0.00000000
     atom    3 type  2   force =     0.00011553   -0.00006670   -0.00000000
     atom    4 type  2   force =    -0.00011553    0.00006670   -0.00000000
     atom    5 type  2   force =     0.00000000    0.00000000    0.00000000
     atom    6 type  2   force =    -0.00000000    0.00000000    0.00000000
     The local contribution  to forces
     atom    1 type  1   force =    -0.00002132   -0.00005438    0.00000033
     atom    2 type  2   force =     0.00000014    0.00006406    0.00000103
     atom    3 type  2   force =    -0.00009277    0.00015827   -0.00000984
     atom    4 type  2   force =     0.00009580   -0.00012361    0.00000486
     atom    5 type  2   force =     0.00004175   -0.00008065    0.00000065
     atom    6 type  2   force =     0.00000005    0.00011270    0.00000191
     The core correction contribution to forces
     atom    1 type  1   force =    -0.00000000   -0.00000001   -0.00000000
     atom    2 type  2   force =     0.00000000    0.00000000    0.00000000
     atom    3 type  2   force =     0.00000000    0.00000000    0.00000000
     atom    4 type  2   force =     0.00000000    0.00000000    0.00000000
     atom    5 type  2   force =     0.00000000    0.00000000    0.00000000
     atom    6 type  2   force =     0.00000000    0.00000000    0.00000000
     The Hubbard contrib.    to forces
     atom    1 type  1   force =     0.00000000    0.00000000    0.00000000
     atom    2 type  2   force =     0.00000000    0.00000000    0.00000000
     atom    3 type  2   force =     0.00000000    0.00000000    0.00000000
     atom    4 type  2   force =     0.00000000    0.00000000    0.00000000
     atom    5 type  2   force =     0.00000000    0.00000000    0.00000000
     atom    6 type  2   force =     0.00000000    0.00000000    0.00000000
     The SCF correction term to forces
     atom    1 type  1   force =     0.00001882    0.00004878    0.00000027
     atom    2 type  2   force =    -0.00000286   -0.00008227   -0.00000011
     atom    3 type  2   force =    -0.00003918   -0.00008194    0.00000195
     atom    4 type  2   force =     0.00003000    0.00003360    0.00000502
     atom    5 type  2   force =    -0.00005474    0.00010380   -0.00000210
     atom    6 type  2   force =    -0.00000019   -0.00013907   -0.00000336

     Total force =     0.000000     Total SCF correction =     0.000230

     Computing stress (Cartesian axis) and pressure

          total   stress  (Ry/bohr**3)                   (kbar)     P=     -496.25
  -0.00337275  -0.00000000   0.00000000         -496.15       -0.00        0.00
  -0.00000000  -0.00337275   0.00000000           -0.00     -496.15        0.00
  -0.00000000   0.00000000  -0.00337484           -0.00        0.00     -496.46

     kinetic stress (kbar)  30145.99      0.00     -0.00
                                0.00  30145.99      0.00
                               -0.00      0.00  30270.29

     local   stress (kbar)  13090.69     -0.04     -0.09
                               -0.04  13091.02     -0.19
                               -0.09     -0.19 -43619.73

     nonloc. stress (kbar)   -584.63     -0.00      0.00
                               -0.00   -584.63      0.00
                                0.00      0.00   -613.92

     hartree stress (kbar)  63327.29      0.06      0.03
                                0.06  63327.37      0.05
                                0.03      0.05  90438.45

     exc-cor stress (kbar) -14558.92      0.00     -0.00
                                0.00 -14558.92     -0.00
                               -0.00     -0.00 -14555.72

     corecor stress (kbar)     -4.44      0.00     -0.00
                                0.00     -4.44     -0.00
                               -0.00     -0.00     -4.45

     ewald   stress (kbar) -91912.39      0.12     -0.00
                                0.12 -91912.25      0.00
                               -0.00      0.00 -62411.37

     hubbard stress (kbar)      0.00      0.00      0.00
                                0.00      0.00      0.00
                                0.00      0.00      0.00

     DFT-D   stress (kbar)      0.00      0.00      0.00
                                0.00      0.00      0.00
                                0.00      0.00      0.00

     XDM     stress (kbar)      0.00      0.00      0.00
                                0.00      0.00      0.00
                                0.00      0.00      0.00

     dft-nl  stress (kbar)      0.00      0.00      0.00
                                0.00      0.00      0.00
                                0.00      0.00      0.00

     TS-vdW  stress (kbar)      0.00      0.00      0.00
                                0.00      0.00      0.00
                                0.00      0.00      0.00

[...]

                                0.00      0.00      0.00

     Writing all to output data dir new_calculations/myprefix.save/

     General routines

     Parallel routines

     PAW routines

   This run was terminated on:  17:43:56  20May2023

   JOB DONE.