     Program PWSCF v.7.0 starts on 20May2023 at  5:38:42

     Reading input from espresso_2196.pwi
Warning: card &CELL ignored
Warning: card / ignored

     Current dimensions of program PWSCF are:
     Max number of different atomic species (ntypx) = 10
     Max number of k-points (npk) =  40000
     Max angular momentum in pseudopotentials (lmaxx) =  4
     file In.pbe-dn-rrkjus_psl.0.2.2.UPF: wavefunction(s)  5S renormalized

     gamma-point specific algorithms are used

     Subspace diagonalization in iterative solution of the eigenvalue problem:
     a serial algorithm will be used

     Using Slab Decomposition

     bravais-lattice index     =            0
     lattice parameter (alat)  =      13.3748  a.u.
     unit-cell volume          =    1291.2720 (a.u.)^3
     number of atoms/cell      =            7
     number of atomic types    =            3
     number of electrons       =        69.00
     number of Kohn-Sham states=           42
     kinetic-energy cutoff     =      30.0000  Ry
     charge density cutoff     =     240.0000  Ry
     scf convergence threshold =      1.0E-06
     mixing beta               =       0.7000
     number of iterations used =            8  plain     mixing
     Exchange-correlation= SLA  PW   PBE  PBE
                           (   1   4   3   4   0   0   0)

     celldm(1)=  13.374840  celldm(2)=   0.000000  celldm(3)=   0.000000
     celldm(4)=   0.000000  celldm(5)=   0.000000  celldm(6)=   0.000000

     crystal axes: (cart. coord. in units of alat)
               a(1) = (   1.000000   0.000000   0.000000 )
               a(2) = (   0.340865   0.940112   0.000000 )
               a(3) = (  -0.670432  -0.470056   0.574080 )

     reciprocal axes: (cart. coord. in units 2 pi/alat)
               b(1) = (  1.000000 -0.362579  0.870959 )
               b(2) = (  0.000000  1.063703  0.870959 )
               b(3) = (  0.000000  0.000000  1.741918 )

     PseudoPot. # 1 for In read from file:
     /home/pragov/projects/rrg-bengioy-ad/pragov/crystal_structure_design/SSSP/In.pbe-dn-rrkjus_psl.0.2.2.UPF
     MD5 check sum: 25e7c42c3b55b68f4bf926be2e7201a4
     Pseudo is Ultrasoft + core correction, Zval = 13.0
     Generated using "atomic" code by A. Dal Corso  v.5.0.99 svn rev. 10869
     Using radial grid of 1241 points,  6 beta functions with:
                l(1) =   0
                l(2) =   0
                l(3) =   1
                l(4) =   1
                l(5) =   2
                l(6) =   2
     Q(r) pseudized with 0 coefficients

     PseudoPot. # 2 for Cu read from file:
     /home/pragov/projects/rrg-bengioy-ad/pragov/crystal_structure_design/SSSP/Cu_pbe_v1.2.uspp.F.UPF
     MD5 check sum: 6e991ff952a84172a2a52a1c1e996048
     Pseudo is Ultrasoft + core correction, Zval = 19.0
     Generated by new atomic code, or converted to UPF format
     Using radial grid of  867 points,  6 beta functions with:
                l(1) =   0
                l(2) =   0
                l(3) =   1
                l(4) =   1
                l(5) =   2
                l(6) =   2
     Q(r) pseudized with  8 coefficients,  rinner =    1.150   1.150   1.150
                                                       1.150   1.150

     PseudoPot. # 3 for Se read from file:
     /home/pragov/projects/rrg-bengioy-ad/pragov/crystal_structure_design/SSSP/Se_pbe_v1.uspp.F.UPF
     MD5 check sum: 1b3568f3a8ae88f9a2a0ad0698632c85
     Pseudo is Ultrasoft + core correction, Zval =  6.0
     Generated by new atomic code, or converted to UPF format
     Using radial grid of  877 points,  6 beta functions with:
                l(1) =   0
                l(2) =   0
                l(3) =   1
                l(4) =   1
                l(5) =   2
                l(6) =   2
     Q(r) pseudized with  8 coefficients,  rinner =    1.300   1.300   1.300
                                                       1.300   1.300

     atomic species   valence    mass     pseudopotential
        In            13.00   114.81800     In( 1.00)
        Cu            19.00    63.54600     Cu( 1.00)
        Se             6.00    78.97100     Se( 1.00)

     No symmetry found

                                    s                        frac. trans.

      isym =  1     identity

 cryst.   s( 1) = (     1          0          0      )
                  (     0          1          0      )
                  (     0          0          1      )

 cart.    s( 1) = (  1.0000000  0.0000000  0.0000000 )
                  (  0.0000000  1.0000000  0.0000000 )
                  (  0.0000000  0.0000000  1.0000000 )

   Cartesian axes

     site n.     atom                  positions (alat units)
         1           In  tau(   1) = (   0.6704324   0.4700562   0.0000000  )
         2           In  tau(   2) = (   0.5000000   0.0000000   0.2870399  )
         3           Cu  tau(   3) = (   0.0000000   0.0000000   0.0000000  )
         4           Se  tau(   4) = (   0.4799904   0.3723630   0.3057486  )
         5           Se  tau(   5) = (  -0.1567565  -0.1457367   0.2683312  )
         6           Se  tau(   6) = (   1.0195556   0.3414239   0.0293383  )
         7           Se  tau(   7) = (  -0.0019240   0.3720612   0.5447414  )

   Crystallographic axes

     site n.     atom                  positions (cryst. coord.)
         1           In  tau(   1) = (  0.5000000  0.5000000  0.0000000  )
         2           In  tau(   2) = (  0.7500000  0.2500000  0.5000000  )
         3           Cu  tau(   3) = (  0.0000000  0.0000000  0.0000000  )
         4           Se  tau(   4) = (  0.6112740  0.6623780  0.5325890  )
         5           Se  tau(   5) = (  0.1297900  0.0786850  0.4674110  )
         6           Se  tau(   6) = (  0.9213150  0.3887260  0.0511050  )
         7           Se  tau(   7) = (  0.3376220  0.8702100  0.9488950  )

     number of k points=     1  Methfessel-Paxton smearing, width (Ry)=  0.0010
                       cart. coord. in units 2pi/alat
        k(    1) = (   0.0000000   0.0000000   0.0000000), wk =   2.0000000

                       cryst. coord.
        k(    1) = (   0.0000000   0.0000000   0.0000000), wk =   2.0000000

     Initial potential from superposition of free atoms

     starting charge      67.9923, renormalised to      69.0000
     Starting wfcs are   47 randomized atomic wfcs

     Self-consistent Calculation

     iteration #  1     ecut=    30.00 Ry     beta= 0.70
     Davidson diagonalization with overlap

     ethr =  1.00E-02,  avg # of iterations =  3.0

     total energy              =    -866.61373680 Ry
     estimated scf accuracy    <       2.11964895 Ry

[...]

     total energy              =    -867.86438828 Ry
     estimated scf accuracy    <       0.00000529 Ry

     iteration # 18     ecut=    30.00 Ry     beta= 0.70
     Davidson diagonalization with overlap

     ethr =  7.67E-09,  avg # of iterations =  1.0

     End of self-consistent calculation

          k = 0.0000 0.0000 0.0000 (  1794 PWs)   bands (ev):

  -106.4183 -63.9461 -63.7199 -63.7198  -9.0267  -9.0267  -9.0211  -8.8224
    -8.8224  -8.8167  -8.7856  -8.7479  -8.7439  -8.7259  -7.5878  -6.2429
    -6.2057  -6.2055  -0.1680   0.5461   2.1676   2.1798   2.4152   2.6834
     2.6835   2.8888   2.8889   3.3256   3.4683   3.8137   3.8139   4.1204
     5.7609   5.7927   5.7927   6.4156   7.8647   8.2514  10.0984  10.0984
    10.9437  11.2155

     occupation numbers
     1.0000   1.0000   1.0000   1.0000   1.0000   1.0000   1.0000   1.0000
     1.0000   1.0000   1.0000   1.0000   1.0000   1.0000   1.0000   1.0000
     1.0000   1.0000   1.0000   1.0000   1.0000   1.0000   1.0000   1.0000
     1.0000   1.0000   1.0000   1.0000   1.0000   1.0000   1.0000   1.0000
     1.0006   0.7515   0.7480  -0.0000  -0.0000  -0.0000  -0.0000  -0.0000
    -0.0000  -0.0000

     the Fermi energy is     5.7969 ev

!    total energy              =    -867.86438836 Ry
     estimated scf accuracy    <       0.00000039 Ry
     smearing contrib. (-TS)   =      -0.00040966 Ry
     internal energy E=F+TS    =    -867.86397870 Ry

     The total energy is F=E-TS. E is the sum of the following terms:
     one-electron contribution =    -584.16537773 Ry
     hartree contribution      =     328.68946098 Ry
     xc contribution           =    -252.87418149 Ry
     ewald contribution        =    -359.51388046 Ry

     convergence has been achieved in  18 iterations

     Forces acting on atoms (cartesian axes, Ry/au):

     atom    1 type  1   force =     0.00003059    0.00007733   -0.00016021
     atom    2 type  1   force =     0.00002050   -0.00001803   -0.00002971
     atom    3 type  2   force =    -0.00069604   -0.00035524    0.00043741
     atom    4 type  3   force =    -0.00817040   -0.02091623   -0.00130169
     atom    5 type  3   force =    -0.02240782   -0.00060749    0.00118222
     atom    6 type  3   force =     0.01490021    0.01191798   -0.01250868
     atom    7 type  3   force =     0.01632295    0.00990168    0.01238064
     The non-local contrib.  to forces
     atom    1 type  1   force =    -0.00021643   -0.00005495   -0.00001963
     atom    2 type  1   force =    -0.00029179   -0.00018950    0.00007918
     atom    3 type  2   force =    -0.00126052   -0.00066080    0.00046830
     atom    4 type  3   force =     0.37336014   -0.17124164   -0.11298874
     atom    5 type  3   force =    -0.03376526    0.40933071    0.11313909
     atom    6 type  3   force =    -0.23479427   -0.02605380   -0.35382115
     atom    7 type  3   force =    -0.10447701   -0.21170237    0.35382161
     The ionic contribution  to forces
     atom    1 type  1   force =    -0.00001658    0.00000261    0.00001722
     atom    2 type  1   force =     0.00000616   -0.00002944    0.00001692
     atom    3 type  2   force =     0.00004682   -0.00001828   -0.00003971
     atom    4 type  3   force =    -6.33935056    0.05182335   -2.81591982
     atom    5 type  3   force =    -2.11217652   -5.97737888    2.81593730
     atom    6 type  3   force =     2.60920445    5.26847710    3.68171075
     atom    7 type  3   force =     5.84228622    0.65712354   -3.68172266
     The local contribution  to forces
     atom    1 type  1   force =     0.00050162    0.00013647    0.00014014
     atom    2 type  1   force =     0.00041554    0.00041971   -0.00005126
     atom    3 type  2   force =     0.00125982    0.00078616   -0.00072636
     atom    4 type  3   force =     6.00182453    0.07864068    2.91456399
     atom    5 type  3   force =     2.11980187    5.61561921   -2.91472764
     atom    6 type  3   force =    -2.38760217   -5.23406216   -3.38196334
     atom    7 type  3   force =    -5.73443089   -0.46063399    3.38194981
     The core correction contribution to forces
     atom    1 type  1   force =     0.00001273    0.00000300   -0.00000470
     atom    2 type  1   force =     0.00001930    0.00000941   -0.00000333
     atom    3 type  2   force =     0.00000380    0.00000175   -0.00000064
     atom    4 type  3   force =    -0.04426097    0.01985745    0.01305392
     atom    5 type  3   force =     0.00358637   -0.04837452   -0.01307310
     atom    6 type  3   force =     0.02784721    0.00350636    0.04157315
     atom    7 type  3   force =     0.01278255    0.02496430   -0.04157328
     The Hubbard contrib.    to forces
     atom    1 type  1   force =     0.00000000    0.00000000    0.00000000
     atom    2 type  1   force =     0.00000000    0.00000000    0.00000000
     atom    3 type  2   force =     0.00000000    0.00000000    0.00000000
     atom    4 type  3   force =     0.00000000    0.00000000    0.00000000
     atom    5 type  3   force =     0.00000000    0.00000000    0.00000000
     atom    6 type  3   force =     0.00000000    0.00000000    0.00000000
     atom    7 type  3   force =     0.00000000    0.00000000    0.00000000
     The SCF correction term to forces
     atom    1 type  1   force =    -0.00043264   -0.00009204   -0.00022893
     atom    2 type  1   force =    -0.00031060   -0.00031045   -0.00000691
     atom    3 type  2   force =    -0.00092786   -0.00054631    0.00080014
     atom    4 type  3   force =     0.00007456   -0.00007831    0.00005327
     atom    5 type  3   force =    -0.00003617    0.00011375   -0.00002912
     atom    6 type  3   force =     0.00006309   -0.00003175    0.00005622
     atom    7 type  3   force =    -0.00001981    0.00006797   -0.00003053

     Total force =     0.045265     Total SCF correction =     0.001511

     Computing stress (Cartesian axis) and pressure

          total   stress  (Ry/bohr**3)                   (kbar)     P=      -63.01
  -0.00067967  -0.00035035   0.00000007          -99.98      -51.54        0.01
  -0.00035035  -0.00042565  -0.00000007          -51.54      -62.62       -0.01
   0.00000007  -0.00000007  -0.00017968            0.01       -0.01      -26.43

     kinetic stress (kbar)   9410.97    -46.78      0.02
                              -46.78   9444.72      0.09
                                0.02      0.09   9476.61

     local   stress (kbar)  -9179.98   1325.06     -0.06
                             1325.06 -10140.52     -0.36
                               -0.06     -0.36 -11066.85

     nonloc. stress (kbar)   5875.95    -13.35     -0.00
                              -13.35   5885.44      0.14
                               -0.00      0.14   5893.87

     hartree stress (kbar)  12007.08   -662.29      0.06
                             -662.29  12487.30      0.12
                                0.06      0.12  12950.78

     exc-cor stress (kbar)  14057.23      0.08      0.00
                                0.08  14057.16      0.00
                                0.00      0.00  14057.08

     corecor stress (kbar) -18150.53     -1.10     -0.00
                               -1.10 -18149.72     -0.01
                               -0.00     -0.01 -18148.86

     ewald   stress (kbar) -14120.70   -653.17     -0.00
                             -653.17 -13647.00      0.01
                               -0.00      0.01 -13189.06

     hubbard stress (kbar)      0.00      0.00      0.00
                                0.00      0.00      0.00
                                0.00      0.00      0.00

     DFT-D   stress (kbar)      0.00      0.00      0.00
                                0.00      0.00      0.00
                                0.00      0.00      0.00

     XDM     stress (kbar)      0.00      0.00      0.00
                                0.00      0.00      0.00
                                0.00      0.00      0.00

     dft-nl  stress (kbar)      0.00      0.00      0.00
                                0.00      0.00      0.00
                                0.00      0.00      0.00

     TS-vdW  stress (kbar)      0.00      0.00      0.00
                                0.00      0.00      0.00
                                0.00      0.00      0.00

[...]

                                0.00      0.00      0.00

     Writing all to output data dir new_calculations/myprefix.save/

     General routines

     Parallel routines

   This run was terminated on:   5:39: 8  20May2023

   JOB DONE.