     Program PWSCF v.7.0 starts on 21May2023 at 12:50:25

     Reading input from espresso_20619.pwi
Warning: card &CELL ignored
Warning: card / ignored

     Current dimensions of program PWSCF are:
     Max number of different atomic species (ntypx) = 10
     Max number of k-points (npk) =  40000
     Max angular momentum in pseudopotentials (lmaxx) =  4
     file Ba.pbe-spn-kjpaw_psl.1.0.0.UPF: wavefunction(s)  5S 6S renormalized
     file O.pbe-n-kjpaw_psl.0.1.UPF: wavefunction(s)  2P renormalized

     gamma-point specific algorithms are used
     Message from routine setup:
     using ibrav=0 with symmetry is DISCOURAGED, use correct ibrav instead

     Subspace diagonalization in iterative solution of the eigenvalue problem:
     a serial algorithm will be used

     Using Slab Decomposition

     bravais-lattice index     =            0
     lattice parameter (alat)  =      11.1014  a.u.
     unit-cell volume          =     967.4278 (a.u.)^3
     number of atoms/cell      =           10
     number of atomic types    =            4
     number of electrons       =        66.00
     number of Kohn-Sham states=           40
     kinetic-energy cutoff     =      30.0000  Ry
     charge density cutoff     =     240.0000  Ry
     scf convergence threshold =      1.0E-06
     mixing beta               =       0.7000
     number of iterations used =            8  plain     mixing
     Exchange-correlation= SLA  PW   PBX  PBC
                           (   1   4   3   4   0   0   0)

     celldm(1)=  11.101402  celldm(2)=   0.000000  celldm(3)=   0.000000
     celldm(4)=   0.000000  celldm(5)=   0.000000  celldm(6)=   0.000000

     crystal axes: (cart. coord. in units of alat)
               a(1) = (   1.000000   0.000000   0.000000 )
               a(2) = (   0.500000   0.866025   0.000000 )
               a(3) = (   0.500000   0.288675   0.816497 )

     reciprocal axes: (cart. coord. in units 2 pi/alat)
               b(1) = (  1.000000 -0.577350 -0.408248 )
               b(2) = (  0.000000  1.154701 -0.408248 )
               b(3) = (  0.000000  0.000000  1.224745 )

     PseudoPot. # 1 for Ba read from file:
     /home/pragov/projects/rrg-bengioy-ad/pragov/crystal_structure_design/SSSP/Ba.pbe-spn-kjpaw_psl.1.0.0.UPF
     MD5 check sum: c432291d3e53af55f19d5e8866385beb
     Pseudo is Projector augmented-wave + core cor, Zval = 10.0
     Generated using "atomic" code by A. Dal Corso  v.5.1
     Shape of augmentation charge: PSQ
     Using radial grid of 1251 points,  7 beta functions with:
                l(1) =   0
                l(2) =   0
                l(3) =   0
                l(4) =   1
                l(5) =   1
                l(6) =   2
                l(7) =   2
     Q(r) pseudized with 0 coefficients

     PseudoPot. # 2 for Li read from file:
     /home/pragov/projects/rrg-bengioy-ad/pragov/crystal_structure_design/SSSP/li_pbe_v1.4.uspp.F.UPF
     MD5 check sum: e912e257baa3777c20ea3d68f190483c
     Pseudo is Ultrasoft, Zval =  3.0
     Generated by new atomic code, or converted to UPF format
     Using radial grid of  751 points,  5 beta functions with:
                l(1) =   0
                l(2) =   0
                l(3) =   0
                l(4) =   1
                l(5) =   1
     Q(r) pseudized with 10 coefficients,  rinner =    1.150   1.150   1.150

     PseudoPot. # 3 for I  read from file:
     /home/pragov/projects/rrg-bengioy-ad/pragov/crystal_structure_design/SSSP/I.pbe-n-kjpaw_psl.0.2.UPF
     MD5 check sum: d4ef18d9c8f18dc85e5843bca1e50dc0
     Pseudo is Projector augmented-wave + core cor, Zval =  7.0
     Generated using "atomic" code by A. Dal Corso  v.5.0.99 svn rev. 10869
     Shape of augmentation charge: PSQ
     Using radial grid of 1247 points,  4 beta functions with:
                l(1) =   0
                l(2) =   0
                l(3) =   1
                l(4) =   1
     Q(r) pseudized with 0 coefficients

     PseudoPot. # 4 for O  read from file:
     /home/pragov/projects/rrg-bengioy-ad/pragov/crystal_structure_design/SSSP/O.pbe-n-kjpaw_psl.0.1.UPF
     MD5 check sum: 0234752ac141de4415c5fc33072bef88
     Pseudo is Projector augmented-wave + core cor, Zval =  6.0
     Generated using "atomic" code by A. Dal Corso  v.5.0.99 svn rev. 10869
     Shape of augmentation charge: BESSEL
     Using radial grid of 1095 points,  4 beta functions with:
                l(1) =   0
                l(2) =   0
                l(3) =   1
                l(4) =   1
     Q(r) pseudized with 0 coefficients

     atomic species   valence    mass     pseudopotential
        Ba            10.00   137.32700     Ba( 1.00)
        Li             3.00     6.94000     Li( 1.00)
        I              7.00   126.90447     I ( 1.00)
        O              6.00    15.99900     O ( 1.00)

     12 Sym. Ops., with inversion, found

                                    s                        frac. trans.

      isym =  1     identity

 cryst.   s( 1) = (     1          0          0      )
                  (     0          1          0      )
                  (     0          0          1      )

 cart.    s( 1) = (  1.0000000  0.0000000  0.0000000 )
                  (  0.0000000  1.0000000 -0.0000000 )
                  (  0.0000000  0.0000000  1.0000000 )

      isym =  2     180 deg rotation - cart. axis [1,0,0]

[...]

      isym =  3     120 deg rotation - cryst. axis [0,0,1]

[...]

      isym =  6     180 deg rotation - cryst. axis [1,1,0]

[...]

      isym =  7     inversion

[...]

      isym =  8     inv. 180 deg rotation - cart. axis [1,0,0]

[...]

      isym =  9     inv. 120 deg rotation - cryst. axis [0,0,1]

 cryst.   s( 9) = (     1         -1          0      )
                  (     1          0          0      )
                  (     1          0         -1      )

 cart.    s( 9) = (  0.5000000  0.8660254 -0.0000000 )
                  ( -0.8660254  0.5000000 -0.0000000 )
                  (  0.0000000  0.0000000 -1.0000000 )

[...]

 cryst.   s(10) = (     0          1          0      )
                  (    -1          1          0      )
                  (     0          1         -1      )

 cart.    s(10) = (  0.5000000 -0.8660254  0.0000000 )
                  (  0.8660254  0.5000000 -0.0000000 )
                  (  0.0000000  0.0000000 -1.0000000 )

[...]

      isym = 12     inv. 180 deg rotation - cryst. axis [1,1,0]

 cryst.   s(12) = (     1         -1          0      )
                  (     0         -1          0      )
                  (     0         -1          1      )

 cart.    s(12) = (  0.5000000 -0.8660254  0.0000000 )
                  ( -0.8660254 -0.5000000  0.0000000 )
                  (  0.0000000  0.0000000  1.0000000 )

   Cartesian axes

     site n.     atom                  positions (alat units)
         1           Ba  tau(   1) = (   0.5000000   0.2886751   0.2041241  )
         2           Ba  tau(   2) = (   1.5000000   0.8660254   0.6123724  )
         3           Li  tau(   3) = (   1.0000000   0.5773503   0.4082483  )
         4           I   tau(   4) = (   0.0000000   0.0000000   0.0000000  )
         5           O   tau(   5) = (   1.0000000   0.2658282   0.1879689  )
         6           O   tau(   6) = (   1.0000000   0.8888723   0.6285276  )
         7           O   tau(   7) = (   0.7302140   0.7331113   0.1879689  )
         8           O   tau(   8) = (   1.2697860   0.4215892   0.6285276  )
         9           O   tau(   9) = (   0.7302140   0.4215892   0.6285276  )
        10           O   tau(  10) = (   1.2697860   0.7331113   0.1879689  )

   Crystallographic axes

     site n.     atom                  positions (cryst. coord.)
         1           Ba  tau(   1) = (  0.2500000  0.2500000  0.2500000  )
         2           Ba  tau(   2) = (  0.7500000  0.7500000  0.7500000  )
         3           Li  tau(   3) = (  0.5000000  0.5000000  0.5000000  )
         4           I   tau(   4) = (  0.0000000  0.0000000  0.0000000  )
         5           O   tau(   5) = (  0.7697860  0.2302140  0.2302140  )
         6           O   tau(   6) = (  0.2302140  0.7697860  0.7697860  )
         7           O   tau(   7) = (  0.2302140  0.7697860  0.2302140  )
         8           O   tau(   8) = (  0.7697860  0.2302140  0.7697860  )
         9           O   tau(   9) = (  0.2302140  0.2302140  0.7697860  )
        10           O   tau(  10) = (  0.7697860  0.7697860  0.2302140  )

     number of k points=     1  Methfessel-Paxton smearing, width (Ry)=  0.0010
                       cart. coord. in units 2pi/alat
        k(    1) = (   0.0000000   0.0000000   0.0000000), wk =   2.0000000

                       cryst. coord.
        k(    1) = (   0.0000000   0.0000000   0.0000000), wk =   2.0000000

     Check: negative core charge=   -0.000009

     Initial potential from superposition of free atoms

     starting charge      65.5152, renormalised to      66.0000
     Starting wfcs are   43 randomized atomic wfcs
     Checking if some PAW data can be deallocated...

     Self-consistent Calculation

     iteration #  1     ecut=    30.00 Ry     beta= 0.70
     Davidson diagonalization with overlap

     ethr =  1.00E-02,  avg # of iterations =  9.0

     total energy              =   -1513.60492339 Ry
     estimated scf accuracy    <       3.09045616 Ry

[...]

     total energy              =   -1515.06481676 Ry
     estimated scf accuracy    <       0.00000132 Ry

     iteration # 22     ecut=    30.00 Ry     beta= 0.70
     Davidson diagonalization with overlap

     ethr =  2.00E-09,  avg # of iterations =  1.0

     End of self-consistent calculation

          k = 0.0000 0.0000 0.0000 (  1367 PWs)   bands (ev):

   -37.0150 -17.6065 -17.4522 -12.0022  -8.7497  -8.7497  -8.7496  -7.5870
    -7.5870  -3.1102  -3.1102  -3.1102  -2.6991  -2.6991  -2.6991  -2.2879
     2.7753   2.7753   2.7754   6.2858   6.2858   6.2858   6.8532   6.8533
     7.6077   7.6077   7.6078   8.0239   8.0239   8.0239   8.7004   8.7004
     8.7004  10.3827  12.7969  12.7969  13.3792  13.3792  13.3792  15.1697

     occupation numbers
     1.0000   1.0000   1.0000   1.0000   1.0000   1.0000   1.0000   1.0000
     1.0000   1.0000   1.0000   1.0000   1.0000   1.0000   1.0000   1.0000
     1.0000   1.0000   1.0000   1.0000   1.0000   1.0000   1.0000   1.0000
     1.0000   1.0000   1.0000   1.0000   1.0000   1.0000   1.0000   1.0000
     1.0000  -0.0000  -0.0000  -0.0000  -0.0000  -0.0000  -0.0000  -0.0000

     the Fermi energy is     9.5683 ev

!    total energy              =   -1515.06481647 Ry
     estimated scf accuracy    <       0.00000090 Ry
     smearing contrib. (-TS)   =       0.00000000 Ry
     internal energy E=F+TS    =   -1515.06481647 Ry

     The total energy is F=E-TS. E is the sum of the following terms:
     one-electron contribution =     -56.87492429 Ry
     hartree contribution      =      73.48343572 Ry
     xc contribution           =    -131.34338212 Ry
     ewald contribution        =    -272.89916767 Ry
     one-center paw contrib.   =   -1127.43077811 Ry
      -> PAW hartree energy AE =     246.27004918 Ry
      -> PAW hartree energy PS =    -245.34789722 Ry
      -> PAW xc energy AE      =   -1252.03877975 Ry
      -> PAW xc energy PS      =     123.68584968 Ry
      -> total E_H with PAW    =      74.40558769 Ry
      -> total E_XC with PAW   =   -1259.69631220 Ry

     convergence has been achieved in  22 iterations

     Forces acting on atoms (cartesian axes, Ry/au):

     atom    1 type  1   force =     0.00000000   -0.00000000    0.00002103
     atom    2 type  1   force =     0.00000000    0.00000000   -0.00002103
     atom    3 type  2   force =     0.00000000    0.00000000   -0.00000000
     atom    4 type  3   force =     0.00000000    0.00000000    0.00000000
     atom    5 type  4   force =     0.00000000   -0.02032791   -0.01437266
     atom    6 type  4   force =     0.00000000    0.02032791    0.01437266
     atom    7 type  4   force =    -0.01760449    0.01016396   -0.01437266
     atom    8 type  4   force =     0.01760449   -0.01016396    0.01437266
     atom    9 type  4   force =    -0.01760449   -0.01016396    0.01437266
     atom   10 type  4   force =     0.01760449    0.01016396   -0.01437266
     The non-local contrib.  to forces
     atom    1 type  1   force =     0.00000000    0.00000000   -0.00000703
     atom    2 type  1   force =     0.00000000    0.00000000    0.00000703
     atom    3 type  2   force =     0.00000000    0.00000000   -0.00000000
     atom    4 type  3   force =     0.00000000    0.00000000    0.00000000
     atom    5 type  4   force =     0.00000000   -0.96546071   -0.68268668
     atom    6 type  4   force =     0.00000000    0.96546071    0.68268668
     atom    7 type  4   force =    -0.83611350    0.48273035   -0.68268668
     atom    8 type  4   force =     0.83611350   -0.48273035    0.68268668
     atom    9 type  4   force =    -0.83611350   -0.48273035    0.68268668
     atom   10 type  4   force =     0.83611350    0.48273035   -0.68268668
     The ionic contribution  to forces
     atom    1 type  1   force =    -0.00000000    0.00000000    0.00000000
     atom    2 type  1   force =     0.00000000   -0.00000000   -0.00000000
     atom    3 type  2   force =    -0.00000000    0.00000000    0.00000000
     atom    4 type  3   force =     0.00000000   -0.00000000   -0.00000000
     atom    5 type  4   force =     0.00000000    4.75620951    3.36314800
     atom    6 type  4   force =    -0.00000000   -4.75620951   -3.36314800
     atom    7 type  4   force =     4.11899826   -2.37810476    3.36314800
     atom    8 type  4   force =    -4.11899826    2.37810476   -3.36314800
     atom    9 type  4   force =     4.11899826    2.37810476   -3.36314800
     atom   10 type  4   force =    -4.11899826   -2.37810476    3.36314800
     The local contribution  to forces
     atom    1 type  1   force =     0.00023294    0.00044087    0.00064746
     atom    2 type  1   force =    -0.00092443   -0.00074187    0.00063021
     atom    3 type  2   force =    -0.00000019    0.00000130    0.00000169
     atom    4 type  3   force =    -0.00000272   -0.00000139   -0.00000420
     atom    5 type  4   force =     0.00000245   -3.82056944   -2.70154233
     atom    6 type  4   force =    -0.00000374    3.82056910    2.70154564
     atom    7 type  4   force =    -3.30870641    1.91028472   -2.70153757
     atom    8 type  4   force =     3.30871042   -1.91028061    2.70154459
     atom    9 type  4   force =    -3.30871411   -1.91028247    2.70155072
     atom   10 type  4   force =     3.30871491    1.91028886   -2.70154609
     The core correction contribution to forces
     atom    1 type  1   force =     0.00001154    0.00002064    0.00001916
     atom    2 type  1   force =    -0.00002272   -0.00001682    0.00002131
     atom    3 type  2   force =     0.00000000    0.00000000    0.00000000
     atom    4 type  3   force =     0.00000005    0.00000023    0.00000054
     atom    5 type  4   force =    -0.00000001    0.00949794    0.00671613
     atom    6 type  4   force =     0.00000010   -0.00949787   -0.00671607
     atom    7 type  4   force =     0.00822524   -0.00474887    0.00671594
     atom    8 type  4   force =    -0.00822518    0.00474892   -0.00671593
     atom    9 type  4   force =     0.00822518    0.00474881   -0.00671592
     atom   10 type  4   force =    -0.00822517   -0.00474881    0.00671600
     The Hubbard contrib.    to forces
     atom    1 type  1   force =     0.00000000    0.00000000    0.00000000
     atom    2 type  1   force =     0.00000000    0.00000000    0.00000000
     atom    3 type  2   force =     0.00000000    0.00000000    0.00000000
     atom    4 type  3   force =     0.00000000    0.00000000    0.00000000
     atom    5 type  4   force =     0.00000000    0.00000000    0.00000000
     atom    6 type  4   force =     0.00000000    0.00000000    0.00000000
     atom    7 type  4   force =     0.00000000    0.00000000    0.00000000
     atom    8 type  4   force =     0.00000000    0.00000000    0.00000000
     atom    9 type  4   force =     0.00000000    0.00000000    0.00000000
     atom   10 type  4   force =     0.00000000    0.00000000    0.00000000
     The SCF correction term to forces
     atom    1 type  1   force =    -0.00002635   -0.00004994   -0.00005707
     atom    2 type  1   force =     0.00010690    0.00009665   -0.00009809
     atom    3 type  2   force =     0.00000033   -0.00000126   -0.00000143
     atom    4 type  3   force =     0.00000277    0.00000130    0.00000577
     atom    5 type  4   force =    -0.00000194    0.00000228   -0.00000335
     atom    6 type  4   force =     0.00000934    0.00000102    0.00000193
     atom    7 type  4   force =    -0.00000664    0.00000078   -0.00001426
     atom    8 type  4   force =     0.00000788   -0.00000173    0.00000614
     atom    9 type  4   force =    -0.00000537   -0.00000826    0.00000399
     atom   10 type  4   force =     0.00000555    0.00000196   -0.00000324

     Total force =     0.060982     Total SCF correction =     0.000194

     Computing stress (Cartesian axis) and pressure

          total   stress  (Ry/bohr**3)                   (kbar)     P=      -79.77
  -0.00054227   0.00000000  -0.00000000          -79.77        0.00       -0.00
   0.00000000  -0.00054227   0.00000000            0.00      -79.77        0.00
   0.00000000   0.00000000  -0.00054226            0.00        0.00      -79.77

     kinetic stress (kbar)  15289.90     -0.00     -0.00
                               -0.00  15289.90     -0.00
                               -0.00     -0.00  15289.90

     local   stress (kbar)  -5019.59     -0.00      0.00
                               -0.00  -5019.58      0.01
                                0.00      0.01  -5019.58

     nonloc. stress (kbar)   3608.53      0.00      0.00
                                0.00   3608.53     -0.00
                               -0.00     -0.00   3608.53

     hartree stress (kbar)   3724.58      0.00     -0.00
                                0.00   3724.58     -0.01
                               -0.00     -0.01   3724.58

     exc-cor stress (kbar)   6009.23      0.00      0.00
                                0.00   6009.23     -0.00
                                0.00     -0.00   6009.23

     corecor stress (kbar)  -9860.27     -0.00      0.00
                               -0.00  -9860.27     -0.00
                                0.00     -0.00  -9860.27

     ewald   stress (kbar) -13832.16     -0.00      0.00
                               -0.00 -13832.16      0.00
                                0.00      0.00 -13832.16

     hubbard stress (kbar)      0.00      0.00      0.00
                                0.00      0.00      0.00
                                0.00      0.00      0.00

     DFT-D   stress (kbar)      0.00      0.00      0.00
                                0.00      0.00      0.00
                                0.00      0.00      0.00

     XDM     stress (kbar)      0.00      0.00      0.00
                                0.00      0.00      0.00
                                0.00      0.00      0.00

     dft-nl  stress (kbar)      0.00      0.00      0.00
                                0.00      0.00      0.00
                                0.00      0.00      0.00

     TS-vdW  stress (kbar)      0.00      0.00      0.00
                                0.00      0.00      0.00
                                0.00      0.00      0.00

[...]

                                0.00      0.00      0.00

     Writing all to output data dir new_calculations/myprefix.save/

     General routines

     Parallel routines

     PAW routines

   This run was terminated on:  12:51:29  21May2023

   JOB DONE.