     Program PWSCF v.7.0 starts on 21May2023 at 14: 7:45

     Reading input from espresso_22807.pwi
Warning: card &CELL ignored
Warning: card / ignored

     Current dimensions of program PWSCF are:
     Max number of different atomic species (ntypx) = 10
     Max number of k-points (npk) =  40000
     Max angular momentum in pseudopotentials (lmaxx) =  4

     gamma-point specific algorithms are used
     Message from routine setup:
     using ibrav=0 with symmetry is DISCOURAGED, use correct ibrav instead

     Subspace diagonalization in iterative solution of the eigenvalue problem:
     a serial algorithm will be used

     Using Slab Decomposition

     bravais-lattice index     =            0
     lattice parameter (alat)  =       9.5210  a.u.
     unit-cell volume          =    1409.7788 (a.u.)^3
     number of atoms/cell      =            6
     number of atomic types    =            3
     number of electrons       =        48.00
     number of Kohn-Sham states=           29
     kinetic-energy cutoff     =      30.0000  Ry
     charge density cutoff     =     240.0000  Ry
     scf convergence threshold =      1.0E-06
     mixing beta               =       0.7000
     number of iterations used =            8  plain     mixing
     Exchange-correlation= SLA  PW   PBE  PBE
                           (   1   4   3   4   0   0   0)

     celldm(1)=   9.521007  celldm(2)=   0.000000  celldm(3)=   0.000000
     celldm(4)=   0.000000  celldm(5)=   0.000000  celldm(6)=   0.000000

     crystal axes: (cart. coord. in units of alat)
               a(1) = (   1.000000   0.000000   0.000000 )
               a(2) = (   0.000000   1.000000   0.000000 )
               a(3) = (   0.000000   0.000000   1.633437 )

     reciprocal axes: (cart. coord. in units 2 pi/alat)
               b(1) = (  1.000000  0.000000  0.000000 )
               b(2) = (  0.000000  1.000000  0.000000 )
               b(3) = (  0.000000  0.000000  0.612206 )

     PseudoPot. # 1 for Cs read from file:
     /home/pragov/projects/rrg-bengioy-ad/pragov/crystal_structure_design/SSSP/Cs_pbe_v1.uspp.F.UPF
     MD5 check sum: 3476d69cb178dfad3ffaa59df4e07ca4
     Pseudo is Ultrasoft + core correction, Zval =  9.0
     Generated by new atomic code, or converted to UPF format
     Using radial grid of  905 points,  6 beta functions with:
                l(1) =   0
                l(2) =   0
                l(3) =   1
                l(4) =   1
                l(5) =   2
                l(6) =   2
     Q(r) pseudized with  6 coefficients,  rinner =    1.500   1.500   1.500
                                                       1.500   1.500

     PseudoPot. # 2 for Na read from file:
     /home/pragov/projects/rrg-bengioy-ad/pragov/crystal_structure_design/SSSP/na_pbe_v1.5.uspp.F.UPF
     MD5 check sum: 44600605ef58000f06b90626533354dc
     Pseudo is Ultrasoft, Zval =  9.0
     Generated by new atomic code, or converted to UPF format
     Using radial grid of  819 points,  5 beta functions with:
                l(1) =   0
                l(2) =   0
                l(3) =   1
                l(4) =   1
                l(5) =   2
     Q(r) pseudized with  8 coefficients,  rinner =    1.250   1.250   1.250
                                                       1.250   1.250

     PseudoPot. # 3 for Se read from file:
     /home/pragov/projects/rrg-bengioy-ad/pragov/crystal_structure_design/SSSP/Se_pbe_v1.uspp.F.UPF
     MD5 check sum: 1b3568f3a8ae88f9a2a0ad0698632c85
     Pseudo is Ultrasoft + core correction, Zval =  6.0
     Generated by new atomic code, or converted to UPF format
     Using radial grid of  877 points,  6 beta functions with:
                l(1) =   0
                l(2) =   0
                l(3) =   1
                l(4) =   1
                l(5) =   2
                l(6) =   2
     Q(r) pseudized with  8 coefficients,  rinner =    1.300   1.300   1.300
                                                       1.300   1.300

     atomic species   valence    mass     pseudopotential
        Cs             9.00   132.90545     Cs( 1.00)
        Na             9.00    22.98977     Na( 1.00)
        Se             6.00    78.97100     Se( 1.00)

     16 Sym. Ops., with inversion, found ( 8 have fractional translation)

                                    s                        frac. trans.

      isym =  1     identity

 cryst.   s( 1) = (     1          0          0      )
                  (     0          1          0      )
                  (     0          0          1      )

 cart.    s( 1) = (  1.0000000  0.0000000  0.0000000 )
                  (  0.0000000  1.0000000  0.0000000 )
                  (  0.0000000  0.0000000  1.0000000 )

      isym =  2     180 deg rotation - cart. axis [0,0,1]

[...]

 cryst.   s( 3) = (    -1          0          0      )    f =(  0.5000000 )
                  (     0          1          0      )       ( -0.5000000 )
                  (     0          0         -1      )       (  0.0000000 )

 cart.    s( 3) = ( -1.0000000  0.0000000  0.0000000 )    f =(  0.5000000 )
                  (  0.0000000  1.0000000  0.0000000 )       ( -0.5000000 )
                  (  0.0000000  0.0000000 -1.0000000 )       (  0.0000000 )

[...]

 cryst.   s( 6) = (     0         -1          0      )
                  (    -1          0          0      )
                  (     0          0         -1      )

 cart.    s( 6) = (  0.0000000 -1.0000000  0.0000000 )
                  ( -1.0000000  0.0000000  0.0000000 )
                  (  0.0000000  0.0000000 -1.0000000 )

[...]

      isym =  8      90 deg rotation - cart. axis [0,0,1]

[...]

      isym =  9     inversion

 cryst.   s( 9) = (    -1          0          0      )    f =(  0.5000000 )
                  (     0         -1          0      )       (  0.5000000 )
                  (     0          0         -1      )       (  0.0000000 )

 cart.    s( 9) = ( -1.0000000  0.0000000  0.0000000 )    f =(  0.5000000 )
                  (  0.0000000 -1.0000000  0.0000000 )       (  0.5000000 )
                  (  0.0000000  0.0000000 -1.0000000 )       (  0.0000000 )

      isym = 10     inv. 180 deg rotation - cart. axis [0,0,1]

 cryst.   s(10) = (     1          0          0      )    f =(  0.5000000 )
                  (     0          1          0      )       ( -0.5000000 )
                  (     0          0         -1      )       (  0.0000000 )

 cart.    s(10) = (  1.0000000  0.0000000  0.0000000 )    f =(  0.5000000 )
                  (  0.0000000  1.0000000  0.0000000 )       ( -0.5000000 )
                  (  0.0000000  0.0000000 -1.0000000 )       (  0.0000000 )

[...]

 cryst.   s(11) = (     1          0          0      )
                  (     0         -1          0      )
                  (     0          0          1      )

 cart.    s(11) = (  1.0000000  0.0000000  0.0000000 )
                  (  0.0000000 -1.0000000  0.0000000 )
                  (  0.0000000  0.0000000  1.0000000 )

[...]

 cryst.   s(14) = (     0          1          0      )    f =(  0.5000000 )
                  (     1          0          0      )       ( -0.5000000 )
                  (     0          0          1      )       (  0.0000000 )

 cart.    s(14) = (  0.0000000  1.0000000  0.0000000 )    f =(  0.5000000 )
                  (  1.0000000  0.0000000  0.0000000 )       ( -0.5000000 )
                  (  0.0000000  0.0000000  1.0000000 )       (  0.0000000 )

[...]

      isym = 16     inv.  90 deg rotation - cart. axis [0,0,1]

 cryst.   s(16) = (     0         -1          0      )
                  (     1          0          0      )
                  (     0          0         -1      )

 cart.    s(16) = (  0.0000000  1.0000000  0.0000000 )
                  ( -1.0000000  0.0000000  0.0000000 )
                  (  0.0000000  0.0000000 -1.0000000 )

   Cartesian axes

     site n.     atom                  positions (alat units)
         1           Cs  tau(   1) = (   0.5000000   0.0000000   1.0673202  )
         2           Cs  tau(   2) = (   0.0000000   0.5000000   0.5661165  )
         3           Na  tau(   3) = (   0.5000000   0.5000000   0.0000000  )
         4           Na  tau(   4) = (   0.0000000   0.0000000   0.0000000  )
         5           Se  tau(   5) = (   0.0000000   0.5000000   1.3138221  )
         6           Se  tau(   6) = (   0.5000000   0.0000000   0.3196146  )

   Crystallographic axes

     site n.     atom                  positions (cryst. coord.)
         1           Cs  tau(   1) = (  0.5000000  0.0000000  0.6534200  )
         2           Cs  tau(   2) = (  0.0000000  0.5000000  0.3465800  )
         3           Na  tau(   3) = (  0.5000000  0.5000000  0.0000000  )
         4           Na  tau(   4) = (  0.0000000  0.0000000  0.0000000  )
         5           Se  tau(   5) = (  0.0000000  0.5000000  0.8043300  )
         6           Se  tau(   6) = (  0.5000000  0.0000000  0.1956700  )

     number of k points=     1  Methfessel-Paxton smearing, width (Ry)=  0.0010
                       cart. coord. in units 2pi/alat
        k(    1) = (   0.0000000   0.0000000   0.0000000), wk =   2.0000000

                       cryst. coord.
        k(    1) = (   0.0000000   0.0000000   0.0000000), wk =   2.0000000

     Initial potential from superposition of free atoms

     starting charge      47.9085, renormalised to      48.0000
     Starting wfcs are   44 randomized atomic wfcs

     Self-consistent Calculation

     iteration #  1     ecut=    30.00 Ry     beta= 0.70
     Davidson diagonalization with overlap

     ethr =  1.00E-02,  avg # of iterations =  3.0

     total energy              =    -404.00991127 Ry
     estimated scf accuracy    <       0.60333323 Ry

[...]

     total energy              =    -404.25620190 Ry
     estimated scf accuracy    <       0.00000152 Ry

     iteration #  8     ecut=    30.00 Ry     beta= 0.70
     Davidson diagonalization with overlap

     ethr =  3.17E-09,  avg # of iterations =  6.0

     End of self-consistent calculation

          k = 0.0000 0.0000 0.0000 (  1964 PWs)   bands (ev):

   -47.2794 -47.2773 -19.2345 -19.2266 -19.1824 -19.1824 -19.1527 -19.1527
   -17.7243 -17.6485  -6.1867  -6.1193  -4.7404  -4.6348  -4.6348  -4.3620
    -4.3619  -4.3506   2.9433   3.7522   3.7522   3.7776   4.0602   4.0602
     5.8852   6.5998   8.0824   8.1927   8.9885

     occupation numbers
     1.0000   1.0000   1.0000   1.0000   1.0000   1.0000   1.0000   1.0000
     1.0000   1.0000   1.0000   1.0000   1.0000   1.0000   1.0000   1.0000
     1.0000   1.0000   1.0000   1.0000   1.0000   1.0000   1.0000   1.0000
    -0.0000  -0.0000  -0.0000  -0.0000  -0.0000

     the Fermi energy is     5.5909 ev

!    total energy              =    -404.25620258 Ry
     estimated scf accuracy    <       0.00000033 Ry
     smearing contrib. (-TS)   =       0.00000000 Ry
     internal energy E=F+TS    =    -404.25620258 Ry

     The total energy is F=E-TS. E is the sum of the following terms:
     one-electron contribution =    -198.52873581 Ry
     hartree contribution      =     114.65897578 Ry
     xc contribution           =    -149.02225002 Ry
     ewald contribution        =    -171.36419253 Ry

     convergence has been achieved in   8 iterations

     Forces acting on atoms (cartesian axes, Ry/au):

     atom    1 type  1   force =     0.00000000    0.00000000   -0.01389166
     atom    2 type  1   force =     0.00000000    0.00000000    0.01389166
     atom    3 type  2   force =     0.00000000    0.00000000    0.00000000
     atom    4 type  2   force =     0.00000000    0.00000000    0.00000000
     atom    5 type  3   force =     0.00000000    0.00000000    0.02270968
     atom    6 type  3   force =     0.00000000    0.00000000   -0.02270968
     The non-local contrib.  to forces
     atom    1 type  1   force =     0.00000000    0.00000000    0.06911081
     atom    2 type  1   force =     0.00000000    0.00000000   -0.06911081
     atom    3 type  2   force =     0.00000000    0.00000000    0.00000000
     atom    4 type  2   force =     0.00000000    0.00000000    0.00000000
     atom    5 type  3   force =     0.00000000    0.00000000   -0.00822700
     atom    6 type  3   force =     0.00000000    0.00000000    0.00822700
     The ionic contribution  to forces
     atom    1 type  1   force =    -0.00000000    0.00000000   -4.62728251
     atom    2 type  1   force =     0.00000000    0.00000000    4.62728251
     atom    3 type  2   force =     0.00000000    0.00000000    0.00000000
     atom    4 type  2   force =    -0.00000000   -0.00000000    0.00000000
     atom    5 type  3   force =     0.00000000   -0.00000000   -4.67294353
     atom    6 type  3   force =    -0.00000000    0.00000000    4.67294353
     The local contribution  to forces
     atom    1 type  1   force =    -0.00010069    0.00002336    4.54947223
     atom    2 type  1   force =    -0.00003943   -0.00001181   -4.54926003
     atom    3 type  2   force =    -0.00000219   -0.00000339   -0.00001354
     atom    4 type  2   force =    -0.00000459   -0.00000129   -0.00002092
     atom    5 type  3   force =     0.00001439   -0.00000119    4.70199065
     atom    6 type  3   force =    -0.00001026   -0.00000068   -4.70206995
     The core correction contribution to forces
     atom    1 type  1   force =    -0.00000718   -0.00000129   -0.00555989
     atom    2 type  1   force =     0.00000078   -0.00000124    0.00556752
     atom    3 type  2   force =     0.00000000    0.00000000    0.00000000
     atom    4 type  2   force =     0.00000000    0.00000000    0.00000000
     atom    5 type  3   force =     0.00000080    0.00000218    0.00157215
     atom    6 type  3   force =     0.00000034    0.00000076   -0.00157257
     The Hubbard contrib.    to forces
     atom    1 type  1   force =     0.00000000    0.00000000    0.00000000
     atom    2 type  1   force =     0.00000000    0.00000000    0.00000000
     atom    3 type  2   force =     0.00000000    0.00000000    0.00000000
     atom    4 type  2   force =     0.00000000    0.00000000    0.00000000
     atom    5 type  3   force =     0.00000000    0.00000000    0.00000000
     atom    6 type  3   force =     0.00000000    0.00000000    0.00000000
     The SCF correction term to forces
     atom    1 type  1   force =     0.00003161   -0.00001030    0.00040564
     atom    2 type  1   force =     0.00000457    0.00000936   -0.00054959
     atom    3 type  2   force =    -0.00000125    0.00003737    0.00007583
     atom    4 type  2   force =    -0.00003466    0.00005541    0.00013791
     atom    5 type  3   force =    -0.00001165    0.00000683    0.00031169
     atom    6 type  3   force =     0.00000825    0.00000301   -0.00024340

     Total force =     0.037649     Total SCF correction =     0.000809

     Computing stress (Cartesian axis) and pressure

          total   stress  (Ry/bohr**3)                   (kbar)     P=       17.54
   0.00012565   0.00000000   0.00000000           18.48        0.00        0.00
   0.00000000   0.00012565   0.00000000            0.00       18.48        0.00
   0.00000000   0.00000000   0.00010645            0.00        0.00       15.66

     kinetic stress (kbar)   4934.67      0.00      0.00
                                0.00   4934.67      0.00
                                0.00      0.00   4876.15

     local   stress (kbar)   1213.64     -0.00     -0.01
                               -0.00   1213.64     -0.00
                               -0.01     -0.00   7756.47

     nonloc. stress (kbar)  -4165.78      0.00      0.00
                                0.00  -4165.78      0.00
                                0.00      0.00  -4208.49

     hartree stress (kbar)   5098.93      0.00     -0.00
                                0.00   5098.93     -0.00
                               -0.00     -0.00   1766.36

     exc-cor stress (kbar)   8100.20     -0.00      0.00
                               -0.00   8100.20     -0.00
                                0.00     -0.00   8099.07

     corecor stress (kbar) -10241.57      0.00     -0.00
                                0.00 -10241.57     -0.00
                               -0.00     -0.00 -10235.95

     ewald   stress (kbar)  -4921.62      0.00     -0.00
                                0.00  -4921.62      0.00
                               -0.00      0.00  -8037.96

     hubbard stress (kbar)      0.00      0.00      0.00
                                0.00      0.00      0.00
                                0.00      0.00      0.00

     DFT-D   stress (kbar)      0.00      0.00      0.00
                                0.00      0.00      0.00
                                0.00      0.00      0.00

     XDM     stress (kbar)      0.00      0.00      0.00
                                0.00      0.00      0.00
                                0.00      0.00      0.00

     dft-nl  stress (kbar)      0.00      0.00      0.00
                                0.00      0.00      0.00
                                0.00      0.00      0.00

     TS-vdW  stress (kbar)      0.00      0.00      0.00
                                0.00      0.00      0.00
                                0.00      0.00      0.00

[...]

                                0.00      0.00      0.00

     Writing all to output data dir new_calculations/myprefix.save/

     General routines

     Parallel routines

   This run was terminated on:  14: 7:59  21May2023

   JOB DONE.