     Program PWSCF v.7.0 starts on 20May2023 at 17:24:23

     Reading input from espresso_10544.pwi
Warning: card &CELL ignored
Warning: card / ignored

     Current dimensions of program PWSCF are:
     Max number of different atomic species (ntypx) = 10
     Max number of k-points (npk) =  40000
     Max angular momentum in pseudopotentials (lmaxx) =  4
     file Mg.pbe-n-kjpaw_psl.0.3.0.UPF: wavefunction(s)  3S renormalized
     file Ga.pbe-dn-kjpaw_psl.1.0.0.UPF: wavefunction(s)  4S renormalized

     gamma-point specific algorithms are used
     Message from routine setup:
     using ibrav=0 with symmetry is DISCOURAGED, use correct ibrav instead

     Subspace diagonalization in iterative solution of the eigenvalue problem:
     a serial algorithm will be used

     Using Slab Decomposition

     bravais-lattice index     =            0
     lattice parameter (alat)  =       7.0595  a.u.
     unit-cell volume          =    1259.2505 (a.u.)^3
     number of atoms/cell      =            9
     number of atomic types    =            3
     number of electrons       =        60.00
     number of Kohn-Sham states=           36
     kinetic-energy cutoff     =      30.0000  Ry
     charge density cutoff     =     240.0000  Ry
     scf convergence threshold =      1.0E-06
     mixing beta               =       0.7000
     number of iterations used =            8  plain     mixing
     Exchange-correlation=  SLA  PW   PBX  PBC
                           (   1   4   3   4   0   0   0)

     celldm(1)=   7.059500  celldm(2)=   0.000000  celldm(3)=   0.000000
     celldm(4)=   0.000000  celldm(5)=   0.000000  celldm(6)=   0.000000

     crystal axes: (cart. coord. in units of alat)
               a(1) = (   1.000000   0.000000   0.000000 )
               a(2) = (  -0.500000   0.866025   0.000000 )
               a(3) = (   0.000000   0.000000   4.132946 )

     reciprocal axes: (cart. coord. in units 2 pi/alat)
               b(1) = (  1.000000  0.577350  0.000000 )
               b(2) = (  0.000000  1.154701  0.000000 )
               b(3) = (  0.000000  0.000000  0.241958 )

     PseudoPot. # 1 for Mg read from file:
     /home/pragov/projects/rrg-bengioy-ad/pragov/crystal_structure_design/SSSP/Mg.pbe-n-kjpaw_psl.0.3.0.UPF
     MD5 check sum: 24ecedc7f3e3cbe212e682f4413594e4
     Pseudo is Projector augmented-wave + core cor, Zval =  2.0
     Generated using "atomic" code by A. Dal Corso  v.5.0.99 svn rev. 10869
     Shape of augmentation charge: PSQ
     Using radial grid of 1129 points,  4 beta functions with:
                l(1) =   0
                l(2) =   0
                l(3) =   1
                l(4) =   1
     Q(r) pseudized with 0 coefficients

     PseudoPot. # 2 for Ga read from file:
     /home/pragov/projects/rrg-bengioy-ad/pragov/crystal_structure_design/SSSP/Ga.pbe-dn-kjpaw_psl.1.0.0.UPF
     MD5 check sum: a27b4342b1af7e5f338de752e9ed7044
     Pseudo is Projector augmented-wave + core cor, Zval = 13.0
     Generated using "atomic" code by A. Dal Corso  v.5.1
     Shape of augmentation charge: PSQ
     Using radial grid of 1205 points,  6 beta functions with:
                l(1) =   0
                l(2) =   0
                l(3) =   1
                l(4) =   1
                l(5) =   2
                l(6) =   2
     Q(r) pseudized with 0 coefficients

     PseudoPot. # 3 for S  read from file:
     /home/pragov/projects/rrg-bengioy-ad/pragov/crystal_structure_design/SSSP/s_pbe_v1.4.uspp.F.UPF
     MD5 check sum: 88d86576ff6df21479756cfb9bdac1df
     Pseudo is Ultrasoft + core correction, Zval =  6.0
     Generated by new atomic code, or converted to UPF format
     Using radial grid of  907 points,  6 beta functions with:
                l(1) =   0
                l(2) =   0
                l(3) =   1
                l(4) =   1
                l(5) =   2
                l(6) =   2
     Q(r) pseudized with  8 coefficients,  rinner =    1.300   1.300   1.300
                                                       1.300   1.300

     atomic species   valence    mass     pseudopotential
        Mg             2.00    24.30500     Mg( 1.00)
        Ga            13.00    69.72300     Ga( 1.00)
        S              6.00    32.06000     S ( 1.00)

     12 Sym. Ops., with inversion, found

                                    s                        frac. trans.

      isym =  1     identity

 cryst.   s( 1) = (     1          0          0      )
                  (     0          1          0      )
                  (     0          0          1      )

 cart.    s( 1) = (  1.0000000 -0.0000000  0.0000000 )
                  (  0.0000000  1.0000000  0.0000000 )
                  (  0.0000000  0.0000000  1.0000000 )

      isym =  2     180 deg rotation - cart. axis [1,0,0]

[...]

      isym =  3     120 deg rotation - cryst. axis [0,0,1]

[...]

      isym =  6     180 deg rotation - cryst. axis [1,1,0]

[...]

      isym =  7     inversion

[...]

      isym =  8     inv. 180 deg rotation - cart. axis [1,0,0]

[...]

      isym =  9     inv. 120 deg rotation - cryst. axis [0,0,1]

 cryst.   s( 9) = (     0         -1          0      )
                  (     1          1          0      )
                  (     0          0         -1      )

 cart.    s( 9) = (  0.5000001  0.8660255  0.0000000 )
                  ( -0.8660254  0.4999999  0.0000000 )
                  (  0.0000000  0.0000000 -1.0000000 )

[...]

 cryst.   s(10) = (     1          1          0      )
                  (    -1          0          0      )
                  (     0          0         -1      )

 cart.    s(10) = (  0.4999999 -0.8660255  0.0000000 )
                  (  0.8660254  0.5000001  0.0000000 )
                  (  0.0000000  0.0000000 -1.0000000 )

[...]

      isym = 12     inv. 180 deg rotation - cryst. axis [1,1,0]

 cryst.   s(12) = (     0         -1          0      )
                  (    -1          0          0      )
                  (     0          0          1      )

 cart.    s(12) = (  0.5000001 -0.8660254  0.0000000 )
                  ( -0.8660254 -0.5000001  0.0000000 )
                  (  0.0000000  0.0000000  1.0000000 )

   Cartesian axes

     site n.     atom                  positions (alat units)
         1           Mg  tau(   1) = (  -0.0000006   0.5773505   0.4095791  )
         2           Mg  tau(   2) = (   0.5000005   0.2886748   3.7233674  )
         3           Ga  tau(   3) = (  -0.0000006   0.5773505   2.7749057  )
         4           Ga  tau(   4) = (   0.5000005   0.2886748   1.3580408  )
         5           S   tau(   5) = (  -0.0000006   0.5773505   1.6260789  )
         6           S   tau(   6) = (   0.5000005   0.2886748   2.5068676  )
         7           S   tau(   7) = (  -0.0000006   0.5773505   3.3646028  )
         8           S   tau(   8) = (   0.5000005   0.2886748   0.7683437  )
         9           S   tau(   9) = (   0.0000000   0.0000000   0.0000000  )

   Crystallographic axes

     site n.     atom                  positions (cryst. coord.)
         1           Mg  tau(   1) = (  0.3333330  0.6666670  0.0991010  )
         2           Mg  tau(   2) = (  0.6666670  0.3333330  0.9008990  )
         3           Ga  tau(   3) = (  0.3333330  0.6666670  0.6714110  )
         4           Ga  tau(   4) = (  0.6666670  0.3333330  0.3285890  )
         5           S   tau(   5) = (  0.3333330  0.6666670  0.3934430  )
         6           S   tau(   6) = (  0.6666670  0.3333330  0.6065570  )
         7           S   tau(   7) = (  0.3333330  0.6666670  0.8140930  )
         8           S   tau(   8) = (  0.6666670  0.3333330  0.1859070  )
         9           S   tau(   9) = (  0.0000000  0.0000000  0.0000000  )

     number of k points=     1  Methfessel-Paxton smearing, width (Ry)=  0.0010
                       cart. coord. in units 2pi/alat
        k(    1) = (   0.0000000   0.0000000   0.0000000), wk =   2.0000000

                       cryst. coord.
        k(    1) = (   0.0000000   0.0000000   0.0000000), wk =   2.0000000

     Check: negative core charge=   -0.000001

     Initial potential from superposition of free atoms

     starting charge      59.9921, renormalised to      60.0000
     Starting wfcs are   46 randomized atomic wfcs
     Checking if some PAW data can be deallocated...

     Self-consistent Calculation

     iteration #  1     ecut=    30.00 Ry     beta= 0.70
     Davidson diagonalization with overlap

     ethr =  1.00E-02,  avg # of iterations =  3.0

     total energy              =    -741.43215123 Ry
     estimated scf accuracy    <       1.55544555 Ry

[...]

     c_bands:  2 eigenvalues not converged
     ethr =  1.47E-05,  avg # of iterations = 20.0

[...]

     c_bands:  1 eigenvalues not converged
     ethr =  4.74E-07,  avg # of iterations = 20.0

[...]

     total energy              =    -742.04545832 Ry
     estimated scf accuracy    <       0.00000680 Ry

     iteration # 17     ecut=    30.00 Ry     beta= 0.70
     Davidson diagonalization with overlap

     ethr =  1.13E-08,  avg # of iterations =  6.0

     End of self-consistent calculation

          k = 0.0000 0.0000 0.0000 (  1748 PWs)   bands (ev):

   -10.5057 -10.5047 -10.3514 -10.3514 -10.3502 -10.3502 -10.3045 -10.3045
   -10.3034 -10.3034  -7.9415  -7.8271  -6.6809  -6.2036  -5.5994  -0.2015
     0.0173   2.7350   3.4710   4.2903   4.2904   4.3568   4.3568   5.2048
     5.2048   5.2081   5.4639   5.4640   5.7214   5.7215   6.6509   7.1491
     9.6892  10.3155  10.3157  10.3872

     occupation numbers
     1.0000   1.0000   1.0000   1.0000   1.0000   1.0000   1.0000   1.0000
     1.0000   1.0000   1.0000   1.0000   1.0000   1.0000   1.0000   1.0000
     1.0000   1.0000   1.0000   1.0000   1.0000   1.0000   1.0000   1.0000
     1.0000   1.0000   1.0000   1.0000   1.0000   1.0000  -0.0000  -0.0000
    -0.0000  -0.0000  -0.0000  -0.0000

     the Fermi energy is     6.5548 ev

!    total energy              =    -742.04546220 Ry
     estimated scf accuracy    <       0.00000067 Ry
     smearing contrib. (-TS)   =       0.00000000 Ry
     internal energy E=F+TS    =    -742.04546220 Ry

     The total energy is F=E-TS. E is the sum of the following terms:
     one-electron contribution =    -340.48332180 Ry
     hartree contribution      =     212.46216319 Ry
     xc contribution           =    -122.90935285 Ry
     ewald contribution        =    -206.68985007 Ry
     one-center paw contrib.   =    -284.42510066 Ry
      -> PAW hartree energy AE =     277.21299929 Ry
      -> PAW hartree energy PS =    -272.85744242 Ry
      -> PAW xc energy AE      =    -365.97220492 Ry
      -> PAW xc energy PS      =      77.19154739 Ry
      -> total E_H with PAW    =     216.81772006 Ry
      -> total E_XC with PAW   =    -411.69001038 Ry

     convergence has been achieved in  17 iterations

     Forces acting on atoms (cartesian axes, Ry/au):

     atom    1 type  1   force =     0.00000000   -0.00000000    0.00873201
     atom    2 type  1   force =    -0.00000000    0.00000000   -0.00873201
     atom    3 type  2   force =     0.00000000    0.00000000    0.07087375
     atom    4 type  2   force =     0.00000000    0.00000000   -0.07087375
     atom    5 type  3   force =     0.00000000    0.00000000    0.12602653
     atom    6 type  3   force =     0.00000000    0.00000000   -0.12602653
     atom    7 type  3   force =    -0.00000000   -0.00000000    0.05361489
     atom    8 type  3   force =     0.00000000    0.00000000   -0.05361489
     atom    9 type  3   force =     0.00000000   -0.00000000    0.00000000
     The non-local contrib.  to forces
     atom    1 type  1   force =     0.00000000   -0.00000000   -0.00414142
     atom    2 type  1   force =     0.00000000    0.00000000    0.00414142
     atom    3 type  2   force =     0.00000000   -0.00000000   -0.97265069
     atom    4 type  2   force =     0.00000000    0.00000000    0.97265069
     atom    5 type  3   force =     0.00000000   -0.00000000   -0.42235888
     atom    6 type  3   force =     0.00000000    0.00000000    0.42235888
     atom    7 type  3   force =     0.00000000    0.00000000   -0.03374476
     atom    8 type  3   force =    -0.00000000   -0.00000000    0.03374476
     atom    9 type  3   force =     0.00000000   -0.00000000    0.00000000
     The ionic contribution  to forces
     atom    1 type  1   force =     0.00000275   -0.00000159   -2.08356786
     atom    2 type  1   force =    -0.00000275    0.00000159    2.08356786
     atom    3 type  2   force =     0.00002035   -0.00001175    7.99674847
     atom    4 type  2   force =    -0.00002035    0.00001175   -7.99674847
     atom    5 type  3   force =     0.00002068   -0.00001194    4.99068841
     atom    6 type  3   force =    -0.00002068    0.00001194   -4.99068841
     atom    7 type  3   force =     0.00000241   -0.00000139   13.68934712
     atom    8 type  3   force =    -0.00000241    0.00000139  -13.68934712
     atom    9 type  3   force =     0.00000000   -0.00000000   -0.00000000
     The local contribution  to forces
     atom    1 type  1   force =     0.00000191    0.00000751    2.09516522
     atom    2 type  1   force =     0.00000747    0.00000059   -2.09527511
     atom    3 type  2   force =    -0.00004977    0.00002765   -6.97557303
     atom    4 type  2   force =     0.00000572    0.00002785    6.97675800
     atom    5 type  3   force =     0.00001990    0.00003638   -4.46380475
     atom    6 type  3   force =    -0.00002666   -0.00007009    4.46493330
     atom    7 type  3   force =    -0.00001660   -0.00002087  -13.60297791
     atom    8 type  3   force =     0.00006777   -0.00005951   13.60302559
     atom    9 type  3   force =     0.00009558    0.00006521   -0.00108246
     The core correction contribution to forces
     atom    1 type  1   force =     0.00000066    0.00000069    0.00109227
     atom    2 type  1   force =     0.00000081    0.00000032   -0.00109736
     atom    3 type  2   force =    -0.00000133    0.00000018    0.02315536
     atom    4 type  2   force =    -0.00000035    0.00000124   -0.02312123
     atom    5 type  3   force =     0.00000067    0.00000013    0.02203108
     atom    6 type  3   force =    -0.00000145   -0.00000199   -0.02198491
     atom    7 type  3   force =    -0.00000085   -0.00000120    0.00194118
     atom    8 type  3   force =     0.00000336   -0.00000096   -0.00195235
     atom    9 type  3   force =     0.00000393    0.00000358   -0.00002320
     The Hubbard contrib.    to forces
     atom    1 type  1   force =     0.00000000    0.00000000    0.00000000
     atom    2 type  1   force =     0.00000000    0.00000000    0.00000000
     atom    3 type  2   force =     0.00000000    0.00000000    0.00000000
     atom    4 type  2   force =     0.00000000    0.00000000    0.00000000
     atom    5 type  3   force =     0.00000000    0.00000000    0.00000000
     atom    6 type  3   force =     0.00000000    0.00000000    0.00000000
     atom    7 type  3   force =     0.00000000    0.00000000    0.00000000
     atom    8 type  3   force =     0.00000000    0.00000000    0.00000000
     atom    9 type  3   force =     0.00000000    0.00000000    0.00000000
     The SCF correction term to forces
     atom    1 type  1   force =    -0.00000016   -0.00000019    0.00018686
     atom    2 type  1   force =     0.00000029    0.00000115   -0.00006577
     atom    3 type  2   force =     0.00003423   -0.00000453   -0.00096559
     atom    4 type  2   force =     0.00005021   -0.00007430   -0.00057196
     atom    5 type  3   force =    -0.00001800   -0.00000085   -0.00021466
     atom    6 type  3   force =     0.00001724    0.00002387   -0.00033070
     atom    7 type  3   force =    -0.00000649    0.00000612   -0.00101080
     atom    8 type  3   force =    -0.00002370    0.00001531    0.00085418
     atom    9 type  3   force =    -0.00000995   -0.00003812    0.00087554

     Total force =     0.218433     Total SCF correction =     0.001996

     Computing stress (Cartesian axis) and pressure

          total   stress  (Ry/bohr**3)                   (kbar)     P=      282.19
   0.00243378   0.00000000   0.00000000          358.02        0.00        0.00
   0.00000000   0.00243378   0.00000000            0.00      358.02        0.00
   0.00000000   0.00000000   0.00088735            0.00        0.00      130.53

     kinetic stress (kbar)   6088.32      0.00      0.00
                                0.00   6088.32      0.00
                                0.00      0.00   5430.26

     local   stress (kbar) -14257.44     -0.02     -0.01
                               -0.02 -14257.49      0.01
                               -0.01      0.01  10431.16

     nonloc. stress (kbar)   3252.90      0.00      0.00
                                0.00   3252.90      0.00
                                0.00      0.00   3032.92

     hartree stress (kbar)  12232.50      0.00      0.00
                                0.00  12232.52     -0.00
                                0.00     -0.00    354.71

     exc-cor stress (kbar)   2875.42     -0.00      0.00
                               -0.00   2875.42     -0.00
                                0.00     -0.00   2879.19

     corecor stress (kbar)  -5849.36      0.00      0.00
                                0.00  -5849.36      0.00
                                0.00      0.00  -5820.92

     ewald   stress (kbar)  -3984.32      0.02      0.01
                                0.02  -3984.30     -0.00
                                0.01     -0.00 -16176.80

     hubbard stress (kbar)      0.00      0.00      0.00
                                0.00      0.00      0.00
                                0.00      0.00      0.00

     DFT-D   stress (kbar)      0.00      0.00      0.00
                                0.00      0.00      0.00
                                0.00      0.00      0.00

     XDM     stress (kbar)      0.00      0.00      0.00
                                0.00      0.00      0.00
                                0.00      0.00      0.00

     dft-nl  stress (kbar)      0.00      0.00      0.00
                                0.00      0.00      0.00
                                0.00      0.00      0.00

     TS-vdW  stress (kbar)      0.00      0.00      0.00
                                0.00      0.00      0.00
                                0.00      0.00      0.00

[...]

                                0.00      0.00      0.00

     Writing all to output data dir new_calculations/myprefix.save/

     General routines

     Parallel routines

     PAW routines

   This run was terminated on:  17:24:47  20May2023

   JOB DONE.