     Program PWSCF v.7.0 starts on 20May2023 at 17:40:55

     Reading input from espresso_14605.pwi
Warning: card &CELL ignored
Warning: card / ignored

     Current dimensions of program PWSCF are:
     Max number of different atomic species (ntypx) = 10
     Max number of k-points (npk) =  40000
     Max angular momentum in pseudopotentials (lmaxx) =  4
     file Ba.pbe-spn-kjpaw_psl.1.0.0.UPF: wavefunction(s)  5S 6S renormalized

     gamma-point specific algorithms are used

     Subspace diagonalization in iterative solution of the eigenvalue problem:
     a serial algorithm will be used

     Using Slab Decomposition

     bravais-lattice index     =            0
     lattice parameter (alat)  =       9.0667  a.u.
     unit-cell volume          =     734.9807 (a.u.)^3
     number of atoms/cell      =           11
     number of atomic types    =            3
     number of electrons       =        34.00
     number of Kohn-Sham states=           21
     kinetic-energy cutoff     =      30.0000  Ry
     charge density cutoff     =     240.0000  Ry
     scf convergence threshold =      1.0E-06
     mixing beta               =       0.7000
     number of iterations used =            8  plain     mixing
     Exchange-correlation= PBE
                           (   1   4   3   4   0   0   0)

     celldm(1)=   9.066715  celldm(2)=   0.000000  celldm(3)=   0.000000
     celldm(4)=   0.000000  celldm(5)=   0.000000  celldm(6)=   0.000000

     crystal axes: (cart. coord. in units of alat)
               a(1) = (   1.000000   0.000000   0.000000 )
               a(2) = (  -0.093047   0.995662   0.000000 )
               a(3) = (  -0.093047  -0.102148   0.990408 )

     reciprocal axes: (cart. coord. in units 2 pi/alat)
               b(1) = (  1.000000  0.093453  0.103587 )
               b(2) = (  0.000000  1.004357  0.103587 )
               b(3) = (  0.000000  0.000000  1.009685 )

     PseudoPot. # 1 for Ba read from file:
     /home/pragov/projects/rrg-bengioy-ad/pragov/crystal_structure_design/SSSP/Ba.pbe-spn-kjpaw_psl.1.0.0.UPF
     MD5 check sum: c432291d3e53af55f19d5e8866385beb
     Pseudo is Projector augmented-wave + core cor, Zval = 10.0
     Generated using "atomic" code by A. Dal Corso  v.5.1
     Shape of augmentation charge: PSQ
     Using radial grid of 1251 points,  7 beta functions with:
                l(1) =   0
                l(2) =   0
                l(3) =   0
                l(4) =   1
                l(5) =   1
                l(6) =   2
                l(7) =   2
     Q(r) pseudized with 0 coefficients

     PseudoPot. # 2 for Re read from file:
     /home/pragov/projects/rrg-bengioy-ad/pragov/crystal_structure_design/SSSP/Re_pbe_v1.2.uspp.F.UPF
     MD5 check sum: 85f993410f3e006da9d71c142b4ad953
     Pseudo is Ultrasoft + core correction, Zval = 15.0
     Generated by new atomic code, or converted to UPF format
     Using radial grid of  981 points,  8 beta functions with:
                l(1) =   0
                l(2) =   0
                l(3) =   1
                l(4) =   1
                l(5) =   2
                l(6) =   2
                l(7) =   3
                l(8) =   3
     Q(r) pseudized with  8 coefficients,  rinner =    1.150   1.150   1.150
                                                       1.150   1.150   1.150
                                                       1.150

     PseudoPot. # 3 for H  read from file:
     /home/pragov/projects/rrg-bengioy-ad/pragov/crystal_structure_design/SSSP/H.pbe-rrkjus_psl.1.0.0.UPF
     MD5 check sum: f52b6d4d1c606e5624b1dc7b2218f220
     Pseudo is Ultrasoft, Zval =  1.0
     Generated using "atomic" code by A. Dal Corso  v.5.1
     Using radial grid of  929 points,  2 beta functions with:
                l(1) =   0
                l(2) =   0
     Q(r) pseudized with 0 coefficients

     atomic species   valence    mass     pseudopotential
        Ba            10.00   137.32700     Ba( 1.00)
        Re            15.00   186.20700     Re( 1.00)
        H              1.00     1.00800     H ( 1.00)

     No symmetry found

                                    s                        frac. trans.

      isym =  1     identity

 cryst.   s( 1) = (     1          0          0      )
                  (     0          1          0      )
                  (     0          0          1      )

 cart.    s( 1) = (  1.0000000  0.0000000 -0.0000000 )
                  (  0.0000000  1.0000000 -0.0000000 )
                  (  0.0000000  0.0000000  1.0000000 )

   Cartesian axes

     site n.     atom                  positions (alat units)
         1           Ba  tau(   1) = (   0.0000000   0.0000000   0.0000000  )
         2           Re  tau(   2) = (   0.4069528   0.4467567   0.4952040  )
         3           H   tau(   3) = (   0.4069529   0.7064360   0.2609299  )
         4           H   tau(   4) = (   0.6655054   0.2112399   0.4952040  )
         5           H   tau(   5) = (   0.1484001   0.4225943   0.7294781  )
         6           H   tau(   6) = (   0.3436078   0.7493955   0.6692474  )
         7           H   tau(   7) = (   0.2595987   0.1244276   0.5120746  )
         8           H   tau(   8) = (   0.7141727   0.6234634   0.4783334  )
         9           H   tau(   9) = (   0.0997330   0.4816672   0.3211606  )
        10           H   tau(  10) = (   0.5543068   0.3969063   0.8141016  )
        11           H   tau(  11) = (   0.4702978   0.3046804   0.1763065  )

   Crystallographic axes

     site n.     atom                  positions (cryst. coord.)
         1           Ba  tau(   1) = (  0.0000000  0.0000000  0.0000000  )
         2           Re  tau(   2) = (  0.5000000  0.5000000  0.5000000  )
         3           H   tau(   3) = (  0.5000000  0.7365430  0.2634570  )
         4           H   tau(   4) = (  0.7365430  0.2634570  0.5000000  )
         5           H   tau(   5) = (  0.2634570  0.5000000  0.7365430  )
         6           H   tau(   6) = (  0.4829660  0.8219860  0.6757290  )
         7           H   tau(   7) = (  0.3242710  0.1780140  0.5170340  )
         8           H   tau(   8) = (  0.8219860  0.6757290  0.4829660  )
         9           H   tau(   9) = (  0.1780140  0.5170340  0.3242710  )
        10           H   tau(  10) = (  0.6757290  0.4829660  0.8219860  )
        11           H   tau(  11) = (  0.5170340  0.3242710  0.1780140  )

     number of k points=     1  Methfessel-Paxton smearing, width (Ry)=  0.0010
                       cart. coord. in units 2pi/alat
        k(    1) = (   0.0000000   0.0000000   0.0000000), wk =   2.0000000

                       cryst. coord.
        k(    1) = (   0.0000000   0.0000000   0.0000000), wk =   2.0000000

     Initial potential from superposition of free atoms

     starting charge      33.4829, renormalised to      34.0000

     negative rho (up, down):  1.326E-01 0.000E+00
     Starting wfcs are   27 randomized atomic wfcs
     Checking if some PAW data can be deallocated...

     Self-consistent Calculation

     iteration #  1     ecut=    30.00 Ry     beta= 0.70
     Davidson diagonalization with overlap

     ethr =  1.00E-02,  avg # of iterations =  5.0

     negative rho (up, down):  1.700E-01 0.000E+00

     total energy              =    -637.18396578 Ry
     estimated scf accuracy    <       0.63795574 Ry

[...]

     total energy              =    -637.26796238 Ry
     estimated scf accuracy    <       0.00000204 Ry

     iteration # 10     ecut=    30.00 Ry     beta= 0.70
     Davidson diagonalization with overlap

     ethr =  5.99E-09,  avg # of iterations =  2.0

[...]

     End of self-consistent calculation

          k = 0.0000 0.0000 0.0000 (  1022 PWs)   bands (ev):

   -73.3975 -35.3279 -35.2913 -35.2912 -22.0974  -7.2241  -7.2241  -7.1408
    -2.3475   1.5070   1.5071   2.4325   2.4327   3.2965   4.0244   4.0245
     4.0701   8.2709   8.2710   9.4418   9.9965

     occupation numbers
     1.0000   1.0000   1.0000   1.0000   1.0000   1.0000   1.0000   1.0000
     1.0000   1.0000   1.0000   1.0000   1.0000   1.0000   1.0000   1.0000
     1.0000  -0.0000  -0.0000  -0.0000  -0.0000

     the Fermi energy is     4.9034 ev

!    total energy              =    -637.26796256 Ry
     estimated scf accuracy    <       0.00000039 Ry
     smearing contrib. (-TS)   =       0.00000000 Ry
     internal energy E=F+TS    =    -637.26796256 Ry

     The total energy is F=E-TS. E is the sum of the following terms:
     one-electron contribution =    -109.03654375 Ry
     hartree contribution      =      62.70631122 Ry
     xc contribution           =     -79.19916141 Ry
     ewald contribution        =    -136.78662639 Ry
     one-center paw contrib.   =    -374.95194222 Ry
      -> PAW hartree energy AE =      28.39032646 Ry
      -> PAW hartree energy PS =     -28.27674644 Ry
      -> PAW xc energy AE      =    -394.17962064 Ry
      -> PAW xc energy PS      =      19.11409839 Ry
      -> total E_H with PAW    =      62.81989125 Ry
      -> total E_XC with PAW   =    -454.26468366 Ry

     convergence has been achieved in  10 iterations

     negative rho (up, down):  1.398E-01 0.000E+00

     Forces acting on atoms (cartesian axes, Ry/au):

     atom    1 type  1   force =     0.00000183    0.00004609   -0.00000280
     atom    2 type  2   force =    -0.00010736    0.00002911    0.00012977
     atom    3 type  3   force =     0.00001201    0.00238033   -0.00216931
     atom    4 type  3   force =     0.00239010   -0.00217636   -0.00001490
     atom    5 type  3   force =    -0.00236793   -0.00022901    0.00214030
     atom    6 type  3   force =    -0.01073924   -0.02002334    0.02649752
     atom    7 type  3   force =    -0.02929303    0.01626576    0.00977293
     atom    8 type  3   force =    -0.01891107    0.02765729   -0.00979467
     atom    9 type  3   force =     0.01893881    0.01255923   -0.02652722
     atom   10 type  3   force =     0.02931172   -0.00807097   -0.01720079
     atom   11 type  3   force =     0.01076416   -0.02843813    0.01716918
     The non-local contrib.  to forces
     atom    1 type  1   force =    -0.00003848    0.00106201   -0.00032792
     atom    2 type  2   force =    -0.00003204   -0.00004154    0.00003321
     atom    3 type  3   force =     0.00000029   -0.02179760    0.01966505
     atom    4 type  3   force =    -0.02170304    0.01976928   -0.00000042
     atom    5 type  3   force =     0.02170280    0.00202828   -0.01966525
     atom    6 type  3   force =     0.00497009   -0.02574229   -0.01003607
     atom    7 type  3   force =     0.00777238    0.02693344   -0.00150982
     atom    8 type  3   force =    -0.02609278   -0.01024439    0.00150979
     atom    9 type  3   force =     0.02609307   -0.00255298    0.01003558
     atom   10 type  3   force =    -0.00777245    0.00426497   -0.02663606
     atom   11 type  3   force =    -0.00496974    0.00734141    0.02663603
     The ionic contribution  to forces
     atom    1 type  1   force =    -0.00000000    0.00000000   -0.00000000
     atom    2 type  2   force =    -0.00000025    0.00000022    0.00000000
     atom    3 type  3   force =     0.00000042    1.79910787   -1.62309611
     atom    4 type  3   force =     1.79130339   -1.63170664    0.00000000
     atom    5 type  3   force =    -1.79130278   -0.16740216    1.62309611
     atom    6 type  3   force =    -0.48980521    1.92414784    1.13790507
     atom    7 type  3   force =    -0.97601709   -2.06113228    0.19027391
     atom    8 type  3   force =     1.96137494    1.16356521   -0.19027391
     atom    9 type  3   force =    -1.96137528    0.30864394   -1.13790507
     atom   10 type  3   force =     0.97601662   -0.40072822    2.03073613
     atom   11 type  3   force =     0.48980524   -0.93449578   -2.03073614
     The local contribution  to forces
     atom    1 type  1   force =     0.00000385   -0.00088681    0.00034431
     atom    2 type  2   force =    -0.00004335   -0.00001239   -0.00001454
     atom    3 type  3   force =     0.00000217   -1.77487212    1.60123177
     atom    4 type  3   force =    -1.76717408    1.60972451   -0.00000620
     atom    5 type  3   force =     1.76717110    0.16514738   -1.60123535
     atom    6 type  3   force =     0.47407601   -1.91836257   -1.10132679
     atom    7 type  3   force =     0.93891339    2.05041716   -0.17898183
     atom    8 type  3   force =    -1.95414995   -1.12561947    0.17897625
     atom    9 type  3   force =     1.95415419   -0.29351834    1.10132137
     atom   10 type  3   force =    -0.93891303    0.38839091   -2.02122822
     atom   11 type  3   force =    -0.47407066    0.89869616    2.02123241
     The core correction contribution to forces
     atom    1 type  1   force =    -0.00000152   -0.00001218    0.00000199
     atom    2 type  2   force =    -0.00000404   -0.00000832    0.00000482
     atom    3 type  3   force =     0.00000000    0.00000000    0.00000000
     atom    4 type  3   force =     0.00000000    0.00000000    0.00000000
     atom    5 type  3   force =     0.00000000    0.00000000    0.00000000
     atom    6 type  3   force =     0.00000000    0.00000000    0.00000000
     atom    7 type  3   force =     0.00000000    0.00000000    0.00000000
     atom    8 type  3   force =     0.00000000    0.00000000    0.00000000
     atom    9 type  3   force =     0.00000000    0.00000000    0.00000000
     atom   10 type  3   force =     0.00000000    0.00000000    0.00000000
     atom   11 type  3   force =     0.00000000    0.00000000    0.00000000
     The Hubbard contrib.    to forces
     atom    1 type  1   force =     0.00000000    0.00000000    0.00000000
     atom    2 type  2   force =     0.00000000    0.00000000    0.00000000
     atom    3 type  3   force =     0.00000000    0.00000000    0.00000000
     atom    4 type  3   force =     0.00000000    0.00000000    0.00000000
     atom    5 type  3   force =     0.00000000    0.00000000    0.00000000
     atom    6 type  3   force =     0.00000000    0.00000000    0.00000000
     atom    7 type  3   force =     0.00000000    0.00000000    0.00000000
     atom    8 type  3   force =     0.00000000    0.00000000    0.00000000
     atom    9 type  3   force =     0.00000000    0.00000000    0.00000000
     atom   10 type  3   force =     0.00000000    0.00000000    0.00000000
     atom   11 type  3   force =     0.00000000    0.00000000    0.00000000
     The SCF correction term to forces
     atom    1 type  1   force =     0.00002633   -0.00010774   -0.00000698
     atom    2 type  2   force =    -0.00003933    0.00010033    0.00012050
     atom    3 type  3   force =    -0.00000252   -0.00004863    0.00004420
     atom    4 type  3   force =    -0.00004783    0.00004569    0.00000593
     atom    5 type  3   force =     0.00004929    0.00000669   -0.00004099
     atom    6 type  3   force =     0.00000823   -0.00005712   -0.00003047
     atom    7 type  3   force =     0.00002665    0.00005664    0.00000489
     atom    8 type  3   force =    -0.00005493   -0.00003486    0.00000740
     atom    9 type  3   force =     0.00005518   -0.00000419    0.00003511
     atom   10 type  3   force =    -0.00003107    0.00001055   -0.00005842
     atom   11 type  3   force =    -0.00001233    0.00002928    0.00005108

     Total force =     0.085708     Total SCF correction =     0.000276

     Computing stress (Cartesian axis) and pressure

     negative rho (up, down):  1.398E-01 0.000E+00
          total   stress  (Ry/bohr**3)                   (kbar)     P=       43.58
   0.00031302  -0.00008017  -0.00008895           46.05      -11.79      -13.08
  -0.00008017   0.00029786  -0.00009759          -11.79       43.82      -14.36
  -0.00008895  -0.00009759   0.00027781          -13.08      -14.36       40.87

     kinetic stress (kbar)  10401.32     -3.72     -4.13
                               -3.72  10400.62     -4.52
                               -4.13     -4.52  10399.69

     local   stress (kbar)    336.92   -773.34   -857.22
                             -773.34    192.36   -941.06
                             -857.22   -941.06     -1.75

     nonloc. stress (kbar)  -2544.84      2.03      2.25
                                2.03  -2544.47      2.47
                                2.25      2.47  -2543.96

     hartree stress (kbar)   4129.16    260.99    289.31
                              260.99   4177.95    317.60
                              289.31    317.60   4243.45

     exc-cor stress (kbar)   6774.57      0.82      0.91
                                0.82   6774.72      1.00
                                0.91      1.00   6774.93

     corecor stress (kbar)  -9820.87      0.43      0.48
                                0.43  -9820.79      0.53
                                0.48      0.53  -9820.68

     ewald   stress (kbar)  -9230.21    500.99    555.32
                              500.99  -9136.57    609.63
                              555.32    609.63  -9010.82

     hubbard stress (kbar)      0.00      0.00      0.00
                                0.00      0.00      0.00
                                0.00      0.00      0.00

     DFT-D   stress (kbar)      0.00      0.00      0.00
                                0.00      0.00      0.00
                                0.00      0.00      0.00

     XDM     stress (kbar)      0.00      0.00      0.00
                                0.00      0.00      0.00
                                0.00      0.00      0.00

     dft-nl  stress (kbar)      0.00      0.00      0.00
                                0.00      0.00      0.00
                                0.00      0.00      0.00

     TS-vdW  stress (kbar)      0.00      0.00      0.00
                                0.00      0.00      0.00
                                0.00      0.00      0.00

[...]

                                0.00      0.00      0.00

     Writing all to output data dir new_calculations/myprefix.save/

     General routines

     Parallel routines

     PAW routines

   This run was terminated on:  17:41: 4  20May2023

   JOB DONE.