     Program PWSCF v.7.0 starts on 21May2023 at  2: 3:57

     Reading input from espresso_11754.pwi
Warning: card &CELL ignored
Warning: card / ignored

     Current dimensions of program PWSCF are:
     Max number of different atomic species (ntypx) = 10
     Max number of k-points (npk) =  40000
     Max angular momentum in pseudopotentials (lmaxx) =  4
     file Nb.pbe-spn-kjpaw_psl.0.3.0.UPF: wavefunction(s)  4S 4P renormalized

     gamma-point specific algorithms are used
     Message from routine setup:
     using ibrav=0 with symmetry is DISCOURAGED, use correct ibrav instead

     Subspace diagonalization in iterative solution of the eigenvalue problem:
     a serial algorithm will be used

     Using Slab Decomposition

     bravais-lattice index     =            0
     lattice parameter (alat)  =       5.7012  a.u.
     unit-cell volume          =     138.3173 (a.u.)^3
     number of atoms/cell      =            2
     number of atomic types    =            2
     number of electrons       =        14.00
     number of Kohn-Sham states=           11
     kinetic-energy cutoff     =      30.0000  Ry
     charge density cutoff     =     240.0000  Ry
     scf convergence threshold =      1.0E-06
     mixing beta               =       0.7000
     number of iterations used =            8  plain     mixing
     Exchange-correlation= PBE
                           (   1   4   3   4   0   0   0)

     celldm(1)=   5.701250  celldm(2)=   0.000000  celldm(3)=   0.000000
     celldm(4)=   0.000000  celldm(5)=   0.000000  celldm(6)=   0.000000

     crystal axes: (cart. coord. in units of alat)
               a(1) = (   1.000000   0.000000   0.000000 )
               a(2) = (  -0.134828   0.990869   0.000000 )
               a(3) = (   0.432586   0.495435   0.753269 )

     reciprocal axes: (cart. coord. in units 2 pi/alat)
               b(1) = (  1.000000  0.136070 -0.663774 )
               b(2) = (  0.000000  1.009215 -0.663774 )
               b(3) = (  0.000000  0.000000  1.327547 )

     PseudoPot. # 1 for Nb read from file:
     /home/pragov/projects/rrg-bengioy-ad/pragov/crystal_structure_design/SSSP/Nb.pbe-spn-kjpaw_psl.0.3.0.UPF
     MD5 check sum: 411d72ad547312f8017e2943ceca08cc
     Pseudo is Projector augmented-wave + core cor, Zval = 13.0
     Generated using "atomic" code by A. Dal Corso  v.5.0.99 svn rev. 10869
     Shape of augmentation charge: PSQ
     Using radial grid of 1227 points,  6 beta functions with:
                l(1) =   0
                l(2) =   0
                l(3) =   1
                l(4) =   1
                l(5) =   2
                l(6) =   2
     Q(r) pseudized with 0 coefficients

     PseudoPot. # 2 for H  read from file:
     /home/pragov/projects/rrg-bengioy-ad/pragov/crystal_structure_design/SSSP/H.pbe-rrkjus_psl.1.0.0.UPF
     MD5 check sum: f52b6d4d1c606e5624b1dc7b2218f220
     Pseudo is Ultrasoft, Zval =  1.0
     Generated using "atomic" code by A. Dal Corso  v.5.1
     Using radial grid of  929 points,  2 beta functions with:
                l(1) =   0
                l(2) =   0
     Q(r) pseudized with 0 coefficients

     atomic species   valence    mass     pseudopotential
        Nb            13.00    92.90637     Nb( 1.00)
        H              1.00     1.00800     H ( 1.00)

      4 Sym. Ops., with inversion, found

                                    s                        frac. trans.

      isym =  1     identity

 cryst.   s( 1) = (     1          0          0      )
                  (     0          1          0      )
                  (     0          0          1      )

 cart.    s( 1) = (  1.0000000 -0.0000000  0.0000000 )
                  (  0.0000000  1.0000000  0.0000000 )
                  (  0.0000000  0.0000000  1.0000000 )

      isym =  2     180 deg rotation - cart. axis [0,0,1]

[...]

      isym =  3     inversion

[...]

      isym =  4     inv. 180 deg rotation - cart. axis [0,0,1]

 cryst.   s( 4) = (     1          0          0      )
                  (     0          1          0      )
                  (     1          1         -1      )

 cart.    s( 4) = (  1.0000000 -0.0000000  0.0000000 )
                  (  0.0000000  1.0000000  0.0000000 )
                  (  0.0000000  0.0000000 -1.0000000 )

   Cartesian axes

     site n.     atom                  positions (alat units)
         1           Nb  tau(   1) = (   0.0000000   0.0000000   0.0000000  )
         2           H   tau(   2) = (   0.4325862   0.4954345   0.0000000  )

   Crystallographic axes

     site n.     atom                  positions (cryst. coord.)
         1           Nb  tau(   1) = (  0.0000000  0.0000000  0.0000000  )
         2           H   tau(   2) = (  0.5000000  0.5000000  0.0000000  )

     number of k points=     1  Methfessel-Paxton smearing, width (Ry)=  0.0010
                       cart. coord. in units 2pi/alat
        k(    1) = (   0.0000000   0.0000000   0.0000000), wk =   2.0000000

                       cryst. coord.
        k(    1) = (   0.0000000   0.0000000   0.0000000), wk =   2.0000000

     Check: negative core charge=   -0.000022

     Initial potential from superposition of free atoms

     starting charge      13.9979, renormalised to      14.0000
     Starting wfcs are   11 randomized atomic wfcs
     Checking if some PAW data can be deallocated...

     Self-consistent Calculation

     iteration #  1     ecut=    30.00 Ry     beta= 0.70
     Davidson diagonalization with overlap

     ethr =  1.00E-02,  avg # of iterations =  2.0

     total energy              =    -335.21397031 Ry
     estimated scf accuracy    <       0.19595293 Ry

[...]

     total energy              =    -335.22497305 Ry
     estimated scf accuracy    <       0.00005801 Ry

     iteration #  6     ecut=    30.00 Ry     beta= 0.70
     Davidson diagonalization with overlap

     ethr =  4.14E-07,  avg # of iterations =  1.0

     End of self-consistent calculation

          k = 0.0000 0.0000 0.0000 (   186 PWs)   bands (ev):

   -35.6137 -11.7698 -11.7698 -10.5247   7.1521  17.9225  17.9225  18.5306
    19.0488  20.4354  26.7225

     occupation numbers
     1.0000   1.0000   1.0000   1.0000   1.0000   1.0000   1.0000  -0.0000
    -0.0000  -0.0000  -0.0000

     the Fermi energy is    18.0543 ev

!    total energy              =    -335.22498059 Ry
     estimated scf accuracy    <       0.00000018 Ry
     smearing contrib. (-TS)   =       0.00000000 Ry
     internal energy E=F+TS    =    -335.22498059 Ry

     The total energy is F=E-TS. E is the sum of the following terms:
     one-electron contribution =     -15.82266925 Ry
     hartree contribution      =      17.39142438 Ry
     xc contribution           =     -30.01636875 Ry
     ewald contribution        =     -98.27505516 Ry
     one-center paw contrib.   =    -208.50231182 Ry
      -> PAW hartree energy AE =      75.04207953 Ry
      -> PAW hartree energy PS =     -74.66264559 Ry
      -> PAW xc energy AE      =    -236.63796323 Ry
      -> PAW xc energy PS      =      27.75621747 Ry
      -> total E_H with PAW    =      17.77085831 Ry
      -> total E_XC with PAW   =    -238.89811450 Ry

     convergence has been achieved in   6 iterations

     Forces acting on atoms (cartesian axes, Ry/au):

     atom    1 type  1   force =     0.00000000    0.00000000    0.00000000
     atom    2 type  2   force =     0.00000000    0.00000000   -0.00000000
     The non-local contrib.  to forces
     atom    1 type  1   force =     0.00000000    0.00000000    0.00000000
     atom    2 type  2   force =     0.00000000    0.00000000    0.00000000
     The ionic contribution  to forces
     atom    1 type  1   force =    -0.00000000    0.00000000   -0.00000000
     atom    2 type  2   force =     0.00000000   -0.00000000    0.00000000
     The local contribution  to forces
     atom    1 type  1   force =     0.00030126    0.00024018    0.00027781
     atom    2 type  2   force =    -0.00001113   -0.00001428   -0.00000245
     The core correction contribution to forces
     atom    1 type  1   force =    -0.00000964   -0.00000157   -0.00000506
     atom    2 type  2   force =     0.00000000    0.00000000    0.00000000
     The Hubbard contrib.    to forces
     atom    1 type  1   force =     0.00000000    0.00000000    0.00000000
     atom    2 type  2   force =     0.00000000    0.00000000    0.00000000
     The SCF correction term to forces
     atom    1 type  1   force =    -0.00022877   -0.00015709   -0.00018025
     atom    2 type  2   force =     0.00000728    0.00000998    0.00000459

     Total force =     0.000000     Total SCF correction =     0.000331

     Computing stress (Cartesian axis) and pressure

          total   stress  (Ry/bohr**3)                   (kbar)     P=      583.30
   0.00371330  -0.00126197   0.00000000          546.25     -185.64        0.00
  -0.00126197   0.00336837   0.00000000         -185.64      495.50        0.00
   0.00000000   0.00000000   0.00481381            0.00        0.00      708.14

     kinetic stress (kbar)  32674.60   2102.39      0.00
                             2102.39  33246.59      0.00
                                0.00      0.00  30838.65

     local   stress (kbar)  -8809.09  -4456.25     -0.07
                            -4456.25 -10022.16     -0.10
                               -0.07     -0.10  -4918.33

     nonloc. stress (kbar)  11622.03   -273.61      0.00
                             -273.61  11547.46      0.00
                                0.00      0.00  11861.00

     hartree stress (kbar)   6385.36   1098.48      0.01
                             1098.48   6684.64      0.02
                                0.01      0.02   5426.36

     exc-cor stress (kbar)   9430.33     31.68      0.00
                               31.68   9438.96      0.00
                                0.00      0.00   9402.67

     corecor stress (kbar) -16182.92    -13.86     -0.00
                              -13.86 -16186.64     -0.01
                               -0.00     -0.01 -16170.78

     ewald   stress (kbar) -34574.06   1325.51      0.00
                             1325.51 -34213.34      0.00
                                0.00      0.00 -35731.43

     hubbard stress (kbar)      0.00      0.00      0.00
                                0.00      0.00      0.00
                                0.00      0.00      0.00

     DFT-D   stress (kbar)      0.00      0.00      0.00
                                0.00      0.00      0.00
                                0.00      0.00      0.00

     XDM     stress (kbar)      0.00      0.00      0.00
                                0.00      0.00      0.00
                                0.00      0.00      0.00

     dft-nl  stress (kbar)      0.00      0.00      0.00
                                0.00      0.00      0.00
                                0.00      0.00      0.00

     TS-vdW  stress (kbar)      0.00      0.00      0.00
                                0.00      0.00      0.00
                                0.00      0.00      0.00

[...]

                                0.00      0.00      0.00

     Writing all to output data dir new_calculations/myprefix.save/

     General routines

     Parallel routines

     PAW routines

   This run was terminated on:   2: 4:12  21May2023

   JOB DONE.