     Program PWSCF v.7.0 starts on 21May2023 at 17:46:40

     Reading input from espresso_26939.pwi
Warning: card &CELL ignored
Warning: card / ignored

     Current dimensions of program PWSCF are:
     Max number of different atomic species (ntypx) = 10
     Max number of k-points (npk) =  40000
     Max angular momentum in pseudopotentials (lmaxx) =  4
     file O.pbe-n-kjpaw_psl.0.1.UPF: wavefunction(s)  2P renormalized

     gamma-point specific algorithms are used
     Message from routine setup:
     using ibrav=0 with symmetry is DISCOURAGED, use correct ibrav instead

     Subspace diagonalization in iterative solution of the eigenvalue problem:
     a serial algorithm will be used

     Using Slab Decomposition

     bravais-lattice index     =            0
     lattice parameter (alat)  =       6.9884  a.u.
     unit-cell volume          =     926.3998 (a.u.)^3
     number of atoms/cell      =            9
     number of atomic types    =            3
     number of electrons       =        72.00
     number of Kohn-Sham states=           43
     kinetic-energy cutoff     =      30.0000  Ry
     charge density cutoff     =     240.0000  Ry
     scf convergence threshold =      1.0E-06
     mixing beta               =       0.7000
     number of iterations used =            8  plain     mixing
     Exchange-correlation= SLA  PW   PBX  PBC
                           (   1   4   3   4   0   0   0)

     celldm(1)=   6.988425  celldm(2)=   0.000000  celldm(3)=   0.000000
     celldm(4)=   0.000000  celldm(5)=   0.000000  celldm(6)=   0.000000

     crystal axes: (cart. coord. in units of alat)
               a(1) = (   1.000000   0.000000   0.000000 )
               a(2) = (  -0.500000   1.416430   0.000000 )
               a(3) = (   0.000000  -0.434963   1.916309 )

     reciprocal axes: (cart. coord. in units 2 pi/alat)
               b(1) = (  1.000000  0.353000  0.080124 )
               b(2) = (  0.000000  0.706000  0.160248 )
               b(3) = (  0.000000  0.000000  0.521837 )

     PseudoPot. # 1 for Ca read from file:
     /home/pragov/projects/rrg-bengioy-ad/pragov/crystal_structure_design/SSSP/Ca_pbe_v1.uspp.F.UPF
     MD5 check sum: 403a4c14b9e4d4dfdc3024c9a3812218
     Pseudo is Ultrasoft + core correction, Zval = 10.0
     Generated by new atomic code, or converted to UPF format
     Using radial grid of  845 points,  6 beta functions with:
                l(1) =   0
                l(2) =   0
                l(3) =   1
                l(4) =   1
                l(5) =   2
                l(6) =   2
     Q(r) pseudized with  8 coefficients,  rinner =    1.500   1.500   1.500
                                                       1.500   1.500

     PseudoPot. # 2 for V  read from file:
     /home/pragov/projects/rrg-bengioy-ad/pragov/crystal_structure_design/SSSP/v_pbe_v1.4.uspp.F.UPF
     MD5 check sum: 22b79981416ebb76fdaf5b1b8640f6fb
     Pseudo is Ultrasoft + core correction, Zval = 13.0
     Generated by new atomic code, or converted to UPF format
     Using radial grid of  853 points,  6 beta functions with:
                l(1) =   0
                l(2) =   0
                l(3) =   1
                l(4) =   1
                l(5) =   2
                l(6) =   2
     Q(r) pseudized with  8 coefficients,  rinner =    1.100   1.100   1.100
                                                       1.100   1.100

     PseudoPot. # 3 for O  read from file:
     /home/pragov/projects/rrg-bengioy-ad/pragov/crystal_structure_design/SSSP/O.pbe-n-kjpaw_psl.0.1.UPF
     MD5 check sum: 0234752ac141de4415c5fc33072bef88
     Pseudo is Projector augmented-wave + core cor, Zval =  6.0
     Generated using "atomic" code by A. Dal Corso  v.5.0.99 svn rev. 10869
     Shape of augmentation charge: BESSEL
     Using radial grid of 1095 points,  4 beta functions with:
                l(1) =   0
                l(2) =   0
                l(3) =   1
                l(4) =   1
     Q(r) pseudized with 0 coefficients

     atomic species   valence    mass     pseudopotential
        Ca            10.00    40.07800     Ca( 1.00)
        V             13.00    50.94150     V ( 1.00)
        O              6.00    15.99900     O ( 1.00)

      4 Sym. Ops., with inversion, found

                                    s                        frac. trans.

      isym =  1     identity

 cryst.   s( 1) = (     1          0          0      )
                  (     0          1          0      )
                  (     0          0          1      )

 cart.    s( 1) = (  1.0000000  0.0000000  0.0000000 )
                  (  0.0000000  1.0000000  0.0000000 )
                  (  0.0000000  0.0000000  1.0000000 )

      isym =  2     180 deg rotation - cart. axis [1,0,0]

[...]

      isym =  3     inversion

[...]

      isym =  4     inv. 180 deg rotation - cart. axis [1,0,0]

 cryst.   s( 4) = (    -1          0          0      )
                  (     1          1          0      )
                  (     0          0          1      )

 cart.    s( 4) = ( -1.0000000  0.0000002  0.0000000 )
                  (  0.0000000  1.0000000  0.0000000 )
                  (  0.0000000  0.0000000  1.0000000 )

   Cartesian axes

     site n.     atom                  positions (alat units)
         1           Ca  tau(   1) = (   0.0000000   0.0000000   0.0000000  )
         2           V   tau(   2) = (   0.0000011   0.3910509   1.2885414  )
         3           V   tau(   3) = (   0.4999991   0.5904157   0.6277674  )
         4           O   tau(   4) = (   0.4999996   0.4617812   1.1561302  )
         5           O   tau(   5) = (   0.0000006   0.5196859   0.7601767  )
         6           O   tau(   6) = (  -0.0000004   0.6649429   1.6620702  )
         7           O   tau(   7) = (   0.0000005  -0.0376162   1.4205750  )
         8           O   tau(   8) = (   0.5000005   0.3165241   0.2542367  )
         9           O   tau(   9) = (   0.4999996   1.0190833   0.4957318  )

   Crystallographic axes

     site n.     atom                  positions (cryst. coord.)
         1           Ca  tau(   1) = (  0.0000000  0.0000000  0.0000000  )
         2           V   tau(   2) = (  0.2412850  0.4825680  0.6724080  )
         3           V   tau(   3) = (  0.7587150  0.5174320  0.3275920  )
         4           O   tau(   4) = (  0.7556420  0.5112850  0.6033110  )
         5           O   tau(   5) = (  0.2443580  0.4887150  0.3966880  )
         6           O   tau(   6) = (  0.3678960  0.7357930  0.8673290  )
         7           O   tau(   7) = (  0.1005440  0.2010870  0.7413080  )
         8           O   tau(   8) = (  0.6321040  0.2642070  0.1326700  )
         9           O   tau(   9) = (  0.8994560  0.7989130  0.2586910  )

     number of k points=     1  Methfessel-Paxton smearing, width (Ry)=  0.0010
                       cart. coord. in units 2pi/alat
        k(    1) = (   0.0000000   0.0000000   0.0000000), wk =   2.0000000

                       cryst. coord.
        k(    1) = (   0.0000000   0.0000000   0.0000000), wk =   2.0000000

     Check: negative core charge=   -0.000014

     Initial potential from superposition of free atoms

     starting charge      71.9921, renormalised to      72.0000

     negative rho (up, down):  8.080E-04 0.000E+00
     Starting wfcs are   54 randomized atomic wfcs
     Checking if some PAW data can be deallocated...

     Self-consistent Calculation

     iteration #  1     ecut=    30.00 Ry     beta= 0.70
     Davidson diagonalization with overlap

     ethr =  1.00E-02,  avg # of iterations =  2.0

     negative rho (up, down):  5.730E-03 0.000E+00

     total energy              =    -612.21418799 Ry
     estimated scf accuracy    <       5.02150615 Ry

[...]

     total energy              =    -615.40870439 Ry
     estimated scf accuracy    <       0.00000188 Ry

     iteration # 14     ecut=    30.00 Ry     beta= 0.70
     Davidson diagonalization with overlap

     ethr =  2.61E-09,  avg # of iterations =  3.0

[...]

     End of self-consistent calculation

          k = 0.0000 0.0000 0.0000 (  1282 PWs)   bands (ev):

   -60.4952 -60.4854 -34.4604 -34.4527 -34.3649 -34.3275 -34.3269 -34.2924
   -34.2908 -15.6151 -15.5000 -15.2759 -13.8445 -12.7765 -12.7115 -12.4095
   -12.3874 -12.1770  -0.6264  -0.5396   0.1655   0.5439   0.5708   1.0209
     1.2282   1.2334   1.3736   1.4668   1.5427   2.0347   2.1259   2.4025
     2.6394   2.7289   3.0387   3.3794   6.2400   6.2902   7.1919   7.2612
     7.4819   7.5699   8.1563

     occupation numbers
     1.0000   1.0000   1.0000   1.0000   1.0000   1.0000   1.0000   1.0000
     1.0000   1.0000   1.0000   1.0000   1.0000   1.0000   1.0000   1.0000
     1.0000   1.0000   1.0000   1.0000   1.0000   1.0000   1.0000   1.0000
     1.0000   1.0000   1.0000   1.0000   1.0000   1.0000   1.0000   1.0000
     1.0000   1.0000   1.0000   1.0000  -0.0000  -0.0000  -0.0000  -0.0000
    -0.0000  -0.0000  -0.0000

     the Fermi energy is     3.9846 ev

!    total energy              =    -615.40870413 Ry
     estimated scf accuracy    <       0.00000091 Ry
     smearing contrib. (-TS)   =       0.00000000 Ry
     internal energy E=F+TS    =    -615.40870413 Ry

     The total energy is F=E-TS. E is the sum of the following terms:
     one-electron contribution =    -377.51850858 Ry
     hartree contribution      =     212.83805317 Ry
     xc contribution           =     -95.31191703 Ry
     ewald contribution        =    -298.26396069 Ry
     one-center paw contrib.   =     -57.15237100 Ry
      -> PAW hartree energy AE =     177.31626441 Ry
      -> PAW hartree energy PS =    -176.70061554 Ry
      -> PAW xc energy AE      =    -102.95881112 Ry
      -> PAW xc energy PS      =      45.19079124 Ry
      -> total E_H with PAW    =     213.45370205 Ry
      -> total E_XC with PAW   =    -153.07993690 Ry

     convergence has been achieved in  14 iterations

     negative rho (up, down):  2.831E-03 0.000E+00

     Forces acting on atoms (cartesian axes, Ry/au):

     atom    1 type  1   force =     0.00000000   -0.00000000   -0.00000000
     atom    2 type  2   force =     0.00000000   -0.10195549    0.24423336
     atom    3 type  2   force =    -0.00000000    0.10195549   -0.24423336
     atom    4 type  3   force =     0.00000000    0.06736243   -0.10574531
     atom    5 type  3   force =     0.00000000   -0.06736243    0.10574531
     atom    6 type  3   force =     0.00000000   -0.00921737   -0.04468334
     atom    7 type  3   force =     0.00000000    0.06648834   -0.04822502
     atom    8 type  3   force =     0.00000000    0.00921737    0.04468334
     atom    9 type  3   force =     0.00000000   -0.06648834    0.04822502
     The non-local contrib.  to forces
     atom    1 type  1   force =     0.00000000    0.00000000    0.00000000
     atom    2 type  2   force =     0.00000000   -0.03683200    0.00841361
     atom    3 type  2   force =     0.00000000    0.03683200   -0.00841361
     atom    4 type  3   force =     0.00000000   -0.34928293    0.47495878
     atom    5 type  3   force =     0.00000000    0.34928293   -0.47495878
     atom    6 type  3   force =     0.00000000   -0.38372306   -0.55901729
     atom    7 type  3   force =     0.00000000    0.86568830   -0.01426203
     atom    8 type  3   force =     0.00000000    0.38372306    0.55901729
     atom    9 type  3   force =     0.00000000   -0.86568830    0.01426203
     The ionic contribution  to forces
     atom    1 type  1   force =     0.00000000    0.00000463   -0.00002205
     atom    2 type  2   force =    -0.00009067   -2.32352202    4.14884533
     atom    3 type  2   force =     0.00009067    2.32354155   -4.14891092
     atom    4 type  3   force =     0.00014554   -0.17673121    4.39092914
     atom    5 type  3   force =    -0.00014554    0.17672221   -4.39089306
     atom    6 type  3   force =    -0.00002493    5.65808647    9.57660691
     atom    7 type  3   force =    -0.00001518  -12.94116094    2.10874259
     atom    8 type  3   force =     0.00002493   -5.65798701   -9.57655999
     atom    9 type  3   force =     0.00001518   12.94104632   -2.10873796
     The local contribution  to forces
     atom    1 type  1   force =    -0.00001235    0.00104754   -0.00046636
     atom    2 type  2   force =     0.00008479    2.25288686   -3.91262996
     atom    3 type  2   force =    -0.00008977   -2.25638731    3.91285251
     atom    4 type  3   force =    -0.00013502    0.58868605   -4.96434517
     atom    5 type  3   force =     0.00013701   -0.58900533    4.96473998
     atom    6 type  3   force =     0.00002151   -5.28660985   -9.06647592
     atom    7 type  3   force =     0.00002122   12.14806439   -2.14193917
     atom    8 type  3   force =    -0.00002169    5.28618900    9.06564912
     atom    9 type  3   force =    -0.00001479  -12.14800286    2.14196871
     The core correction contribution to forces
     atom    1 type  1   force =    -0.00000042    0.00000444   -0.00000237
     atom    2 type  2   force =    -0.00000135    0.00326719   -0.00012243
     atom    3 type  2   force =     0.00000142   -0.00331685    0.00012175
     atom    4 type  3   force =    -0.00000023    0.00452040   -0.00711086
     atom    5 type  3   force =     0.00000022   -0.00451753    0.00710688
     atom    6 type  3   force =    -0.00000142    0.00290345    0.00382465
     atom    7 type  3   force =     0.00000114   -0.00610526   -0.00071680
     atom    8 type  3   force =     0.00000143   -0.00290198   -0.00382148
     atom    9 type  3   force =    -0.00000110    0.00610407    0.00071570
     The Hubbard contrib.    to forces
     atom    1 type  1   force =     0.00000000    0.00000000    0.00000000
     atom    2 type  2   force =     0.00000000    0.00000000    0.00000000
     atom    3 type  2   force =     0.00000000    0.00000000    0.00000000
     atom    4 type  3   force =     0.00000000    0.00000000    0.00000000
     atom    5 type  3   force =     0.00000000    0.00000000    0.00000000
     atom    6 type  3   force =     0.00000000    0.00000000    0.00000000
     atom    7 type  3   force =     0.00000000    0.00000000    0.00000000
     atom    8 type  3   force =     0.00000000    0.00000000    0.00000000
     atom    9 type  3   force =     0.00000000    0.00000000    0.00000000
     The SCF correction term to forces
     atom    1 type  1   force =     0.00000390   -0.00102209    0.00051420
     atom    2 type  2   force =     0.00000787    0.00221259   -0.00033734
     atom    3 type  2   force =    -0.00000370    0.00125422    0.00005274
     atom    4 type  3   force =    -0.00000220    0.00029294   -0.00030177
     atom    5 type  3   force =     0.00000141    0.00027812   -0.00037428
     atom    6 type  3   force =     0.00000222    0.00013095    0.00044218
     atom    7 type  3   force =    -0.00000315   -0.00009238   -0.00007520
     atom    8 type  3   force =    -0.00000120    0.00019962    0.00046227
     atom    9 type  3   force =    -0.00000348   -0.00004179   -0.00000905

     Total force =     0.434954     Total SCF correction =     0.002962

     Computing stress (Cartesian axis) and pressure

     negative rho (up, down):  2.831E-03 0.000E+00
          total   stress  (Ry/bohr**3)                   (kbar)     P=     -374.00
  -0.00224999   0.00000000   0.00000000         -330.98        0.00        0.00
   0.00000000  -0.00297094  -0.00031481            0.00     -437.04      -46.31
   0.00000000  -0.00031481  -0.00240630            0.00      -46.31     -353.98

     kinetic stress (kbar)  20592.30     -0.00     -0.00
                               -0.00  20949.81    -31.21
                               -0.00    -31.21  20822.38

     local   stress (kbar) -25995.07     -0.02      0.12
                               -0.02   2403.07   2398.37
                                0.12   2398.37 -19506.18

     nonloc. stress (kbar)   2544.22     -0.00     -0.00
                               -0.00   2355.06     -9.76
                               -0.00     -9.76   2427.44

     hartree stress (kbar)  16626.70      0.01     -0.04
                                0.01   3671.00  -1059.24
                               -0.04  -1059.24  13499.33

     exc-cor stress (kbar)  -3227.24      0.00     -0.00
                                0.00  -3220.32     -0.52
                               -0.00     -0.52  -3221.94

     corecor stress (kbar)  -1493.80      0.00     -0.00
                                0.00  -1493.97      0.31
                               -0.00      0.31  -1492.79

     ewald   stress (kbar)  -9378.09      0.02     -0.08
                                0.02 -25101.70  -1344.26
                               -0.08  -1344.26 -12882.21

     hubbard stress (kbar)      0.00      0.00      0.00
                                0.00      0.00      0.00
                                0.00      0.00      0.00

     DFT-D   stress (kbar)      0.00      0.00      0.00
                                0.00      0.00      0.00
                                0.00      0.00      0.00

     XDM     stress (kbar)      0.00      0.00      0.00
                                0.00      0.00      0.00
                                0.00      0.00      0.00

     dft-nl  stress (kbar)      0.00      0.00      0.00
                                0.00      0.00      0.00
                                0.00      0.00      0.00

     TS-vdW  stress (kbar)      0.00      0.00      0.00
                                0.00      0.00      0.00
                                0.00      0.00      0.00

[...]

                                0.00      0.00      0.00

     Writing all to output data dir new_calculations/myprefix.save/

     General routines

     Parallel routines

     PAW routines

   This run was terminated on:  17:46:53  21May2023

   JOB DONE.