     Program PWSCF v.7.0 starts on 20May2023 at  8: 4:51

     Reading input from espresso_342.pwi
Warning: card &CELL ignored
Warning: card / ignored

     Current dimensions of program PWSCF are:
     Max number of different atomic species (ntypx) = 10
     Max number of k-points (npk) =  40000
     Max angular momentum in pseudopotentials (lmaxx) =  4

     gamma-point specific algorithms are used
     Message from routine setup:
     using ibrav=0 with symmetry is DISCOURAGED, use correct ibrav instead

     Subspace diagonalization in iterative solution of the eigenvalue problem:
     a serial algorithm will be used

     Using Slab Decomposition

     bravais-lattice index     =            0
     lattice parameter (alat)  =       9.5806  a.u.
     unit-cell volume          =     709.7078 (a.u.)^3
     number of atoms/cell      =            9
     number of atomic types    =            3
     number of electrons       =        60.00
     number of Kohn-Sham states=           36
     kinetic-energy cutoff     =      30.0000  Ry
     charge density cutoff     =     240.0000  Ry
     scf convergence threshold =      1.0E-06
     mixing beta               =       0.7000
     number of iterations used =            8  plain     mixing
     Exchange-correlation=  SLA  PW   PBX  PBC
                           (   1   4   3   4   0   0   0)

     celldm(1)=   9.580626  celldm(2)=   0.000000  celldm(3)=   0.000000
     celldm(4)=   0.000000  celldm(5)=   0.000000  celldm(6)=   0.000000

     crystal axes: (cart. coord. in units of alat)
               a(1) = (   1.000000   0.000000   0.000000 )
               a(2) = (  -0.500000   0.866025   0.000000 )
               a(3) = (   0.000000   0.000000   0.931896 )

     reciprocal axes: (cart. coord. in units 2 pi/alat)
               b(1) = (  1.000000  0.577350  0.000000 )
               b(2) = (  0.000000  1.154701  0.000000 )
               b(3) = (  0.000000  0.000000  1.073081 )

     PseudoPot. # 1 for Li read from file:
     /home/pragov/projects/rrg-bengioy-ad/pragov/crystal_structure_design/SSSP/li_pbe_v1.4.uspp.F.UPF
     MD5 check sum: e912e257baa3777c20ea3d68f190483c
     Pseudo is Ultrasoft, Zval =  3.0
     Generated by new atomic code, or converted to UPF format
     Using radial grid of  751 points,  5 beta functions with:
                l(1) =   0
                l(2) =   0
                l(3) =   0
                l(4) =   1
                l(5) =   1
     Q(r) pseudized with 10 coefficients,  rinner =    1.150   1.150   1.150

     PseudoPot. # 2 for Zr read from file:
     /home/pragov/projects/rrg-bengioy-ad/pragov/crystal_structure_design/SSSP/Zr_pbe_v1.uspp.F.UPF
     MD5 check sum: 5db81b1e868ab7776c4564c113de050b
     Pseudo is Ultrasoft + core correction, Zval = 12.0
     Generated by new atomic code, or converted to UPF format
     Using radial grid of  887 points,  6 beta functions with:
                l(1) =   0
                l(2) =   0
                l(3) =   1
                l(4) =   1
                l(5) =   2
                l(6) =   2
     Q(r) pseudized with  6 coefficients,  rinner =    1.200   1.200   1.200
                                                       1.200   1.200

     PseudoPot. # 3 for F  read from file:
     /home/pragov/projects/rrg-bengioy-ad/pragov/crystal_structure_design/SSSP/f_pbe_v1.4.uspp.F.UPF
     MD5 check sum: 4c38b6a325caf53ec0e86aed9459de46
     Pseudo is Ultrasoft, Zval =  7.0
     Generated by new atomic code, or converted to UPF format
     Using radial grid of  799 points,  4 beta functions with:
                l(1) =   0
                l(2) =   0
                l(3) =   1
                l(4) =   1
     Q(r) pseudized with  8 coefficients,  rinner =    0.950   0.950   0.950

     atomic species   valence    mass     pseudopotential
        Li             3.00     6.94000     Li( 1.00)
        Zr            12.00    91.22400     Zr( 1.00)
        F              7.00    18.99840     F ( 1.00)

     12 Sym. Ops., with inversion, found

                                    s                        frac. trans.

      isym =  1     identity

 cryst.   s( 1) = (     1          0          0      )
                  (     0          1          0      )
                  (     0          0          1      )

 cart.    s( 1) = (  1.0000000 -0.0000000  0.0000000 )
                  (  0.0000000  1.0000000  0.0000000 )
                  (  0.0000000  0.0000000  1.0000000 )

      isym =  2     180 deg rotation - cart. axis [0,1,0]

[...]

      isym =  3     120 deg rotation - cryst. axis [0,0,1]

[...]

      isym =  6     180 deg rotation - cryst. axis [2,1,0]

[...]

      isym =  7     inversion

[...]

      isym =  8     inv. 180 deg rotation - cart. axis [0,1,0]

[...]

      isym =  9     inv. 120 deg rotation - cryst. axis [0,0,1]

 cryst.   s( 9) = (     0         -1          0      )
                  (     1          1          0      )
                  (     0          0         -1      )

 cart.    s( 9) = (  0.5000001  0.8660255  0.0000000 )
                  ( -0.8660253  0.4999999  0.0000000 )
                  (  0.0000000  0.0000000 -1.0000000 )

[...]

 cryst.   s(10) = (     1          1          0      )
                  (    -1          0          0      )
                  (     0          0         -1      )

 cart.    s(10) = (  0.4999999 -0.8660255  0.0000000 )
                  (  0.8660253  0.5000001  0.0000000 )
                  (  0.0000000  0.0000000 -1.0000000 )

[...]

      isym = 12     inv. 180 deg rotation - cryst. axis [2,1,0]

 cryst.   s(12) = (    -1         -1          0      )
                  (     0          1          0      )
                  (     0          0          1      )

 cart.    s(12) = ( -0.4999999 -0.8660257  0.0000000 )
                  ( -0.8660253  0.4999999  0.0000000 )
                  (  0.0000000  0.0000000  1.0000000 )

   Cartesian axes

     site n.     atom                  positions (alat units)
         1           Li  tau(   1) = (   0.5000005   0.2886748   0.4659479  )
         2           Li  tau(   2) = (  -0.0000006   0.5773505   0.4659479  )
         3           Zr  tau(   3) = (   0.0000000   0.0000000   0.0000000  )
         4           F   tau(   4) = (   0.8363020   0.2835332   0.2382988  )
         5           F   tau(   5) = (   0.3363019   0.5824921   0.2382988  )
         6           F   tau(   6) = (  -0.3363021   0.5824921   0.6935970  )
         7           F   tau(   7) = (   0.6726040   0.0000000   0.6935970  )
         8           F   tau(   8) = (   0.1636980   0.2835332   0.6935970  )
         9           F   tau(   9) = (   0.3273960   0.0000000   0.2382988  )

   Crystallographic axes

     site n.     atom                  positions (cryst. coord.)
         1           Li  tau(   1) = (  0.6666670  0.3333330  0.5000000  )
         2           Li  tau(   2) = (  0.3333330  0.6666670  0.5000000  )
         3           Zr  tau(   3) = (  0.0000000  0.0000000  0.0000000  )
         4           F   tau(   4) = (  1.0000000  0.3273960  0.2557140  )
         5           F   tau(   5) = (  0.6726040  0.6726040  0.2557140  )
         6           F   tau(   6) = (  0.0000000  0.6726040  0.7442860  )
         7           F   tau(   7) = (  0.6726040  0.0000000  0.7442860  )
         8           F   tau(   8) = (  0.3273960  0.3273960  0.7442860  )
         9           F   tau(   9) = (  0.3273960  0.0000000  0.2557140  )

     number of k points=     1  Methfessel-Paxton smearing, width (Ry)=  0.0010
                       cart. coord. in units 2pi/alat
        k(    1) = (   0.0000000   0.0000000   0.0000000), wk =   2.0000000

                       cryst. coord.
        k(    1) = (   0.0000000   0.0000000   0.0000000), wk =   2.0000000

     Check: negative core charge=   -0.000002

     Initial potential from superposition of free atoms

     starting charge      59.0964, renormalised to      60.0000

     negative rho (up, down):  5.984E-02 0.000E+00
     Starting wfcs are   47 randomized atomic wfcs

     Self-consistent Calculation

     iteration #  1     ecut=    30.00 Ry     beta= 0.70
     Davidson diagonalization with overlap

     ethr =  1.00E-02,  avg # of iterations =  2.0

     negative rho (up, down):  6.217E-02 0.000E+00

     total energy              =    -420.56488997 Ry
     estimated scf accuracy    <       0.92944216 Ry

[...]

     total energy              =    -420.99900683 Ry
     estimated scf accuracy    <       0.00000126 Ry

     iteration #  8     ecut=    30.00 Ry     beta= 0.70
     Davidson diagonalization with overlap

     ethr =  2.10E-09,  avg # of iterations =  3.0

[...]

     End of self-consistent calculation

          k = 0.0000 0.0000 0.0000 (   989 PWs)   bands (ev):

   -45.0633 -39.3587 -39.3386 -23.4828 -23.4186 -23.4185 -18.6066 -18.2744
   -18.2740 -17.6040 -17.5612 -17.5609  -1.5579  -1.5577  -1.2378  -0.7552
    -0.1337  -0.0984  -0.0983   0.1359   0.1360   0.4660   0.4786   0.5531
     0.5534   1.1356   1.1357   1.2728   1.2728   1.3703   8.1241   8.1453
     8.1453   9.7645  11.2301  11.2302

     occupation numbers
     1.0000   1.0000   1.0000   1.0000   1.0000   1.0000   1.0000   1.0000
     1.0000   1.0000   1.0000   1.0000   1.0000   1.0000   1.0000   1.0000
     1.0000   1.0000   1.0000   1.0000   1.0000   1.0000   1.0000   1.0000
     1.0000   1.0000   1.0000   1.0000   1.0000   1.0000  -0.0000  -0.0000
    -0.0000  -0.0000  -0.0000  -0.0000

     the Fermi energy is     4.2956 ev

!    total energy              =    -420.99900717 Ry
     estimated scf accuracy    <       0.00000018 Ry
     smearing contrib. (-TS)   =       0.00000000 Ry
     internal energy E=F+TS    =    -420.99900717 Ry

     The total energy is F=E-TS. E is the sum of the following terms:
     one-electron contribution =    -191.49559792 Ry
     hartree contribution      =     122.94646588 Ry
     xc contribution           =     -81.00414610 Ry
     ewald contribution        =    -271.44572904 Ry

     convergence has been achieved in   8 iterations

     negative rho (up, down):  6.458E-02 0.000E+00

     Forces acting on atoms (cartesian axes, Ry/au):

     atom    1 type  1   force =    -0.00000000   -0.00000000    0.00000000
     atom    2 type  1   force =     0.00000000    0.00000000    0.00000000
     atom    3 type  2   force =     0.00000000    0.00000000    0.00000000
     atom    4 type  3   force =     0.00287205   -0.00497453   -0.00962968
     atom    5 type  3   force =     0.00287205    0.00497453   -0.00962968
     atom    6 type  3   force =    -0.00287205    0.00497453    0.00962968
     atom    7 type  3   force =     0.00574410    0.00000000    0.00962968
     atom    8 type  3   force =    -0.00287205   -0.00497453    0.00962968
     atom    9 type  3   force =    -0.00574410   -0.00000000   -0.00962968
     The non-local contrib.  to forces
     atom    1 type  1   force =    -0.00000000   -0.00000000    0.00000000
     atom    2 type  1   force =     0.00000000    0.00000000    0.00000000
     atom    3 type  2   force =    -0.00000000    0.00000000    0.00000000
     atom    4 type  3   force =     0.29236757   -0.50639549   -0.28475589
     atom    5 type  3   force =     0.29236757    0.50639559   -0.28475589
     atom    6 type  3   force =    -0.29236757    0.50639549    0.28475589
     atom    7 type  3   force =     0.58473514    0.00000010    0.28475589
     atom    8 type  3   force =    -0.29236757   -0.50639559    0.28475589
     atom    9 type  3   force =    -0.58473514   -0.00000010   -0.28475589
     The ionic contribution  to forces
     atom    1 type  1   force =    -0.00001159    0.00000669   -0.00000000
     atom    2 type  1   force =     0.00001159   -0.00000669   -0.00000000
     atom    3 type  2   force =    -0.00000000   -0.00000000   -0.00000000
     atom    4 type  3   force =    -2.50659318    4.34155793    2.12290159
     atom    5 type  3   force =    -2.50660398   -4.34156628    2.12291549
     atom    6 type  3   force =     2.50659318   -4.34155793   -2.12290159
     atom    7 type  3   force =    -5.01319605   -0.00000643   -2.12290159
     atom    8 type  3   force =     2.50660398    4.34156628   -2.12291549
     atom    9 type  3   force =     5.01319605    0.00000643    2.12290159
     The local contribution  to forces
     atom    1 type  1   force =     0.00000771    0.00000195    0.00001601
     atom    2 type  1   force =    -0.00000877   -0.00000730    0.00000857
     atom    3 type  2   force =     0.00017332    0.00010114    0.00002251
     atom    4 type  3   force =     2.21719983   -3.84034745   -1.84823307
     atom    5 type  3   force =     2.21722011    3.84032354   -1.84822300
     atom    6 type  3   force =    -2.21717447    3.84031958    1.84817873
     atom    7 type  3   force =     4.43439149    0.00001339    1.84818731
     atom    8 type  3   force =    -2.21720045   -3.84034368    1.84823055
     atom    9 type  3   force =    -4.43444953   -0.00002163   -1.84822296
     The core correction contribution to forces
     atom    1 type  1   force =     0.00000000    0.00000000    0.00000000
     atom    2 type  1   force =     0.00000000    0.00000000    0.00000000
     atom    3 type  2   force =     0.00000390    0.00000287    0.00000418
     atom    4 type  3   force =     0.00000000    0.00000000    0.00000000
     atom    5 type  3   force =     0.00000000    0.00000000    0.00000000
     atom    6 type  3   force =     0.00000000    0.00000000    0.00000000
     atom    7 type  3   force =     0.00000000    0.00000000    0.00000000
     atom    8 type  3   force =     0.00000000    0.00000000    0.00000000
     atom    9 type  3   force =     0.00000000    0.00000000    0.00000000
     The Hubbard contrib.    to forces
     atom    1 type  1   force =     0.00000000    0.00000000    0.00000000
     atom    2 type  1   force =     0.00000000    0.00000000    0.00000000
     atom    3 type  2   force =     0.00000000    0.00000000    0.00000000
     atom    4 type  3   force =     0.00000000    0.00000000    0.00000000
     atom    5 type  3   force =     0.00000000    0.00000000    0.00000000
     atom    6 type  3   force =     0.00000000    0.00000000    0.00000000
     atom    7 type  3   force =     0.00000000    0.00000000    0.00000000
     atom    8 type  3   force =     0.00000000    0.00000000    0.00000000
     atom    9 type  3   force =     0.00000000    0.00000000    0.00000000
     The SCF correction term to forces
     atom    1 type  1   force =     0.00001422   -0.00001258   -0.00001041
     atom    2 type  1   force =    -0.00000072    0.00001326   -0.00001652
     atom    3 type  2   force =    -0.00012108   -0.00011055   -0.00002636
     atom    4 type  3   force =    -0.00011802    0.00022429    0.00048326
     atom    5 type  3   force =    -0.00011930   -0.00016482    0.00041535
     atom    6 type  3   force =     0.00007906   -0.00015931   -0.00037215
     atom    7 type  3   force =    -0.00017349   -0.00003591   -0.00040983
     atom    8 type  3   force =     0.00007122    0.00022292   -0.00047179
     atom    9 type  3   force =     0.00025376   -0.00001675    0.00044309

     Total force =     0.027465     Total SCF correction =     0.001203

     Computing stress (Cartesian axis) and pressure

     negative rho (up, down):  6.458E-02 0.000E+00
          total   stress  (Ry/bohr**3)                   (kbar)     P=     -158.39
  -0.00113316  -0.00000000  -0.00000000         -166.69       -0.00       -0.00
  -0.00000000  -0.00113316   0.00000000           -0.00     -166.69        0.00
   0.00000000   0.00000000  -0.00096385            0.00        0.00     -141.79

     kinetic stress (kbar)  19569.48      0.00     -0.00
                                0.00  19569.48      0.00
                               -0.00      0.00  19622.84

     local   stress (kbar)  -7449.23      0.01      0.03
                                0.01  -7449.25      0.01
                                0.03      0.01  -9256.31

     nonloc. stress (kbar)   3767.61      0.00     -0.00
                                0.00   3767.61      0.00
                                0.00      0.00   3762.88

     hartree stress (kbar)   8247.86      0.00     -0.02
                                0.00   8247.89     -0.01
                               -0.02     -0.01   8988.06

     exc-cor stress (kbar)  -3892.16     -0.00      0.00
                               -0.00  -3892.16      0.00
                                0.00      0.00  -3891.36

     corecor stress (kbar)  -1308.32      0.00     -0.00
                                0.00  -1308.32     -0.00
                               -0.00     -0.00  -1307.69

     ewald   stress (kbar) -19101.93     -0.00     -0.00
                               -0.00 -19101.93     -0.00
                               -0.00     -0.00 -18060.20

     hubbard stress (kbar)      0.00      0.00      0.00
                                0.00      0.00      0.00
                                0.00      0.00      0.00

     DFT-D   stress (kbar)      0.00      0.00      0.00
                                0.00      0.00      0.00
                                0.00      0.00      0.00

     XDM     stress (kbar)      0.00      0.00      0.00
                                0.00      0.00      0.00
                                0.00      0.00      0.00

     dft-nl  stress (kbar)      0.00      0.00      0.00
                                0.00      0.00      0.00
                                0.00      0.00      0.00

     TS-vdW  stress (kbar)      0.00      0.00      0.00
                                0.00      0.00      0.00
                                0.00      0.00      0.00

[...]

                                0.00      0.00      0.00

     Writing all to output data dir new_calculations/myprefix.save/

     General routines

     Parallel routines

   This run was terminated on:   8: 5: 6  20May2023

   JOB DONE.