     Program PWSCF v.7.0 starts on 20May2023 at 14: 9:46

     Reading input from espresso_9423.pwi
Warning: card &CELL ignored
Warning: card / ignored

     Current dimensions of program PWSCF are:
     Max number of different atomic species (ntypx) = 10
     Max number of k-points (npk) =  40000
     Max angular momentum in pseudopotentials (lmaxx) =  4

     gamma-point specific algorithms are used
     Message from routine setup:
     using ibrav=0 with symmetry is DISCOURAGED, use correct ibrav instead

     Subspace diagonalization in iterative solution of the eigenvalue problem:
     a serial algorithm will be used

     Using Slab Decomposition

     bravais-lattice index     =            0
     lattice parameter (alat)  =      10.5131  a.u.
     unit-cell volume          =     924.2220 (a.u.)^3
     number of atoms/cell      =           12
     number of atomic types    =            3
     number of electrons       =        92.00
     number of Kohn-Sham states=           55
     kinetic-energy cutoff     =      30.0000  Ry
     charge density cutoff     =     240.0000  Ry
     scf convergence threshold =      1.0E-06
     mixing beta               =       0.7000
     number of iterations used =            8  plain     mixing
     Exchange-correlation= PBE
                           (   1   4   3   4   0   0   0)

     celldm(1)=  10.513113  celldm(2)=   0.000000  celldm(3)=   0.000000
     celldm(4)=   0.000000  celldm(5)=   0.000000  celldm(6)=   0.000000

     crystal axes: (cart. coord. in units of alat)
               a(1) = (   1.000000   0.000000   0.000000 )
               a(2) = (  -0.497674   0.867364   0.000000 )
               a(3) = (   0.000000   0.000000   0.917025 )

     reciprocal axes: (cart. coord. in units 2 pi/alat)
               b(1) = (  1.000000  0.573778  0.000000 )
               b(2) = (  0.000000  1.152918  0.000000 )
               b(3) = (  0.000000  0.000000  1.090483 )

     PseudoPot. # 1 for Li read from file:
     /home/pragov/projects/rrg-bengioy-ad/pragov/crystal_structure_design/SSSP/li_pbe_v1.4.uspp.F.UPF
     MD5 check sum: e912e257baa3777c20ea3d68f190483c
     Pseudo is Ultrasoft, Zval =  3.0
     Generated by new atomic code, or converted to UPF format
     Using radial grid of  751 points,  5 beta functions with:
                l(1) =   0
                l(2) =   0
                l(3) =   0
                l(4) =   1
                l(5) =   1
     Q(r) pseudized with 10 coefficients,  rinner =    1.150   1.150   1.150

     PseudoPot. # 2 for Ge read from file:
     /home/pragov/projects/rrg-bengioy-ad/pragov/crystal_structure_design/SSSP/ge_pbe_v1.4.uspp.F.UPF
     MD5 check sum: 9c9eaa91e581c3f09632fb3098b2c6b2
     Pseudo is Ultrasoft + core correction, Zval = 14.0
     Generated by new atomic code, or converted to UPF format
     Using radial grid of  873 points,  6 beta functions with:
                l(1) =   0
                l(2) =   0
                l(3) =   1
                l(4) =   1
                l(5) =   2
                l(6) =   2
     Q(r) pseudized with  8 coefficients,  rinner =    1.400   1.400   1.400
                                                       1.400   1.400

     PseudoPot. # 3 for N  read from file:
     /home/pragov/projects/rrg-bengioy-ad/pragov/crystal_structure_design/SSSP/N.pbe-n-radius_5.UPF
     MD5 check sum: 16739722b17309cd8fe442a2ace49922
     Pseudo is Ultrasoft + core correction, Zval =  5.0
     Generated using "atomic" code by A. Dal Corso  v.5.1
     Using radial grid of 1085 points,  4 beta functions with:
                l(1) =   0
                l(2) =   0
                l(3) =   1
                l(4) =   1
     Q(r) pseudized with 0 coefficients

     atomic species   valence    mass     pseudopotential
        Li             3.00     6.94000     Li( 1.00)
        Ge            14.00    72.63000     Ge( 1.00)
        N              5.00    14.00700     N ( 1.00)

      2 Sym. Ops. (no inversion) found ( 1 have fractional translation)

                                    s                        frac. trans.

      isym =  1     identity

 cryst.   s( 1) = (     1          0          0      )
                  (     0          1          0      )
                  (     0          0          1      )

 cart.    s( 1) = (  1.0000000 -0.0000000  0.0000000 )
                  (  0.0000000  1.0000000  0.0000000 )
                  (  0.0000000  0.0000000  1.0000000 )

      isym =  2     180 deg rotation - cart. axis [0,0,1]

 cryst.   s( 2) = (    -1          0          0      )    f =( -0.0000000 )
                  (     0         -1          0      )       ( -0.0000000 )
                  (     0          0          1      )       ( -0.5000000 )

 cart.    s( 2) = ( -1.0000000  0.0000000  0.0000000 )    f =(  0.0000000 )
                  (  0.0000000 -1.0000000  0.0000000 )       ( -0.0000000 )
                  (  0.0000000  0.0000000  1.0000000 )       ( -0.4585123 )

   Cartesian axes

     site n.     atom                  positions (alat units)
         1           Li  tau(   1) = (   0.3307846   0.5711645   0.4478023  )
         2           Li  tau(   2) = (   0.1715413   0.2961996   0.9063146  )
         3           Ge  tau(   3) = (   0.3282966   0.0028502   0.4517767  )
         4           Ge  tau(   4) = (  -0.1609126   0.2861712   0.4517767  )
         5           Ge  tau(   5) = (   0.1740292   0.8645139   0.9102890  )
         6           Ge  tau(   6) = (   0.6632385   0.5811929   0.9102890  )
         7           N   tau(   7) = (  -0.1429023   0.8339194   0.7898910  )
         8           N   tau(   8) = (   0.7944305   0.2910718   0.7898910  )
         9           N   tau(   9) = (   0.6452282   0.0334447   0.3313787  )
        10           N   tau(  10) = (  -0.2921047   0.5762923   0.3313787  )
        11           N   tau(  11) = (   0.3523861   0.6084637   0.8176612  )
        12           N   tau(  12) = (   0.1499397   0.2589004   0.3591490  )

   Crystallographic axes

     site n.     atom                  positions (cryst. coord.)
         1           Li  tau(   1) = (  0.6585060  0.6585060  0.4883210  )
         2           Li  tau(   2) = (  0.3414940  0.3414940  0.9883210  )
         3           Ge  tau(   3) = (  0.3299320  0.0032860  0.4926550  )
         4           Ge  tau(   4) = (  0.0032860  0.3299320  0.4926550  )
         5           Ge  tau(   5) = (  0.6700680  0.9967140  0.9926550  )
         6           Ge  tau(   6) = (  0.9967140  0.6700680  0.9926550  )
         7           N   tau(   7) = (  0.3355820  0.9614410  0.8613630  )
         8           N   tau(   8) = (  0.9614410  0.3355820  0.8613630  )
         9           N   tau(   9) = (  0.6644180  0.0385590  0.3613630  )
        10           N   tau(  10) = (  0.0385590  0.6644180  0.3613630  )
        11           N   tau(  11) = (  0.7015090  0.7015090  0.8916460  )
        12           N   tau(  12) = (  0.2984910  0.2984910  0.3916460  )

     number of k points=     1  Methfessel-Paxton smearing, width (Ry)=  0.0010
                       cart. coord. in units 2pi/alat
        k(    1) = (   0.0000000   0.0000000   0.0000000), wk =   2.0000000

                       cryst. coord.
        k(    1) = (   0.0000000   0.0000000   0.0000000), wk =   2.0000000

     Check: negative core charge=   -0.000003

     Initial potential from superposition of free atoms

     starting charge      91.0950, renormalised to      92.0000
     Starting wfcs are   70 randomized atomic wfcs

     Self-consistent Calculation

     iteration #  1     ecut=    30.00 Ry     beta= 0.70
     Davidson diagonalization with overlap

     ethr =  1.00E-02,  avg # of iterations =  4.0

     total energy              =   -1003.13783989 Ry
     estimated scf accuracy    <       3.56302307 Ry

[...]

     total energy              =   -1004.80003889 Ry
     estimated scf accuracy    <       0.00000580 Ry

     iteration #  9     ecut=    30.00 Ry     beta= 0.70
     Davidson diagonalization with overlap

     ethr =  6.30E-09,  avg # of iterations =  2.0

     End of self-consistent calculation

          k = 0.0000 0.0000 0.0000 (  1274 PWs)   bands (ev):

   -35.3989 -35.3922 -16.2306 -16.2282 -16.2242 -16.1926 -16.1666 -16.1612
   -16.1407 -16.1316 -16.1148 -16.1104 -16.1052 -16.0976 -16.0565 -16.0557
   -16.0519 -16.0501 -16.0404 -16.0331 -16.0264 -16.0200  -9.0296  -6.4272
    -6.1333  -6.0832  -5.3469  -5.0799  -0.4844  -0.3716  -0.3515   2.2271
     2.2978   3.2475   3.8156   4.4558   4.6064   4.9289   5.6001   6.1146
     6.4114   6.7592   6.8609   7.3261   7.5919   7.6520  10.3330  12.2195
    12.9278  13.1406  14.9405  15.0850  15.5482  15.8922  16.4623

     occupation numbers
     1.0000   1.0000   1.0000   1.0000   1.0000   1.0000   1.0000   1.0000
     1.0000   1.0000   1.0000   1.0000   1.0000   1.0000   1.0000   1.0000
     1.0000   1.0000   1.0000   1.0000   1.0000   1.0000   1.0000   1.0000
     1.0000   1.0000   1.0000   1.0000   1.0000   1.0000   1.0000   1.0000
     1.0000   1.0000   1.0000   1.0000   1.0000   1.0000   1.0000   1.0000
     1.0000   1.0000   1.0000   1.0000   1.0000   1.0000  -0.0000  -0.0000
    -0.0000  -0.0000  -0.0000  -0.0000  -0.0000  -0.0000  -0.0000

     the Fermi energy is    10.0817 ev

!    total energy              =   -1004.80004009 Ry
     estimated scf accuracy    <       0.00000040 Ry
     smearing contrib. (-TS)   =       0.00000000 Ry
     internal energy E=F+TS    =   -1004.80004009 Ry

     The total energy is F=E-TS. E is the sum of the following terms:
     one-electron contribution =    -589.61146165 Ry
     hartree contribution      =     367.99386907 Ry
     xc contribution           =    -273.46742829 Ry
     ewald contribution        =    -509.71501923 Ry

     convergence has been achieved in   9 iterations

     Forces acting on atoms (cartesian axes, Ry/au):

     atom    1 type  1   force =     0.00074857    0.00134653   -0.00579301
     atom    2 type  1   force =    -0.00074857   -0.00134653   -0.00579301
     atom    3 type  2   force =     0.00067258    0.00003377    0.00117027
     atom    4 type  2   force =    -0.00030057    0.00074598    0.00117620
     atom    5 type  2   force =    -0.00067258   -0.00003377    0.00117027
     atom    6 type  2   force =     0.00030057   -0.00074598    0.00117620
     atom    7 type  3   force =    -0.02173921    0.04293432   -0.01025326
     atom    8 type  3   force =     0.04806697    0.00253071   -0.01025812
     atom    9 type  3   force =     0.02173921   -0.04293432   -0.01025326
     atom   10 type  3   force =    -0.04806697   -0.00253071   -0.01025812
     atom   11 type  3   force =    -0.02015970   -0.03479034    0.02395793
     atom   12 type  3   force =     0.02015970    0.03479034    0.02395793
     The non-local contrib.  to forces
     atom    1 type  1   force =     0.01395927    0.02415458   -0.03701455
     atom    2 type  1   force =    -0.01395927   -0.02415458   -0.03701455
     atom    3 type  2   force =     0.14806210   -0.18127500    0.06828512
     atom    4 type  2   force =    -0.23087870    0.03826319    0.06823709
     atom    5 type  2   force =    -0.14806210    0.18127500    0.06828512
     atom    6 type  2   force =     0.23087870   -0.03826319    0.06823709
     atom    7 type  3   force =     0.39503715   -0.71635188   -0.23189331
     atom    8 type  3   force =    -0.81805621   -0.01390553   -0.23194030
     atom    9 type  3   force =    -0.39503715    0.71635188   -0.23189331
     atom   10 type  3   force =     0.81805621    0.01390553   -0.23194030
     atom   11 type  3   force =     0.56016584    0.96727025    0.64434353
     atom   12 type  3   force =    -0.56016584   -0.96727025    0.64434353
     The ionic contribution  to forces
     atom    1 type  1   force =    -0.40630101   -0.70155835   -0.17326580
     atom    2 type  1   force =     0.40630101    0.70155835   -0.17326580
     atom    3 type  2   force =    -1.85403622    3.60983907    0.52804713
     atom    4 type  2   force =     4.05375063    0.18839913    0.52804713
     atom    5 type  2   force =     1.85403622   -3.60983907    0.52804713
     atom    6 type  2   force =    -4.05375063   -0.18839913    0.52804713
     atom    7 type  3   force =    -2.13913096    4.14535483    1.51058522
     atom    8 type  3   force =     4.66012205    0.20763054    1.51058522
     atom    9 type  3   force =     2.13913096   -4.14535483    1.51058522
     atom   10 type  3   force =    -4.66012205   -0.20763054    1.51058522
     atom   11 type  3   force =    -3.58560807   -6.19125532   -3.90399889
     atom   12 type  3   force =     3.58560807    6.19125532   -3.90399889
     The local contribution  to forces
     atom    1 type  1   force =     0.39304703    0.67871769    0.20442603
     atom    2 type  1   force =    -0.39309516   -0.67876766    0.20470568
     atom    3 type  2   force =     1.71149459   -3.43389181   -0.59284216
     atom    4 type  2   force =    -3.83034330   -0.22490873   -0.59278008
     atom    5 type  2   force =    -1.71131599    3.43437218   -0.59208363
     atom    6 type  2   force =     3.83049176    0.22462029   -0.59205171
     atom    7 type  3   force =     1.72583034   -3.39219277   -1.29061546
     atom    8 type  3   force =    -3.80104228   -0.19134559   -1.29049756
     atom    9 type  3   force =    -1.72595091    3.39229972   -1.29086258
     atom   10 type  3   force =     3.80104653    0.19124113   -1.29078736
     atom   11 type  3   force =     3.00996210    5.19750910    3.28898124
     atom   12 type  3   force =    -3.01006492   -5.19747556    3.28893017
     The core correction contribution to forces
     atom    1 type  1   force =     0.00000000    0.00000000    0.00000000
     atom    2 type  1   force =     0.00000000    0.00000000    0.00000000
     atom    3 type  2   force =    -0.00462543    0.00592892   -0.00291866
     atom    4 type  2   force =     0.00744320   -0.00105860   -0.00292136
     atom    5 type  2   force =     0.00462832   -0.00593478   -0.00293207
     atom    6 type  2   force =    -0.00745053    0.00106154   -0.00292563
     atom    7 type  3   force =    -0.00341631    0.00616343    0.00185102
     atom    8 type  3   force =     0.00704679    0.00010513    0.00185157
     atom    9 type  3   force =     0.00341432   -0.00616293    0.00184931
     atom   10 type  3   force =    -0.00704705   -0.00010547    0.00184975
     atom   11 type  3   force =    -0.00480568   -0.00829714   -0.00539546
     atom   12 type  3   force =     0.00480446    0.00829654   -0.00539372
     The Hubbard contrib.    to forces
     atom    1 type  1   force =     0.00000000    0.00000000    0.00000000
     atom    2 type  1   force =     0.00000000    0.00000000    0.00000000
     atom    3 type  2   force =     0.00000000    0.00000000    0.00000000
     atom    4 type  2   force =     0.00000000    0.00000000    0.00000000
     atom    5 type  2   force =     0.00000000    0.00000000    0.00000000
     atom    6 type  2   force =     0.00000000    0.00000000    0.00000000
     atom    7 type  3   force =     0.00000000    0.00000000    0.00000000
     atom    8 type  3   force =     0.00000000    0.00000000    0.00000000
     atom    9 type  3   force =     0.00000000    0.00000000    0.00000000
     atom   10 type  3   force =     0.00000000    0.00000000    0.00000000
     atom   11 type  3   force =     0.00000000    0.00000000    0.00000000
     atom   12 type  3   force =     0.00000000    0.00000000    0.00000000
     The SCF correction term to forces
     atom    1 type  1   force =     0.00004989    0.00003904    0.00005883
     atom    2 type  1   force =     0.00001145    0.00002380   -0.00016190
     atom    3 type  2   force =    -0.00021476   -0.00066020    0.00079931
     atom    4 type  2   force =    -0.00030452    0.00010908    0.00075237
     atom    5 type  2   force =     0.00004868    0.00000011   -0.00029278
     atom    6 type  2   force =     0.00009916    0.00029262   -0.00023567
     atom    7 type  3   force =    -0.00012401   -0.00003086   -0.00007976
     atom    8 type  3   force =    -0.00002239    0.00003458   -0.00016896
     atom    9 type  3   force =     0.00011740   -0.00005972    0.00002109
     atom   10 type  3   force =    -0.00001960    0.00004703    0.00000044
     atom   11 type  3   force =     0.00008389   -0.00001939   -0.00002422
     atom   12 type  3   force =    -0.00006429   -0.00001787    0.00018251

     Total force =     0.118943     Total SCF correction =     0.001478

     Computing stress (Cartesian axis) and pressure

          total   stress  (Ry/bohr**3)                   (kbar)     P=     -178.90
  -0.00100689   0.00009330   0.00000000         -148.12       13.72        0.00
   0.00009330  -0.00089979   0.00000000           13.72     -132.36        0.00
   0.00000000   0.00000000  -0.00174179            0.00        0.00     -256.23

     kinetic stress (kbar)  14654.32     21.88      0.00
                               21.88  14679.44      0.00
                                0.00      0.00  14560.66

     local   stress (kbar)   1228.08  -1728.13      0.06
                            -1728.13   -754.96      0.02
                                0.06      0.02  -8931.24

     nonloc. stress (kbar)   4077.09    -36.75      0.00
                              -36.75   4034.90      0.00
                                0.00      0.00   4017.84

     hartree stress (kbar)  17621.98    862.97     -0.05
                              862.97  18612.22     -0.01
                               -0.05     -0.01  22338.05

     exc-cor stress (kbar)  11409.58     -1.86      0.00
                               -1.86  11407.45     -0.00
                                0.00     -0.00  11409.28

     corecor stress (kbar) -19925.73      1.46     -0.00
                                1.46 -19924.06      0.00
                               -0.00      0.00 -19922.11

     ewald   stress (kbar) -29213.44    894.15     -0.00
                              894.15 -28187.35      0.00
                               -0.00      0.00 -23728.71

     hubbard stress (kbar)      0.00      0.00      0.00
                                0.00      0.00      0.00
                                0.00      0.00      0.00

     DFT-D   stress (kbar)      0.00      0.00      0.00
                                0.00      0.00      0.00
                                0.00      0.00      0.00

     XDM     stress (kbar)      0.00      0.00      0.00
                                0.00      0.00      0.00
                                0.00      0.00      0.00

     dft-nl  stress (kbar)      0.00      0.00      0.00
                                0.00      0.00      0.00
                                0.00      0.00      0.00

     TS-vdW  stress (kbar)      0.00      0.00      0.00
                                0.00      0.00      0.00
                                0.00      0.00      0.00

[...]

                                0.00      0.00      0.00

     Writing all to output data dir new_calculations/myprefix.save/

     General routines

     Parallel routines

   This run was terminated on:  14: 9:56  20May2023

   JOB DONE.