     Program PWSCF v.7.0 starts on 21May2023 at  0:50:34

     Reading input from espresso_22351.pwi
Warning: card &CELL ignored
Warning: card / ignored

     Current dimensions of program PWSCF are:
     Max number of different atomic species (ntypx) = 10
     Max number of k-points (npk) =  40000
     Max angular momentum in pseudopotentials (lmaxx) =  4
     file K.pbe-spn-kjpaw_psl.1.0.0.UPF: wavefunction(s)  3S renormalized
     file O.pbe-n-kjpaw_psl.0.1.UPF: wavefunction(s)  2P renormalized

     gamma-point specific algorithms are used
     Message from routine setup:
     using ibrav=0 with symmetry is DISCOURAGED, use correct ibrav instead

     Subspace diagonalization in iterative solution of the eigenvalue problem:
     a serial algorithm will be used

     Using Slab Decomposition

     bravais-lattice index     =            0
     lattice parameter (alat)  =      11.4389  a.u.
     unit-cell volume          =    1062.0953 (a.u.)^3
     number of atoms/cell      =           10
     number of atomic types    =            4
     number of electrons       =       100.00
     number of Kohn-Sham states=           60
     kinetic-energy cutoff     =      30.0000  Ry
     charge density cutoff     =     240.0000  Ry
     scf convergence threshold =      1.0E-06
     mixing beta               =       0.7000
     number of iterations used =            8  plain     mixing
     Exchange-correlation= SLA  PW   PBX  PBC
                           (   1   4   3   4   0   0   0)

     celldm(1)=  11.438937  celldm(2)=   0.000000  celldm(3)=   0.000000
     celldm(4)=   0.000000  celldm(5)=   0.000000  celldm(6)=   0.000000

     crystal axes: (cart. coord. in units of alat)
               a(1) = (   1.000000   0.000000   0.000000 )
               a(2) = (  -0.309773   0.950810   0.000000 )
               a(3) = (   0.324432   0.446916   0.746298 )

     reciprocal axes: (cart. coord. in units 2 pi/alat)
               b(1) = (  1.000000  0.325799 -0.629825 )
               b(2) = (  0.000000  1.051734 -0.629825 )
               b(3) = (  0.000000  0.000000  1.339947 )

     PseudoPot. # 1 for K  read from file:
     /home/pragov/projects/rrg-bengioy-ad/pragov/crystal_structure_design/SSSP/K.pbe-spn-kjpaw_psl.1.0.0.UPF
     MD5 check sum: 7d58810084cac21f60fbe77ea2b688fd
     Pseudo is Projector augmented-wave + core cor, Zval =  9.0
     Generated using "atomic" code by A. Dal Corso  v.5.1
     Shape of augmentation charge: PSQ
     Using radial grid of 1165 points,  6 beta functions with:
                l(1) =   0
                l(2) =   0
                l(3) =   1
                l(4) =   1
                l(5) =   2
                l(6) =   2
     Q(r) pseudized with 0 coefficients

     PseudoPot. # 2 for Na read from file:
     /home/pragov/projects/rrg-bengioy-ad/pragov/crystal_structure_design/SSSP/na_pbe_v1.5.uspp.F.UPF
     MD5 check sum: 44600605ef58000f06b90626533354dc
     Pseudo is Ultrasoft, Zval =  9.0
     Generated by new atomic code, or converted to UPF format
     Using radial grid of  819 points,  5 beta functions with:
                l(1) =   0
                l(2) =   0
                l(3) =   1
                l(4) =   1
                l(5) =   2
     Q(r) pseudized with  8 coefficients,  rinner =    1.250   1.250   1.250
                                                       1.250   1.250

     PseudoPot. # 3 for Zn read from file:
     /home/pragov/projects/rrg-bengioy-ad/pragov/crystal_structure_design/SSSP/Zn_pbe_v1.uspp.F.UPF
     MD5 check sum: df62231357ef9e81f77b2b3087fa5675
     Pseudo is Ultrasoft, Zval = 20.0
     Generated by new atomic code, or converted to UPF format
     Using radial grid of  943 points,  6 beta functions with:
                l(1) =   0
                l(2) =   0
                l(3) =   1
                l(4) =   1
                l(5) =   2
                l(6) =   2
     Q(r) pseudized with  8 coefficients,  rinner =    1.100   1.100   1.100
                                                       1.100   1.100

     PseudoPot. # 4 for O  read from file:
     /home/pragov/projects/rrg-bengioy-ad/pragov/crystal_structure_design/SSSP/O.pbe-n-kjpaw_psl.0.1.UPF
     MD5 check sum: 0234752ac141de4415c5fc33072bef88
     Pseudo is Projector augmented-wave + core cor, Zval =  6.0
     Generated using "atomic" code by A. Dal Corso  v.5.0.99 svn rev. 10869
     Shape of augmentation charge: BESSEL
     Using radial grid of 1095 points,  4 beta functions with:
                l(1) =   0
                l(2) =   0
                l(3) =   1
                l(4) =   1
     Q(r) pseudized with 0 coefficients

     atomic species   valence    mass     pseudopotential
        K              9.00    39.09830     K ( 1.00)
        Na             9.00    22.98977     Na( 1.00)
        Zn            20.00    65.38000     Zn( 1.00)
        O              6.00    15.99900     O ( 1.00)

      2 Sym. Ops., with inversion, found

                                    s                        frac. trans.

      isym =  1     identity

 cryst.   s( 1) = (     1          0          0      )
                  (     0          1          0      )
                  (     0          0          1      )

 cart.    s( 1) = (  1.0000000  0.0000000 -0.0000000 )
                  (  0.0000000  1.0000000 -0.0000000 )
                  (  0.0000000  0.0000000  1.0000000 )

      isym =  2     inversion

 cryst.   s( 2) = (    -1          0          0      )
                  (     0         -1          0      )
                  (     0          0         -1      )

 cart.    s( 2) = ( -1.0000000 -0.0000000  0.0000000 )
                  (  0.0000000 -1.0000000  0.0000000 )
                  (  0.0000000  0.0000000 -1.0000000 )

   Cartesian axes

     site n.     atom                  positions (alat units)
         1           K   tau(   1) = (   0.0957114   1.1682797   0.5597238  )
         2           K   tau(   2) = (   0.9189477   0.2294470   0.1865746  )
         3           Na  tau(   3) = (   0.0718480   0.8443865   0.1865746  )
         4           Na  tau(   4) = (   0.9428111   0.5533402   0.5597238  )
         5           Zn  tau(   5) = (   0.5749260   0.8204010   0.5597238  )
         6           Zn  tau(   6) = (   0.4397331   0.5773257   0.1865746  )
         7           O   tau(   7) = (   0.6108363   1.1367795   0.6472198  )
         8           O   tau(   8) = (   0.2852340   0.6882515   0.4722278  )
         9           O   tau(   9) = (   0.7294251   0.7094752   0.2740706  )
        10           O   tau(  10) = (   0.4038228   0.2609472   0.0990786  )

   Crystallographic axes

     site n.     atom                  positions (cryst. coord.)
         1           K   tau(   1) = (  0.1238080  0.8761920  0.7500000  )
         2           K   tau(   2) = (  0.8761920  0.1238080  0.2500000  )
         3           Na  tau(   3) = (  0.2294390  0.7705610  0.2500000  )
         4           Na  tau(   4) = (  0.7705610  0.2294390  0.7500000  )
         5           Zn  tau(   5) = (  0.4896840  0.5103160  0.7500000  )
         6           Zn  tau(   6) = (  0.5103160  0.4896840  0.2500000  )
         7           O   tau(   7) = (  0.5735630  0.7879550  0.8672400  )
         8           O   tau(   8) = (  0.2120450  0.4264370  0.6327600  )
         9           O   tau(   9) = (  0.7879550  0.5735630  0.3672400  )
        10           O   tau(  10) = (  0.4264370  0.2120450  0.1327600  )

     number of k points=     1  Methfessel-Paxton smearing, width (Ry)=  0.0010
                       cart. coord. in units 2pi/alat
        k(    1) = (   0.0000000   0.0000000   0.0000000), wk =   2.0000000

                       cryst. coord.
        k(    1) = (   0.0000000   0.0000000   0.0000000), wk =   2.0000000

     Check: negative core charge=   -0.000011

     Initial potential from superposition of free atoms

     starting charge      99.9495, renormalised to     100.0000
     Starting wfcs are   68 randomized atomic wfcs
     Checking if some PAW data can be deallocated...

     Self-consistent Calculation

     iteration #  1     ecut=    30.00 Ry     beta= 0.70
     Davidson diagonalization with overlap

     ethr =  1.00E-02,  avg # of iterations =  5.0

     total energy              =   -1505.13492254 Ry
     estimated scf accuracy    <       2.46562797 Ry

[...]

     total energy              =   -1506.42262235 Ry
     estimated scf accuracy    <       0.00000196 Ry

     iteration #  9     ecut=    30.00 Ry     beta= 0.70
     Davidson diagonalization with overlap

     ethr =  1.96E-09,  avg # of iterations =  4.0

     End of self-consistent calculation

          k = 0.0000 0.0000 0.0000 (  1463 PWs)   bands (ev):

  -117.8283-117.8258 -71.9840 -71.9803 -71.9603 -71.9591 -71.9047 -71.8978
   -44.6192 -44.6061 -23.9473 -23.9015 -16.6376 -16.6223 -16.5672 -16.5607
   -16.5219 -16.4286 -10.5759 -10.1646 -10.0862 -10.0175  -7.5759  -7.5330
    -7.4933  -7.4531  -7.3394  -7.2531   0.3875   0.8136   0.8907   0.9319
     0.9495   1.0199   1.0398   1.2223   1.2417   1.2847   2.6981   2.9306
     3.2268   3.9989   4.2564   4.3232   4.4935   4.9222   5.1842   5.3359
     5.7324   5.7584   7.3754  10.3447  11.5135  12.0861  12.2044  12.4528
    12.9261  13.0812  13.4349  13.6661

     occupation numbers
     1.0000   1.0000   1.0000   1.0000   1.0000   1.0000   1.0000   1.0000
     1.0000   1.0000   1.0000   1.0000   1.0000   1.0000   1.0000   1.0000
     1.0000   1.0000   1.0000   1.0000   1.0000   1.0000   1.0000   1.0000
     1.0000   1.0000   1.0000   1.0000   1.0000   1.0000   1.0000   1.0000
     1.0000   1.0000   1.0000   1.0000   1.0000   1.0000   1.0000   1.0000
     1.0000   1.0000   1.0000   1.0000   1.0000   1.0000   1.0000   1.0000
     1.0000   1.0000  -0.0000  -0.0000  -0.0000  -0.0000  -0.0000  -0.0000
    -0.0000  -0.0000  -0.0000  -0.0000

     the Fermi energy is     6.5961 ev

!    total energy              =   -1506.42262305 Ry
     estimated scf accuracy    <       0.00000042 Ry
     smearing contrib. (-TS)   =       0.00000000 Ry
     internal energy E=F+TS    =   -1506.42262305 Ry

     The total energy is F=E-TS. E is the sum of the following terms:
     one-electron contribution =   -1221.88292899 Ry
     hartree contribution      =     648.62881206 Ry
     xc contribution           =    -165.81141933 Ry
     ewald contribution        =    -618.43646968 Ry
     one-center paw contrib.   =    -148.92061712 Ry
      -> PAW hartree energy AE =     191.11747334 Ry
      -> PAW hartree energy PS =    -190.29103070 Ry
      -> PAW xc energy AE      =    -200.64679162 Ry
      -> PAW xc energy PS      =      50.89973186 Ry
      -> total E_H with PAW    =     649.45525471 Ry
      -> total E_XC with PAW   =    -315.55847909 Ry

     convergence has been achieved in   9 iterations

     Forces acting on atoms (cartesian axes, Ry/au):

     atom    1 type  1   force =    -0.00327897    0.00238704   -0.00002570
     atom    2 type  1   force =     0.00327897   -0.00238704    0.00002570
     atom    3 type  2   force =     0.00110803   -0.00083961   -0.00000000
     atom    4 type  2   force =    -0.00110803    0.00083961    0.00000000
     atom    5 type  3   force =    -0.00008628    0.00021823    0.00035845
     atom    6 type  3   force =     0.00008628   -0.00021823   -0.00035845
     atom    7 type  4   force =     0.00168442   -0.00288814    0.00149125
     atom    8 type  4   force =     0.00325541   -0.00071372   -0.00149678
     atom    9 type  4   force =    -0.00325541    0.00071372    0.00149678
     atom   10 type  4   force =    -0.00168442    0.00288814   -0.00149125
     The non-local contrib.  to forces
     atom    1 type  1   force =     0.02143695   -0.01556087    0.00000829
     atom    2 type  1   force =    -0.02143695    0.01556087   -0.00000829
     atom    3 type  2   force =    -0.12322832    0.08952819   -0.00005212
     atom    4 type  2   force =     0.12322832   -0.08952819    0.00005212
     atom    5 type  3   force =     0.05762673   -0.04180462    0.00005115
     atom    6 type  3   force =    -0.05762673    0.04180462   -0.00005115
     atom    7 type  4   force =     0.09494043   -0.56361610    0.25539348
     atom    8 type  4   force =     0.56530175    0.08429683   -0.25540979
     atom    9 type  4   force =    -0.56530175   -0.08429683    0.25540979
     atom   10 type  4   force =    -0.09494043    0.56361610   -0.25539348
     The ionic contribution  to forces
     atom    1 type  1   force =     1.40894164   -1.02280040   -0.00000000
     atom    2 type  1   force =    -1.40894164    1.02280040    0.00000000
     atom    3 type  2   force =    -5.24655740    3.80866096    0.00000000
     atom    4 type  2   force =     5.24655740   -3.80866096   -0.00000000
     atom    5 type  3   force =    -5.06943323    3.68008029    0.00000000
     atom    6 type  3   force =     5.06943323   -3.68008029   -0.00000000
     atom    7 type  4   force =    -2.85057990   12.37050678   -6.99205458
     atom    8 type  4   force =   -12.64504078   -1.12168948    6.99205458
     atom    9 type  4   force =    12.64504078    1.12168948   -6.99205458
     atom   10 type  4   force =     2.85057990  -12.37050678    6.99205458
     The local contribution  to forces
     atom    1 type  1   force =    -1.43258218    1.03992181   -0.00002676
     atom    2 type  1   force =     1.43264220   -1.04013584    0.00023188
     atom    3 type  2   force =     5.37063561   -3.89887944    0.00001466
     atom    4 type  2   force =    -5.37071314    3.89870765   -0.00008426
     atom    5 type  3   force =     5.01122380   -3.63770875   -0.00047087
     atom    6 type  3   force =    -5.01103976    3.63815030    0.00020048
     atom    7 type  4   force =     2.75849228  -11.81649111    6.74094323
     atom    8 type  4   force =    12.08960805    1.03754366   -6.74090921
     atom    9 type  4   force =   -12.08976477   -1.03763780    6.74108533
     atom   10 type  4   force =    -2.75846618   11.81613876   -6.74080002
     The core correction contribution to forces
     atom    1 type  1   force =    -0.00119510    0.00086694   -0.00000101
     atom    2 type  1   force =     0.00119607   -0.00086954    0.00000224
     atom    3 type  2   force =     0.00000000    0.00000000    0.00000000
     atom    4 type  2   force =     0.00000000    0.00000000    0.00000000
     atom    5 type  3   force =     0.00000000    0.00000000    0.00000000
     atom    6 type  3   force =     0.00000000    0.00000000    0.00000000
     atom    7 type  4   force =    -0.00108444    0.00659554   -0.00295898
     atom    8 type  4   force =    -0.00661050   -0.00101331    0.00296120
     atom    9 type  4   force =     0.00660817    0.00101110   -0.00295983
     atom   10 type  4   force =     0.00108499   -0.00660056    0.00296207
     The Hubbard contrib.    to forces
     atom    1 type  1   force =     0.00000000    0.00000000    0.00000000
     atom    2 type  1   force =     0.00000000    0.00000000    0.00000000
     atom    3 type  2   force =     0.00000000    0.00000000    0.00000000
     atom    4 type  2   force =     0.00000000    0.00000000    0.00000000
     atom    5 type  3   force =     0.00000000    0.00000000    0.00000000
     atom    6 type  3   force =     0.00000000    0.00000000    0.00000000
     atom    7 type  4   force =     0.00000000    0.00000000    0.00000000
     atom    8 type  4   force =     0.00000000    0.00000000    0.00000000
     atom    9 type  4   force =     0.00000000    0.00000000    0.00000000
     atom   10 type  4   force =     0.00000000    0.00000000    0.00000000
     The SCF correction term to forces
     atom    1 type  1   force =     0.00012813   -0.00006510    0.00001023
     atom    2 type  1   force =    -0.00017229    0.00023239   -0.00018367
     atom    3 type  2   force =     0.00027167   -0.00011328    0.00005728
     atom    4 type  2   force =    -0.00016708    0.00035716    0.00005198
     atom    5 type  3   force =     0.00044730   -0.00042904    0.00086199
     atom    6 type  3   force =    -0.00072958   -0.00017320   -0.00042394
     atom    7 type  4   force =    -0.00006616   -0.00002422    0.00025909
     atom    8 type  4   force =    -0.00007092    0.00007990   -0.00015259
     atom    9 type  4   force =     0.00009436   -0.00012091    0.00005704
     atom   10 type  4   force =     0.00007510    0.00009963   -0.00022340

     Total force =     0.009520     Total SCF correction =     0.001567
     SCF correction compared to forces is large: reduce conv_thr to get better values

     Computing stress (Cartesian axis) and pressure

          total   stress  (Ry/bohr**3)                   (kbar)     P=     -341.43
  -0.00236004   0.00008128   0.00001690         -347.17       11.96        2.49
   0.00008128  -0.00230692   0.00002323           11.96     -339.36        3.42
   0.00001690   0.00002323  -0.00229592            2.49        3.42     -337.74

     kinetic stress (kbar)  21192.00    -67.61    -68.23
                              -67.61  21147.95    -93.99
                              -68.23    -93.99  21136.49

     local   stress (kbar)   1992.34  -4230.94 -13135.06
                            -4230.94   -764.37 -18094.03
                           -13135.06 -18094.03 -18966.20

     nonloc. stress (kbar)  -9760.44     29.08     17.67
                               29.08  -9741.49     24.34
                               17.67     24.34  -9765.11

     hartree stress (kbar)  26375.84   1833.40   6108.05
                             1833.40  27570.33   8414.10
                             6108.05   8414.10  35891.90

     exc-cor stress (kbar)  -6247.31      1.33      1.56
                                1.33  -6246.45      2.15
                                1.56      2.15  -6242.36

     corecor stress (kbar)   -980.57      0.31      0.20
                                0.31   -980.37      0.28
                                0.20      0.28   -980.16

     ewald   stress (kbar) -32919.03   2446.38   7078.28
                             2446.38 -31324.97   9750.57
                             7078.28   9750.57 -21412.29

     hubbard stress (kbar)      0.00      0.00      0.00
                                0.00      0.00      0.00
                                0.00      0.00      0.00

     DFT-D   stress (kbar)      0.00      0.00      0.00
                                0.00      0.00      0.00
                                0.00      0.00      0.00

     XDM     stress (kbar)      0.00      0.00      0.00
                                0.00      0.00      0.00
                                0.00      0.00      0.00

     dft-nl  stress (kbar)      0.00      0.00      0.00
                                0.00      0.00      0.00
                                0.00      0.00      0.00

     TS-vdW  stress (kbar)      0.00      0.00      0.00
                                0.00      0.00      0.00
                                0.00      0.00      0.00

[...]

                                0.00      0.00      0.00

     Writing all to output data dir new_calculations/myprefix.save/

     General routines

     Parallel routines

     PAW routines

   This run was terminated on:   0:51:24  21May2023

   JOB DONE.