     Program PWSCF v.7.0 starts on 21May2023 at  3:57:15

     Reading input from espresso_5897.pwi
Warning: card &CELL ignored
Warning: card / ignored

     Current dimensions of program PWSCF are:
     Max number of different atomic species (ntypx) = 10
     Max number of k-points (npk) =  40000
     Max angular momentum in pseudopotentials (lmaxx) =  4
     file O.pbe-n-kjpaw_psl.0.1.UPF: wavefunction(s)  2P renormalized

     gamma-point specific algorithms are used
     Message from routine setup:
     using ibrav=0 with symmetry is DISCOURAGED, use correct ibrav instead

     Subspace diagonalization in iterative solution of the eigenvalue problem:
     a serial algorithm will be used

     Using Slab Decomposition

     bravais-lattice index     =            0
     lattice parameter (alat)  =      14.8506  a.u.
     unit-cell volume          =    1799.1800 (a.u.)^3
     number of atoms/cell      =           16
     number of atomic types    =            3
     number of electrons       =       128.00
     number of Kohn-Sham states=           77
     kinetic-energy cutoff     =      30.0000  Ry
     charge density cutoff     =     240.0000  Ry
     scf convergence threshold =      1.0E-06
     mixing beta               =       0.7000
     number of iterations used =            8  plain     mixing
     Exchange-correlation= SLA  PW   PBX  PBC
                           (   1   4   3   4   0   0   0)

     celldm(1)=  14.850645  celldm(2)=   0.000000  celldm(3)=   0.000000
     celldm(4)=   0.000000  celldm(5)=   0.000000  celldm(6)=   0.000000

     crystal axes: (cart. coord. in units of alat)
               a(1) = (   1.000000   0.000000   0.000000 )
               a(2) = (  -0.608165   0.793811   0.000000 )
               a(3) = (   0.194616   0.394269   0.692025 )

     reciprocal axes: (cart. coord. in units 2 pi/alat)
               b(1) = (  1.000000  0.766133 -0.717719 )
               b(2) = (  0.000000  1.259746 -0.717719 )
               b(3) = (  0.000000  0.000000  1.445035 )

     PseudoPot. # 1 for Na read from file:
     /home/pragov/projects/rrg-bengioy-ad/pragov/crystal_structure_design/SSSP/na_pbe_v1.5.uspp.F.UPF
     MD5 check sum: 44600605ef58000f06b90626533354dc
     Pseudo is Ultrasoft, Zval =  9.0
     Generated by new atomic code, or converted to UPF format
     Using radial grid of  819 points,  5 beta functions with:
                l(1) =   0
                l(2) =   0
                l(3) =   1
                l(4) =   1
                l(5) =   2
     Q(r) pseudized with  8 coefficients,  rinner =    1.250   1.250   1.250
                                                       1.250   1.250

     PseudoPot. # 2 for La read from file:
     /home/pragov/projects/rrg-bengioy-ad/pragov/crystal_structure_design/SSSP/La.GGA-PBE-paw-v1.0.UPF
     MD5 check sum: 436541e95c1ad8901025bd0b0ed42ae2
     Pseudo is Projector augmented-wave + core cor, Zval = 11.0
     Generated using ATOMPAW code
     Shape of augmentation charge: BESSEL
     Using radial grid of 1101 points,  8 beta functions with:
                l(1) =   0
                l(2) =   0
                l(3) =   1
                l(4) =   1
                l(5) =   2
                l(6) =   2
                l(7) =   3
                l(8) =   3
     Q(r) pseudized with 0 coefficients

     PseudoPot. # 3 for O  read from file:
     /home/pragov/projects/rrg-bengioy-ad/pragov/crystal_structure_design/SSSP/O.pbe-n-kjpaw_psl.0.1.UPF
     MD5 check sum: 0234752ac141de4415c5fc33072bef88
     Pseudo is Projector augmented-wave + core cor, Zval =  6.0
     Generated using "atomic" code by A. Dal Corso  v.5.0.99 svn rev. 10869
     Shape of augmentation charge: BESSEL
     Using radial grid of 1095 points,  4 beta functions with:
                l(1) =   0
                l(2) =   0
                l(3) =   1
                l(4) =   1
     Q(r) pseudized with 0 coefficients

     atomic species   valence    mass     pseudopotential
        Na             9.00    22.98977     Na( 1.00)
        La            11.00   138.90547     La( 1.00)
        O              6.00    15.99900     O ( 1.00)

      2 Sym. Ops., with inversion, found

                                    s                        frac. trans.

      isym =  1     identity

 cryst.   s( 1) = (     1          0          0      )
                  (     0          1          0      )
                  (     0          0          1      )

 cart.    s( 1) = (  1.0000000  0.0000000  0.0000000 )
                  (  0.0000000  1.0000000  0.0000000 )
                  (  0.0000000  0.0000000  1.0000000 )

      isym =  2     inversion

 cryst.   s( 2) = (    -1          0          0      )
                  (     0         -1          0      )
                  (     0          0         -1      )

 cart.    s( 2) = ( -1.0000000 -0.0000000 -0.0000000 )
                  (  0.0000000 -1.0000000 -0.0000000 )
                  (  0.0000000  0.0000000 -1.0000000 )

   Cartesian axes

     site n.     atom                  positions (alat units)
         1           Na  tau(   1) = (  -0.1488694   0.9348473   0.5190186  )
         2           Na  tau(   2) = (   0.3560930   0.4404243   0.1730062  )
         3           Na  tau(   3) = (   0.2303584   0.7476557   0.5190186  )
         4           Na  tau(   4) = (   0.7353208   0.2532326   0.1730062  )
         5           La  tau(   5) = (  -0.4674353   0.8469284   0.1730062  )
         6           La  tau(   6) = (  -0.0481240   0.6399510   0.1730062  )
         7           La  tau(   7) = (   0.6345755   0.5481290   0.5190186  )
         8           La  tau(   8) = (   1.0538868   0.3411515   0.5190186  )
         9           O   tau(   9) = (  -0.0628728   0.6291839   0.4865806  )
        10           O   tau(  10) = (   0.0474494   0.3465537   0.2055217  )
        11           O   tau(  11) = (   0.2429022   0.7425177   0.1404907  )
        12           O   tau(  12) = (   0.4403818   0.1356039   0.1405682  )
        13           O   tau(  13) = (   0.1460696   1.0524761   0.5514566  )
        14           O   tau(  14) = (   0.3435492   0.4455622   0.5515341  )
        15           O   tau(  15) = (   0.5390021   0.8415262   0.4865031  )
        16           O   tau(  16) = (   0.6493242   0.5588960   0.2054442  )

   Crystallographic axes

     site n.     atom                  positions (cryst. coord.)
         1           Na  tau(   1) = (  0.1948390  0.8051610  0.7500000  )
         2           Na  tau(   2) = (  0.5693470  0.4306530  0.2500000  )
         3           Na  tau(   3) = (  0.4306530  0.5693470  0.7500000  )
         4           Na  tau(   4) = (  0.8051610  0.1948390  0.2500000  )
         5           La  tau(   5) = (  0.0572550  0.9427450  0.2500000  )
         6           La  tau(   6) = (  0.3179940  0.6820060  0.2500000  )
         7           La  tau(   7) = (  0.6820060  0.3179940  0.7500000  )
         8           La  tau(   8) = (  0.9427450  0.0572550  0.7500000  )
         9           O   tau(   9) = (  0.0699380  0.4433840  0.7031260  )
        10           O   tau(  10) = (  0.1654490  0.2890630  0.2969860  )
        11           O   tau(  11) = (  0.7109370  0.8345510  0.2030140  )
        12           O   tau(  12) = (  0.4433840  0.0699380  0.2031260  )
        13           O   tau(  13) = (  0.5566160  0.9300620  0.7968740  )
        14           O   tau(  14) = (  0.2890630  0.1654490  0.7969860  )
        15           O   tau(  15) = (  0.8345510  0.7109370  0.7030140  )
        16           O   tau(  16) = (  0.9300620  0.5566160  0.2968740  )

     number of k points=     1  Methfessel-Paxton smearing, width (Ry)=  0.0010
                       cart. coord. in units 2pi/alat
        k(    1) = (   0.0000000   0.0000000   0.0000000), wk =   2.0000000

                       cryst. coord.
        k(    1) = (   0.0000000   0.0000000   0.0000000), wk =   2.0000000

     Check: negative core charge=   -0.000009

     Initial potential from superposition of free atoms

     starting charge     127.9407, renormalised to     128.0000
     Starting wfcs are  180 randomized atomic wfcs
     Checking if some PAW data can be deallocated...

     Self-consistent Calculation

     iteration #  1     ecut=    30.00 Ry     beta= 0.70
     Davidson diagonalization with overlap

     ethr =  1.00E-02,  avg # of iterations =  2.0

     total energy              =   -2546.71967158 Ry
     estimated scf accuracy    <       4.46626896 Ry

[...]

     c_bands:  1 eigenvalues not converged
     ethr =  2.62E-06,  avg # of iterations = 20.0

[...]

     c_bands:  1 eigenvalues not converged
     ethr =  9.57E-07,  avg # of iterations = 20.0

[...]

     total energy              =   -2549.04218742 Ry
     estimated scf accuracy    <       0.00000261 Ry

     iteration # 13     ecut=    30.00 Ry     beta= 0.70
     Davidson diagonalization with overlap

     ethr =  2.04E-09,  avg # of iterations =  5.0

     End of self-consistent calculation

          k = 0.0000 0.0000 0.0000 (  2515 PWs)   bands (ev):

   -43.4161 -43.4150 -43.3689 -43.3687 -22.9066 -22.7433 -22.7169 -22.6456
   -15.3817 -15.3603 -15.3302 -15.3246 -15.3178 -15.3177 -15.3172 -15.3147
   -15.2745 -15.2724 -15.2618 -15.2537  -9.9385  -9.7096  -9.7073  -9.7051
    -9.6811  -9.4087  -8.7782  -8.6074  -6.8480  -6.6834  -6.4738  -6.4275
    -6.3732  -6.2300  -5.6490  -5.6276  -5.4501  -5.4455  -5.4023  -5.4017
     4.6356   4.6518   4.7623   5.0686   5.1551   5.1768   5.1846   5.2919
     5.3756   5.5388   5.5426   5.5638   5.6205   5.8411   5.9127   5.9259
     6.1636   6.2966   6.3161   6.3792   6.4735   6.5867   6.5913   6.6047
    10.2627  10.9727  11.5585  11.6659  11.7078  11.7082  11.8427  11.9491
    11.9975  12.0917  12.1256  12.1931  12.2344

     occupation numbers
     1.0000   1.0000   1.0000   1.0000   1.0000   1.0000   1.0000   1.0000
     1.0000   1.0000   1.0000   1.0000   1.0000   1.0000   1.0000   1.0000
     1.0000   1.0000   1.0000   1.0000   1.0000   1.0000   1.0000   1.0000
     1.0000   1.0000   1.0000   1.0000   1.0000   1.0000   1.0000   1.0000
     1.0000   1.0000   1.0000   1.0000   1.0000   1.0000   1.0000   1.0000
     1.0000   1.0000   1.0000   1.0000   1.0000   1.0000   1.0000   1.0000
     1.0000   1.0000   1.0000   1.0000   1.0000   1.0000   1.0000   1.0000
     1.0000   1.0000   1.0000   1.0000   1.0000   1.0000   1.0000   1.0000
    -0.0000  -0.0000  -0.0000  -0.0000  -0.0000  -0.0000  -0.0000  -0.0000
    -0.0000  -0.0000  -0.0000  -0.0000  -0.0000

     the Fermi energy is     8.8753 ev

!    total energy              =   -2549.04218852 Ry
     estimated scf accuracy    <       0.00000054 Ry
     smearing contrib. (-TS)   =       0.00000000 Ry
     internal energy E=F+TS    =   -2549.04218852 Ry

     The total energy is F=E-TS. E is the sum of the following terms:
     one-electron contribution =    -357.74994441 Ry
     hartree contribution      =     250.35371514 Ry
     xc contribution           =    -152.74571017 Ry
     ewald contribution        =    -620.21664170 Ry
     one-center paw contrib.   =   -1668.68360739 Ry
      -> PAW hartree energy AE =     373.59084863 Ry
      -> PAW hartree energy PS =    -372.97545110 Ry
      -> PAW xc energy AE      =   -1758.28767941 Ry
      -> PAW xc energy PS      =      88.98867449 Ry
      -> total E_H with PAW    =     250.96911267 Ry
      -> total E_XC with PAW   =   -1822.04471509 Ry

     convergence has been achieved in  13 iterations

     Forces acting on atoms (cartesian axes, Ry/au):

     atom    1 type  1   force =     0.00038038   -0.00017945    0.00000558
     atom    2 type  1   force =     0.00040618   -0.00019927   -0.00000280
     atom    3 type  1   force =    -0.00040618    0.00019927    0.00000280
     atom    4 type  1   force =    -0.00038038    0.00017945   -0.00000558
     atom    5 type  2   force =    -0.00653615    0.00322259    0.00000420
     atom    6 type  2   force =     0.00415802   -0.00205692    0.00000760
     atom    7 type  2   force =    -0.00415802    0.00205692   -0.00000760
     atom    8 type  2   force =     0.00653615   -0.00322259   -0.00000420
     atom    9 type  3   force =    -0.00312357   -0.00587837    0.00159094
     atom   10 type  3   force =     0.00069819    0.00037749    0.00150219
     atom   11 type  3   force =     0.00012129   -0.00078912   -0.00150681
     atom   12 type  3   force =    -0.00276465   -0.00606122    0.00158626
     atom   13 type  3   force =     0.00276465    0.00606122   -0.00158626
     atom   14 type  3   force =    -0.00012129    0.00078912    0.00150681
     atom   15 type  3   force =    -0.00069819   -0.00037749   -0.00150219
     atom   16 type  3   force =     0.00312357    0.00587837   -0.00159094
     The non-local contrib.  to forces
     atom    1 type  1   force =    -0.02995651    0.01476630   -0.00001569
     atom    2 type  1   force =    -0.01571122    0.00773650   -0.00000752
     atom    3 type  1   force =     0.01571122   -0.00773650    0.00000752
     atom    4 type  1   force =     0.02995651   -0.01476630    0.00001569
     atom    5 type  2   force =     0.02280036   -0.01127409   -0.00001108
     atom    6 type  2   force =    -0.02421258    0.01195634    0.00000331
     atom    7 type  2   force =     0.02421258   -0.01195634   -0.00000331
     atom    8 type  2   force =    -0.02280036    0.01127409    0.00001108
     atom    9 type  3   force =    -0.01965434   -0.04719036   -0.08762768
     atom   10 type  3   force =     0.00037228   -0.00290663    0.07487720
     atom   11 type  3   force =     0.00253895    0.00146473   -0.07491461
     atom   12 type  3   force =    -0.02551176   -0.04430294   -0.08762403
     atom   13 type  3   force =     0.02551176    0.04430294    0.08762403
     atom   14 type  3   force =    -0.00253895   -0.00146473    0.07491461
     atom   15 type  3   force =    -0.00037228    0.00290663   -0.07487720
     atom   16 type  3   force =     0.01965434    0.04719036    0.08762768
     The ionic contribution  to forces
     atom    1 type  1   force =     0.18031399   -0.08900529    0.00000000
     atom    2 type  1   force =     0.27038162   -0.13346382   -0.00000000
     atom    3 type  1   force =    -0.27038162    0.13346382    0.00000000
     atom    4 type  1   force =    -0.18031399    0.08900529   -0.00000000
     atom    5 type  2   force =    -0.68392600    0.33759461   -0.00000000
     atom    6 type  2   force =     0.57652209   -0.28457867   -0.00000000
     atom    7 type  2   force =    -0.57652209    0.28457867    0.00000000
     atom    8 type  2   force =     0.68392600   -0.33759461    0.00000000
     atom    9 type  3   force =     0.70517594    1.58790989    1.63789835
     atom   10 type  3   force =    -0.05518861   -0.00519649   -1.66570828
     atom   11 type  3   force =    -0.02943874    0.04696963    1.66570828
     atom   12 type  3   force =     0.83163666    1.52548726    1.63789835
     atom   13 type  3   force =    -0.83163666   -1.52548726   -1.63789835
     atom   14 type  3   force =     0.02943874   -0.04696963   -1.66570828
     atom   15 type  3   force =     0.05518861    0.00519649    1.66570828
     atom   16 type  3   force =    -0.70517594   -1.58790989   -1.63789835
     The local contribution  to forces
     atom    1 type  1   force =    -0.15008607    0.07406044    0.00000105
     atom    2 type  1   force =    -0.25429100    0.12556925    0.00000109
     atom    3 type  1   force =     0.25441175   -0.12560425   -0.00002313
     atom    4 type  1   force =     0.14997410   -0.07406588   -0.00000342
     atom    5 type  2   force =     0.65479446   -0.32321950    0.00002427
     atom    6 type  2   force =    -0.54833555    0.27068620    0.00009625
     atom    7 type  2   force =     0.54807919   -0.27048104   -0.00000683
     atom    8 type  2   force =    -0.65456201    0.32314514    0.00000329
     atom    9 type  3   force =    -0.68872566   -1.54637048   -1.54932511
     atom   10 type  3   force =     0.05550333    0.00846636    1.59266991
     atom   11 type  3   force =     0.02702464   -0.04922262   -1.59255645
     atom   12 type  3   force =    -0.80878944   -1.48714311   -1.54917806
     atom   13 type  3   force =     0.80866841    1.48718184    1.54928127
     atom   14 type  3   force =    -0.02687873    0.04922118    1.59268299
     atom   15 type  3   force =    -0.05544056   -0.00864185   -1.59270065
     atom   16 type  3   force =     0.68858495    1.54651431    1.54924571
     The core correction contribution to forces
     atom    1 type  1   force =     0.00000000    0.00000000    0.00000000
     atom    2 type  1   force =     0.00000000    0.00000000    0.00000000
     atom    3 type  1   force =     0.00000000    0.00000000    0.00000000
     atom    4 type  1   force =     0.00000000    0.00000000    0.00000000
     atom    5 type  2   force =    -0.00003709    0.00001836    0.00000002
     atom    6 type  2   force =     0.00003265   -0.00001614    0.00000003
     atom    7 type  2   force =    -0.00003270    0.00001616    0.00000001
     atom    8 type  2   force =     0.00003713   -0.00001832   -0.00000005
     atom    9 type  3   force =    -0.00013094   -0.00035375    0.00039200
     atom   10 type  3   force =     0.00003231   -0.00000098   -0.00022865
     atom   11 type  3   force =     0.00002009   -0.00002516    0.00022980
     atom   12 type  3   force =    -0.00020031   -0.00031856    0.00039286
     atom   13 type  3   force =     0.00020117    0.00031908   -0.00039197
     atom   14 type  3   force =    -0.00002063    0.00002498   -0.00022959
     atom   15 type  3   force =    -0.00003268    0.00000086    0.00022922
     atom   16 type  3   force =     0.00013069    0.00035314   -0.00039258
     The Hubbard contrib.    to forces
     atom    1 type  1   force =     0.00000000    0.00000000    0.00000000
     atom    2 type  1   force =     0.00000000    0.00000000    0.00000000
     atom    3 type  1   force =     0.00000000    0.00000000    0.00000000
     atom    4 type  1   force =     0.00000000    0.00000000    0.00000000
     atom    5 type  2   force =     0.00000000    0.00000000    0.00000000
     atom    6 type  2   force =     0.00000000    0.00000000    0.00000000
     atom    7 type  2   force =     0.00000000    0.00000000    0.00000000
     atom    8 type  2   force =     0.00000000    0.00000000    0.00000000
     atom    9 type  3   force =     0.00000000    0.00000000    0.00000000
     atom   10 type  3   force =     0.00000000    0.00000000    0.00000000
     atom   11 type  3   force =     0.00000000    0.00000000    0.00000000
     atom   12 type  3   force =     0.00000000    0.00000000    0.00000000
     atom   13 type  3   force =     0.00000000    0.00000000    0.00000000
     atom   14 type  3   force =     0.00000000    0.00000000    0.00000000
     atom   15 type  3   force =     0.00000000    0.00000000    0.00000000
     atom   16 type  3   force =     0.00000000    0.00000000    0.00000000
     The SCF correction term to forces
     atom    1 type  1   force =     0.00010179   -0.00000512    0.00005729
     atom    2 type  1   force =     0.00002810   -0.00002395    0.00000106
     atom    3 type  1   force =    -0.00014621    0.00009344    0.00001583
     atom    4 type  1   force =    -0.00000418    0.00000213    0.00001921
     atom    5 type  2   force =    -0.00017052    0.00012381   -0.00001626
     atom    6 type  2   force =     0.00015324   -0.00011015   -0.00007682
     atom    7 type  2   force =     0.00010682   -0.00010603    0.00001770
     atom    8 type  2   force =    -0.00006726   -0.00000830   -0.00002575
     atom    9 type  3   force =     0.00021118    0.00009827    0.00023902
     atom   10 type  3   force =    -0.00003764    0.00002610   -0.00008894
     atom   11 type  3   force =    -0.00004974    0.00001517    0.00002340
     atom   12 type  3   force =     0.00012995    0.00023196    0.00011312
     atom   13 type  3   force =     0.00004972   -0.00023953   -0.00018529
     atom   14 type  3   force =    -0.00014781   -0.00003181   -0.00015570
     atom   15 type  3   force =    -0.00005781    0.00017124    0.00015721
     atom   16 type  3   force =    -0.00007070   -0.00029760   -0.00018776

     Total force =     0.018684     Total SCF correction =     0.000834

     Computing stress (Cartesian axis) and pressure

          total   stress  (Ry/bohr**3)                   (kbar)     P=     -225.04
  -0.00156944   0.00004026  -0.00000163         -230.87        5.92       -0.24
   0.00004026  -0.00150763  -0.00000329            5.92     -221.78       -0.48
  -0.00000163  -0.00000329  -0.00151228           -0.24       -0.48     -222.46

     kinetic stress (kbar)  15181.35    -23.30    -11.23
                              -23.30  15145.66    -22.75
                              -11.23    -22.75  15143.09

     local   stress (kbar)   4928.48    316.67    168.85
                              316.67   5413.72    342.07
                              168.85    342.07  10235.67

     nonloc. stress (kbar)  -8234.28      4.42      7.19
                                4.42  -8227.51     14.56
                                7.19     14.56  -8241.38

     hartree stress (kbar)   7626.90    -77.83      0.31
                              -77.83   7507.63      0.62
                                0.31      0.62   5334.96

     exc-cor stress (kbar)  -3628.39     -1.03     -0.95
                               -1.03  -3629.96     -1.91
                               -0.95     -1.91  -3631.54

     corecor stress (kbar)   -296.49      0.09      0.03
                                0.09   -296.35      0.05
                                0.03      0.05   -296.33

     ewald   stress (kbar) -15808.45   -213.09   -164.43
                             -213.09 -16134.95   -333.12
                             -164.43   -333.12 -18766.93

     hubbard stress (kbar)      0.00      0.00      0.00
                                0.00      0.00      0.00
                                0.00      0.00      0.00

     DFT-D   stress (kbar)      0.00      0.00      0.00
                                0.00      0.00      0.00
                                0.00      0.00      0.00

     XDM     stress (kbar)      0.00      0.00      0.00
                                0.00      0.00      0.00
                                0.00      0.00      0.00

     dft-nl  stress (kbar)      0.00      0.00      0.00
                                0.00      0.00      0.00
                                0.00      0.00      0.00

     TS-vdW  stress (kbar)      0.00      0.00      0.00
                                0.00      0.00      0.00
                                0.00      0.00      0.00

[...]

                                0.00      0.00      0.00

     Writing all to output data dir new_calculations/myprefix.save/

     General routines

     Parallel routines

     PAW routines

   This run was terminated on:   3:58:50  21May2023

   JOB DONE.