     Program PWSCF v.7.0 starts on 20May2023 at 11:15:36

     Reading input from espresso_1365.pwi
Warning: card &CELL ignored
Warning: card / ignored

     Current dimensions of program PWSCF are:
     Max number of different atomic species (ntypx) = 10
     Max number of k-points (npk) =  40000
     Max angular momentum in pseudopotentials (lmaxx) =  4

     gamma-point specific algorithms are used
     Message from routine setup:
     using ibrav=0 with symmetry is DISCOURAGED, use correct ibrav instead

     Subspace diagonalization in iterative solution of the eigenvalue problem:
     a serial algorithm will be used

     Using Slab Decomposition

     bravais-lattice index     =            0
     lattice parameter (alat)  =       6.7210  a.u.
     unit-cell volume          =    1852.1458 (a.u.)^3
     number of atoms/cell      =            6
     number of atomic types    =            2
     number of electrons       =        52.00
     number of Kohn-Sham states=           31
     kinetic-energy cutoff     =      30.0000  Ry
     charge density cutoff     =     240.0000  Ry
     scf convergence threshold =      1.0E-06
     mixing beta               =       0.7000
     number of iterations used =            8  plain     mixing
     Exchange-correlation= SLA  PW   PBE  PBE
                           (   1   4   3   4   0   0   0)

     celldm(1)=   6.720989  celldm(2)=   0.000000  celldm(3)=   0.000000
     celldm(4)=   0.000000  celldm(5)=   0.000000  celldm(6)=   0.000000

     crystal axes: (cart. coord. in units of alat)
               a(1) = (   1.000000   0.000000   0.000000 )
               a(2) = (  -0.500000   0.866025   0.000000 )
               a(3) = (   0.000000   0.000000   7.044416 )

     reciprocal axes: (cart. coord. in units 2 pi/alat)
               b(1) = (  1.000000  0.577350  0.000000 )
               b(2) = (  0.000000  1.154701  0.000000 )
               b(3) = (  0.000000  0.000000  0.141956 )

     PseudoPot. # 1 for Te read from file:
     /home/pragov/projects/rrg-bengioy-ad/pragov/crystal_structure_design/SSSP/Te_pbe_v1.uspp.F.UPF
     MD5 check sum: c319670d6894cc26e93307826a071b75
     Pseudo is Ultrasoft + core correction, Zval =  6.0
     Generated by new atomic code, or converted to UPF format
     Using radial grid of  891 points,  5 beta functions with:
                l(1) =   0
                l(2) =   0
                l(3) =   1
                l(4) =   1
                l(5) =   2
     Q(r) pseudized with  6 coefficients,  rinner =    1.800   1.800   1.800
                                                       1.800   1.800

     PseudoPot. # 2 for W  read from file:
     /home/pragov/projects/rrg-bengioy-ad/pragov/crystal_structure_design/SSSP/W_pbe_v1.2.uspp.F.UPF
     MD5 check sum: 9c083fa34c2a2ea0f02f1f893e16e1c8
     Pseudo is Ultrasoft + core correction, Zval = 14.0
     Generated by new atomic code, or converted to UPF format
     Using radial grid of  923 points,  8 beta functions with:
                l(1) =   0
                l(2) =   0
                l(3) =   0
                l(4) =   1
                l(5) =   1
                l(6) =   2
                l(7) =   2
                l(8) =   3
     Q(r) pseudized with  6 coefficients,  rinner =    1.350   1.350   1.350
                                                       1.350   1.350   1.350
                                                       1.350

     atomic species   valence    mass     pseudopotential
        Te             6.00   127.60000     Te( 1.00)
        W             14.00   183.84000     W ( 1.00)

     12 Sym. Ops., with inversion, found

                                    s                        frac. trans.

      isym =  1     identity

 cryst.   s( 1) = (     1          0          0      )
                  (     0          1          0      )
                  (     0          0          1      )

 cart.    s( 1) = (  1.0000000 -0.0000000  0.0000000 )
                  (  0.0000000  1.0000000  0.0000000 )
                  (  0.0000000  0.0000000  1.0000000 )

      isym =  2     180 deg rotation - cart. axis [1,0,0]

[...]

      isym =  3     120 deg rotation - cryst. axis [0,0,1]

[...]

      isym =  6     180 deg rotation - cryst. axis [1,1,0]

[...]

      isym =  7     inversion

[...]

      isym =  8     inv. 180 deg rotation - cart. axis [1,0,0]

[...]

      isym =  9     inv. 120 deg rotation - cryst. axis [0,0,1]

 cryst.   s( 9) = (     0         -1          0      )
                  (     1          1          0      )
                  (     0          0         -1      )

 cart.    s( 9) = (  0.5000001  0.8660254  0.0000000 )
                  ( -0.8660254  0.4999999  0.0000000 )
                  (  0.0000000  0.0000000 -1.0000000 )

[...]

 cryst.   s(10) = (     1          1          0      )
                  (    -1          0          0      )
                  (     0          0         -1      )

 cart.    s(10) = (  0.4999999 -0.8660254  0.0000000 )
                  (  0.8660254  0.5000001  0.0000000 )
                  (  0.0000000  0.0000000 -1.0000000 )

[...]

      isym = 12     inv. 180 deg rotation - cryst. axis [1,1,0]

 cryst.   s(12) = (     0         -1          0      )
                  (    -1          0          0      )
                  (     0          0          1      )

 cart.    s(12) = (  0.5000001 -0.8660254  0.0000000 )
                  ( -0.8660254 -0.5000001  0.0000000 )
                  (  0.0000000  0.0000000  1.0000000 )

   Cartesian axes

     site n.     atom                  positions (alat units)
         1           Te  tau(   1) = (  -0.0000005   0.5773505   1.5706301  )
         2           Te  tau(   2) = (   0.5000005   0.2886748   5.4737861  )
         3           Te  tau(   3) = (   0.5000005   0.2886748   6.4952476  )
         4           Te  tau(   4) = (  -0.0000005   0.5773505   0.5491686  )
         5           W   tau(   5) = (  -0.0000005   0.5773505   5.9842457  )
         6           W   tau(   6) = (   0.5000005   0.2886748   1.0601706  )

   Crystallographic axes

     site n.     atom                  positions (cryst. coord.)
         1           Te  tau(   1) = (  0.3333330  0.6666670  0.2229610  )
         2           Te  tau(   2) = (  0.6666670  0.3333330  0.7770390  )
         3           Te  tau(   3) = (  0.6666670  0.3333330  0.9220420  )
         4           Te  tau(   4) = (  0.3333330  0.6666670  0.0779580  )
         5           W   tau(   5) = (  0.3333330  0.6666670  0.8495020  )
         6           W   tau(   6) = (  0.6666670  0.3333330  0.1504980  )

     number of k points=     1  Methfessel-Paxton smearing, width (Ry)=  0.0010
                       cart. coord. in units 2pi/alat
        k(    1) = (   0.0000000   0.0000000   0.0000000), wk =   2.0000000

                       cryst. coord.
        k(    1) = (   0.0000000   0.0000000   0.0000000), wk =   2.0000000

     Initial potential from superposition of free atoms

     starting charge      51.7985, renormalised to      52.0000

     negative rho (up, down):  1.246E-01 0.000E+00
     Starting wfcs are   42 randomized atomic wfcs

     Self-consistent Calculation

     iteration #  1     ecut=    30.00 Ry     beta= 0.70
     Davidson diagonalization with overlap

     ethr =  1.00E-02,  avg # of iterations =  2.0

     negative rho (up, down):  1.301E-01 0.000E+00

     total energy              =    -419.19668654 Ry
     estimated scf accuracy    <       5.25322499 Ry

[...]

     total energy              =    -422.91840012 Ry
     estimated scf accuracy    <       0.00000334 Ry

     iteration # 21     ecut=    30.00 Ry     beta= 0.70
     Davidson diagonalization with overlap

     ethr =  6.43E-09,  avg # of iterations =  2.0

[...]

     End of self-consistent calculation

          k = 0.0000 0.0000 0.0000 (  2571 PWs)   bands (ev):

   -68.5421 -68.5398 -32.8857 -32.8856 -32.8835 -32.8835 -32.7783 -32.7759
   -10.2113 -10.1409  -9.3254  -9.2237  -2.4590  -2.0491   0.5736   1.4446
     2.0470   2.0470   2.0546   2.0546   2.7838   2.7838   2.8020   2.8021
     3.3453   3.7510   6.1925   6.1926   6.2006   6.2007   6.3937

     occupation numbers
     1.0000   1.0000   1.0000   1.0000   1.0000   1.0000   1.0000   1.0000
     1.0000   1.0000   1.0000   1.0000   1.0000   1.0000   1.0000   1.0000
     1.0000   1.0000   1.0000   1.0000   1.0000   1.0000   1.0000   1.0000
     1.0000   1.0000  -0.0000  -0.0000  -0.0000  -0.0000  -0.0000

     the Fermi energy is     4.1795 ev

!    total energy              =    -422.91839938 Ry
     estimated scf accuracy    <       0.00000099 Ry
     smearing contrib. (-TS)   =       0.00000000 Ry
     internal energy E=F+TS    =    -422.91839938 Ry

     The total energy is F=E-TS. E is the sum of the following terms:
     one-electron contribution =   -1564.55121236 Ry
     hartree contribution      =     790.61890923 Ry
     xc contribution           =    -140.67795052 Ry
     ewald contribution        =     491.69185427 Ry

     convergence has been achieved in  21 iterations

     negative rho (up, down):  1.213E-01 0.000E+00

     Forces acting on atoms (cartesian axes, Ry/au):

     atom    1 type  1   force =     0.00000000    0.00000000   -0.07587157
     atom    2 type  1   force =    -0.00000000   -0.00000000    0.07587157
     atom    3 type  1   force =     0.00000000    0.00000000   -0.10375174
     atom    4 type  1   force =    -0.00000000    0.00000000    0.10375174
     atom    5 type  2   force =     0.00000000   -0.00000000   -0.00469636
     atom    6 type  2   force =     0.00000000    0.00000000    0.00469636
     The non-local contrib.  to forces
     atom    1 type  1   force =     0.00000000    0.00000000   -0.20952626
     atom    2 type  1   force =     0.00000000   -0.00000000    0.20952626
     atom    3 type  1   force =     0.00000000    0.00000000   -0.15777502
     atom    4 type  1   force =     0.00000000    0.00000000    0.15777502
     atom    5 type  2   force =    -0.00000000   -0.00000000   -0.00717776
     atom    6 type  2   force =     0.00000000    0.00000000    0.00717776
     The ionic contribution  to forces
     atom    1 type  1   force =     0.00000625   -0.00000361   42.22447600
     atom    2 type  1   force =    -0.00000625    0.00000361  -42.22447600
     atom    3 type  1   force =    -0.00000628    0.00000362    2.33654007
     atom    4 type  1   force =     0.00000628   -0.00000362   -2.33654007
     atom    5 type  2   force =     0.00001249   -0.00000721  -46.54564091
     atom    6 type  2   force =    -0.00001249    0.00000721   46.54564091
     The local contribution  to forces
     atom    1 type  1   force =     0.00000929   -0.00000482  -42.08051508
     atom    2 type  1   force =    -0.00001185    0.00001500   42.08029035
     atom    3 type  1   force =    -0.00000969    0.00004128   -2.27747857
     atom    4 type  1   force =    -0.00001863   -0.00000489    2.27819958
     atom    5 type  2   force =    -0.00001990   -0.00007710   46.54926699
     atom    6 type  2   force =     0.00000740   -0.00000833  -46.54770162
     The core correction contribution to forces
     atom    1 type  1   force =    -0.00000190   -0.00000009   -0.01124566
     atom    2 type  1   force =     0.00000193   -0.00000059    0.01124411
     atom    3 type  1   force =     0.00000134   -0.00000315   -0.00551207
     atom    4 type  1   force =     0.00000115    0.00000060    0.00551232
     atom    5 type  2   force =    -0.00000061   -0.00000119   -0.00012737
     atom    6 type  2   force =    -0.00000047   -0.00000185    0.00013542
     The Hubbard contrib.    to forces
     atom    1 type  1   force =     0.00000000    0.00000000    0.00000000
     atom    2 type  1   force =     0.00000000    0.00000000    0.00000000
     atom    3 type  1   force =     0.00000000    0.00000000    0.00000000
     atom    4 type  1   force =     0.00000000    0.00000000    0.00000000
     atom    5 type  2   force =     0.00000000    0.00000000    0.00000000
     atom    6 type  2   force =     0.00000000    0.00000000    0.00000000
     The SCF correction term to forces
     atom    1 type  1   force =     0.00000396    0.00000562    0.00097055
     atom    2 type  1   force =    -0.00000241   -0.00001139   -0.00068204
     atom    3 type  1   force =    -0.00000167   -0.00000589    0.00045156
     atom    4 type  1   force =     0.00000130    0.00000295   -0.00121740
     atom    5 type  2   force =     0.00001135    0.00005975   -0.00107917
     atom    6 type  2   force =    -0.00000668    0.00001860   -0.00061798

     Total force =     0.181895     Total SCF correction =     0.002155

     Computing stress (Cartesian axis) and pressure

     negative rho (up, down):  1.213E-01 0.000E+00
          total   stress  (Ry/bohr**3)                   (kbar)     P=       68.59
   0.00090824   0.00000000   0.00000000          133.61        0.00        0.00
   0.00000000   0.00090824   0.00000000            0.00      133.61        0.00
   0.00000000   0.00000000  -0.00041771            0.00        0.00      -61.45

     kinetic stress (kbar)   6047.70      0.00      0.00
                                0.00   6047.70      0.00
                                0.00      0.00   6131.70

     local   stress (kbar)-112522.29     -0.01      0.00
                               -0.01-112522.29      0.01
                                0.00      0.01 125611.38

     nonloc. stress (kbar)  -4838.69     -0.00      0.00
                               -0.00  -4838.69      0.00
                                0.00      0.00  -4868.90

     hartree stress (kbar)  59789.99      0.00     -0.00
                                0.00  59789.98     -0.00
                               -0.00     -0.00 -56785.75

     exc-cor stress (kbar)   5673.41      0.00     -0.00
                                0.00   5673.41     -0.00
                               -0.00     -0.00   5680.31

     corecor stress (kbar)  -7635.29     -0.00      0.00
                               -0.00  -7635.29      0.00
                                0.00      0.00  -7644.83

     ewald   stress (kbar)  53618.78      0.01      0.00
                                0.01  53618.79     -0.00
                                0.00     -0.00 -68185.36

     hubbard stress (kbar)      0.00      0.00      0.00
                                0.00      0.00      0.00
                                0.00      0.00      0.00

     DFT-D   stress (kbar)      0.00      0.00      0.00
                                0.00      0.00      0.00
                                0.00      0.00      0.00

     XDM     stress (kbar)      0.00      0.00      0.00
                                0.00      0.00      0.00
                                0.00      0.00      0.00

     dft-nl  stress (kbar)      0.00      0.00      0.00
                                0.00      0.00      0.00
                                0.00      0.00      0.00

     TS-vdW  stress (kbar)      0.00      0.00      0.00
                                0.00      0.00      0.00
                                0.00      0.00      0.00

[...]

                                0.00      0.00      0.00

     Writing all to output data dir new_calculations/myprefix.save/

     General routines

     Parallel routines

   This run was terminated on:  11:15:57  20May2023

   JOB DONE.