     Program PWSCF v.7.0 starts on 21May2023 at  2:45:53

     Reading input from espresso_3979.pwi
Warning: card &CELL ignored
Warning: card / ignored

     Current dimensions of program PWSCF are:
     Max number of different atomic species (ntypx) = 10
     Max number of k-points (npk) =  40000
     Max angular momentum in pseudopotentials (lmaxx) =  4

     gamma-point specific algorithms are used
     Message from routine setup:
     using ibrav=0 with symmetry is DISCOURAGED, use correct ibrav instead

     Subspace diagonalization in iterative solution of the eigenvalue problem:
     a serial algorithm will be used

     Using Slab Decomposition

     bravais-lattice index     =            0
     lattice parameter (alat)  =      12.6776  a.u.
     unit-cell volume          =    3179.9844 (a.u.)^3
     number of atoms/cell      =           16
     number of atomic types    =            2
     number of electrons       =       206.00
     number of Kohn-Sham states=          124
     kinetic-energy cutoff     =      30.0000  Ry
     charge density cutoff     =     240.0000  Ry
     scf convergence threshold =      1.0E-06
     mixing beta               =       0.7000
     number of iterations used =            8  plain     mixing
     Exchange-correlation= SLA  PW   PBE  PBE
                           (   1   4   3   4   0   0   0)

     celldm(1)=  12.677564  celldm(2)=   0.000000  celldm(3)=   0.000000
     celldm(4)=   0.000000  celldm(5)=   0.000000  celldm(6)=   0.000000

     crystal axes: (cart. coord. in units of alat)
               a(1) = (   1.000000   0.000000   0.000000 )
               a(2) = (  -0.215889   0.976418   0.000000 )
               a(3) = (   0.000000   0.000000   1.598386 )

     reciprocal axes: (cart. coord. in units 2 pi/alat)
               b(1) = (  1.000000  0.221103  0.000000 )
               b(2) = (  0.000000  1.024152  0.000000 )
               b(3) = (  0.000000  0.000000  0.625631 )

     PseudoPot. # 1 for La read from file:
     /home/pragov/projects/rrg-bengioy-ad/pragov/crystal_structure_design/SSSP/La.GGA-PBE-paw-v1.0.UPF
     MD5 check sum: 436541e95c1ad8901025bd0b0ed42ae2
     Pseudo is Projector augmented-wave + core cor, Zval = 11.0
     Generated using ATOMPAW code
     Shape of augmentation charge: BESSEL
     Using radial grid of 1101 points,  8 beta functions with:
                l(1) =   0
                l(2) =   0
                l(3) =   1
                l(4) =   1
                l(5) =   2
                l(6) =   2
                l(7) =   3
                l(8) =   3
     Q(r) pseudized with 0 coefficients

     PseudoPot. # 2 for Sn read from file:
     /home/pragov/projects/rrg-bengioy-ad/pragov/crystal_structure_design/SSSP/Sn_pbe_v1.uspp.F.UPF
     MD5 check sum: 4cf58ce39ec5d5d420df3dd08604eb00
     Pseudo is Ultrasoft + core correction, Zval = 14.0
     Generated by new atomic code, or converted to UPF format
     Using radial grid of  891 points,  6 beta functions with:
                l(1) =   0
                l(2) =   0
                l(3) =   1
                l(4) =   1
                l(5) =   2
                l(6) =   2
     Q(r) pseudized with  6 coefficients,  rinner =    1.200   1.200   1.200
                                                       1.200   1.200

     atomic species   valence    mass     pseudopotential
        La            11.00   138.90547     La( 1.00)
        Sn            14.00   118.71000     Sn( 1.00)

      4 Sym. Ops., with inversion, found ( 2 have fractional translation)

                                    s                        frac. trans.

      isym =  1     identity

 cryst.   s( 1) = (     1          0          0      )
                  (     0          1          0      )
                  (     0          0          1      )

 cart.    s( 1) = (  1.0000000  0.0000000  0.0000000 )
                  (  0.0000000  1.0000000  0.0000000 )
                  (  0.0000000  0.0000000  1.0000000 )

      isym =  2     180 deg rotation - cart. axis [0,0,1]

 cryst.   s( 2) = (    -1          0          0      )    f =(  0.0000000 )
                  (     0         -1          0      )       (  0.0000000 )
                  (     0          0          1      )       (  0.5000000 )

 cart.    s( 2) = ( -1.0000000 -0.0000000  0.0000000 )    f =(  0.0000000 )
                  (  0.0000000 -1.0000000  0.0000000 )       (  0.0000000 )
                  (  0.0000000  0.0000000  1.0000000 )       (  0.7991932 )

      isym =  3     inversion

 cryst.   s( 3) = (    -1          0          0      )
                  (     0         -1          0      )
                  (     0          0         -1      )

 cart.    s( 3) = ( -1.0000000 -0.0000000  0.0000000 )
                  (  0.0000000 -1.0000000  0.0000000 )
                  (  0.0000000  0.0000000 -1.0000000 )

      isym =  4     inv. 180 deg rotation - cart. axis [0,0,1]

 cryst.   s( 4) = (     1          0          0      )    f =(  0.0000000 )
                  (     0          1          0      )       (  0.0000000 )
                  (     0          0         -1      )       ( -0.5000000 )

 cart.    s( 4) = (  1.0000000  0.0000000  0.0000000 )    f =(  0.0000000 )
                  (  0.0000000  1.0000000  0.0000000 )       (  0.0000000 )
                  (  0.0000000  0.0000000 -1.0000000 )       ( -0.7991932 )

   Cartesian axes

     site n.     atom                  positions (alat units)
         1           La  tau(   1) = (   0.4988051   0.6211395   0.3995966  )
         2           La  tau(   2) = (   0.2853058   0.3552784   1.1987898  )
         3           La  tau(   3) = (   0.0298871   0.7790477   0.7991932  )
         4           La  tau(   4) = (   0.0298871   0.7790477   0.0000000  )
         5           La  tau(   5) = (   0.7542238   0.1973702   0.7991932  )
         6           La  tau(   6) = (   0.7542238   0.1973702   0.0000000  )
         7           Sn  tau(   7) = (   0.0206527   0.0257179   0.3995966  )
         8           Sn  tau(   8) = (   0.7634582   0.9507000   1.1987898  )
         9           Sn  tau(   9) = (   0.2504662   0.3118942   0.0775809  )
        10           Sn  tau(  10) = (   0.5336447   0.6645237   1.5208055  )
        11           Sn  tau(  11) = (   0.2504662   0.3118942   0.7216123  )
        12           Sn  tau(  12) = (   0.5336447   0.6645237   0.8767741  )
        13           Sn  tau(  13) = (   0.4774801   0.0742908   0.3995966  )
        14           Sn  tau(  14) = (   0.8146548   0.4941592   1.1987898  )
        15           Sn  tau(  15) = (   0.3066308   0.9021271   1.1987898  )
        16           Sn  tau(  16) = (  -0.0305439   0.4822587   0.3995966  )

   Crystallographic axes

     site n.     atom                  positions (cryst. coord.)
         1           La  tau(   1) = (  0.6361410  0.6361410  0.2500000  )
         2           La  tau(   2) = (  0.3638590  0.3638590  0.7500000  )
         3           La  tau(   3) = (  0.2021370  0.7978630  0.5000000  )
         4           La  tau(   4) = (  0.2021370  0.7978630  0.0000000  )
         5           La  tau(   5) = (  0.7978630  0.2021370  0.5000000  )
         6           La  tau(   6) = (  0.7978630  0.2021370  0.0000000  )
         7           Sn  tau(   7) = (  0.0263390  0.0263390  0.2500000  )
         8           Sn  tau(   8) = (  0.9736610  0.9736610  0.7500000  )
         9           Sn  tau(   9) = (  0.3194270  0.3194270  0.0485370  )
        10           Sn  tau(  10) = (  0.6805730  0.6805730  0.9514630  )
        11           Sn  tau(  11) = (  0.3194270  0.3194270  0.4514630  )
        12           Sn  tau(  12) = (  0.6805730  0.6805730  0.5485370  )
        13           Sn  tau(  13) = (  0.4939060  0.0760850  0.2500000  )
        14           Sn  tau(  14) = (  0.9239150  0.5060940  0.7500000  )
        15           Sn  tau(  15) = (  0.5060940  0.9239150  0.7500000  )
        16           Sn  tau(  16) = (  0.0760850  0.4939060  0.2500000  )

     number of k points=     1  Methfessel-Paxton smearing, width (Ry)=  0.0010
                       cart. coord. in units 2pi/alat
        k(    1) = (   0.0000000   0.0000000   0.0000000), wk =   2.0000000

                       cryst. coord.
        k(    1) = (   0.0000000   0.0000000   0.0000000), wk =   2.0000000

     Initial potential from superposition of free atoms

     starting charge     195.9484, renormalised to     206.0000
     Starting wfcs are  282 randomized atomic wfcs
     Checking if some PAW data can be deallocated...

     Self-consistent Calculation

     iteration #  1     ecut=    30.00 Ry     beta= 0.70
     Davidson diagonalization with overlap

     ethr =  1.00E-02,  avg # of iterations =  2.0

     total energy              =   -4380.75388528 Ry
     estimated scf accuracy    <       5.31451806 Ry

[...]

     negative rho (up, down):  2.211E-05 0.000E+00

[...]

     c_bands:  5 eigenvalues not converged
     ethr =  2.55E-05,  avg # of iterations = 20.0

[...]

     c_bands:  2 eigenvalues not converged
     ethr =  2.34E-06,  avg # of iterations = 20.0

[...]

     total energy              =   -4382.67537840 Ry
     estimated scf accuracy    <       0.00000127 Ry

     iteration # 13     ecut=    30.00 Ry     beta= 0.70
     Davidson diagonalization with overlap

     ethr =  6.17E-10,  avg # of iterations =  6.0

[...]

     End of self-consistent calculation

          k = 0.0000 0.0000 0.0000 (  4406 PWs)   bands (ev):

   -21.4094 -21.4076 -21.3882 -21.3880 -21.1298 -21.1292  -9.8498  -9.8471
    -9.8333  -9.8322  -9.8227  -9.8214  -9.8108  -9.8106  -9.8096  -9.8005
    -9.7985  -9.7863  -9.7837  -9.7832  -9.7769  -9.7747  -9.7676  -9.7633
    -9.7569  -9.7441  -9.7431  -9.7342  -9.7244  -9.7189  -9.7152  -9.7108
    -9.7063  -9.7053  -9.6923  -9.6896  -9.6854  -9.6714  -9.6686  -9.6674
    -9.6660  -9.6635  -9.6524  -9.6347  -9.5990  -9.5907  -9.4281  -9.4278
    -9.3924  -9.3915  -9.3892  -9.3865  -9.3344  -9.3326  -9.3324  -9.3317
    -5.2760  -5.2532  -5.2443  -5.2317  -5.1736  -5.1322  -5.1318  -5.1053
    -5.0823  -5.0640  -5.0433  -5.0188  -4.9250  -4.9144  -4.8687  -4.8565
    -4.8512  -4.8143   1.7692   2.4739   3.6673   4.4770   4.6948   4.7020
     4.7557   5.3625   5.9695   6.1084   7.8822   7.9527   8.5655   8.8403
     9.0066   9.2185   9.2991   9.4714   9.7028   9.7251   9.8206  10.2197
    10.3416  10.3442  10.4686  10.7663  10.7717  11.8039  11.8262  12.0400
    12.1762  12.3095  12.3340  12.5756  12.8673  12.8818  12.9803  13.0412
    13.1129  13.1345  13.1402  13.1592  13.2049  13.2278  13.2954  13.3014
    13.3087  13.3399  13.3450  13.3498

     occupation numbers
     1.0000   1.0000   1.0000   1.0000   1.0000   1.0000   1.0000   1.0000
     1.0000   1.0000   1.0000   1.0000   1.0000   1.0000   1.0000   1.0000
     1.0000   1.0000   1.0000   1.0000   1.0000   1.0000   1.0000   1.0000
     1.0000   1.0000   1.0000   1.0000   1.0000   1.0000   1.0000   1.0000
     1.0000   1.0000   1.0000   1.0000   1.0000   1.0000   1.0000   1.0000
     1.0000   1.0000   1.0000   1.0000   1.0000   1.0000   1.0000   1.0000
     1.0000   1.0000   1.0000   1.0000   1.0000   1.0000   1.0000   1.0000
     1.0000   1.0000   1.0000   1.0000   1.0000   1.0000   1.0000   1.0000
     1.0000   1.0000   1.0000   1.0000   1.0000   1.0000   1.0000   1.0000
     1.0000   1.0000   1.0000   1.0000   1.0000   1.0000   1.0000   1.0000
     1.0000   1.0000   1.0000   1.0000   1.0000   1.0000   1.0000   1.0000
     1.0000   1.0000   1.0000   1.0000   1.0000   1.0000   1.0000   1.0000
     1.0000   1.0000   1.0000   1.0000   1.0000   1.0000   1.0000  -0.0000
    -0.0000  -0.0000  -0.0000  -0.0000  -0.0000  -0.0000  -0.0000  -0.0000
    -0.0000  -0.0000  -0.0000  -0.0000  -0.0000  -0.0000  -0.0000  -0.0000
    -0.0000  -0.0000  -0.0000  -0.0000

     the Fermi energy is    11.9122 ev

!    total energy              =   -4382.67537841 Ry
     estimated scf accuracy    <       0.00000048 Ry
     smearing contrib. (-TS)   =       0.00000000 Ry
     internal energy E=F+TS    =   -4382.67537841 Ry

     The total energy is F=E-TS. E is the sum of the following terms:
     one-electron contribution =    -619.18978961 Ry
     hartree contribution      =     453.23580482 Ry
     xc contribution           =    -528.59059165 Ry
     ewald contribution        =   -1299.77066826 Ry
     one-center paw contrib.   =   -2388.36013371 Ry
      -> PAW hartree energy AE =     210.32322434 Ry
      -> PAW hartree energy PS =    -210.52347078 Ry
      -> PAW xc energy AE      =   -2432.07910269 Ry
      -> PAW xc energy PS      =      43.91921542 Ry
      -> total E_H with PAW    =     453.03555838 Ry
      -> total E_XC with PAW   =   -2916.75047892 Ry

     convergence has been achieved in  13 iterations

     negative rho (up, down):  2.549E-05 0.000E+00

     Forces acting on atoms (cartesian axes, Ry/au):

     atom    1 type  1   force =    -0.00718759   -0.00897094    0.00000000
     atom    2 type  1   force =     0.00718759    0.00897094    0.00000000
     atom    3 type  1   force =    -0.01171118    0.00939536   -0.00001070
     atom    4 type  1   force =    -0.01171118    0.00939536    0.00001070
     atom    5 type  1   force =     0.01171118   -0.00939536    0.00001070
     atom    6 type  1   force =     0.01171118   -0.00939536   -0.00001070
     atom    7 type  2   force =    -0.02031136   -0.02528344   -0.00000000
     atom    8 type  2   force =     0.02031136    0.02528344    0.00000000
     atom    9 type  2   force =     0.02553728    0.03173539    0.03559578
     atom   10 type  2   force =    -0.02553728   -0.03173539   -0.03559578
     atom   11 type  2   force =     0.02553728    0.03173539   -0.03559578
     atom   12 type  2   force =    -0.02553728   -0.03173539    0.03559578
     atom   13 type  2   force =    -0.01606154   -0.01270171    0.00000000
     atom   14 type  2   force =     0.00888310    0.01842319    0.00000000
     atom   15 type  2   force =     0.01606154    0.01270171   -0.00000000
     atom   16 type  2   force =    -0.00888310   -0.01842319    0.00000000
     The non-local contrib.  to forces
     atom    1 type  1   force =     0.01477431    0.01838295    0.00000000
     atom    2 type  1   force =    -0.01477431   -0.01838295   -0.00000000
     atom    3 type  1   force =     0.02337667   -0.01878133    0.00000062
     atom    4 type  1   force =     0.02337667   -0.01878133   -0.00000062
     atom    5 type  1   force =    -0.02337667    0.01878133   -0.00000062
     atom    6 type  1   force =    -0.02337667    0.01878133    0.00000062
     atom    7 type  2   force =     0.09719244    0.12102862    0.00000000
     atom    8 type  2   force =    -0.09719244   -0.12102862   -0.00000000
     atom    9 type  2   force =     0.03708838    0.04613919    0.05910965
     atom   10 type  2   force =    -0.03708838   -0.04613919   -0.05910965
     atom   11 type  2   force =     0.03708838    0.04613919   -0.05910965
     atom   12 type  2   force =    -0.03708838   -0.04613919    0.05910965
     atom   13 type  2   force =    -0.09734510    0.26345076    0.00000000
     atom   14 type  2   force =    -0.27828536    0.03817187   -0.00000000
     atom   15 type  2   force =     0.09734510   -0.26345076    0.00000000
     atom   16 type  2   force =     0.27828536   -0.03817187    0.00000000
     The ionic contribution  to forces
     atom    1 type  1   force =     0.74123920    0.92303170    0.00000000
     atom    2 type  1   force =    -0.74123920   -0.92303170    0.00000000
     atom    3 type  1   force =     0.36975006   -0.29692723    0.00000000
     atom    4 type  1   force =     0.36975006   -0.29692723   -0.00000000
     atom    5 type  1   force =    -0.36975006    0.29692723   -0.00000000
     atom    6 type  1   force =    -0.36975006    0.29692723    0.00000000
     atom    7 type  2   force =    -4.78501906   -5.95856814    0.00000000
     atom    8 type  2   force =     4.78501906    5.95856814    0.00000000
     atom    9 type  2   force =    -0.03830847   -0.04770381   -5.83702471
     atom   10 type  2   force =     0.03830847    0.04770381    5.83702471
     atom   11 type  2   force =    -0.03830847   -0.04770381    5.83702471
     atom   12 type  2   force =     0.03830847    0.04770381   -5.83702471
     atom   13 type  2   force =     6.07970537   -3.51773223    0.00000000
     atom   14 type  2   force =     4.74731881   -5.17689304    0.00000000
     atom   15 type  2   force =    -6.07970537    3.51773223    0.00000000
     atom   16 type  2   force =    -4.74731881    5.17689304    0.00000000
     The local contribution  to forces
     atom    1 type  1   force =    -0.76290813   -0.95024383    0.00000389
     atom    2 type  1   force =     0.76327899    0.95039469   -0.00027288
     atom    3 type  1   force =    -0.40477278    0.32497803   -0.00038192
     atom    4 type  1   force =    -0.40493304    0.32507150    0.00022423
     atom    5 type  1   force =     0.40484455   -0.32508070   -0.00035220
     atom    6 type  1   force =     0.40481921   -0.32504204    0.00016372
     atom    7 type  2   force =     4.66893928    5.81432259    0.00018325
     atom    8 type  2   force =    -4.66944266   -5.81434212   -0.00005358
     atom    9 type  2   force =     0.02690341    0.03347833    5.81300602
     atom   10 type  2   force =    -0.02656711   -0.03339360   -5.81229734
     atom   11 type  2   force =     0.02673737    0.03337877   -5.81257892
     atom   12 type  2   force =    -0.02688217   -0.03341933    5.81213351
     atom   13 type  2   force =    -5.99744147    3.24956230    0.00016332
     atom   14 type  2   force =    -4.46781555    5.15469503    0.00003634
     atom   15 type  2   force =     5.99800290   -3.24938506   -0.00011660
     atom   16 type  2   force =     4.46746803   -5.15480640    0.00024182
     The core correction contribution to forces
     atom    1 type  1   force =    -0.00001324   -0.00001654   -0.00000002
     atom    2 type  1   force =     0.00001338    0.00001663   -0.00000005
     atom    3 type  1   force =    -0.00004493    0.00003607   -0.00000012
     atom    4 type  1   force =    -0.00004494    0.00003609    0.00000003
     atom    5 type  1   force =     0.00004494   -0.00003609   -0.00000011
     atom    6 type  1   force =     0.00004499   -0.00003610    0.00000001
     atom    7 type  2   force =    -0.00147682   -0.00183813    0.00000116
     atom    8 type  2   force =     0.00147539    0.00183896   -0.00000022
     atom    9 type  2   force =    -0.00025216   -0.00030753    0.00123621
     atom   10 type  2   force =     0.00024802    0.00031145   -0.00123387
     atom   11 type  2   force =    -0.00024955   -0.00031537   -0.00122842
     atom   12 type  2   force =     0.00024880    0.00030934    0.00122901
     atom   13 type  2   force =    -0.00096012   -0.00769013    0.00000179
     atom   14 type  2   force =     0.00730249    0.00259949    0.00000025
     atom   15 type  2   force =     0.00096351    0.00769189    0.00000104
     atom   16 type  2   force =    -0.00730296   -0.00260018    0.00000104
     The Hubbard contrib.    to forces
     atom    1 type  1   force =     0.00000000    0.00000000    0.00000000
     atom    2 type  1   force =     0.00000000    0.00000000    0.00000000
     atom    3 type  1   force =     0.00000000    0.00000000    0.00000000
     atom    4 type  1   force =     0.00000000    0.00000000    0.00000000
     atom    5 type  1   force =     0.00000000    0.00000000    0.00000000
     atom    6 type  1   force =     0.00000000    0.00000000    0.00000000
     atom    7 type  2   force =     0.00000000    0.00000000    0.00000000
     atom    8 type  2   force =     0.00000000    0.00000000    0.00000000
     atom    9 type  2   force =     0.00000000    0.00000000    0.00000000
     atom   10 type  2   force =     0.00000000    0.00000000    0.00000000
     atom   11 type  2   force =     0.00000000    0.00000000    0.00000000
     atom   12 type  2   force =     0.00000000    0.00000000    0.00000000
     atom   13 type  2   force =     0.00000000    0.00000000    0.00000000
     atom   14 type  2   force =     0.00000000    0.00000000    0.00000000
     atom   15 type  2   force =     0.00000000    0.00000000    0.00000000
     atom   16 type  2   force =     0.00000000    0.00000000    0.00000000
     The SCF correction term to forces
     atom    1 type  1   force =    -0.00025313   -0.00010858    0.00001071
     atom    2 type  1   force =    -0.00006468   -0.00000909    0.00025749
     atom    3 type  1   force =    -0.00002621    0.00006756    0.00028487
     atom    4 type  1   force =     0.00016942    0.00000857   -0.00019024
     atom    5 type  1   force =    -0.00007412    0.00001395    0.00026451
     atom    6 type  1   force =     0.00001961   -0.00003687   -0.00016563
     atom    7 type  2   force =     0.00005978   -0.00023987   -0.00019261
     atom    8 type  2   force =     0.00045898    0.00023561    0.00005417
     atom    9 type  2   force =     0.00010048    0.00014787   -0.00078526
     atom   10 type  2   force =    -0.00044237   -0.00019914    0.00001984
     atom   11 type  2   force =     0.00030329    0.00022823    0.00026786
     atom   12 type  2   force =    -0.00009181   -0.00019847    0.00017300
     atom   13 type  2   force =    -0.00003330   -0.00028899   -0.00013845
     atom   14 type  2   force =     0.00037147   -0.00017805   -0.00003441
     atom   15 type  2   force =    -0.00055769    0.00011683    0.00013596
     atom   16 type  2   force =    -0.00000596    0.00023435   -0.00026551

     Total force =     0.129036     Total SCF correction =     0.001641

     Computing stress (Cartesian axis) and pressure

     negative rho (up, down):  2.549E-05 0.000E+00
          total   stress  (Ry/bohr**3)                   (kbar)     P=       -1.61
  -0.00018008   0.00002632   0.00000000          -26.49        3.87        0.00
   0.00002632  -0.00016845   0.00000000            3.87      -24.78        0.00
   0.00000000   0.00000000   0.00031571            0.00        0.00       46.44

     kinetic stress (kbar)   9790.77     15.15      0.00
                               15.15   9797.47      0.00
                                0.00      0.00   9952.99

     local   stress (kbar)   1008.35    452.02      0.00
                              452.02   1208.24      0.01
                                0.00      0.01    307.83

     nonloc. stress (kbar)   7017.92     -4.57      0.00
                               -4.57   7015.89      0.00
                                0.00      0.00   7057.91

     hartree stress (kbar)   6959.35   -173.60     -0.00
                             -173.60   6882.59     -0.00
                               -0.00     -0.00   7124.60

     exc-cor stress (kbar)   8663.90      0.32     -0.00
                                0.32   8664.04     -0.00
                               -0.00     -0.00   8668.40

     corecor stress (kbar) -13331.79     -0.24     -0.00
                               -0.24 -13331.90     -0.00
                               -0.00     -0.00 -13334.40

     ewald   stress (kbar) -20134.99   -285.20      0.00
                             -285.20 -20261.11      0.00
                                0.00      0.00 -19730.89

     hubbard stress (kbar)      0.00      0.00      0.00
                                0.00      0.00      0.00
                                0.00      0.00      0.00

     DFT-D   stress (kbar)      0.00      0.00      0.00
                                0.00      0.00      0.00
                                0.00      0.00      0.00

     XDM     stress (kbar)      0.00      0.00      0.00
                                0.00      0.00      0.00
                                0.00      0.00      0.00

     dft-nl  stress (kbar)      0.00      0.00      0.00
                                0.00      0.00      0.00
                                0.00      0.00      0.00

     TS-vdW  stress (kbar)      0.00      0.00      0.00
                                0.00      0.00      0.00
                                0.00      0.00      0.00

[...]

                                0.00      0.00      0.00

     Writing all to output data dir new_calculations/myprefix.save/

     General routines

     Parallel routines

     PAW routines

   This run was terminated on:   2:47: 8  21May2023

   JOB DONE.