     Program PWSCF v.7.0 starts on 21May2023 at 17:42:31

     Reading input from espresso_6907.pwi
Warning: card &CELL ignored
Warning: card / ignored

     Current dimensions of program PWSCF are:
     Max number of different atomic species (ntypx) = 10
     Max number of k-points (npk) =  40000
     Max angular momentum in pseudopotentials (lmaxx) =  4
     file Pb.pbe-dn-kjpaw_psl.0.2.2.UPF: wavefunction(s)  6S renormalized

     gamma-point specific algorithms are used
     Message from routine setup:
     using ibrav=0 with symmetry is DISCOURAGED, use correct ibrav instead

     Subspace diagonalization in iterative solution of the eigenvalue problem:
     a serial algorithm will be used

     Using Slab Decomposition

     bravais-lattice index     =            0
     lattice parameter (alat)  =      13.1935  a.u.
     unit-cell volume          =    5295.7746 (a.u.)^3
     number of atoms/cell      =           16
     number of atomic types    =            3
     number of electrons       =       204.00
     number of Kohn-Sham states=          122
     kinetic-energy cutoff     =      30.0000  Ry
     charge density cutoff     =     240.0000  Ry
     scf convergence threshold =      1.0E-06
     mixing beta               =       0.7000
     number of iterations used =            8  plain     mixing
     Exchange-correlation= PBE
                           (   1   4   3   4   0   0   0)

     celldm(1)=  13.193533  celldm(2)=   0.000000  celldm(3)=   0.000000
     celldm(4)=   0.000000  celldm(5)=   0.000000  celldm(6)=   0.000000

     crystal axes: (cart. coord. in units of alat)
               a(1) = (   1.000000   0.000000   0.000000 )
               a(2) = (   0.000000   1.027277   0.000000 )
               a(3) = (   0.000000   0.000000   2.244703 )

     reciprocal axes: (cart. coord. in units 2 pi/alat)
               b(1) = (  1.000000  0.000000  0.000000 )
               b(2) = (  0.000000  0.973448  0.000000 )
               b(3) = (  0.000000  0.000000  0.445493 )

     PseudoPot. # 1 for Rb read from file:
     /home/pragov/projects/rrg-bengioy-ad/pragov/crystal_structure_design/SSSP/Rb_ONCV_PBE-1.0.oncvpsp.upf
     MD5 check sum: 55a5172d6bfbce6759a58e35d43f6aa9
     Pseudo is Norm-conserving, Zval =  9.0
     Generated using ONCVPSP code by D. R. Hamann
     Using radial grid of 2308 points,  6 beta functions with:
                l(1) =   0
                l(2) =   0
                l(3) =   1
                l(4) =   1
                l(5) =   2
                l(6) =   2

     PseudoPot. # 2 for Pb read from file:
     /home/pragov/projects/rrg-bengioy-ad/pragov/crystal_structure_design/SSSP/Pb.pbe-dn-kjpaw_psl.0.2.2.UPF
     MD5 check sum: 9d431e6316058b74ade52399a6cf67da
     Pseudo is Projector augmented-wave + core cor, Zval = 14.0
     Generated using "atomic" code by A. Dal Corso  v.5.0.99 svn rev. 10869
     Shape of augmentation charge: PSQ
     Using radial grid of 1281 points,  6 beta functions with:
                l(1) =   0
                l(2) =   0
                l(3) =   1
                l(4) =   1
                l(5) =   2
                l(6) =   2
     Q(r) pseudized with 0 coefficients

     PseudoPot. # 3 for Au read from file:
     /home/pragov/projects/rrg-bengioy-ad/pragov/crystal_structure_design/SSSP/Au_ONCV_PBE-1.0.oncvpsp.upf
     MD5 check sum: d14007822ba0e19f0206237467fc06c2
     Pseudo is Norm-conserving, Zval = 19.0
     Generated using ONCVPSP code by D. R. Hamann
     Using radial grid of 1278 points,  8 beta functions with:
                l(1) =   0
                l(2) =   0
                l(3) =   1
                l(4) =   1
                l(5) =   2
                l(6) =   2
                l(7) =   3
                l(8) =   3

     atomic species   valence    mass     pseudopotential
        Rb             9.00    85.46780     Rb( 1.00)
        Pb            14.00   207.20000     Pb( 1.00)
        Au            19.00   196.96657     Au( 1.00)

      8 Sym. Ops., with inversion, found ( 4 have fractional translation)

                                    s                        frac. trans.

      isym =  1     identity

 cryst.   s( 1) = (     1          0          0      )
                  (     0          1          0      )
                  (     0          0          1      )

 cart.    s( 1) = (  1.0000000  0.0000000  0.0000000 )
                  (  0.0000000  1.0000000  0.0000000 )
                  (  0.0000000  0.0000000  1.0000000 )

      isym =  2     180 deg rotation - cart. axis [0,0,1]

 cryst.   s( 2) = (    -1          0          0      )    f =(  0.0000000 )
                  (     0         -1          0      )       ( -0.5000000 )
                  (     0          0          1      )       (  0.5000000 )

 cart.    s( 2) = ( -1.0000000  0.0000000  0.0000000 )    f =(  0.0000000 )
                  (  0.0000000 -1.0000000  0.0000000 )       ( -0.5136383 )
                  (  0.0000000  0.0000000  1.0000000 )       (  1.1223513 )

[...]

      isym =  4     180 deg rotation - cart. axis [1,0,0]

[...]

      isym =  5     inversion

[...]

      isym =  6     inv. 180 deg rotation - cart. axis [0,0,1]

[...]

 cryst.   s( 7) = (     1          0          0      )
                  (     0         -1          0      )
                  (     0          0          1      )

 cart.    s( 7) = (  1.0000000  0.0000000  0.0000000 )
                  (  0.0000000 -1.0000000  0.0000000 )
                  (  0.0000000  0.0000000  1.0000000 )

      isym =  8     inv. 180 deg rotation - cart. axis [1,0,0]

 cryst.   s( 8) = (    -1          0          0      )    f =(  0.0000000 )
                  (     0          1          0      )       ( -0.5000000 )
                  (     0          0          1      )       (  0.5000000 )

 cart.    s( 8) = ( -1.0000000  0.0000000  0.0000000 )    f =(  0.0000000 )
                  (  0.0000000  1.0000000  0.0000000 )       ( -0.5136383 )
                  (  0.0000000  0.0000000  1.0000000 )       (  1.1223513 )

   Cartesian axes

     site n.     atom                  positions (alat units)
         1           Rb  tau(   1) = (   0.9938110   0.5136383   1.1223513  )
         2           Rb  tau(   2) = (   0.6041390   0.5136383   1.5579650  )
         3           Rb  tau(   3) = (   0.0061890   0.0000000   0.0000000  )
         4           Rb  tau(   4) = (   0.3958610   0.0000000   1.8090888  )
         5           Rb  tau(   5) = (   0.3958610   0.0000000   0.4356137  )
         6           Rb  tau(   6) = (   0.6041390   0.5136383   0.6867376  )
         7           Pb  tau(   7) = (   0.5512790   0.7495205   0.0000000  )
         8           Pb  tau(   8) = (   0.1401230   0.0000000   1.3565748  )
         9           Pb  tau(   9) = (   0.4487210   0.7913943   1.1223513  )
        10           Pb  tau(  10) = (   0.5512790   0.2777561   0.0000000  )
        11           Pb  tau(  11) = (   0.8598770   0.5136383   2.0104791  )
        12           Pb  tau(  12) = (   0.8598770   0.5136383   0.2342235  )
        13           Pb  tau(  13) = (   0.4487210   0.2358822   1.1223513  )
        14           Pb  tau(  14) = (   0.1401230   0.0000000   0.8881278  )
        15           Au  tau(  15) = (   0.7927520   0.0000000   1.1223513  )
        16           Au  tau(  16) = (   0.2072480   0.5136383   0.0000000  )

   Crystallographic axes

     site n.     atom                  positions (cryst. coord.)
         1           Rb  tau(   1) = (  0.9938110  0.5000000  0.5000000  )
         2           Rb  tau(   2) = (  0.6041390  0.5000000  0.6940630  )
         3           Rb  tau(   3) = (  0.0061890  0.0000000  0.0000000  )
         4           Rb  tau(   4) = (  0.3958610  0.0000000  0.8059370  )
         5           Rb  tau(   5) = (  0.3958610  0.0000000  0.1940630  )
         6           Rb  tau(   6) = (  0.6041390  0.5000000  0.3059370  )
         7           Pb  tau(   7) = (  0.5512790  0.7296190  0.0000000  )
         8           Pb  tau(   8) = (  0.1401230  0.0000000  0.6043450  )
         9           Pb  tau(   9) = (  0.4487210  0.7703810  0.5000000  )
        10           Pb  tau(  10) = (  0.5512790  0.2703810  0.0000000  )
        11           Pb  tau(  11) = (  0.8598770  0.5000000  0.8956550  )
        12           Pb  tau(  12) = (  0.8598770  0.5000000  0.1043450  )
        13           Pb  tau(  13) = (  0.4487210  0.2296190  0.5000000  )
        14           Pb  tau(  14) = (  0.1401230  0.0000000  0.3956550  )
        15           Au  tau(  15) = (  0.7927520  0.0000000  0.5000000  )
        16           Au  tau(  16) = (  0.2072480  0.5000000  0.0000000  )

     number of k points=     1  Methfessel-Paxton smearing, width (Ry)=  0.0010
                       cart. coord. in units 2pi/alat
        k(    1) = (   0.0000000   0.0000000   0.0000000), wk =   2.0000000

                       cryst. coord.
        k(    1) = (   0.0000000   0.0000000   0.0000000), wk =   2.0000000

     Initial potential from superposition of free atoms

     starting charge     203.8324, renormalised to     204.0000
     Starting wfcs are  122 randomized atomic wfcs
     Checking if some PAW data can be deallocated...

     Self-consistent Calculation

     iteration #  1     ecut=    30.00 Ry     beta= 0.70
     Davidson diagonalization with overlap

     ethr =  1.00E-02,  avg # of iterations =  8.0

     Threshold (ethr) on eigenvalues was too large:
     Diagonalizing with lowered threshold

     Davidson diagonalization with overlap

[...]

     total energy              =   -7806.87731935 Ry
     estimated scf accuracy    <       0.72609344 Ry

[...]

     c_bands:  1 eigenvalues not converged
     ethr =  1.99E-05,  avg # of iterations = 20.0

[...]

     total energy              =   -7807.15728309 Ry
     estimated scf accuracy    <       0.00000107 Ry

     iteration # 13     ecut=    30.00 Ry     beta= 0.70
     Davidson diagonalization with overlap

     ethr =  5.26E-10,  avg # of iterations =  4.0

     End of self-consistent calculation

          k = 0.0000 0.0000 0.0000 (  7358 PWs)   bands (ev):

  -100.4309-100.4305 -51.5196 -51.5183 -51.4761 -51.4748 -51.4544 -51.4536
   -23.3558 -23.3556 -23.3432 -23.3429 -22.8448 -22.8446 -11.3334 -11.3332
   -11.2905 -11.2899 -11.2190 -11.2172 -11.1872 -11.1870 -11.1836 -11.1836
   -11.1518 -11.1515 -11.1300 -11.1296 -11.1097 -11.1096 -11.0267 -11.0264
   -10.9903 -10.9901 -10.9884 -10.9883 -10.9093 -10.9088 -10.8675 -10.8674
   -10.8648 -10.8643 -10.8353 -10.8352 -10.8278 -10.8254 -10.8072 -10.8071
   -10.7923 -10.7922 -10.7448 -10.7447 -10.7170 -10.7169  -7.5596  -7.5575
    -7.5428  -7.5397  -7.5190  -7.5154  -7.3973  -7.3800  -7.3793  -7.3759
    -7.3642  -7.3500  -7.0326  -7.0289  -6.9281  -6.9276  -6.8588  -6.8587
    -4.5883  -4.5330  -2.2128  -2.1564  -2.0314  -1.9918  -1.7673  -1.7603
     1.4991   1.5194   1.5440   1.5532   1.6139   1.6168   1.8263   1.8321
     1.8625   1.8679   1.9572   1.9752   3.3489   3.4017   3.8102   4.1280
     4.6894   4.8843   5.0022   5.0106   5.0436   5.1424   5.4116   5.8552
     6.1847   6.3517   6.3933   6.5228   7.1554   7.1619   7.3925   7.4781
     7.7901   7.8243   7.9863   8.1357   8.2152   8.2404   8.4880   8.5215
     8.6725   8.6862

     occupation numbers
     1.0000   1.0000   1.0000   1.0000   1.0000   1.0000   1.0000   1.0000
     1.0000   1.0000   1.0000   1.0000   1.0000   1.0000   1.0000   1.0000
     1.0000   1.0000   1.0000   1.0000   1.0000   1.0000   1.0000   1.0000
     1.0000   1.0000   1.0000   1.0000   1.0000   1.0000   1.0000   1.0000
     1.0000   1.0000   1.0000   1.0000   1.0000   1.0000   1.0000   1.0000
     1.0000   1.0000   1.0000   1.0000   1.0000   1.0000   1.0000   1.0000
     1.0000   1.0000   1.0000   1.0000   1.0000   1.0000   1.0000   1.0000
     1.0000   1.0000   1.0000   1.0000   1.0000   1.0000   1.0000   1.0000
     1.0000   1.0000   1.0000   1.0000   1.0000   1.0000   1.0000   1.0000
     1.0000   1.0000   1.0000   1.0000   1.0000   1.0000   1.0000   1.0000
     1.0000   1.0000   1.0000   1.0000   1.0000   1.0000   1.0000   1.0000
     1.0000   1.0000   1.0000   1.0000   1.0000   1.0000   1.0000   1.0000
     1.0000   1.0000   1.0000   1.0000   1.0000   1.0000  -0.0000  -0.0000
    -0.0000  -0.0000  -0.0000  -0.0000  -0.0000  -0.0000  -0.0000  -0.0000
    -0.0000  -0.0000  -0.0000  -0.0000  -0.0000  -0.0000  -0.0000  -0.0000
    -0.0000  -0.0000

     the Fermi energy is     5.2970 ev

!    total energy              =   -7807.15728339 Ry
     estimated scf accuracy    <       0.00000010 Ry
     smearing contrib. (-TS)   =       0.00000000 Ry
     internal energy E=F+TS    =   -7807.15728339 Ry

     The total energy is F=E-TS. E is the sum of the following terms:
     one-electron contribution =   -1425.47200082 Ry
     hartree contribution      =     797.22452080 Ry
     xc contribution           =    -450.53335232 Ry
     ewald contribution        =    -900.54777704 Ry
     one-center paw contrib.   =   -5827.82867401 Ry
      -> PAW hartree energy AE =     803.86494119 Ry
      -> PAW hartree energy PS =    -802.23035919 Ry
      -> PAW xc energy AE      =   -6180.55876885 Ry
      -> PAW xc energy PS      =     351.09551285 Ry
      -> total E_H with PAW    =     798.85910280 Ry
      -> total E_XC with PAW   =   -6279.99660832 Ry

     convergence has been achieved in  13 iterations

     Forces acting on atoms (cartesian axes, Ry/au):

     atom    1 type  1   force =    -0.01106578    0.00000000    0.00000000
     atom    2 type  1   force =    -0.00606065    0.00000000    0.00074567
     atom    3 type  1   force =     0.01106578   -0.00000000    0.00000000
     atom    4 type  1   force =     0.00606065    0.00000000   -0.00074567
     atom    5 type  1   force =     0.00606065    0.00000000    0.00074567
     atom    6 type  1   force =    -0.00606065   -0.00000000   -0.00074567
     atom    7 type  2   force =     0.01652138    0.01428063   -0.00000000
     atom    8 type  2   force =     0.03520287    0.00000000   -0.00069668
     atom    9 type  2   force =    -0.01652138   -0.01428063    0.00000000
     atom   10 type  2   force =     0.01652138   -0.01428063    0.00000000
     atom   11 type  2   force =    -0.03520287    0.00000000    0.00069668
     atom   12 type  2   force =    -0.03520287    0.00000000   -0.00069668
     atom   13 type  2   force =    -0.01652138    0.01428063    0.00000000
     atom   14 type  2   force =     0.03520287   -0.00000000    0.00069668
     atom   15 type  3   force =    -0.01288874    0.00000000    0.00000000
     atom   16 type  3   force =     0.01288874    0.00000000    0.00000000
     The non-local contrib.  to forces
     atom    1 type  1   force =    -0.04012197    0.00000000    0.00000000
     atom    2 type  1   force =     0.02611371    0.00000000    0.02319376
     atom    3 type  1   force =     0.04012197   -0.00000000    0.00000000
     atom    4 type  1   force =    -0.02611371    0.00000000   -0.02319376
     atom    5 type  1   force =    -0.02611371    0.00000000    0.02319376
     atom    6 type  1   force =     0.02611371    0.00000000   -0.02319376
     atom    7 type  2   force =     0.11876500   -0.11829303    0.00000000
     atom    8 type  2   force =     0.09178881    0.00000000   -0.25910683
     atom    9 type  2   force =    -0.11876500    0.11829303    0.00000000
     atom   10 type  2   force =     0.11876500    0.11829303   -0.00000000
     atom   11 type  2   force =    -0.09178881    0.00000000    0.25910683
     atom   12 type  2   force =    -0.09178881    0.00000000   -0.25910683
     atom   13 type  2   force =    -0.11876500   -0.11829303   -0.00000000
     atom   14 type  2   force =     0.09178881   -0.00000000    0.25910683
     atom   15 type  3   force =     0.06263714   -0.00000000    0.00000000
     atom   16 type  3   force =    -0.06263714    0.00000000    0.00000000
     The ionic contribution  to forces
     atom    1 type  1   force =    -0.55522461    0.00000000   -0.00000000
     atom    2 type  1   force =     0.31829498    0.00000000    3.51212392
     atom    3 type  1   force =     0.55522461   -0.00000000   -0.00000000
     atom    4 type  1   force =    -0.31829498   -0.00000000   -3.51212392
     atom    5 type  1   force =    -0.31829498   -0.00000000    3.51212392
     atom    6 type  1   force =     0.31829498    0.00000000   -3.51212392
     atom    7 type  2   force =     0.64211119   14.93641230    0.00000000
     atom    8 type  2   force =    -0.90537053   -0.00000000   24.14361030
     atom    9 type  2   force =    -0.64211119  -14.93641230   -0.00000000
     atom   10 type  2   force =     0.64211119  -14.93641230    0.00000000
     atom   11 type  2   force =     0.90537053    0.00000000  -24.14361030
     atom   12 type  2   force =     0.90537053    0.00000000   24.14361030
     atom   13 type  2   force =    -0.64211119   14.93641230   -0.00000000
     atom   14 type  2   force =    -0.90537053   -0.00000000  -24.14361030
     atom   15 type  3   force =     0.02279097   -0.00000000   -0.00000000
     atom   16 type  3   force =    -0.02279097    0.00000000    0.00000000
     The local contribution  to forces
     atom    1 type  1   force =     0.58427151   -0.00005219    0.00000616
     atom    2 type  1   force =    -0.35041087   -0.00003124   -3.53445368
     atom    3 type  1   force =    -0.58430146    0.00003359   -0.00016359
     atom    4 type  1   force =     0.35048235    0.00002297    3.53467025
     atom    5 type  1   force =     0.35046599    0.00001576   -3.53453471
     atom    6 type  1   force =    -0.35049727   -0.00002221    3.53467980
     atom    7 type  2   force =    -0.74195924  -14.80321636   -0.00028462
     atom    8 type  2   force =     0.84869858    0.00008765  -23.89061735
     atom    9 type  2   force =     0.74205108   14.80306756   -0.00008155
     atom   10 type  2   force =    -0.74192378   14.80320789   -0.00029433
     atom   11 type  2   force =    -0.84878145   -0.00007222   23.89050152
     atom   12 type  2   force =    -0.84882172   -0.00005661  -23.89085331
     atom   13 type  2   force =     0.74203231  -14.80303736   -0.00006899
     atom   14 type  2   force =     0.84866950    0.00008262   23.89053960
     atom   15 type  3   force =    -0.09799674    0.00018000   -0.00040034
     atom   16 type  3   force =     0.09809683   -0.00009640   -0.00069971
     The core correction contribution to forces
     atom    1 type  1   force =     0.00000000    0.00000000    0.00000000
     atom    2 type  1   force =     0.00000000    0.00000000    0.00000000
     atom    3 type  1   force =     0.00000000    0.00000000    0.00000000
     atom    4 type  1   force =     0.00000000    0.00000000    0.00000000
     atom    5 type  1   force =     0.00000000    0.00000000    0.00000000
     atom    6 type  1   force =     0.00000000    0.00000000    0.00000000
     atom    7 type  2   force =    -0.00228825   -0.00038021   -0.00000158
     atom    8 type  2   force =     0.00003309    0.00000115    0.00561560
     atom    9 type  2   force =     0.00228950    0.00037754    0.00000020
     atom   10 type  2   force =    -0.00228713    0.00038030   -0.00000077
     atom   11 type  2   force =    -0.00003303   -0.00000130   -0.00561613
     atom   12 type  2   force =    -0.00003402   -0.00000044    0.00561257
     atom   13 type  2   force =     0.00228817   -0.00037660    0.00000051
     atom   14 type  2   force =     0.00003268    0.00000110   -0.00561753
     atom   15 type  3   force =     0.00000000    0.00000000    0.00000000
     atom   16 type  3   force =     0.00000000    0.00000000    0.00000000
     The Hubbard contrib.    to forces
     atom    1 type  1   force =     0.00000000    0.00000000    0.00000000
     atom    2 type  1   force =     0.00000000    0.00000000    0.00000000
     atom    3 type  1   force =     0.00000000    0.00000000    0.00000000
     atom    4 type  1   force =     0.00000000    0.00000000    0.00000000
     atom    5 type  1   force =     0.00000000    0.00000000    0.00000000
     atom    6 type  1   force =     0.00000000    0.00000000    0.00000000
     atom    7 type  2   force =     0.00000000    0.00000000    0.00000000
     atom    8 type  2   force =     0.00000000    0.00000000    0.00000000
     atom    9 type  2   force =     0.00000000    0.00000000    0.00000000
     atom   10 type  2   force =     0.00000000    0.00000000    0.00000000
     atom   11 type  2   force =     0.00000000    0.00000000    0.00000000
     atom   12 type  2   force =     0.00000000    0.00000000    0.00000000
     atom   13 type  2   force =     0.00000000    0.00000000    0.00000000
     atom   14 type  2   force =     0.00000000    0.00000000    0.00000000
     atom   15 type  3   force =     0.00000000    0.00000000    0.00000000
     atom   16 type  3   force =     0.00000000    0.00000000    0.00000000
     The SCF correction term to forces
     atom    1 type  1   force =     0.00000876    0.00005714   -0.00001464
     atom    2 type  1   force =    -0.00006356    0.00003457   -0.00012131
     atom    3 type  1   force =     0.00002014   -0.00003592    0.00017927
     atom    4 type  1   force =    -0.00001370   -0.00002318   -0.00009662
     atom    5 type  1   force =     0.00000028   -0.00001698   -0.00005216
     atom    6 type  1   force =     0.00002929    0.00002424   -0.00012724
     atom    7 type  2   force =    -0.00010145   -0.00022790    0.00032669
     atom    8 type  2   force =     0.00006779   -0.00010350   -0.00019876
     atom    9 type  2   force =     0.00000835    0.00040211    0.00009141
     atom   10 type  2   force =    -0.00015127    0.00024050    0.00034898
     atom   11 type  2   force =     0.00003266    0.00008446    0.00032238
     atom   12 type  2   force =     0.00008039    0.00006705    0.00005841
     atom   13 type  2   force =     0.00003867   -0.00044022    0.00007567
     atom   14 type  2   force =     0.00007951   -0.00009586    0.00028790
     atom   15 type  3   force =    -0.00033119   -0.00018690    0.00040952
     atom   16 type  3   force =     0.00020894    0.00009315    0.00070119

     Total force =     0.087137     Total SCF correction =     0.001402

     Computing stress (Cartesian axis) and pressure

          total   stress  (Ry/bohr**3)                   (kbar)     P=      -43.71
  -0.00022091   0.00000000   0.00000000          -32.50        0.00        0.00
   0.00000000  -0.00035170   0.00000000            0.00      -51.74        0.00
   0.00000000   0.00000000  -0.00031884            0.00        0.00      -46.90

     kinetic stress (kbar)   9281.41      0.00      0.00
                                0.00   9330.48      0.00
                                0.00      0.00   9313.62

     local   stress (kbar) -20243.00      0.00     -0.00
                                0.00  -7859.03     -0.00
                               -0.00     -0.00   8903.40

     nonloc. stress (kbar)    616.49      0.00      0.00
                                0.00    635.46      0.00
                                0.00      0.00    627.73

     hartree stress (kbar)  13673.77      0.00      0.00
                                0.00   8204.97      0.00
                                0.00      0.00    266.43

     exc-cor stress (kbar)   3743.51     -0.00      0.00
                               -0.00   3742.20     -0.00
                                0.00     -0.00   3741.38

     corecor stress (kbar)  -6364.66      0.00     -0.00
                                0.00  -6365.16     -0.00
                               -0.00     -0.00  -6364.89

     ewald   stress (kbar)   -740.02     -0.00     -0.00
                               -0.00  -7740.67      0.00
                               -0.00      0.00 -16534.57

     hubbard stress (kbar)      0.00      0.00      0.00
                                0.00      0.00      0.00
                                0.00      0.00      0.00

     DFT-D   stress (kbar)      0.00      0.00      0.00
                                0.00      0.00      0.00
                                0.00      0.00      0.00

     XDM     stress (kbar)      0.00      0.00      0.00
                                0.00      0.00      0.00
                                0.00      0.00      0.00

     dft-nl  stress (kbar)      0.00      0.00      0.00
                                0.00      0.00      0.00
                                0.00      0.00      0.00

     TS-vdW  stress (kbar)      0.00      0.00      0.00
                                0.00      0.00      0.00
                                0.00      0.00      0.00

[...]

                                0.00      0.00      0.00

     Writing all to output data dir new_calculations/myprefix.save/

     General routines

     Parallel routines

     PAW routines

   This run was terminated on:  17:43:31  21May2023

   JOB DONE.