     Program PWSCF v.7.0 starts on 21May2023 at 18:51:17

     Reading input from espresso_21193.pwi
Warning: card &CELL ignored
Warning: card / ignored

     Current dimensions of program PWSCF are:
     Max number of different atomic species (ntypx) = 10
     Max number of k-points (npk) =  40000
     Max angular momentum in pseudopotentials (lmaxx) =  4
     file O.pbe-n-kjpaw_psl.0.1.UPF: wavefunction(s)  2P renormalized

     gamma-point specific algorithms are used

     Subspace diagonalization in iterative solution of the eigenvalue problem:
     a serial algorithm will be used

     Using Slab Decomposition

     bravais-lattice index     =            0
     lattice parameter (alat)  =      10.6395  a.u.
     unit-cell volume          =    1681.5557 (a.u.)^3
     number of atoms/cell      =           20
     number of atomic types    =            4
     number of electrons       =       172.00
     number of Kohn-Sham states=          103
     kinetic-energy cutoff     =      30.0000  Ry
     charge density cutoff     =     240.0000  Ry
     scf convergence threshold =      1.0E-06
     mixing beta               =       0.7000
     number of iterations used =            8  plain     mixing
     Exchange-correlation= SLA  PW   PBX  PBC
                           (   1   4   3   4   0   0   0)

     celldm(1)=  10.639541  celldm(2)=   0.000000  celldm(3)=   0.000000
     celldm(4)=   0.000000  celldm(5)=   0.000000  celldm(6)=   0.000000

     crystal axes: (cart. coord. in units of alat)
               a(1) = (   1.000000   0.000000   0.000000 )
               a(2) = (   0.000102   0.991322   0.000000 )
               a(3) = (   0.000561  -0.018323   1.408405 )

     reciprocal axes: (cart. coord. in units 2 pi/alat)
               b(1) = (  1.000000 -0.000103 -0.000400 )
               b(2) = (  0.000000  1.008754  0.013124 )
               b(3) = (  0.000000  0.000000  0.710023 )

     PseudoPot. # 1 for Sr read from file:
     /home/pragov/projects/rrg-bengioy-ad/pragov/crystal_structure_design/SSSP/Sr_pbe_v1.uspp.F.UPF
     MD5 check sum: 6b418c05fbe9db5448babca5e47b7a5b
     Pseudo is Ultrasoft + core correction, Zval = 10.0
     Generated by new atomic code, or converted to UPF format
     Using radial grid of  883 points,  6 beta functions with:
                l(1) =   0
                l(2) =   0
                l(3) =   1
                l(4) =   1
                l(5) =   2
                l(6) =   2
     Q(r) pseudized with  6 coefficients,  rinner =    1.400   1.400   1.400
                                                       1.400   1.400

     PseudoPot. # 2 for Cr read from file:
     /home/pragov/projects/rrg-bengioy-ad/pragov/crystal_structure_design/SSSP/cr_pbe_v1.5.uspp.F.UPF
     MD5 check sum: 0d52af634a40206e4dee301ad30da4bf
     Pseudo is Ultrasoft + core correction, Zval = 14.0
     Generated by new atomic code, or converted to UPF format
     Using radial grid of  857 points,  6 beta functions with:
                l(1) =   0
                l(2) =   0
                l(3) =   1
                l(4) =   1
                l(5) =   2
                l(6) =   2
     Q(r) pseudized with  8 coefficients,  rinner =    0.950   0.950   0.950
                                                       0.950   0.950

     PseudoPot. # 3 for Os read from file:
     /home/pragov/projects/rrg-bengioy-ad/pragov/crystal_structure_design/SSSP/Os_pbe_v1.2.uspp.F.UPF
     MD5 check sum: a3fb40a04f0c37c25c34bbc47164c9a8
     Pseudo is Ultrasoft + core correction, Zval = 16.0
     Generated by new atomic code, or converted to UPF format
     Using radial grid of  983 points,  8 beta functions with:
                l(1) =   0
                l(2) =   0
                l(3) =   1
                l(4) =   1
                l(5) =   2
                l(6) =   2
                l(7) =   3
                l(8) =   3
     Q(r) pseudized with  8 coefficients,  rinner =    1.150   1.150   1.150
                                                       1.150   1.150   1.150
                                                       1.150

     PseudoPot. # 4 for O  read from file:
     /home/pragov/projects/rrg-bengioy-ad/pragov/crystal_structure_design/SSSP/O.pbe-n-kjpaw_psl.0.1.UPF
     MD5 check sum: 0234752ac141de4415c5fc33072bef88
     Pseudo is Projector augmented-wave + core cor, Zval =  6.0
     Generated using "atomic" code by A. Dal Corso  v.5.0.99 svn rev. 10869
     Shape of augmentation charge: BESSEL
     Using radial grid of 1095 points,  4 beta functions with:
                l(1) =   0
                l(2) =   0
                l(3) =   1
                l(4) =   1
     Q(r) pseudized with 0 coefficients

     atomic species   valence    mass     pseudopotential
        Sr            10.00    87.62000     Sr( 1.00)
        Cr            14.00    51.99610     Cr( 1.00)
        Os            16.00   190.23000     Os( 1.00)
        O              6.00    15.99900     O ( 1.00)

     No symmetry found

                                    s                        frac. trans.

      isym =  1     identity

 cryst.   s( 1) = (     1          0          0      )
                  (     0          1          0      )
                  (     0          0          1      )

 cart.    s( 1) = (  1.0000000 -0.0000000  0.0000000 )
                  (  0.0000000  1.0000000 -0.0000000 )
                  (  0.0000000  0.0000000  1.0000000 )

   Cartesian axes

     site n.     atom                  positions (alat units)
         1           Sr  tau(   1) = (   0.0015188   0.4864018   1.0549940  )
         2           Sr  tau(   2) = (   0.4993255   0.9822189   0.3535759  )
         3           Sr  tau(   3) = (   0.9991474   0.4866987   0.3534773  )
         4           Sr  tau(   4) = (   0.5014248  -0.0092523   1.0549025  )
         5           Cr  tau(   5) = (   1.0001346  -0.0091496   0.7041969  )
         6           Cr  tau(   6) = (   0.5004332   0.4773634   1.4082882  )
         7           Os  tau(   7) = (   0.5002546   0.4864686   0.7040758  )
         8           Os  tau(   8) = (   1.0005432  -0.0182752   1.4083741  )
         9           O   tau(   9) = (   0.7318799   0.2235868   0.7350832  )
        10           O   tau(  10) = (   0.2164355   0.7149431   0.0347918  )
        11           O   tau(  11) = (   0.2353814   0.2572339   0.6727036  )
        12           O   tau(  12) = (   0.7235127   0.7579883   1.3724485  )
        13           O   tau(  13) = (   0.0528212   0.9754147   1.0600671  )
        14           O   tau(  14) = (   0.5437164   0.4915534   0.3546843  )
        15           O   tau(  15) = (   0.2689304   0.7494728   0.6734909  )
        16           O   tau(  16) = (   0.7842197   0.2580058   1.3736738  )
        17           O   tau(  17) = (   0.7652848   0.7157043   0.7358283  )
        18           O   tau(  18) = (   0.2772225   0.2149395   0.0359678  )
        19           O   tau(  19) = (   0.9479701  -0.0024295   0.3484380  )
        20           O   tau(  20) = (   0.4569367   0.4814610   1.0533955  )

   Crystallographic axes

     site n.     atom                  positions (cryst. coord.)
         1           Sr  tau(   1) = (  0.0010470  0.5045050  0.7490700  )
         2           Sr  tau(   2) = (  0.4990830  0.9954570  0.2510470  )
         3           Sr  tau(   3) = (  0.9989560  0.4955980  0.2509770  )
         4           Sr  tau(   4) = (  0.5010040  0.0045110  0.7490050  )
         5           Cr  tau(   5) = (  0.9998540  0.0000120  0.4999960  )
         6           Cr  tau(   6) = (  0.4998210  0.5000240  0.9999170  )
         7           Os  tau(   7) = (  0.4999230  0.4999670  0.4999100  )
         8           Os  tau(   8) = (  0.9999820  0.0000480  0.9999780  )
         9           O   tau(   9) = (  0.7315630  0.2351910  0.5219260  )
        10           O   tau(  10) = (  0.2163480  0.7216580  0.0247030  )
        11           O   tau(  11) = (  0.2350860  0.2683140  0.4776350  )
        12           O   tau(  12) = (  0.7228860  0.7826350  0.9744700  )
        13           O   tau(  13) = (  0.0522970  0.9978650  0.7526720  )
        14           O   tau(  14) = (  0.5435240  0.5005110  0.2518340  )
        15           O   tau(  15) = (  0.2685840  0.7648720  0.4781940  )
        16           O   tau(  16) = (  0.7836440  0.2782920  0.9753400  )
        17           O   tau(  17) = (  0.7649170  0.7316260  0.5224550  )
        18           O   tau(  18) = (  0.2771860  0.2172930  0.0255380  )
        19           O   tau(  19) = (  0.9478310  0.0021220  0.2473990  )
        20           O   tau(  20) = (  0.4564660  0.4995000  0.7479350  )

     number of k points=     1  Methfessel-Paxton smearing, width (Ry)=  0.0010
                       cart. coord. in units 2pi/alat
        k(    1) = (   0.0000000   0.0000000   0.0000000), wk =   2.0000000

                       cryst. coord.
        k(    1) = (   0.0000000   0.0000000   0.0000000), wk =   2.0000000

     Check: negative core charge=   -0.000014

     Initial potential from superposition of free atoms

     starting charge     168.8653, renormalised to     172.0000

     negative rho (up, down):  5.116E-01 0.000E+00
     Starting wfcs are  146 randomized atomic wfcs
     Checking if some PAW data can be deallocated...

     Self-consistent Calculation

     iteration #  1     ecut=    30.00 Ry     beta= 0.70
     Davidson diagonalization with overlap

     ethr =  1.00E-02,  avg # of iterations =  2.0

     negative rho (up, down):  5.670E-01 0.000E+00

     total energy              =   -1518.51323536 Ry
     estimated scf accuracy    <      14.60209657 Ry

[...]

     total energy              =   -1528.91570813 Ry
     estimated scf accuracy    <       0.00000250 Ry

     iteration # 29     ecut=    30.00 Ry     beta= 0.70
     Davidson diagonalization with overlap

     ethr =  1.45E-09,  avg # of iterations =  1.0

[...]

     End of self-consistent calculation

          k = 0.0000 0.0000 0.0000 (  2331 PWs)   bands (ev):

   -76.0521 -75.8847 -60.6881 -60.6725 -35.4448 -35.3134 -35.2920 -35.2847
   -35.1608 -35.1017 -32.2191 -32.0882 -32.0399 -31.9296 -31.8084 -31.7310
   -22.3597 -22.3402 -22.3054 -22.2888  -7.5895  -7.4428  -6.8151  -6.6376
    -6.6006  -6.5778  -6.5395  -6.4407  -6.2673  -6.2460  -6.1812  -6.1018
    -4.6035  -4.4306  -4.4248  -4.3771  -4.3313  -4.2915  -4.2594  -4.2562
    -4.2507  -4.0354  -3.9419  -3.8656   4.4767   4.6186   5.1052   5.1737
     5.2599   5.2792   5.4060   6.0314   6.0601   6.1106   6.5238   6.5553
     7.1429   7.1693   7.2060   7.2261   7.2822   7.8185   8.0429   8.0504
     8.1124   8.1672   8.7971   8.8449   9.0237   9.1897   9.2006   9.3385
     9.4536   9.6531   9.7066   9.7562   9.7779   9.8365   9.8833  10.0570
    10.4830  10.5530  10.5821  10.7012  12.2129  12.3308  12.3649  12.4172
    12.5497  12.5818  12.7072  12.9985  13.1348  13.3085  13.3644  13.4952
    15.5027  15.9976  16.2280  16.2914  16.9512  17.2917  17.2950

     occupation numbers
     1.0000   1.0000   1.0000   1.0000   1.0000   1.0000   1.0000   1.0000
     1.0000   1.0000   1.0000   1.0000   1.0000   1.0000   1.0000   1.0000
     1.0000   1.0000   1.0000   1.0000   1.0000   1.0000   1.0000   1.0000
     1.0000   1.0000   1.0000   1.0000   1.0000   1.0000   1.0000   1.0000
     1.0000   1.0000   1.0000   1.0000   1.0000   1.0000   1.0000   1.0000
     1.0000   1.0000   1.0000   1.0000   1.0000   1.0000   1.0000   1.0000
     1.0000   1.0000   1.0000   1.0000   1.0000   1.0000   1.0000   1.0000
     1.0000   1.0000   1.0000   1.0000   1.0000   1.0000   1.0000   1.0000
     1.0000   1.0000   1.0000   1.0000   1.0000   1.0000   1.0000   1.0000
     1.0000   1.0000   1.0000   1.0000   1.0000   1.0000   1.0000   1.0000
     1.0000   1.0000   1.0000   1.0000   1.0000   1.0353  -0.0353  -0.0000
    -0.0000  -0.0000  -0.0000  -0.0000  -0.0000  -0.0000  -0.0000  -0.0000
    -0.0000  -0.0000  -0.0000  -0.0000  -0.0000  -0.0000  -0.0000

     the Fermi energy is    12.3478 ev

!    total energy              =   -1528.91570785 Ry
     estimated scf accuracy    <       0.00000038 Ry
     smearing contrib. (-TS)   =       0.00025112 Ry
     internal energy E=F+TS    =   -1528.91595897 Ry

     The total energy is F=E-TS. E is the sum of the following terms:
     one-electron contribution =    -461.14468962 Ry
     hartree contribution      =     324.90187427 Ry
     xc contribution           =    -282.01450291 Ry
     ewald contribution        =    -996.45909997 Ry
     one-center paw contrib.   =    -114.19954073 Ry
      -> PAW hartree energy AE =     354.61858297 Ry
      -> PAW hartree energy PS =    -353.32524711 Ry
      -> PAW xc energy AE      =    -205.84710941 Ry
      -> PAW xc energy PS      =      90.35423282 Ry
      -> total E_H with PAW    =     326.19521013 Ry
      -> total E_XC with PAW   =    -397.50737950 Ry

     convergence has been achieved in  29 iterations

     negative rho (up, down):  5.226E-01 0.000E+00

     Forces acting on atoms (cartesian axes, Ry/au):

     atom    1 type  1   force =    -0.00756772    0.00164794   -0.00132793
     atom    2 type  1   force =    -0.00617050   -0.00056828    0.00130234
     atom    3 type  1   force =     0.00740820   -0.00168920    0.00130369
     atom    4 type  1   force =     0.00609435    0.00057010   -0.00138471
     atom    5 type  2   force =     0.00043338    0.00007056    0.00024979
     atom    6 type  2   force =     0.00045012   -0.00008008    0.00033223
     atom    7 type  3   force =     0.00056345    0.00014461    0.00046501
     atom    8 type  3   force =     0.00022724   -0.00043155    0.00037407
     atom    9 type  4   force =     0.01112409   -0.01905140    0.01980373
     atom   10 type  4   force =     0.01017251   -0.02174682    0.01279413
     atom   11 type  4   force =    -0.01335900   -0.00955269   -0.02140676
     atom   12 type  4   force =    -0.01846617   -0.00991345   -0.01688971
     atom   13 type  4   force =     0.03572112   -0.00134102   -0.00808874
     atom   14 type  4   force =     0.03396091    0.00064594   -0.01296352
     atom   15 type  4   force =    -0.01164365    0.01874795   -0.02042764
     atom   16 type  4   force =    -0.01023226    0.02186578   -0.01316476
     atom   17 type  4   force =     0.01317497    0.00973452    0.02088307
     atom   18 type  4   force =     0.01810450    0.01025820    0.01665426
     atom   19 type  4   force =    -0.03594891    0.00141677    0.00790186
     atom   20 type  4   force =    -0.03404662   -0.00072789    0.01358960
     The non-local contrib.  to forces
     atom    1 type  1   force =     0.00992197   -0.00015887   -0.00383546
     atom    2 type  1   force =     0.00630701    0.00109017    0.00538802
     atom    3 type  1   force =    -0.00991388    0.00004721    0.00385253
     atom    4 type  1   force =    -0.00634513   -0.00107705   -0.00547752
     atom    5 type  2   force =    -0.00050134   -0.00029363   -0.00026256
     atom    6 type  2   force =    -0.00040435    0.00000631   -0.00053571
     atom    7 type  3   force =     0.00162236   -0.00006840    0.00033682
     atom    8 type  3   force =     0.00080393   -0.00097766    0.00123789
     atom    9 type  4   force =    -0.16592345    0.36067527   -0.16513747
     atom   10 type  4   force =    -0.07669180    0.43045493   -0.18667634
     atom   11 type  4   force =     0.34500610    0.18056997    0.19003766
     atom   12 type  4   force =     0.40465329    0.09691432    0.23192672
     atom   13 type  4   force =    -0.44504697    0.00209817    0.37464114
     atom   14 type  4   force =    -0.30076962    0.00014565    0.37787107
     atom   15 type  4   force =     0.16581349   -0.36605251    0.16161574
     atom   16 type  4   force =     0.07920916   -0.43360718    0.18452247
     atom   17 type  4   force =    -0.34402583   -0.17667622   -0.19323258
     atom   18 type  4   force =    -0.40614583   -0.09416104   -0.23366614
     atom   19 type  4   force =     0.44175934   -0.00173542   -0.37189590
     atom   20 type  4   force =     0.29784308   -0.00034059   -0.37636514
     The ionic contribution  to forces
     atom    1 type  1   force =    -0.00073051   -0.28478055   -0.01022338
     atom    2 type  1   force =    -0.08463064    0.10837856   -0.10418876
     atom    3 type  1   force =    -0.00720733    0.27880476    0.00839641
     atom    4 type  1   force =     0.08088252   -0.10507533    0.10018235
     atom    5 type  2   force =     0.01133686   -0.00656369    0.00033439
     atom    6 type  2   force =     0.01476171   -0.00258918   -0.01021858
     atom    7 type  3   force =     0.00968975   -0.00563547   -0.02426360
     atom    8 type  3   force =    -0.00304522   -0.00099031    0.01319370
     atom    9 type  4   force =     0.82740643   -1.83730272    1.06189819
     atom   10 type  4   force =     0.48119831   -2.38636285    1.09920250
     atom   11 type  4   force =    -1.87714904   -0.78593975   -1.03386037
     atom   12 type  4   force =    -2.41733831   -0.49938454   -1.07278511
     atom   13 type  4   force =     1.56896526    0.08754530   -1.94386438
     atom   14 type  4   force =     1.41639847   -0.01941370   -2.02624367
     atom   15 type  4   force =    -0.84277103    1.86758448   -1.05452178
     atom   16 type  4   force =    -0.50219110    2.40962569   -1.08827187
     atom   17 type  4   force =     1.86904062    0.76715362    1.03794960
     atom   18 type  4   force =     2.41946701    0.48449957    1.08393807
     atom   19 type  4   force =    -1.55880923   -0.08754648    1.92051812
     atom   20 type  4   force =    -1.40527453    0.01799262    2.04282819
     The local contribution  to forces
     atom    1 type  1   force =    -0.01604405    0.28667389    0.01219452
     atom    2 type  1   force =     0.07264101   -0.10998755    0.10076208
     atom    3 type  1   force =     0.02381705   -0.28063426   -0.01040995
     atom    4 type  1   force =    -0.06893562    0.10667668   -0.09675316
     atom    5 type  2   force =    -0.01046819    0.00692168    0.00018437
     atom    6 type  2   force =    -0.01396277    0.00251004    0.01102141
     atom    7 type  3   force =    -0.01084582    0.00584129    0.02440614
     atom    8 type  3   force =     0.00241652    0.00160151   -0.01418606
     atom    9 type  4   force =    -0.65147906    1.46125135   -0.87913991
     atom   10 type  4   force =    -0.39475864    1.93914631   -0.90208772
     atom   11 type  4   force =     1.52222544    0.59712282    0.82491104
     atom   12 type  4   force =     1.99888017    0.39322503    0.82695768
     atom   13 type  4   force =    -1.09405184   -0.09090667    1.56439399
     atom   14 type  4   force =    -1.08562561    0.01987902    1.63958181
     atom   15 type  4   force =     0.66642390   -1.48651581    0.87465247
     atom   16 type  4   force =     0.41319665   -1.95916729    0.89287992
     atom   17 type  4   force =    -1.51527466   -0.58200541   -0.82632749
     atom   18 type  4   force =    -1.99989803   -0.38071812   -0.83666204
     atom   19 type  4   force =     1.08691255    0.09062925   -1.54395320
     atom   20 type  4   force =     1.07730653   -0.01834912   -1.65702302
     The core correction contribution to forces
     atom    1 type  1   force =    -0.00075097   -0.00007706    0.00017202
     atom    2 type  1   force =    -0.00052561   -0.00004735   -0.00026611
     atom    3 type  1   force =     0.00074989    0.00008218   -0.00017238
     atom    4 type  1   force =     0.00052665    0.00004819    0.00027098
     atom    5 type  2   force =     0.00006655    0.00000794    0.00004192
     atom    6 type  2   force =     0.00005503   -0.00001118    0.00000689
     atom    7 type  3   force =     0.00009459    0.00000377    0.00005708
     atom    8 type  3   force =     0.00005309   -0.00005839    0.00006747
     atom    9 type  4   force =     0.00143318   -0.00396909    0.00217346
     atom   10 type  4   force =     0.00026053   -0.00485194    0.00240204
     atom   11 type  4   force =    -0.00375291   -0.00161962   -0.00248454
     atom   12 type  4   force =    -0.00449157   -0.00051529   -0.00301164
     atom   13 type  4   force =     0.00578384   -0.00008988   -0.00376494
     atom   14 type  4   force =     0.00394347    0.00003650   -0.00386758
     atom   15 type  4   force =    -0.00142425    0.00402679   -0.00213124
     atom   16 type  4   force =    -0.00028419    0.00488285   -0.00237677
     atom   17 type  4   force =     0.00374640    0.00157761    0.00252361
     atom   18 type  4   force =     0.00451040    0.00048424    0.00303095
     atom   19 type  4   force =    -0.00574514    0.00008457    0.00373879
     atom   20 type  4   force =    -0.00390775   -0.00003360    0.00384310
     The Hubbard contrib.    to forces
     atom    1 type  1   force =     0.00000000    0.00000000    0.00000000
     atom    2 type  1   force =     0.00000000    0.00000000    0.00000000
     atom    3 type  1   force =     0.00000000    0.00000000    0.00000000
     atom    4 type  1   force =     0.00000000    0.00000000    0.00000000
     atom    5 type  2   force =     0.00000000    0.00000000    0.00000000
     atom    6 type  2   force =     0.00000000    0.00000000    0.00000000
     atom    7 type  3   force =     0.00000000    0.00000000    0.00000000
     atom    8 type  3   force =     0.00000000    0.00000000    0.00000000
     atom    9 type  4   force =     0.00000000    0.00000000    0.00000000
     atom   10 type  4   force =     0.00000000    0.00000000    0.00000000
     atom   11 type  4   force =     0.00000000    0.00000000    0.00000000
     atom   12 type  4   force =     0.00000000    0.00000000    0.00000000
     atom   13 type  4   force =     0.00000000    0.00000000    0.00000000
     atom   14 type  4   force =     0.00000000    0.00000000    0.00000000
     atom   15 type  4   force =     0.00000000    0.00000000    0.00000000
     atom   16 type  4   force =     0.00000000    0.00000000    0.00000000
     atom   17 type  4   force =     0.00000000    0.00000000    0.00000000
     atom   18 type  4   force =     0.00000000    0.00000000    0.00000000
     atom   19 type  4   force =     0.00000000    0.00000000    0.00000000
     atom   20 type  4   force =     0.00000000    0.00000000    0.00000000
     The SCF correction term to forces
     atom    1 type  1   force =     0.00003548   -0.00000914    0.00036412
     atom    2 type  1   force =     0.00003735   -0.00000177   -0.00039313
     atom    3 type  1   force =    -0.00003788    0.00001124   -0.00036316
     atom    4 type  1   force =    -0.00003442   -0.00000206    0.00039240
     atom    5 type  2   force =    -0.00000086   -0.00000140   -0.00004857
     atom    6 type  2   force =     0.00000012    0.00000426    0.00005798
     atom    7 type  3   force =     0.00000220    0.00000375   -0.00007167
     atom    8 type  3   force =    -0.00000144   -0.00000637    0.00006082
     atom    9 type  4   force =    -0.00031338    0.00029413    0.00000921
     atom   10 type  4   force =     0.00016374   -0.00013293   -0.00004661
     atom   11 type  4   force =     0.00031105    0.00031424   -0.00001079
     atom   12 type  4   force =    -0.00017011   -0.00015264    0.00002239
     atom   13 type  4   force =     0.00007046    0.00001239    0.00050521
     atom   14 type  4   force =     0.00001383   -0.00000118   -0.00030539
     atom   15 type  4   force =     0.00031387   -0.00029466   -0.00004307
     atom   16 type  4   force =    -0.00016314    0.00013206    0.00008125
     atom   17 type  4   force =    -0.00031192   -0.00031474   -0.00003032
     atom   18 type  4   force =     0.00017059    0.00015389    0.00001318
     atom   19 type  4   force =    -0.00006679   -0.00001481   -0.00050619
     atom   20 type  4   force =    -0.00001431    0.00000315    0.00030622

     Total force =     0.108236     Total SCF correction =     0.001507

     Computing stress (Cartesian axis) and pressure

     negative rho (up, down):  5.226E-01 0.000E+00
          total   stress  (Ry/bohr**3)                   (kbar)     P=     -429.46
  -0.00264894   0.00001237   0.00003272         -389.67        1.82        4.81
   0.00001237  -0.00259931  -0.00003467            1.82     -382.37       -5.10
   0.00003272  -0.00003467  -0.00350988            4.81       -5.10     -516.32

     kinetic stress (kbar)  28817.83     15.33     -9.82
                               15.33  28686.50    -25.51
                               -9.82    -25.51  28390.32

     local   stress (kbar)  -4593.70    -28.23     90.51
                              -28.23  -3279.74    840.31
                               90.51    840.31  -3579.10

     nonloc. stress (kbar)   1067.70      6.53    -49.19
                                6.53   1061.95     -4.98
                              -49.19     -4.98   1065.30

     hartree stress (kbar)   9723.75     10.52    -18.20
                               10.52   9287.84   -290.07
                              -18.20   -290.07   9411.33

     exc-cor stress (kbar)    945.62      0.11     -0.19
                                0.11    942.43     -1.66
                               -0.19     -1.66    943.57

     corecor stress (kbar)  -7671.62     -0.21     -0.82
                               -0.21  -7670.29      0.34
                               -0.82      0.34  -7666.28

     ewald   stress (kbar) -28679.26     -2.22     -7.48
                               -2.22 -29411.06   -523.53
                               -7.48   -523.53 -29081.46

     hubbard stress (kbar)      0.00      0.00      0.00
                                0.00      0.00      0.00
                                0.00      0.00      0.00

     DFT-D   stress (kbar)      0.00      0.00      0.00
                                0.00      0.00      0.00
                                0.00      0.00      0.00

     XDM     stress (kbar)      0.00      0.00      0.00
                                0.00      0.00      0.00
                                0.00      0.00      0.00

     dft-nl  stress (kbar)      0.00      0.00      0.00
                                0.00      0.00      0.00
                                0.00      0.00      0.00

     TS-vdW  stress (kbar)      0.00      0.00      0.00
                                0.00      0.00      0.00
                                0.00      0.00      0.00

[...]

                                0.00      0.00      0.00

     Writing all to output data dir new_calculations/myprefix.save/

     General routines

     Parallel routines

     PAW routines

   This run was terminated on:  18:52:16  21May2023

   JOB DONE.