     Program PWSCF v.7.0 starts on 20May2023 at 20:10:25

     Reading input from espresso_1672.pwi
Warning: card &CELL ignored
Warning: card / ignored

     Current dimensions of program PWSCF are:
     Max number of different atomic species (ntypx) = 10
     Max number of k-points (npk) =  40000
     Max angular momentum in pseudopotentials (lmaxx) =  4
     file Fe.pbe-spn-kjpaw_psl.0.2.1.UPF: wavefunction(s)  3D renormalized
     file O.pbe-n-kjpaw_psl.0.1.UPF: wavefunction(s)  2P renormalized

     gamma-point specific algorithms are used

     Subspace diagonalization in iterative solution of the eigenvalue problem:
     a serial algorithm will be used

     Using Slab Decomposition

     bravais-lattice index     =            0
     lattice parameter (alat)  =      12.2663  a.u.
     unit-cell volume          =    1008.2250 (a.u.)^3
     number of atoms/cell      =           13
     number of atomic types    =            4
     number of electrons       =       109.00
     number of Kohn-Sham states=           66
     kinetic-energy cutoff     =      30.0000  Ry
     charge density cutoff     =     240.0000  Ry
     scf convergence threshold =      1.0E-06
     mixing beta               =       0.7000
     number of iterations used =            8  plain     mixing
     Exchange-correlation= SLA  PW   PBX  PBC
                           (   1   4   3   4   0   0   0)

     celldm(1)=  12.266324  celldm(2)=   0.000000  celldm(3)=   0.000000
     celldm(4)=   0.000000  celldm(5)=   0.000000  celldm(6)=   0.000000

     crystal axes: (cart. coord. in units of alat)
               a(1) = (   1.000000   0.000000   0.000000 )
               a(2) = (   0.824740   0.565513   0.000000 )
               a(3) = (   0.287631   0.089141   0.965988 )

     reciprocal axes: (cart. coord. in units 2 pi/alat)
               b(1) = (  1.000000 -1.458393 -0.163178 )
               b(2) = (  0.000000  1.768307 -0.163178 )
               b(3) = (  0.000000  0.000000  1.035209 )

     PseudoPot. # 1 for Na read from file:
     /home/pragov/projects/rrg-bengioy-ad/pragov/crystal_structure_design/SSSP/na_pbe_v1.5.uspp.F.UPF
     MD5 check sum: 44600605ef58000f06b90626533354dc
     Pseudo is Ultrasoft, Zval =  9.0
     Generated by new atomic code, or converted to UPF format
     Using radial grid of  819 points,  5 beta functions with:
                l(1) =   0
                l(2) =   0
                l(3) =   1
                l(4) =   1
                l(5) =   2
     Q(r) pseudized with  8 coefficients,  rinner =    1.250   1.250   1.250
                                                       1.250   1.250

     PseudoPot. # 2 for Ti read from file:
     /home/pragov/projects/rrg-bengioy-ad/pragov/crystal_structure_design/SSSP/ti_pbe_v1.4.uspp.F.UPF
     MD5 check sum: 88a00a6731bd790ddea75d31a80cb452
     Pseudo is Ultrasoft + core correction, Zval = 12.0
     Generated by new atomic code, or converted to UPF format
     Using radial grid of  851 points,  6 beta functions with:
                l(1) =   0
                l(2) =   0
                l(3) =   1
                l(4) =   1
                l(5) =   2
                l(6) =   2
     Q(r) pseudized with  6 coefficients,  rinner =    1.000   1.000   1.000
                                                       1.000   1.000

     PseudoPot. # 3 for Fe read from file:
     /home/pragov/projects/rrg-bengioy-ad/pragov/crystal_structure_design/SSSP/Fe.pbe-spn-kjpaw_psl.0.2.1.UPF
     MD5 check sum: e86618425769142926afa95317d90200
     Pseudo is Projector augmented-wave + core cor, Zval = 16.0
     Generated using "atomic" code by A. Dal Corso  v.5.0.99 svn rev. 10869
     Shape of augmentation charge: PSQ
     Using radial grid of 1191 points,  6 beta functions with:
                l(1) =   0
                l(2) =   0
                l(3) =   1
                l(4) =   1
                l(5) =   2
                l(6) =   2
     Q(r) pseudized with 0 coefficients

     PseudoPot. # 4 for O  read from file:
     /home/pragov/projects/rrg-bengioy-ad/pragov/crystal_structure_design/SSSP/O.pbe-n-kjpaw_psl.0.1.UPF
     MD5 check sum: 0234752ac141de4415c5fc33072bef88
     Pseudo is Projector augmented-wave + core cor, Zval =  6.0
     Generated using "atomic" code by A. Dal Corso  v.5.0.99 svn rev. 10869
     Shape of augmentation charge: BESSEL
     Using radial grid of 1095 points,  4 beta functions with:
                l(1) =   0
                l(2) =   0
                l(3) =   1
                l(4) =   1
     Q(r) pseudized with 0 coefficients

     atomic species   valence    mass     pseudopotential
        Na             9.00    22.98977     Na( 1.00)
        Ti            12.00    47.86700     Ti( 1.00)
        Fe            16.00    55.84500     Fe( 1.00)
        O              6.00    15.99900     O ( 1.00)

     No symmetry found

                                    s                        frac. trans.

      isym =  1     identity

 cryst.   s( 1) = (     1          0          0      )
                  (     0          1          0      )
                  (     0          0          1      )

 cart.    s( 1) = (  1.0000000 -0.0000000 -0.0000000 )
                  (  0.0000000  1.0000000 -0.0000000 )
                  (  0.0000000  0.0000000  1.0000000 )

   Cartesian axes

     site n.     atom                  positions (alat units)
         1           Na  tau(   1) = (   1.8231250   0.5650122   0.0050627  )
         2           Ti  tau(   2) = (   0.9304164   0.2883492   0.6841960  )
         3           Ti  tau(   3) = (   1.1840991   0.3669691   0.2899037  )
         4           Ti  tau(   4) = (   1.4851131   0.4602576   0.6833247  )
         5           Fe  tau(   5) = (   0.6293345   0.1950397   0.2845357  )
         6           O   tau(   6) = (   0.9182742   0.2845862   0.3515096  )
         7           O   tau(   7) = (   1.2013077   0.3723023   0.6121323  )
         8           O   tau(   8) = (   0.9729357   0.3015265   0.9593037  )
         9           O   tau(   9) = (   1.4335530   0.4442784   0.9554127  )
        10           O   tau(  10) = (   0.6186181   0.1917185   0.6372857  )
        11           O   tau(  11) = (   1.4892253   0.4615320   0.3416894  )
        12           O   tau(  12) = (   0.3235369   0.1002687   0.2767450  )
        13           O   tau(  13) = (   1.7770495   0.5507328   0.6808179  )

   Crystallographic axes

     site n.     atom                  positions (cryst. coord.)
         1           Na  tau(   1) = (  0.9982890  0.9982890  0.0052410  )
         2           Ti  tau(   2) = (  0.3982440  0.3982440  0.7082860  )
         3           Ti  tau(   3) = (  0.6016080  0.6016080  0.3001110  )
         4           Ti  tau(   4) = (  0.7023730  0.7023730  0.7073840  )
         5           Fe  tau(   5) = (  0.2984600  0.2984600  0.2945540  )
         6           O   tau(   6) = (  0.4458770  0.4458770  0.3638860  )
         7           O   tau(   7) = (  0.5584580  0.5584580  0.6336850  )
         8           O   tau(   8) = (  0.3766540  0.3766540  0.9930800  )
         9           O   tau(   9) = (  0.6297180  0.6297180  0.9890520  )
        10           O   tau(  10) = (  0.2350260  0.2350260  0.6597240  )
        11           O   tau(  11) = (  0.7603740  0.7603740  0.3537200  )
        12           O   tau(  12) = (  0.1321470  0.1321470  0.2864890  )
        13           O   tau(  13) = (  0.8627700  0.8627700  0.7047890  )

     number of k points=     1  Methfessel-Paxton smearing, width (Ry)=  0.0010
                       cart. coord. in units 2pi/alat
        k(    1) = (   0.0000000   0.0000000   0.0000000), wk =   2.0000000

                       cryst. coord.
        k(    1) = (   0.0000000   0.0000000   0.0000000), wk =   2.0000000

     Check: negative core charge=   -0.000061

     Initial potential from superposition of free atoms

     starting charge     105.9931, renormalised to     109.0000

     negative rho (up, down):  4.358E-03 0.000E+00
     Starting wfcs are   80 randomized atomic wfcs
     Checking if some PAW data can be deallocated...

     Self-consistent Calculation

     iteration #  1     ecut=    30.00 Ry     beta= 0.70
     Davidson diagonalization with overlap

     ethr =  1.00E-02,  avg # of iterations =  2.0

     negative rho (up, down):  2.823E-03 0.000E+00

     total energy              =   -1089.88822040 Ry
     estimated scf accuracy    <      33.50973532 Ry

[...]

     total energy              =   -1115.59194043 Ry
     estimated scf accuracy    <       0.00000275 Ry

     iteration # 31     ecut=    30.00 Ry     beta= 0.70
     Davidson diagonalization with overlap

     ethr =  2.52E-09,  avg # of iterations =  2.0

[...]

     End of self-consistent calculation

          k = 0.0000 0.0000 0.0000 (  1402 PWs)   bands (ev):

   -79.2507 -49.4123 -49.3513 -49.0979 -45.1211 -44.7107 -44.5080 -42.7665
   -25.8012 -25.6499 -25.6475 -25.6285 -25.5958 -25.5615 -25.3987 -25.3824
   -25.3086 -14.7212 -14.6778 -14.6348 -10.4025  -9.6128  -9.4348  -9.3509
    -9.1763  -9.1185  -9.0045  -8.6098   2.7691   2.9814   3.2414   3.4371
     3.5215   3.6257   3.9261   4.2069   4.2866   4.5794   4.9077   4.9794
     5.1186   5.2719   5.5556   5.5801   5.8219   6.1294   6.1832   6.2477
     6.4565   6.4822   6.8825   7.0820   7.4125   8.0327   8.4486   9.0603
     9.5378   9.7574  10.0645  10.4492  10.5637  11.0388  11.0566  11.1418
    11.2532  11.3310

     occupation numbers
     1.0000   1.0000   1.0000   1.0000   1.0000   1.0000   1.0000   1.0000
     1.0000   1.0000   1.0000   1.0000   1.0000   1.0000   1.0000   1.0000
     1.0000   1.0000   1.0000   1.0000   1.0000   1.0000   1.0000   1.0000
     1.0000   1.0000   1.0000   1.0000   1.0000   1.0000   1.0000   1.0000
     1.0000   1.0000   1.0000   1.0000   1.0000   1.0000   1.0000   1.0000
     1.0000   1.0000   1.0000   1.0000   1.0000   1.0000   1.0000   1.0000
     1.0000   1.0000   1.0000   1.0000   1.0000   1.0000   0.5000  -0.0000
    -0.0000  -0.0000  -0.0000  -0.0000  -0.0000  -0.0000  -0.0000  -0.0000
    -0.0000  -0.0000

     the Fermi energy is     8.4486 ev

!    total energy              =   -1115.59194070 Ry
     estimated scf accuracy    <       0.00000016 Ry
     smearing contrib. (-TS)   =      -0.00028209 Ry
     internal energy E=F+TS    =   -1115.59165861 Ry

     The total energy is F=E-TS. E is the sum of the following terms:
     one-electron contribution =    -491.26501854 Ry
     hartree contribution      =     295.16501192 Ry
     xc contribution           =    -162.52949509 Ry
     ewald contribution        =    -604.75406074 Ry
     one-center paw contrib.   =    -152.20809616 Ry
      -> PAW hartree energy AE =     444.99381181 Ry
      -> PAW hartree energy PS =    -443.32708924 Ry
      -> PAW xc energy AE      =    -248.63506545 Ry
      -> PAW xc energy PS      =      94.76024672 Ry
      -> total E_H with PAW    =     296.83173449 Ry
      -> total E_XC with PAW   =    -316.40431381 Ry

     convergence has been achieved in  31 iterations

     negative rho (up, down):  4.011E-03 0.000E+00

     Forces acting on atoms (cartesian axes, Ry/au):

     atom    1 type  1   force =     0.00013884    0.00004254    0.00605860
     atom    2 type  2   force =     0.20253153    0.06276772    0.02491165
     atom    3 type  2   force =    -0.24974692   -0.07740013    0.04143132
     atom    4 type  2   force =    -0.13163026   -0.04079553    0.13772708
     atom    5 type  3   force =     0.08795246    0.02725546   -0.03752551
     atom    6 type  4   force =     0.03646336    0.01130095    0.00291562
     atom    7 type  4   force =     0.00398195    0.00123432   -0.02447506
     atom    8 type  4   force =    -0.02295289   -0.00711325   -0.03949067
     atom    9 type  4   force =     0.01770208    0.00548590    0.00991790
     atom   10 type  4   force =     0.13560931    0.04202763   -0.15496564
     atom   11 type  4   force =    -0.08111608   -0.02513687    0.08743185
     atom   12 type  4   force =     0.20413034    0.06326322   -0.07311000
     atom   13 type  4   force =    -0.20306371   -0.06293196    0.01917287
     The non-local contrib.  to forces
     atom    1 type  1   force =    -0.01131484   -0.00350609   -0.05965842
     atom    2 type  2   force =    -0.07820042   -0.02423529    0.02594121
     atom    3 type  2   force =     0.06864834    0.02127460   -0.01089801
     atom    4 type  2   force =     0.04679881    0.01450314   -0.05063156
     atom    5 type  3   force =     0.13076381    0.04052127   -0.02470034
     atom    6 type  4   force =     0.13572587    0.04206263   -0.05499348
     atom    7 type  4   force =    -0.13125794   -0.04067913   -0.03551958
     atom    8 type  4   force =    -0.11557516   -0.03581940    0.01036695
     atom    9 type  4   force =    -0.03531704   -0.01094445   -0.14853262
     atom   10 type  4   force =    -0.23450176   -0.07267582    0.36505591
     atom   11 type  4   force =     0.28637946    0.08876115   -0.43117201
     atom   12 type  4   force =    -0.28264355   -0.08759488    0.05816306
     atom   13 type  4   force =     0.33007025    0.10229281    0.14752547
     The ionic contribution  to forces
     atom    1 type  1   force =     0.97292314    0.30152266   -1.28682745
     atom    2 type  2   force =     3.80911523    1.18049874    3.02612131
     atom    3 type  2   force =    -4.37375653   -1.35548907   -4.57272828
     atom    4 type  2   force =    -3.57498078   -1.10793716    7.57114987
     atom    5 type  3   force =     3.83791954    1.18942561   -9.13633258
     atom    6 type  4   force =     1.40824878    0.43643624   -2.49578793
     atom    7 type  4   force =    -0.28223635   -0.08746904    4.02915239
     atom    8 type  4   force =     2.05164393    0.63583350   -1.26890412
     atom    9 type  4   force =    -1.64604297   -0.51013202    1.85036834
     atom   10 type  4   force =    -3.67229311   -1.13809563    5.63049198
     atom   11 type  4   force =     2.57785306    0.79891316   -2.82082888
     atom   12 type  4   force =    -6.55311100   -2.03090188   -2.32350898
     atom   13 type  4   force =     5.44471706    1.68739491    1.79763434
     The local contribution  to forces
     atom    1 type  1   force =    -0.96150640   -0.29798446    1.35311513
     atom    2 type  2   force =    -3.54353900   -1.09819349   -3.01685306
     atom    3 type  2   force =     4.07029779    1.26144579    4.62052468
     atom    4 type  2   force =     3.41050612    1.05696038   -7.38717237
     atom    5 type  3   force =    -3.88332024   -1.20349722    9.11394231
     atom    6 type  4   force =    -1.50732450   -0.46713957    2.55302456
     atom    7 type  4   force =     0.41619439    0.12898396   -4.01799713
     atom    8 type  4   force =    -1.96016108   -0.60748223    1.22209856
     atom    9 type  4   force =     1.69772686    0.52614794   -1.69145483
     atom   10 type  4   force =     4.03837996    1.25155424   -6.14544552
     atom   11 type  4   force =    -2.94062347   -0.91134518    3.33345538
     atom   12 type  4   force =     7.03546405    2.18038835    2.19306668
     atom   13 type  4   force =    -5.97184959   -1.85075992   -1.92356848
     The core correction contribution to forces
     atom    1 type  1   force =     0.00000000    0.00000000    0.00000000
     atom    2 type  2   force =     0.01522932    0.00471976   -0.00995697
     atom    3 type  2   force =    -0.01491602   -0.00462260    0.00478287
     atom    4 type  2   force =    -0.01406604   -0.00435926    0.00485605
     atom    5 type  3   force =     0.00202866    0.00062904    0.00952493
     atom    6 type  4   force =     0.00003284    0.00001019    0.00099995
     atom    7 type  4   force =     0.00099329    0.00030784    0.00007085
     atom    8 type  4   force =     0.00109649    0.00033983   -0.00258643
     atom    9 type  4   force =     0.00130797    0.00040534    0.00049529
     atom   10 type  4   force =     0.00395593    0.00122600   -0.00463898
     atom   11 type  4   force =    -0.00500272   -0.00155050    0.00612663
     atom   12 type  4   force =     0.00421826    0.00130729   -0.00043626
     atom   13 type  4   force =    -0.00581788   -0.00180303   -0.00199733
     The Hubbard contrib.    to forces
     atom    1 type  1   force =     0.00000000    0.00000000    0.00000000
     atom    2 type  2   force =     0.00000000    0.00000000    0.00000000
     atom    3 type  2   force =     0.00000000    0.00000000    0.00000000
     atom    4 type  2   force =     0.00000000    0.00000000    0.00000000
     atom    5 type  3   force =     0.00000000    0.00000000    0.00000000
     atom    6 type  4   force =     0.00000000    0.00000000    0.00000000
     atom    7 type  4   force =     0.00000000    0.00000000    0.00000000
     atom    8 type  4   force =     0.00000000    0.00000000    0.00000000
     atom    9 type  4   force =     0.00000000    0.00000000    0.00000000
     atom   10 type  4   force =     0.00000000    0.00000000    0.00000000
     atom   11 type  4   force =     0.00000000    0.00000000    0.00000000
     atom   12 type  4   force =     0.00000000    0.00000000    0.00000000
     atom   13 type  4   force =     0.00000000    0.00000000    0.00000000
     The SCF correction term to forces
     atom    1 type  1   force =    -0.00001869   -0.00000706   -0.00016308
     atom    2 type  2   force =    -0.00012922   -0.00003948    0.00006674
     atom    3 type  2   force =    -0.00007613   -0.00002634    0.00015764
     atom    4 type  2   force =     0.00005601    0.00001986   -0.00006734
     atom    5 type  3   force =     0.00050507    0.00015927    0.00044775
     atom    6 type  4   force =    -0.00027524   -0.00008604    0.00008010
     atom    7 type  4   force =     0.00023293    0.00007319    0.00022598
     atom    8 type  4   force =    -0.00001269   -0.00000245   -0.00005805
     atom    9 type  4   force =    -0.00002835   -0.00000842   -0.00055070
     atom   10 type  4   force =     0.00001267    0.00000135   -0.00002145
     atom   11 type  4   force =     0.00022196    0.00006701    0.00025831
     atom   12 type  4   force =     0.00014697    0.00004684    0.00001308
     atom   13 type  4   force =    -0.00023917   -0.00007422   -0.00001354

     Total force =     0.569043     Total SCF correction =     0.001134

     Computing stress (Cartesian axis) and pressure

     negative rho (up, down):  4.011E-03 0.000E+00
          total   stress  (Ry/bohr**3)                   (kbar)     P=     -440.95
  -0.00314650  -0.00037112  -0.00003734         -462.87      -54.59       -5.49
  -0.00037112  -0.00206399  -0.00001158          -54.59     -303.62       -1.70
  -0.00003734  -0.00001158  -0.00378199           -5.49       -1.70     -556.35

     kinetic stress (kbar)  27046.31     18.08     99.63
                               18.08  26993.59     30.88
                               99.63     30.88  27016.43

     local   stress (kbar)  -3794.25   -630.70  -2807.81
                             -630.70  -1954.62   -870.18
                            -2807.81   -870.18   2249.78

     nonloc. stress (kbar)  -4041.48    -21.29     -5.70
                              -21.29  -3979.37     -1.77
                               -5.70     -1.77  -4070.88

     hartree stress (kbar)  15403.29    206.99   1279.54
                              206.99  14799.55    396.55
                             1279.54    396.55  12863.22

     exc-cor stress (kbar)  -3843.45      2.50     -0.08
                                2.50  -3850.73     -0.03
                               -0.08     -0.03  -3844.24

     corecor stress (kbar)  -3360.44     -0.74     -0.02
                               -0.74  -3358.29     -0.01
                               -0.02     -0.01  -3360.60

     ewald   stress (kbar) -27872.85    370.58   1428.95
                              370.58 -28953.75    442.85
                             1428.95    442.85 -31410.05

     hubbard stress (kbar)      0.00      0.00      0.00
                                0.00      0.00      0.00
                                0.00      0.00      0.00

     DFT-D   stress (kbar)      0.00      0.00      0.00
                                0.00      0.00      0.00
                                0.00      0.00      0.00

     XDM     stress (kbar)      0.00      0.00      0.00
                                0.00      0.00      0.00
                                0.00      0.00      0.00

     dft-nl  stress (kbar)      0.00      0.00      0.00
                                0.00      0.00      0.00
                                0.00      0.00      0.00

     TS-vdW  stress (kbar)      0.00      0.00      0.00
                                0.00      0.00      0.00
                                0.00      0.00      0.00

[...]

                                0.00      0.00      0.00

     Writing all to output data dir new_calculations/myprefix.save/

     General routines

     Parallel routines

     PAW routines

   This run was terminated on:  20:11:10  20May2023

   JOB DONE.