     Program PWSCF v.7.0 starts on 20May2023 at  7:15:44

     Reading input from espresso_4224.pwi
Warning: card &CELL ignored
Warning: card / ignored

     Current dimensions of program PWSCF are:
     Max number of different atomic species (ntypx) = 10
     Max number of k-points (npk) =  40000
     Max angular momentum in pseudopotentials (lmaxx) =  4

     gamma-point specific algorithms are used
     Message from routine setup:
     using ibrav=0 with symmetry is DISCOURAGED, use correct ibrav instead

     Subspace diagonalization in iterative solution of the eigenvalue problem:
     a serial algorithm will be used

     Using Slab Decomposition

     bravais-lattice index     =            0
     lattice parameter (alat)  =       6.5397  a.u.
     unit-cell volume          =    1783.1952 (a.u.)^3
     number of atoms/cell      =           14
     number of atomic types    =            4
     number of electrons       =       141.00
     number of Kohn-Sham states=           85
     kinetic-energy cutoff     =      30.0000  Ry
     charge density cutoff     =     240.0000  Ry
     scf convergence threshold =      1.0E-06
     mixing beta               =       0.7000
     number of iterations used =            8  plain     mixing
     Exchange-correlation=  SLA  PW   PBX  PBC
                           (   1   4   3   4   0   0   0)

     celldm(1)=   6.539686  celldm(2)=   0.000000  celldm(3)=   0.000000
     celldm(4)=   0.000000  celldm(5)=   0.000000  celldm(6)=   0.000000

     crystal axes: (cart. coord. in units of alat)
               a(1) = (   1.000000   0.000000   0.000000 )
               a(2) = (   0.000000   1.715391   0.000000 )
               a(3) = (   0.000000   0.102870   3.716764 )

     reciprocal axes: (cart. coord. in units 2 pi/alat)
               b(1) = (  1.000000  0.000000  0.000000 )
               b(2) = (  0.000000  0.582957 -0.016135 )
               b(3) = (  0.000000  0.000000  0.269051 )

     PseudoPot. # 1 for Ta read from file:
     /home/pragov/projects/rrg-bengioy-ad/pragov/crystal_structure_design/SSSP/Ta_pbe_v1.uspp.F.UPF
     MD5 check sum: f8bbe9446314a3b8ea5d9f3e3836c939
     Pseudo is Ultrasoft + core correction, Zval = 13.0
     Generated by new atomic code, or converted to UPF format
     Using radial grid of  921 points,  7 beta functions with:
                l(1) =   0
                l(2) =   0
                l(3) =   1
                l(4) =   1
                l(5) =   2
                l(6) =   2
                l(7) =   3
     Q(r) pseudized with  6 coefficients,  rinner =    1.300   1.300   1.300
                                                       1.300   1.300   1.300
                                                       1.300

     PseudoPot. # 2 for Cr read from file:
     /home/pragov/projects/rrg-bengioy-ad/pragov/crystal_structure_design/SSSP/cr_pbe_v1.5.uspp.F.UPF
     MD5 check sum: 0d52af634a40206e4dee301ad30da4bf
     Pseudo is Ultrasoft + core correction, Zval = 14.0
     Generated by new atomic code, or converted to UPF format
     Using radial grid of  857 points,  6 beta functions with:
                l(1) =   0
                l(2) =   0
                l(3) =   1
                l(4) =   1
                l(5) =   2
                l(6) =   2
     Q(r) pseudized with  8 coefficients,  rinner =    0.950   0.950   0.950
                                                       0.950   0.950

     PseudoPot. # 3 for Ag read from file:
     /home/pragov/projects/rrg-bengioy-ad/pragov/crystal_structure_design/SSSP/Ag_ONCV_PBE-1.0.oncvpsp.upf
     MD5 check sum: 94f47bd0669c641108e45594df92fabc
     Pseudo is Norm-conserving, Zval = 19.0
     Generated using ONCVPSP code by D. R. Hamann
     Using radial grid of 1398 points,  6 beta functions with:
                l(1) =   0
                l(2) =   0
                l(3) =   1
                l(4) =   1
                l(5) =   2
                l(6) =   2

     PseudoPot. # 4 for S  read from file:
     /home/pragov/projects/rrg-bengioy-ad/pragov/crystal_structure_design/SSSP/s_pbe_v1.4.uspp.F.UPF
     MD5 check sum: 88d86576ff6df21479756cfb9bdac1df
     Pseudo is Ultrasoft + core correction, Zval =  6.0
     Generated by new atomic code, or converted to UPF format
     Using radial grid of  907 points,  6 beta functions with:
                l(1) =   0
                l(2) =   0
                l(3) =   1
                l(4) =   1
                l(5) =   2
                l(6) =   2
     Q(r) pseudized with  8 coefficients,  rinner =    1.300   1.300   1.300
                                                       1.300   1.300

     atomic species   valence    mass     pseudopotential
        Ta            13.00   180.94788     Ta( 1.00)
        Cr            14.00    51.99610     Cr( 1.00)
        Ag            19.00   107.86820     Ag( 1.00)
        S              6.00    32.06000     S ( 1.00)

      2 Sym. Ops. (no inversion) found

                                    s                        frac. trans.

      isym =  1     identity

 cryst.   s( 1) = (     1          0          0      )
                  (     0          1          0      )
                  (     0          0          1      )

 cart.    s( 1) = (  1.0000000  0.0000000  0.0000000 )
                  (  0.0000000  1.0000000  0.0000000 )
                  (  0.0000000  0.0000000  1.0000000 )

      isym =  2     inv. 180 deg rotation - cart. axis [1,0,0]

 cryst.   s( 2) = (    -1          0          0      )
                  (     0          1          0      )
                  (     0          0          1      )

 cart.    s( 2) = ( -1.0000000  0.0000000  0.0000000 )
                  (  0.0000000  1.0000000  0.0000000 )
                  (  0.0000000  0.0000000  1.0000000 )

   Cartesian axes

     site n.     atom                  positions (alat units)
         1           Ta  tau(   1) = (   0.5000000   0.9321773   0.9349892  )
         2           Cr  tau(   2) = (   0.0000000   0.1093098   2.8157350  )
         3           Cr  tau(   3) = (   0.0000000   1.6930469   0.9194085  )
         4           Cr  tau(   4) = (   0.5000000   0.9072628   2.7611098  )
         5           Ag  tau(   5) = (   0.5000000   0.9681966   3.6960432  )
         6           Ag  tau(   6) = (   0.0000000   0.0692369   1.8812402  )
         7           S   tau(   7) = (   0.5000000   0.3679810   3.1964246  )
         8           S   tau(   8) = (   0.5000000   1.4661231   0.4912670  )
         9           S   tau(   9) = (   0.0000000   1.1659649   1.3795105  )
        10           S   tau(  10) = (   0.0000000   0.6505441   2.3804982  )
        11           S   tau(  11) = (   0.0000000   1.2176249   3.1484709  )
        12           S   tau(  12) = (   0.0000000   0.5718922   0.5437886  )
        13           S   tau(  13) = (   0.5000000   0.2878520   1.2955636  )
        14           S   tau(  14) = (   0.5000000   1.5143495   2.4316781  )

   Crystallographic axes

     site n.     atom                  positions (cryst. coord.)
         1           Ta  tau(   1) = (  0.5000000  0.5283340  0.2515600  )
         2           Cr  tau(   2) = (  0.0000000  0.0182920  0.7575770  )
         3           Cr  tau(   3) = (  0.0000000  0.9721400  0.2473680  )
         4           Cr  tau(   4) = (  0.5000000  0.4843460  0.7428800  )
         5           Ag  tau(   5) = (  0.5000000  0.5047830  0.9944250  )
         6           Ag  tau(   6) = (  0.0000000  0.0100090  0.5061500  )
         7           S   tau(   7) = (  0.5000000  0.1629440  0.8600020  )
         8           S   tau(   8) = (  0.5000000  0.8467610  0.1321760  )
         9           S   tau(   9) = (  0.0000000  0.6574500  0.3711590  )
        10           S   tau(  10) = (  0.0000000  0.3408310  0.6404760  )
        11           S   tau(  11) = (  0.0000000  0.6590240  0.8471000  )
        12           S   tau(  12) = (  0.0000000  0.3246150  0.1463070  )
        13           S   tau(  13) = (  0.5000000  0.1469020  0.3485730  )
        14           S   tau(  14) = (  0.5000000  0.8435670  0.6542460  )

     number of k points=     1  Methfessel-Paxton smearing, width (Ry)=  0.0010
                       cart. coord. in units 2pi/alat
        k(    1) = (   0.0000000   0.0000000   0.0000000), wk =   2.0000000

                       cryst. coord.
        k(    1) = (   0.0000000   0.0000000   0.0000000), wk =   2.0000000

     Check: negative core charge=   -0.000005

     Initial potential from superposition of free atoms

     starting charge     137.9980, renormalised to     141.0000

     negative rho (up, down):  1.015E-01 0.000E+00
     Starting wfcs are   95 randomized atomic wfcs

     Self-consistent Calculation

     iteration #  1     ecut=    30.00 Ry     beta= 0.70
     Davidson diagonalization with overlap

     ethr =  1.00E-02,  avg # of iterations =  6.0

     negative rho (up, down):  9.649E-02 0.000E+00

     total energy              =   -1291.29803590 Ry
     estimated scf accuracy    <     168.77251723 Ry

[...]

     total energy              =   -1434.97667533 Ry
     estimated scf accuracy    <       0.00000291 Ry

     iteration # 48     ecut=    30.00 Ry     beta= 0.70
     Davidson diagonalization with overlap

     ethr =  1.35E-09,  avg # of iterations =  1.0

[...]

     End of self-consistent calculation

          k = 0.0000 0.0000 0.0000 (  2484 PWs)   bands (ev):

   -83.2166 -83.1906 -62.0500 -62.0246 -62.0148 -58.9800 -46.3078 -46.2998
   -46.2527 -46.2483 -46.1878 -46.1286 -33.6382 -33.6217 -33.6099 -33.4505
   -33.2566 -33.2420 -33.1827 -33.1708 -33.0813 -25.5995 -25.5525 -25.1568
    -4.5994  -4.3364  -3.4561  -3.1391  -2.8933  -2.7828  -2.7096  -2.5825
     3.3024   3.4099   3.7686   4.2810   4.5479   4.7054   4.7875   5.0761
     5.1353   5.1405   5.2156   5.3567   5.8234   5.8893   5.9355   6.0415
     6.1363   6.1420   6.4000   6.4530   6.5130   6.6414   6.6771   6.7578
     6.9188   6.9466   7.4764   8.0559   8.2308   8.3010   8.8581   8.9986
     9.0051   9.2210   9.2942   9.4813   9.5062   9.5533   9.5570   9.6202
     9.8624  10.0305  10.0340  10.4685  11.1347  11.3378  11.9829  12.1967
    12.2842  12.3029  12.4954  12.5722  12.6680

     occupation numbers
     1.0000   1.0000   1.0000   1.0000   1.0000   1.0000   1.0000   1.0000
     1.0000   1.0000   1.0000   1.0000   1.0000   1.0000   1.0000   1.0000
     1.0000   1.0000   1.0000   1.0000   1.0000   1.0000   1.0000   1.0000
     1.0000   1.0000   1.0000   1.0000   1.0000   1.0000   1.0000   1.0000
     1.0000   1.0000   1.0000   1.0000   1.0000   1.0000   1.0000   1.0000
     1.0000   1.0000   1.0000   1.0000   1.0000   1.0000   1.0000   1.0000
     1.0000   1.0000   1.0000   1.0000   1.0000   1.0000   1.0000   1.0000
     1.0000   1.0000   1.0000   1.0000   1.0000   1.0000   1.0000   1.0000
     1.0000   1.0000   1.0000   1.0000   1.0000   0.8460   0.6540  -0.0000
    -0.0000  -0.0000  -0.0000  -0.0000  -0.0000  -0.0000  -0.0000  -0.0000
    -0.0000  -0.0000  -0.0000  -0.0000  -0.0000

     the Fermi energy is     9.5596 ev

!    total energy              =   -1434.97667501 Ry
     estimated scf accuracy    <       0.00000046 Ry
     smearing contrib. (-TS)   =      -0.00038672 Ry
     internal energy E=F+TS    =   -1434.97628829 Ry

     The total energy is F=E-TS. E is the sum of the following terms:
     one-electron contribution =    -815.51284884 Ry
     hartree contribution      =     456.49527111 Ry
     xc contribution           =    -231.32636808 Ry
     ewald contribution        =    -844.63234249 Ry

     convergence has been achieved in  48 iterations

     negative rho (up, down):  9.993E-02 0.000E+00

     Forces acting on atoms (cartesian axes, Ry/au):

     atom    1 type  1   force =     0.00000000    0.07937350    0.04906188
     atom    2 type  2   force =     0.00000000    0.04071482    0.04903023
     atom    3 type  2   force =     0.00000000    0.02307552   -0.02556585
     atom    4 type  2   force =     0.00000000   -0.05617900   -0.05251291
     atom    5 type  3   force =     0.00000000   -0.00303667    0.00736956
     atom    6 type  3   force =     0.00000000    0.00237628   -0.00231065
     atom    7 type  4   force =     0.00000000   -0.01237666   -0.06864069
     atom    8 type  4   force =     0.00000000   -0.01418670    0.06574372
     atom    9 type  4   force =     0.00000000   -0.04116397   -0.08771330
     atom   10 type  4   force =     0.00000000    0.01680044    0.06757005
     atom   11 type  4   force =     0.00000000    0.01531112   -0.05525820
     atom   12 type  4   force =     0.00000000   -0.01115560    0.05252862
     atom   13 type  4   force =     0.00000000   -0.03361992   -0.05485256
     atom   14 type  4   force =     0.00000000   -0.00593318    0.05555009
     The non-local contrib.  to forces
     atom    1 type  1   force =     0.00000000    0.07414644    0.05995201
     atom    2 type  2   force =     0.00000000    0.03471994    0.03285528
     atom    3 type  2   force =     0.00000000    0.03118143   -0.02108486
     atom    4 type  2   force =     0.00000000   -0.03430611   -0.03133311
     atom    5 type  3   force =     0.00000000   -0.00024263    0.05190394
     atom    6 type  3   force =     0.00000000   -0.03156344   -0.05702714
     atom    7 type  4   force =     0.00000000    0.09054736   -0.00017232
     atom    8 type  4   force =     0.00000000   -0.06625454    0.04645142
     atom    9 type  4   force =     0.00000000    0.08492832   -0.00318331
     atom   10 type  4   force =     0.00000000   -0.10169267   -0.01646856
     atom   11 type  4   force =     0.00000000   -0.05766560    0.14867869
     atom   12 type  4   force =     0.00000000    0.11944873   -0.13711151
     atom   13 type  4   force =     0.00000000   -0.04271233    0.17493750
     atom   14 type  4   force =     0.00000000    0.05651096   -0.16848785
     The ionic contribution  to forces
     atom    1 type  1   force =    -0.00000000   -3.57963121    5.71179790
     atom    2 type  2   force =    -0.00000000   -1.99308345    6.94230854
     atom    3 type  2   force =     0.00000000    2.47900904   -5.20629568
     atom    4 type  2   force =     0.00000000    2.01151166   -7.30072798
     atom    5 type  3   force =    -0.00000000    0.02326910    6.96444757
     atom    6 type  3   force =    -0.00000000    0.53064590   -6.55466075
     atom    7 type  4   force =    -0.00000000   -4.13869849   10.47744938
     atom    8 type  4   force =     0.00000000    4.10040949   -8.35598631
     atom    9 type  4   force =     0.00000000   -5.25487330    8.13649371
     atom   10 type  4   force =     0.00000000    4.42983962  -10.41426857
     atom   11 type  4   force =    -0.00000000    3.52644173    5.14689023
     atom   12 type  4   force =     0.00000000   -3.14030558   -3.15820551
     atom   13 type  4   force =     0.00000000    4.64761836    3.24183809
     atom   14 type  4   force =    -0.00000000   -3.64215288   -5.63108061
     The local contribution  to forces
     atom    1 type  1   force =    -0.00006843    3.57464184   -5.72447659
     atom    2 type  2   force =    -0.00036834    1.99702051   -6.92650200
     atom    3 type  2   force =     0.00011286   -2.48261340    5.20240031
     atom    4 type  2   force =    -0.00007801   -2.03134227    7.27789531
     atom    5 type  3   force =    -0.00003701   -0.02638915   -7.00866936
     atom    6 type  3   force =    -0.00000684   -0.49625927    6.61063276
     atom    7 type  4   force =     0.00013485    4.04105718  -10.54555172
     atom    8 type  4   force =    -0.00003744   -4.05136256    8.37679405
     atom    9 type  4   force =    -0.00001011    5.13373572   -8.21967681
     atom   10 type  4   force =     0.00014210   -4.31717487   10.49660725
     atom   11 type  4   force =     0.00014635   -3.45684665   -5.34258173
     atom   12 type  4   force =    -0.00000338    3.01606443    3.33945316
     atom   13 type  4   force =     0.00002884   -4.64081190   -3.46091579
     atom   14 type  4   force =     0.00011539    3.58292235    5.84507573
     The core correction contribution to forces
     atom    1 type  1   force =    -0.00000081    0.00983263    0.00207724
     atom    2 type  2   force =    -0.00000640    0.00224499   -0.00083732
     atom    3 type  2   force =     0.00000050   -0.00411959   -0.00036966
     atom    4 type  2   force =    -0.00000262   -0.00225584    0.00043253
     atom    5 type  3   force =     0.00000000    0.00000000    0.00000000
     atom    6 type  3   force =     0.00000000    0.00000000    0.00000000
     atom    7 type  4   force =     0.00000177   -0.00523788   -0.00101220
     atom    8 type  4   force =     0.00000260    0.00304493   -0.00131272
     atom    9 type  4   force =    -0.00000088   -0.00509677   -0.00118109
     atom   10 type  4   force =     0.00000560    0.00584829    0.00194179
     atom   11 type  4   force =     0.00000623    0.00333255   -0.00895189
     atom   12 type  4   force =    -0.00000179   -0.00638704    0.00864212
     atom   13 type  4   force =    -0.00000104    0.00240217   -0.01057101
     atom   14 type  4   force =     0.00000129   -0.00328436    0.01017109
     The Hubbard contrib.    to forces
     atom    1 type  1   force =     0.00000000    0.00000000    0.00000000
     atom    2 type  2   force =     0.00000000    0.00000000    0.00000000
     atom    3 type  2   force =     0.00000000    0.00000000    0.00000000
     atom    4 type  2   force =     0.00000000    0.00000000    0.00000000
     atom    5 type  3   force =     0.00000000    0.00000000    0.00000000
     atom    6 type  3   force =     0.00000000    0.00000000    0.00000000
     atom    7 type  4   force =     0.00000000    0.00000000    0.00000000
     atom    8 type  4   force =     0.00000000    0.00000000    0.00000000
     atom    9 type  4   force =     0.00000000    0.00000000    0.00000000
     atom   10 type  4   force =     0.00000000    0.00000000    0.00000000
     atom   11 type  4   force =     0.00000000    0.00000000    0.00000000
     atom   12 type  4   force =     0.00000000    0.00000000    0.00000000
     atom   13 type  4   force =     0.00000000    0.00000000    0.00000000
     atom   14 type  4   force =     0.00000000    0.00000000    0.00000000
     The SCF correction term to forces
     atom    1 type  1   force =     0.00005623    0.00037168   -0.00026300
     atom    2 type  2   force =     0.00023062   -0.00019927    0.00123141
     atom    3 type  2   force =    -0.00008258   -0.00039407   -0.00019028
     atom    4 type  2   force =     0.00003491    0.00020146    0.00124602
     atom    5 type  3   force =     0.00002999    0.00031390   -0.00028692
     atom    6 type  3   force =     0.00001274   -0.00045901   -0.00122984
     atom    7 type  4   force =    -0.00004494   -0.00005693    0.00067184
     atom    8 type  4   force =     0.00005583   -0.00003613   -0.00017705
     atom    9 type  4   force =    -0.00000554    0.00012996   -0.00014013
     atom   10 type  4   force =    -0.00002987   -0.00003204   -0.00021618
     atom   11 type  4   force =    -0.00002905    0.00003698    0.00073218
     atom   12 type  4   force =    -0.00000400    0.00001175   -0.00022397
     atom   13 type  4   force =    -0.00004129   -0.00012834   -0.00011567
     atom   14 type  4   force =    -0.00003850    0.00005864   -0.00010260

     Total force =     0.238745     Total SCF correction =     0.002594

     Computing stress (Cartesian axis) and pressure

     negative rho (up, down):  9.993E-02 0.000E+00
          total   stress  (Ry/bohr**3)                   (kbar)     P=     -253.34
  -0.00083437   0.00000000   0.00000000         -122.74        0.00        0.00
   0.00000000  -0.00184340  -0.00004049            0.00     -271.17       -5.96
   0.00000000  -0.00004049  -0.00248882            0.00       -5.96     -366.12

     kinetic stress (kbar)  22944.13      0.00      0.00
                                0.00  22512.52    121.59
                                0.00    121.59  22398.71

     local   stress (kbar) -20109.43      0.28      0.19
                                0.28  -2705.84  -3022.51
                                0.19  -3022.51  -6684.29

     nonloc. stress (kbar)   2638.96      0.00      0.00
                                0.00   2517.86     19.79
                                0.00     19.79   2558.41

     hartree stress (kbar)  17268.04     -0.08     -0.07
                               -0.08   9382.17   1283.66
                               -0.07   1283.66  11008.47

     exc-cor stress (kbar)    654.87     -0.00     -0.00
                               -0.00    651.34      2.42
                               -0.00      2.42    653.95

     corecor stress (kbar)  -5598.76      0.00      0.00
                                0.00  -5585.97     -2.49
                                0.00     -2.49  -5587.04

     ewald   stress (kbar) -17920.55      0.00     -0.00
                                0.00 -27043.25   1591.59
                               -0.00   1591.59 -24714.33

     hubbard stress (kbar)      0.00      0.00      0.00
                                0.00      0.00      0.00
                                0.00      0.00      0.00

     DFT-D   stress (kbar)      0.00      0.00      0.00
                                0.00      0.00      0.00
                                0.00      0.00      0.00

     XDM     stress (kbar)      0.00      0.00      0.00
                                0.00      0.00      0.00
                                0.00      0.00      0.00

     dft-nl  stress (kbar)      0.00      0.00      0.00
                                0.00      0.00      0.00
                                0.00      0.00      0.00

     TS-vdW  stress (kbar)      0.00      0.00      0.00
                                0.00      0.00      0.00
                                0.00      0.00      0.00

[...]

                                0.00      0.00      0.00

     Writing all to output data dir new_calculations/myprefix.save/

     General routines

     Parallel routines

   This run was terminated on:   7:17:19  20May2023

   JOB DONE.