     Program PWSCF v.7.0 starts on 21May2023 at  2: 2:34

     Reading input from espresso_15421.pwi
Warning: card &CELL ignored
Warning: card / ignored

     Current dimensions of program PWSCF are:
     Max number of different atomic species (ntypx) = 10
     Max number of k-points (npk) =  40000
     Max angular momentum in pseudopotentials (lmaxx) =  4
     file O.pbe-n-kjpaw_psl.0.1.UPF: wavefunction(s)  2P renormalized

     gamma-point specific algorithms are used
     Message from routine setup:
     using ibrav=0 with symmetry is DISCOURAGED, use correct ibrav instead

     Subspace diagonalization in iterative solution of the eigenvalue problem:
     a serial algorithm will be used

     Using Slab Decomposition

     bravais-lattice index     =            0
     lattice parameter (alat)  =      20.6892  a.u.
     unit-cell volume          =    1956.7820 (a.u.)^3
     number of atoms/cell      =           15
     number of atomic types    =            2
     number of electrons       =       162.00
     number of Kohn-Sham states=           97
     kinetic-energy cutoff     =      30.0000  Ry
     charge density cutoff     =     240.0000  Ry
     scf convergence threshold =      1.0E-06
     mixing beta               =       0.7000
     number of iterations used =            8  plain     mixing
     Exchange-correlation= SLA  PW   PBX  PBC
                           (   1   4   3   4   0   0   0)

     celldm(1)=  20.689213  celldm(2)=   0.000000  celldm(3)=   0.000000
     celldm(4)=   0.000000  celldm(5)=   0.000000  celldm(6)=   0.000000

     crystal axes: (cart. coord. in units of alat)
               a(1) = (   1.000000   0.000000   0.000000 )
               a(2) = (   0.866335   0.499463   0.000000 )
               a(3) = (   0.866335   0.231846   0.442392 )

     reciprocal axes: (cart. coord. in units 2 pi/alat)
               b(1) = (  1.000000 -1.734533 -1.049274 )
               b(2) = (  0.000000  2.002150 -1.049274 )
               b(3) = (  0.000000  0.000000  2.260439 )

     PseudoPot. # 1 for Zr read from file:
     /home/pragov/projects/rrg-bengioy-ad/pragov/crystal_structure_design/SSSP/Zr_pbe_v1.uspp.F.UPF
     MD5 check sum: 5db81b1e868ab7776c4564c113de050b
     Pseudo is Ultrasoft + core correction, Zval = 12.0
     Generated by new atomic code, or converted to UPF format
     Using radial grid of  887 points,  6 beta functions with:
                l(1) =   0
                l(2) =   0
                l(3) =   1
                l(4) =   1
                l(5) =   2
                l(6) =   2
     Q(r) pseudized with  6 coefficients,  rinner =    1.200   1.200   1.200
                                                       1.200   1.200

     PseudoPot. # 2 for O  read from file:
     /home/pragov/projects/rrg-bengioy-ad/pragov/crystal_structure_design/SSSP/O.pbe-n-kjpaw_psl.0.1.UPF
     MD5 check sum: 0234752ac141de4415c5fc33072bef88
     Pseudo is Projector augmented-wave + core cor, Zval =  6.0
     Generated using "atomic" code by A. Dal Corso  v.5.0.99 svn rev. 10869
     Shape of augmentation charge: BESSEL
     Using radial grid of 1095 points,  4 beta functions with:
                l(1) =   0
                l(2) =   0
                l(3) =   1
                l(4) =   1
     Q(r) pseudized with 0 coefficients

     atomic species   valence    mass     pseudopotential
        Zr            12.00    91.22400     Zr( 1.00)
        O              6.00    15.99900     O ( 1.00)

      2 Sym. Ops., with inversion, found

                                    s                        frac. trans.

      isym =  1     identity

 cryst.   s( 1) = (     1          0          0      )
                  (     0          1          0      )
                  (     0          0          1      )

 cart.    s( 1) = (  1.0000000  0.0000000 -0.0000000 )
                  (  0.0000000  1.0000000 -0.0000000 )
                  (  0.0000000  0.0000000  1.0000000 )

      isym =  2     inversion

 cryst.   s( 2) = (    -1          0          0      )
                  (     0         -1          0      )
                  (     0          0         -1      )

 cart.    s( 2) = ( -1.0000000 -0.0000000  0.0000000 )
                  (  0.0000000 -1.0000000  0.0000000 )
                  (  0.0000000  0.0000000 -1.0000000 )

   Cartesian axes

     site n.     atom                  positions (alat units)
         1           Zr  tau(   1) = (   1.5229687   0.3170594   0.0914314  )
         2           Zr  tau(   2) = (   1.0245237   0.1827253   0.3155223  )
         3           Zr  tau(   3) = (   1.4777609   0.3065745   0.3880140  )
         4           Zr  tau(   4) = (   0.9788455   0.4435191   0.1665654  )
         5           Zr  tau(   5) = (   1.4333589   0.5630035   0.2383891  )
         6           Zr  tau(   6) = (   1.0695297   0.1961155   0.0153837  )
         7           Zr  tau(   7) = (   1.2549096   0.4247345   0.0543779  )
         8           Zr  tau(   8) = (   1.7538250   0.2877899   0.2758265  )
         9           Zr  tau(   9) = (   1.2097017   0.4142496   0.3509606  )
        10           Zr  tau(  10) = (   1.7081468   0.5485837   0.1268696  )
        11           Zr  tau(  11) = (   1.2993116   0.1683055   0.2040028  )
        12           Zr  tau(  12) = (   1.6631408   0.5351935   0.4270082  )
        13           O   tau(  13) = (   0.0000000   0.0000000   0.0000000  )
        14           O   tau(  14) = (   0.6825364   0.1826583   0.1104958  )
        15           O   tau(  15) = (   2.0501341   0.5486507   0.3318961  )

   Crystallographic axes

     site n.     atom                  positions (cryst. coord.)
         1           Zr  tau(   1) = (  0.8770820  0.5388640  0.2066750  )
         2           Zr  tau(   2) = (  0.3765110  0.0347740  0.7132190  )
         3           Zr  tau(   3) = (  0.5388640  0.2066750  0.8770820  )
         4           Zr  tau(   4) = (  0.0347740  0.7132190  0.3765110  )
         5           Zr  tau(   5) = (  0.2066750  0.8770820  0.5388640  )
         6           Zr  tau(   6) = (  0.7132190  0.3765110  0.0347740  )
         7           Zr  tau(   7) = (  0.4611360  0.7933250  0.1229180  )
         8           Zr  tau(   8) = (  0.9652260  0.2867810  0.6234890  )
         9           Zr  tau(   9) = (  0.1229180  0.4611360  0.7933250  )
        10           Zr  tau(  10) = (  0.6234890  0.9652260  0.2867810  )
        11           Zr  tau(  11) = (  0.7933250  0.1229180  0.4611360  )
        12           Zr  tau(  12) = (  0.2867810  0.6234890  0.9652260  )
        13           O   tau(  13) = (  0.0000000  0.0000000  0.0000000  )
        14           O   tau(  14) = (  0.2497690  0.2497690  0.2497690  )
        15           O   tau(  15) = (  0.7502310  0.7502310  0.7502310  )

     number of k points=     1  Methfessel-Paxton smearing, width (Ry)=  0.0010
                       cart. coord. in units 2pi/alat
        k(    1) = (   0.0000000   0.0000000   0.0000000), wk =   2.0000000

                       cryst. coord.
        k(    1) = (   0.0000000   0.0000000   0.0000000), wk =   2.0000000

     Check: negative core charge=   -0.000007

     Initial potential from superposition of free atoms

     starting charge     161.9742, renormalised to     162.0000

     negative rho (up, down):  7.297E-01 0.000E+00
     Starting wfcs are  168 randomized atomic wfcs
     Checking if some PAW data can be deallocated...

     Self-consistent Calculation

     iteration #  1     ecut=    30.00 Ry     beta= 0.70
     Davidson diagonalization with overlap

     ethr =  1.00E-02,  avg # of iterations =  2.0

     Threshold (ethr) on eigenvalues was too large:
     Diagonalizing with lowered threshold

     Davidson diagonalization with overlap

[...]

     negative rho (up, down):  7.444E-01 0.000E+00

     total energy              =   -1314.49711031 Ry
     estimated scf accuracy    <       1.02024482 Ry

[...]

     total energy              =   -1314.97658203 Ry
     estimated scf accuracy    <       0.00002377 Ry

     iteration # 17     ecut=    30.00 Ry     beta= 0.70
     Davidson diagonalization with overlap

     ethr =  1.53E-09,  avg # of iterations =  2.0

[...]

     End of self-consistent calculation

          k = 0.0000 0.0000 0.0000 (  2727 PWs)   bands (ev):

   -34.5398 -34.4693 -34.4119 -34.4117 -34.4086 -34.4084 -34.3433 -34.2689
   -34.2265 -34.2263 -34.2247 -34.2245 -13.3555 -13.0833 -12.8669 -12.8668
   -12.8195 -12.7499 -12.7499 -12.7180 -12.6573 -12.6286 -12.6286 -12.6025
   -12.6025 -12.6010 -12.5299 -12.4985 -12.4595 -12.3857 -12.3600 -12.3533
   -12.3532 -12.3254 -12.3254 -12.2572 -12.2572 -12.1948 -12.1948 -12.1542
   -12.1540 -12.1263 -12.1262 -12.0761 -12.0761 -12.0102 -12.0102 -11.9494
    -6.0713  -5.8024  -5.4336   7.3636   7.3636   7.4120   7.6041   7.7759
     7.7760   8.1145   8.3276   8.3276   9.6049  11.2911  11.5647  12.5698
    12.8448  12.9355  13.0638  13.0638  13.0868  13.1822  13.1822  13.3272
    13.4043  13.4043  13.5638  14.0021  14.0021  14.2685  14.3026  14.3026
    14.5192  14.7226  14.7227  14.8314  14.8634  14.8634  14.8899  14.8899
    15.2908  15.5533  15.5533  15.7316  15.7317  16.1018  16.3857  16.4018
    16.4019

     occupation numbers
     1.0000   1.0000   1.0000   1.0000   1.0000   1.0000   1.0000   1.0000
     1.0000   1.0000   1.0000   1.0000   1.0000   1.0000   1.0000   1.0000
     1.0000   1.0000   1.0000   1.0000   1.0000   1.0000   1.0000   1.0000
     1.0000   1.0000   1.0000   1.0000   1.0000   1.0000   1.0000   1.0000
     1.0000   1.0000   1.0000   1.0000   1.0000   1.0000   1.0000   1.0000
     1.0000   1.0000   1.0000   1.0000   1.0000   1.0000   1.0000   1.0000
     1.0000   1.0000   1.0000   1.0000   1.0000   1.0000   1.0000   1.0000
     1.0000   1.0000   1.0000   1.0000   1.0000   1.0000   1.0000   1.0000
     1.0000   1.0000   1.0000   1.0000   1.0000   1.0000   1.0000   1.0000
     1.0000   1.0000   1.0000   1.0000   1.0000   1.0000   1.0000   1.0000
     1.0000  -0.0000  -0.0000  -0.0000  -0.0000  -0.0000  -0.0000  -0.0000
    -0.0000  -0.0000  -0.0000  -0.0000  -0.0000  -0.0000  -0.0000  -0.0000
    -0.0000

     the Fermi energy is    14.6374 ev

!    total energy              =   -1314.97658282 Ry
     estimated scf accuracy    <       0.00000015 Ry
     smearing contrib. (-TS)   =       0.00000000 Ry
     internal energy E=F+TS    =   -1314.97658282 Ry

     The total energy is F=E-TS. E is the sum of the following terms:
     one-electron contribution =    -247.50814029 Ry
     hartree contribution      =     196.70639787 Ry
     xc contribution           =    -235.91898047 Ry
     ewald contribution        =    -999.69044781 Ry
     one-center paw contrib.   =     -28.56541212 Ry
      -> PAW hartree energy AE =      88.90915613 Ry
      -> PAW hartree energy PS =     -88.59632544 Ry
      -> PAW xc energy AE      =     -51.50681838 Ry
      -> PAW xc energy PS      =      22.62857557 Ry
      -> total E_H with PAW    =     197.01922856 Ry
      -> total E_XC with PAW   =    -264.79722328 Ry

     convergence has been achieved in  17 iterations

     negative rho (up, down):  7.564E-01 0.000E+00

     Forces acting on atoms (cartesian axes, Ry/au):

     atom    1 type  1   force =    -0.03232104   -0.02253948    0.00261023
     atom    2 type  1   force =     0.00312130    0.01056813    0.01118765
     atom    3 type  1   force =    -0.03926591    0.00387773    0.00181602
     atom    4 type  1   force =     0.00800264    0.00638405   -0.01196749
     atom    5 type  1   force =    -0.03206573   -0.00907389   -0.02120815
     atom    6 type  1   force =     0.01009189   -0.01127850    0.00421964
     atom    7 type  1   force =     0.03926591   -0.00387773   -0.00181602
     atom    8 type  1   force =    -0.00800264   -0.00638405    0.01196749
     atom    9 type  1   force =     0.03232104    0.02253948   -0.00261023
     atom   10 type  1   force =    -0.00312130   -0.01056813   -0.01118765
     atom   11 type  1   force =     0.03206573    0.00907389    0.02120815
     atom   12 type  1   force =    -0.01009189    0.01127850   -0.00421964
     atom   13 type  2   force =     0.00000000    0.00000000    0.00000000
     atom   14 type  2   force =    -0.00615498   -0.00164522   -0.00099821
     atom   15 type  2   force =     0.00615498    0.00164522    0.00099821
     The non-local contrib.  to forces
     atom    1 type  1   force =    -0.03393916   -0.01128673   -0.03674320
     atom    2 type  1   force =    -0.02612078   -0.02228748   -0.00395539
     atom    3 type  1   force =    -0.03504583   -0.03588067    0.01071289
     atom    4 type  1   force =    -0.03374186   -0.00059105    0.00734575
     atom    5 type  1   force =    -0.04826996    0.01577462    0.00704727
     atom    6 type  1   force =    -0.02954758   -0.00103216   -0.01786739
     atom    7 type  1   force =     0.03504583    0.03588067   -0.01071289
     atom    8 type  1   force =     0.03374186    0.00059105   -0.00734575
     atom    9 type  1   force =     0.03393916    0.01128673    0.03674320
     atom   10 type  1   force =     0.02612078    0.02228748    0.00395539
     atom   11 type  1   force =     0.04826996   -0.01577462   -0.00704727
     atom   12 type  1   force =     0.02954758    0.00103216    0.01786739
     atom   13 type  2   force =     0.00000000    0.00000000    0.00000000
     atom   14 type  2   force =     0.05336649    0.01425826    0.00863025
     atom   15 type  2   force =    -0.05336649   -0.01425826   -0.00863025
     The ionic contribution  to forces
     atom    1 type  1   force =    -5.58321889    2.91281544   -0.20534550
     atom    2 type  1   force =     2.23787904    2.92478446   -3.35628889
     atom    3 type  1   force =    -3.38209744   -2.64770242   -4.60978317
     atom    4 type  1   force =     3.39957382   -3.63012860    0.30366236
     atom    5 type  1   force =    -4.25245927   -3.80241386    2.67530236
     atom    6 type  1   force =     1.13205469    2.51697803    4.14854234
     atom    7 type  1   force =     3.38209744    2.64770242    4.60978317
     atom    8 type  1   force =    -3.39957382    3.63012860   -0.30366236
     atom    9 type  1   force =     5.58321889   -2.91281544    0.20534550
     atom   10 type  1   force =    -2.23787904   -2.92478446    3.35628889
     atom   11 type  1   force =     4.25245927    3.80241386   -2.67530236
     atom   12 type  1   force =    -1.13205469   -2.51697803   -4.14854234
     atom   13 type  2   force =     0.00000000   -0.00000000    0.00000000
     atom   14 type  2   force =    -1.68350264   -0.45053393   -0.27254266
     atom   15 type  2   force =     1.68350264    0.45053393    0.27254266
     The local contribution  to forces
     atom    1 type  1   force =     5.58121214   -2.92379925    0.24250383
     atom    2 type  1   force =    -2.21061108   -2.89321786    3.37024981
     atom    3 type  1   force =     3.37483501    2.68447327    4.60026422
     atom    4 type  1   force =    -3.36011529    3.63612355   -0.32256504
     atom    5 type  1   force =     4.26462163    3.77739532   -2.70248031
     atom    6 type  1   force =    -1.09498967   -2.52676568   -4.12678667
     atom    7 type  1   force =    -3.37529714   -2.68460157   -4.60028807
     atom    8 type  1   force =     3.36051034   -3.63598320    0.32260688
     atom    9 type  1   force =    -5.58164557    2.92369752   -0.24247368
     atom   10 type  1   force =     2.21107391    2.89324935   -3.37016334
     atom   11 type  1   force =    -4.26501940   -3.77751978    2.70226553
     atom   12 type  1   force =     1.09544525    2.52693869    4.12686005
     atom   13 type  2   force =     0.00007933    0.00003338    0.00002061
     atom   14 type  2   force =     1.62478817    0.43468408    0.26302889
     atom   15 type  2   force =    -1.62469637   -0.43464392   -0.26293404
     The core correction contribution to forces
     atom    1 type  1   force =     0.00321431   -0.00019378    0.00238554
     atom    2 type  1   force =     0.00222528    0.00112731    0.00101076
     atom    3 type  1   force =     0.00268784    0.00293583    0.00046403
     atom    4 type  1   force =     0.00249010    0.00095748   -0.00034963
     atom    5 type  1   force =     0.00379504   -0.00014629   -0.00127996
     atom    6 type  1   force =     0.00263601   -0.00011898    0.00052887
     atom    7 type  1   force =    -0.00268412   -0.00293568   -0.00046663
     atom    8 type  1   force =    -0.00249281   -0.00095913    0.00034985
     atom    9 type  1   force =    -0.00321146    0.00019750   -0.00238365
     atom   10 type  1   force =    -0.00222719   -0.00112805   -0.00101201
     atom   11 type  1   force =    -0.00379095    0.00014460    0.00128207
     atom   12 type  1   force =    -0.00263814    0.00011901   -0.00052973
     atom   13 type  2   force =     0.00000004   -0.00000019   -0.00000005
     atom   14 type  2   force =    -0.00064411   -0.00017205   -0.00010430
     atom   15 type  2   force =     0.00064353    0.00017188    0.00010389
     The Hubbard contrib.    to forces
     atom    1 type  1   force =     0.00000000    0.00000000    0.00000000
     atom    2 type  1   force =     0.00000000    0.00000000    0.00000000
     atom    3 type  1   force =     0.00000000    0.00000000    0.00000000
     atom    4 type  1   force =     0.00000000    0.00000000    0.00000000
     atom    5 type  1   force =     0.00000000    0.00000000    0.00000000
     atom    6 type  1   force =     0.00000000    0.00000000    0.00000000
     atom    7 type  1   force =     0.00000000    0.00000000    0.00000000
     atom    8 type  1   force =     0.00000000    0.00000000    0.00000000
     atom    9 type  1   force =     0.00000000    0.00000000    0.00000000
     atom   10 type  1   force =     0.00000000    0.00000000    0.00000000
     atom   11 type  1   force =     0.00000000    0.00000000    0.00000000
     atom   12 type  1   force =     0.00000000    0.00000000    0.00000000
     atom   13 type  2   force =     0.00000000    0.00000000    0.00000000
     atom   14 type  2   force =     0.00000000    0.00000000    0.00000000
     atom   15 type  2   force =     0.00000000    0.00000000    0.00000000
     The SCF correction term to forces
     atom    1 type  1   force =     0.00046282   -0.00003434   -0.00016533
     atom    2 type  1   force =    -0.00029466    0.00014844    0.00015646
     atom    3 type  1   force =     0.00041611    0.00005914    0.00014385
     atom    4 type  1   force =    -0.00025400    0.00000192   -0.00006551
     atom    5 type  1   force =     0.00031270    0.00031005    0.00022096
     atom    6 type  1   force =    -0.00010649   -0.00034546   -0.00020823
     atom    7 type  1   force =     0.00016550    0.00008385   -0.00014580
     atom    8 type  1   force =    -0.00023807   -0.00018213    0.00001428
     atom    9 type  1   force =     0.00007229    0.00021398    0.00018352
     atom   10 type  1   force =    -0.00025324   -0.00020572   -0.00027148
     atom   11 type  1   force =     0.00021272   -0.00019645    0.00002865
     atom   12 type  1   force =    -0.00043681    0.00016093    0.00011426
     atom   13 type  2   force =    -0.00007910   -0.00004036   -0.00002703
     atom   14 type  2   force =    -0.00018147    0.00011164   -0.00001978
     atom   15 type  2   force =     0.00005310   -0.00016518   -0.00009343

     Total force =     0.104528     Total SCF correction =     0.001370

     Computing stress (Cartesian axis) and pressure

     negative rho (up, down):  7.564E-01 0.000E+00
          total   stress  (Ry/bohr**3)                   (kbar)     P=      -28.11
  -0.00047165  -0.00011839  -0.00007159          -69.38      -17.42      -10.53
  -0.00011839  -0.00006085  -0.00001919          -17.42       -8.95       -2.82
  -0.00007159  -0.00001919  -0.00004079          -10.53       -2.82       -6.00

     kinetic stress (kbar)  19499.51     71.64     43.33
                               71.64  19251.00     11.60
                               43.33     11.60  19238.85

     local   stress (kbar)  -7921.19   -106.71    -64.53
                             -106.71  -7550.97    -17.30
                              -64.53    -17.30  -7532.89

     nonloc. stress (kbar)  13394.35    -29.34    -17.75
                              -29.34  13496.12     -4.75
                              -17.75     -4.75  13501.10

     hartree stress (kbar)   4949.92      8.71      5.25
                                8.71   4919.67      1.43
                                5.25      1.43   4918.21

     exc-cor stress (kbar)    758.92      1.78      1.08
                                1.78    752.74      0.29
                                1.08      0.29    752.44

     corecor stress (kbar)  -5783.38      1.16      0.70
                                1.16  -5787.39      0.19
                                0.70      0.19  -5787.59

     ewald   stress (kbar) -24967.52     35.34     21.38
                               35.34 -25090.13      5.72
                               21.38      5.72 -25096.12

     hubbard stress (kbar)      0.00      0.00      0.00
                                0.00      0.00      0.00
                                0.00      0.00      0.00

     DFT-D   stress (kbar)      0.00      0.00      0.00
                                0.00      0.00      0.00
                                0.00      0.00      0.00

     XDM     stress (kbar)      0.00      0.00      0.00
                                0.00      0.00      0.00
                                0.00      0.00      0.00

     dft-nl  stress (kbar)      0.00      0.00      0.00
                                0.00      0.00      0.00
                                0.00      0.00      0.00

     TS-vdW  stress (kbar)      0.00      0.00      0.00
                                0.00      0.00      0.00
                                0.00      0.00      0.00

[...]

                                0.00      0.00      0.00

     Writing all to output data dir new_calculations/myprefix.save/

     General routines

     Parallel routines

     PAW routines

   This run was terminated on:   2: 5:27  21May2023

   JOB DONE.