     Program PWSCF v.7.0 starts on 20May2023 at 11:58:10

     Reading input from espresso_4407.pwi
Warning: card &CELL ignored
Warning: card / ignored

     Current dimensions of program PWSCF are:
     Max number of different atomic species (ntypx) = 10
     Max number of k-points (npk) =  40000
     Max angular momentum in pseudopotentials (lmaxx) =  4
     file Al.pbe-n-kjpaw_psl.1.0.0.UPF: wavefunction(s)  3S 3P renormalized

     gamma-point specific algorithms are used
     Message from routine setup:
     using ibrav=0 with symmetry is DISCOURAGED, use correct ibrav instead

     Subspace diagonalization in iterative solution of the eigenvalue problem:
     a serial algorithm will be used

     Using Slab Decomposition

     bravais-lattice index     =            0
     lattice parameter (alat)  =       7.9031  a.u.
     unit-cell volume          =     349.0369 (a.u.)^3
     number of atoms/cell      =            4
     number of atomic types    =            3
     number of electrons       =        39.00
     number of Kohn-Sham states=           24
     kinetic-energy cutoff     =      30.0000  Ry
     charge density cutoff     =     240.0000  Ry
     scf convergence threshold =      1.0E-06
     mixing beta               =       0.7000
     number of iterations used =            8  plain     mixing
     Exchange-correlation= SLA  PW   PBE  PBE
                           (   1   4   3   4   0   0   0)

     celldm(1)=   7.903063  celldm(2)=   0.000000  celldm(3)=   0.000000
     celldm(4)=   0.000000  celldm(5)=   0.000000  celldm(6)=   0.000000

     crystal axes: (cart. coord. in units of alat)
               a(1) = (   1.000000   0.000000   0.000000 )
               a(2) = (   0.500000   0.866025   0.000000 )
               a(3) = (   0.500000   0.288675   0.816497 )

     reciprocal axes: (cart. coord. in units 2 pi/alat)
               b(1) = (  1.000000 -0.577350 -0.408248 )
               b(2) = (  0.000000  1.154701 -0.408248 )
               b(3) = (  0.000000  0.000000  1.224745 )

     PseudoPot. # 1 for Al read from file:
     /home/pragov/projects/rrg-bengioy-ad/pragov/crystal_structure_design/SSSP/Al.pbe-n-kjpaw_psl.1.0.0.UPF
     MD5 check sum: cfc449ca30b5f3223ec38ddd88ac046d
     Pseudo is Projector augmented-wave + core cor, Zval =  3.0
     Generated using "atomic" code by A. Dal Corso  v.5.1
     Shape of augmentation charge: PSQ
     Using radial grid of 1135 points,  6 beta functions with:
                l(1) =   0
                l(2) =   0
                l(3) =   1
                l(4) =   1
                l(5) =   2
                l(6) =   2
     Q(r) pseudized with 0 coefficients

     PseudoPot. # 2 for Co read from file:
     /home/pragov/projects/rrg-bengioy-ad/pragov/crystal_structure_design/SSSP/Co_pbe_v1.2.uspp.F.UPF
     MD5 check sum: 5f91765df6ddd3222702df6e7b74a16d
     Pseudo is Ultrasoft + core correction, Zval = 17.0
     Generated by new atomic code, or converted to UPF format
     Using radial grid of  863 points,  6 beta functions with:
                l(1) =   0
                l(2) =   0
                l(3) =   1
                l(4) =   1
                l(5) =   2
                l(6) =   2
     Q(r) pseudized with  8 coefficients,  rinner =    1.200   1.200   1.200
                                                       1.200   1.200

     PseudoPot. # 3 for Os read from file:
     /home/pragov/projects/rrg-bengioy-ad/pragov/crystal_structure_design/SSSP/Os_pbe_v1.2.uspp.F.UPF
     MD5 check sum: a3fb40a04f0c37c25c34bbc47164c9a8
     Pseudo is Ultrasoft + core correction, Zval = 16.0
     Generated by new atomic code, or converted to UPF format
     Using radial grid of  983 points,  8 beta functions with:
                l(1) =   0
                l(2) =   0
                l(3) =   1
                l(4) =   1
                l(5) =   2
                l(6) =   2
                l(7) =   3
                l(8) =   3
     Q(r) pseudized with  8 coefficients,  rinner =    1.150   1.150   1.150
                                                       1.150   1.150   1.150
                                                       1.150

     atomic species   valence    mass     pseudopotential
        Al             3.00    26.98154     Al( 1.00)
        Co            17.00    58.93319     Co( 1.00)
        Os            16.00   190.23000     Os( 1.00)

     12 Sym. Ops., with inversion, found

                                    s                        frac. trans.

      isym =  1     identity

 cryst.   s( 1) = (     1          0          0      )
                  (     0          1          0      )
                  (     0          0          1      )

 cart.    s( 1) = (  1.0000000  0.0000000 -0.0000000 )
                  (  0.0000000  1.0000000 -0.0000000 )
                  (  0.0000000  0.0000000  1.0000000 )

      isym =  2     180 deg rotation - cart. axis [1,0,0]

[...]

      isym =  3     120 deg rotation - cryst. axis [0,0,1]

[...]

      isym =  6     180 deg rotation - cryst. axis [1,1,0]

[...]

      isym =  7     inversion

[...]

      isym =  8     inv. 180 deg rotation - cart. axis [1,0,0]

[...]

      isym =  9     inv. 120 deg rotation - cryst. axis [0,0,1]

 cryst.   s( 9) = (     1         -1          0      )
                  (     1          0          0      )
                  (     1          0         -1      )

 cart.    s( 9) = (  0.5000000  0.8660254 -0.0000000 )
                  ( -0.8660254  0.5000000  0.0000000 )
                  (  0.0000000  0.0000000 -1.0000000 )

[...]

 cryst.   s(10) = (     0          1          0      )
                  (    -1          1          0      )
                  (     0          1         -1      )

 cart.    s(10) = (  0.5000000 -0.8660254  0.0000000 )
                  (  0.8660254  0.5000000 -0.0000000 )
                  (  0.0000000  0.0000000 -1.0000000 )

[...]

      isym = 12     inv. 180 deg rotation - cryst. axis [1,1,0]

 cryst.   s(12) = (     1         -1          0      )
                  (     0         -1          0      )
                  (     0         -1          1      )

 cart.    s(12) = (  0.5000000 -0.8660254  0.0000000 )
                  ( -0.8660254 -0.5000000  0.0000000 )
                  (  0.0000000  0.0000000  1.0000000 )

   Cartesian axes

     site n.     atom                  positions (alat units)
         1           Al  tau(   1) = (   1.5000000   0.8660254   0.6123724  )
         2           Al  tau(   2) = (   0.5000000   0.2886751   0.2041241  )
         3           Co  tau(   3) = (   1.0000000   0.5773503   0.4082483  )
         4           Os  tau(   4) = (   0.0000000   0.0000000   0.0000000  )

   Crystallographic axes

     site n.     atom                  positions (cryst. coord.)
         1           Al  tau(   1) = (  0.7500000  0.7500000  0.7500000  )
         2           Al  tau(   2) = (  0.2500000  0.2500000  0.2500000  )
         3           Co  tau(   3) = (  0.5000000  0.5000000  0.5000000  )
         4           Os  tau(   4) = (  0.0000000  0.0000000  0.0000000  )

     number of k points=     1  Methfessel-Paxton smearing, width (Ry)=  0.0010
                       cart. coord. in units 2pi/alat
        k(    1) = (   0.0000000   0.0000000   0.0000000), wk =   2.0000000

                       cryst. coord.
        k(    1) = (   0.0000000   0.0000000   0.0000000), wk =   2.0000000

     Check: negative core charge=   -0.000007

     Initial potential from superposition of free atoms

     starting charge      37.4954, renormalised to      39.0000

     negative rho (up, down):  1.296E-01 0.000E+00
     Starting wfcs are   34 randomized atomic wfcs
     Checking if some PAW data can be deallocated...

     Self-consistent Calculation

     iteration #  1     ecut=    30.00 Ry     beta= 0.70
     Davidson diagonalization with overlap

     ethr =  1.00E-02,  avg # of iterations =  3.0

     negative rho (up, down):  1.248E-01 0.000E+00

     total energy              =    -559.04696675 Ry
     estimated scf accuracy    <      20.77034808 Ry

[...]

     ethr =  4.14E-05,  avg # of iterations =  1.0

[...]

     ethr =  4.14E-05,  avg # of iterations =  1.0
     Minimization algorithm failed to find Fermi energy: reverting to bisection
     Possible cause: smearing is larger than the electronic band-gap.

[...]

     total energy              =    -575.05831179 Ry
     estimated scf accuracy    <       0.00000885 Ry

     iteration # 68     ecut=    30.00 Ry     beta= 0.70
     Davidson diagonalization with overlap

     ethr =  2.27E-08,  avg # of iterations =  1.0
     Minimization algorithm failed to find Fermi energy: reverting to bisection
     Possible cause: smearing is larger than the electronic band-gap.

[...]

     End of self-consistent calculation

          k = 0.0000 0.0000 0.0000 (   471 PWs)   bands (ev):

   -75.6158 -68.2721 -39.0635 -39.0635 -39.0635 -27.8641 -27.8641 -27.8641
     4.8586  11.6047  11.6048  11.6048  13.1853  13.1853  17.3453  17.3453
    17.3453  18.4216  18.4223  18.4223  18.5539  18.5539  18.5539  21.5047

     occupation numbers
     1.0000   1.0000   1.0000   1.0000   1.0000   1.0000   1.0000   1.0000
     1.0000   1.0000   1.0000   1.0000   1.0000   1.0000   1.0000   1.0000
     1.0000   0.8541   0.8230   0.8229  -0.0000  -0.0000  -0.0000  -0.0000

     the Fermi energy is    18.4280 ev

!    total energy              =    -575.05831122 Ry
     estimated scf accuracy    <       0.00000069 Ry
     smearing contrib. (-TS)   =      -0.00043166 Ry
     internal energy E=F+TS    =    -575.05787956 Ry

     The total energy is F=E-TS. E is the sum of the following terms:
     one-electron contribution =    -277.80270552 Ry
     hartree contribution      =     162.70760899 Ry
     xc contribution           =     -76.29703468 Ry
     ewald contribution        =    -314.16244183 Ry
     one-center paw contrib.   =     -69.50330652 Ry
      -> PAW hartree energy AE =       5.08407908 Ry
      -> PAW hartree energy PS =      -5.06817947 Ry
      -> PAW xc energy AE      =     -74.25926580 Ry
      -> PAW xc energy PS      =       4.74005967 Ry
      -> total E_H with PAW    =     162.72350861 Ry
      -> total E_XC with PAW   =    -145.81624081 Ry

     convergence has been achieved in  68 iterations

     negative rho (up, down):  9.840E-02 0.000E+00

     Forces acting on atoms (cartesian axes, Ry/au):

     atom    1 type  1   force =     0.00000000    0.00000000    0.00000051
     atom    2 type  1   force =     0.00000000    0.00000000   -0.00000051
     atom    3 type  2   force =     0.00000000   -0.00000000   -0.00000000
     atom    4 type  3   force =     0.00000000   -0.00000000   -0.00000000
     The non-local contrib.  to forces
     atom    1 type  1   force =     0.00000000    0.00000000   -0.00000497
     atom    2 type  1   force =     0.00000000    0.00000000    0.00000497
     atom    3 type  2   force =     0.00000000    0.00000000   -0.00000000
     atom    4 type  3   force =     0.00000000    0.00000000    0.00000000
     The ionic contribution  to forces
     atom    1 type  1   force =     0.00000000   -0.00000000    0.00000000
     atom    2 type  1   force =     0.00000000    0.00000000   -0.00000000
     atom    3 type  2   force =    -0.00000000   -0.00000000   -0.00000000
     atom    4 type  3   force =    -0.00000000    0.00000000    0.00000000
     The local contribution  to forces
     atom    1 type  1   force =     0.00003936    0.00001006    0.00000551
     atom    2 type  1   force =    -0.00003899   -0.00001081   -0.00000527
     atom    3 type  2   force =    -0.00000505    0.00001100    0.00003316
     atom    4 type  3   force =     0.00002786   -0.00001076   -0.00001781
     The core correction contribution to forces
     atom    1 type  1   force =     0.00000444    0.00000105    0.00000030
     atom    2 type  1   force =    -0.00000425   -0.00000134   -0.00000054
     atom    3 type  2   force =    -0.00000015    0.00000029    0.00000106
     atom    4 type  3   force =     0.00000014    0.00000021    0.00000071
     The Hubbard contrib.    to forces
     atom    1 type  1   force =     0.00000000    0.00000000    0.00000000
     atom    2 type  1   force =     0.00000000    0.00000000    0.00000000
     atom    3 type  2   force =     0.00000000    0.00000000    0.00000000
     atom    4 type  3   force =     0.00000000    0.00000000    0.00000000
     The SCF correction term to forces
     atom    1 type  1   force =     0.00000156   -0.00000042   -0.00000077
     atom    2 type  1   force =    -0.00000096    0.00000017   -0.00000011
     atom    3 type  2   force =     0.00001448   -0.00001655   -0.00002199
     atom    4 type  3   force =    -0.00003158    0.00000514    0.00000976

     Total force =     0.000001     Total SCF correction =     0.000046
     SCF correction compared to forces is large: reduce conv_thr to get better values

     Computing stress (Cartesian axis) and pressure

     negative rho (up, down):  9.840E-02 0.000E+00
          total   stress  (Ry/bohr**3)                   (kbar)     P=      290.39
   0.00197399   0.00000000  -0.00000000          290.38        0.00       -0.00
   0.00000000   0.00197399   0.00000000            0.00      290.38        0.00
   0.00000000  -0.00000000   0.00197401            0.00       -0.00      290.39

     kinetic stress (kbar)  31592.23      0.00     -0.00
                                0.00  31592.23      0.00
                               -0.00      0.00  31592.24

     local   stress (kbar)   8039.96      0.01     -0.02
                                0.01   8040.29      0.23
                               -0.02      0.23   8040.11

     nonloc. stress (kbar)  -9201.34      0.00      0.00
                                0.00  -9201.34     -0.00
                                0.00      0.00  -9201.34

     hartree stress (kbar)  22858.32     -0.01      0.00
                               -0.01  22858.17     -0.10
                                0.00     -0.10  22858.25

     exc-cor stress (kbar)    839.05      0.00      0.00
                                0.00    839.05     -0.00
                                0.00     -0.00    839.05

     corecor stress (kbar)  -9702.30     -0.00     -0.00
                               -0.00  -9702.30      0.00
                               -0.00      0.00  -9702.30

     ewald   stress (kbar) -44135.63     -0.00      0.00
                               -0.00 -44135.63     -0.00
                                0.00     -0.00 -44135.63

     hubbard stress (kbar)      0.00      0.00      0.00
                                0.00      0.00      0.00
                                0.00      0.00      0.00

     DFT-D   stress (kbar)      0.00      0.00      0.00
                                0.00      0.00      0.00
                                0.00      0.00      0.00

     XDM     stress (kbar)      0.00      0.00      0.00
                                0.00      0.00      0.00
                                0.00      0.00      0.00

     dft-nl  stress (kbar)      0.00      0.00      0.00
                                0.00      0.00      0.00
                                0.00      0.00      0.00

     TS-vdW  stress (kbar)      0.00      0.00      0.00
                                0.00      0.00      0.00
                                0.00      0.00      0.00

[...]

                                0.00      0.00      0.00

     Writing all to output data dir new_calculations/myprefix.save/

     General routines

     Parallel routines

     PAW routines

   This run was terminated on:  11:59: 9  20May2023

   JOB DONE.