     Program PWSCF v.7.0 starts on 20May2023 at  9:12:32

     Reading input from espresso_9283.pwi
Warning: card &CELL ignored
Warning: card / ignored

     Current dimensions of program PWSCF are:
     Max number of different atomic species (ntypx) = 10
     Max number of k-points (npk) =  40000
     Max angular momentum in pseudopotentials (lmaxx) =  4
     file O.pbe-n-kjpaw_psl.0.1.UPF: wavefunction(s)  2P renormalized

     gamma-point specific algorithms are used
     Message from routine setup:
     using ibrav=0 with symmetry is DISCOURAGED, use correct ibrav instead

     Subspace diagonalization in iterative solution of the eigenvalue problem:
     a serial algorithm will be used

     Using Slab Decomposition

     bravais-lattice index     =            0
     lattice parameter (alat)  =       9.1830  a.u.
     unit-cell volume          =     513.8510 (a.u.)^3
     number of atoms/cell      =            6
     number of atomic types    =            2
     number of electrons       =        48.00
     number of Kohn-Sham states=           29
     kinetic-energy cutoff     =      30.0000  Ry
     charge density cutoff     =     240.0000  Ry
     scf convergence threshold =      1.0E-06
     mixing beta               =       0.7000
     number of iterations used =            8  plain     mixing
     Exchange-correlation= SLA  PW   PBX  PBC
                           (   1   4   3   4   0   0   0)

     celldm(1)=   9.183028  celldm(2)=   0.000000  celldm(3)=   0.000000
     celldm(4)=   0.000000  celldm(5)=   0.000000  celldm(6)=   0.000000

     crystal axes: (cart. coord. in units of alat)
               a(1) = (   1.000000   0.000000   0.000000 )
               a(2) = (   0.000000   1.000000   0.000000 )
               a(3) = (   0.000000   0.000000   0.663559 )

     reciprocal axes: (cart. coord. in units 2 pi/alat)
               b(1) = (  1.000000  0.000000  0.000000 )
               b(2) = (  0.000000  1.000000  0.000000 )
               b(3) = (  0.000000  0.000000  1.507025 )

     PseudoPot. # 1 for Hf read from file:
     /home/pragov/projects/rrg-bengioy-ad/pragov/crystal_structure_design/SSSP/Hf-sp.oncvpsp.upf
     MD5 check sum: 417ed15784afe83d2e06dacf143de3f8
     Pseudo is Norm-conserving + core correction, Zval = 12.0
     Generated using ONCVPSP code by D. R. Hamann
     Using radial grid of 1656 points,  8 beta functions with:
                l(1) =   0
                l(2) =   0
                l(3) =   1
                l(4) =   1
                l(5) =   2
                l(6) =   2
                l(7) =   3
                l(8) =   3

     PseudoPot. # 2 for O  read from file:
     /home/pragov/projects/rrg-bengioy-ad/pragov/crystal_structure_design/SSSP/O.pbe-n-kjpaw_psl.0.1.UPF
     MD5 check sum: 0234752ac141de4415c5fc33072bef88
     Pseudo is Projector augmented-wave + core cor, Zval =  6.0
     Generated using "atomic" code by A. Dal Corso  v.5.0.99 svn rev. 10869
     Shape of augmentation charge: BESSEL
     Using radial grid of 1095 points,  4 beta functions with:
                l(1) =   0
                l(2) =   0
                l(3) =   1
                l(4) =   1
     Q(r) pseudized with 0 coefficients

     atomic species   valence    mass     pseudopotential
        Hf            12.00   178.49000     Hf( 1.00)
        O              6.00    15.99900     O ( 1.00)

     16 Sym. Ops., with inversion, found ( 8 have fractional translation)

                                    s                        frac. trans.

      isym =  1     identity

 cryst.   s( 1) = (     1          0          0      )
                  (     0          1          0      )
                  (     0          0          1      )

 cart.    s( 1) = (  1.0000000  0.0000000  0.0000000 )
                  (  0.0000000  1.0000000  0.0000000 )
                  (  0.0000000  0.0000000  1.0000000 )

      isym =  2     180 deg rotation - cart. axis [0,0,1]

[...]

 cryst.   s( 3) = (    -1          0          0      )    f =(  0.5000000 )
                  (     0          1          0      )       ( -0.5000000 )
                  (     0          0         -1      )       ( -0.5000000 )

 cart.    s( 3) = ( -1.0000000  0.0000000  0.0000000 )    f =(  0.5000000 )
                  (  0.0000000  1.0000000  0.0000000 )       ( -0.5000000 )
                  (  0.0000000  0.0000000 -1.0000000 )       ( -0.3317795 )

[...]

      isym =  8      90 deg rotation - cart. axis [0,0,1]

 cryst.   s( 8) = (     0          1          0      )    f =(  0.5000000 )
                  (    -1          0          0      )       ( -0.5000000 )
                  (     0          0          1      )       (  0.5000000 )

 cart.    s( 8) = (  0.0000000 -1.0000000  0.0000000 )    f =(  0.5000000 )
                  (  1.0000000  0.0000000  0.0000000 )       ( -0.5000000 )
                  (  0.0000000  0.0000000  1.0000000 )       (  0.3317795 )

      isym =  9     inversion

 cryst.   s( 9) = (    -1          0          0      )
                  (     0         -1          0      )
                  (     0          0         -1      )

 cart.    s( 9) = ( -1.0000000  0.0000000  0.0000000 )
                  (  0.0000000 -1.0000000  0.0000000 )
                  (  0.0000000  0.0000000 -1.0000000 )

      isym = 10     inv. 180 deg rotation - cart. axis [0,0,1]

 cryst.   s(10) = (     1          0          0      )
                  (     0          1          0      )
                  (     0          0         -1      )

 cart.    s(10) = (  1.0000000  0.0000000  0.0000000 )
                  (  0.0000000  1.0000000  0.0000000 )
                  (  0.0000000  0.0000000 -1.0000000 )

[...]

 cryst.   s(11) = (     1          0          0      )    f =( -0.5000000 )
                  (     0         -1          0      )       (  0.5000000 )
                  (     0          0          1      )       (  0.5000000 )

 cart.    s(11) = (  1.0000000  0.0000000  0.0000000 )    f =( -0.5000000 )
                  (  0.0000000 -1.0000000  0.0000000 )       (  0.5000000 )
                  (  0.0000000  0.0000000  1.0000000 )       (  0.3317795 )

[...]

 cryst.   s(14) = (     0          1          0      )
                  (     1          0          0      )
                  (     0          0          1      )

 cart.    s(14) = (  0.0000000  1.0000000  0.0000000 )
                  (  1.0000000  0.0000000  0.0000000 )
                  (  0.0000000  0.0000000  1.0000000 )

[...]

      isym = 16     inv.  90 deg rotation - cart. axis [0,0,1]

 cryst.   s(16) = (     0         -1          0      )    f =( -0.5000000 )
                  (     1          0          0      )       (  0.5000000 )
                  (     0          0         -1      )       ( -0.5000000 )

 cart.    s(16) = (  0.0000000  1.0000000  0.0000000 )    f =( -0.5000000 )
                  ( -1.0000000  0.0000000  0.0000000 )       (  0.5000000 )
                  (  0.0000000  0.0000000 -1.0000000 )       ( -0.3317795 )

   Cartesian axes

     site n.     atom                  positions (alat units)
         1           Hf  tau(   1) = (   0.0000000   0.0000000   0.0000000  )
         2           Hf  tau(   2) = (   0.5000000   0.5000000   0.3317795  )
         3           O   tau(   3) = (   0.8052590   0.1947410   0.3317795  )
         4           O   tau(   4) = (   0.3052590   0.3052590   0.0000000  )
         5           O   tau(   5) = (   0.6947410   0.6947410   0.0000000  )
         6           O   tau(   6) = (   0.1947410   0.8052590   0.3317795  )

   Crystallographic axes

     site n.     atom                  positions (cryst. coord.)
         1           Hf  tau(   1) = (  0.0000000  0.0000000  0.0000000  )
         2           Hf  tau(   2) = (  0.5000000  0.5000000  0.5000000  )
         3           O   tau(   3) = (  0.8052590  0.1947410  0.5000000  )
         4           O   tau(   4) = (  0.3052590  0.3052590  0.0000000  )
         5           O   tau(   5) = (  0.6947410  0.6947410  0.0000000  )
         6           O   tau(   6) = (  0.1947410  0.8052590  0.5000000  )

     number of k points=     1  Methfessel-Paxton smearing, width (Ry)=  0.0010
                       cart. coord. in units 2pi/alat
        k(    1) = (   0.0000000   0.0000000   0.0000000), wk =   2.0000000

                       cryst. coord.
        k(    1) = (   0.0000000   0.0000000   0.0000000), wk =   2.0000000

     Check: negative core charge=   -0.000012

     Initial potential from superposition of free atoms

     starting charge      47.9963, renormalised to      48.0000
     Starting wfcs are   36 randomized atomic wfcs
     Checking if some PAW data can be deallocated...

     Self-consistent Calculation

     iteration #  1     ecut=    30.00 Ry     beta= 0.70
     Davidson diagonalization with overlap

     ethr =  1.00E-02,  avg # of iterations =  2.0

     total energy              =    -391.52085753 Ry
     estimated scf accuracy    <       2.32536156 Ry

[...]

     total energy              =    -392.61143404 Ry
     estimated scf accuracy    <       0.00000188 Ry

     iteration # 10     ecut=    30.00 Ry     beta= 0.70
     Davidson diagonalization with overlap

     ethr =  3.92E-09,  avg # of iterations =  2.0

     End of self-consistent calculation

          k = 0.0000 0.0000 0.0000 (   716 PWs)   bands (ev):

   -51.5498 -51.5342 -20.5297 -20.5297 -20.2953 -20.2952 -19.9439 -19.8950
    -7.9506  -7.1634  -6.0330  -6.0322   4.1588   4.6606   5.2535   6.1209
     6.1215   7.9103   7.9104   8.1335   9.1011   9.3571   9.3572   9.8477
    13.2266  13.2944  14.1254  14.6271  15.5143

     occupation numbers
     1.0000   1.0000   1.0000   1.0000   1.0000   1.0000   1.0000   1.0000
     1.0000   1.0000   1.0000   1.0000   1.0000   1.0000   1.0000   1.0000
     1.0000   1.0000   1.0000   1.0000   1.0000   1.0000   1.0000   1.0000
    -0.0000  -0.0000  -0.0000  -0.0000  -0.0000

     the Fermi energy is    11.4419 ev

!    total energy              =    -392.61143375 Ry
     estimated scf accuracy    <       0.00000052 Ry
     smearing contrib. (-TS)   =       0.00000000 Ry
     internal energy E=F+TS    =    -392.61143375 Ry

     The total energy is F=E-TS. E is the sum of the following terms:
     one-electron contribution =     -89.06480462 Ry
     hartree contribution      =      69.85125982 Ry
     xc contribution           =     -87.29290903 Ry
     ewald contribution        =    -248.09379825 Ry
     one-center paw contrib.   =     -38.01118167 Ry
      -> PAW hartree energy AE =     126.05906706 Ry
      -> PAW hartree energy PS =    -125.57595086 Ry
      -> PAW xc energy AE      =     -69.80308144 Ry
      -> PAW xc energy PS      =      31.30878357 Ry
      -> total E_H with PAW    =      70.33437602 Ry
      -> total E_XC with PAW   =    -125.78720690 Ry

     convergence has been achieved in  10 iterations

     Forces acting on atoms (cartesian axes, Ry/au):

     atom    1 type  1   force =     0.00000000    0.00000000    0.00000000
     atom    2 type  1   force =     0.00000000    0.00000000    0.00000000
     atom    3 type  2   force =     0.09816690   -0.09816690   -0.00000000
     atom    4 type  2   force =     0.09816690    0.09816690    0.00000000
     atom    5 type  2   force =    -0.09816690   -0.09816690    0.00000000
     atom    6 type  2   force =    -0.09816690    0.09816690   -0.00000000
     The non-local contrib.  to forces
     atom    1 type  1   force =     0.00000000    0.00000000    0.00000000
     atom    2 type  1   force =     0.00000000    0.00000000    0.00000000
     atom    3 type  2   force =    -0.03443790    0.03443790   -0.00000000
     atom    4 type  2   force =    -0.03443790   -0.03443790   -0.00000000
     atom    5 type  2   force =     0.03443790    0.03443790   -0.00000000
     atom    6 type  2   force =     0.03443790   -0.03443790   -0.00000000
     The ionic contribution  to forces
     atom    1 type  1   force =     0.00000000    0.00000000   -0.00000000
     atom    2 type  1   force =     0.00000000    0.00000000    0.00000000
     atom    3 type  2   force =    -1.35435267    1.35435267    0.00000000
     atom    4 type  2   force =    -1.35435267   -1.35435267   -0.00000000
     atom    5 type  2   force =     1.35435267    1.35435267   -0.00000000
     atom    6 type  2   force =     1.35435267   -1.35435267    0.00000000
     The local contribution  to forces
     atom    1 type  1   force =     0.00008339    0.00013392    0.00000407
     atom    2 type  1   force =    -0.00015275   -0.00014437    0.00000298
     atom    3 type  2   force =     1.48604778   -1.48602254    0.00000047
     atom    4 type  2   force =     1.48585998    1.48586861    0.00000715
     atom    5 type  2   force =    -1.48590172   -1.48591592   -0.00000378
     atom    6 type  2   force =    -1.48598976    1.48599016   -0.00000269
     The core correction contribution to forces
     atom    1 type  1   force =     0.00000091    0.00000406    0.00000046
     atom    2 type  1   force =    -0.00000240   -0.00000327    0.00000024
     atom    3 type  2   force =     0.00093269   -0.00093231    0.00000004
     atom    4 type  2   force =     0.00093311    0.00093316    0.00000005
     atom    5 type  2   force =    -0.00093337   -0.00093366   -0.00000007
     atom    6 type  2   force =    -0.00093245    0.00093245    0.00000005
     The Hubbard contrib.    to forces
     atom    1 type  1   force =     0.00000000    0.00000000    0.00000000
     atom    2 type  1   force =     0.00000000    0.00000000    0.00000000
     atom    3 type  2   force =     0.00000000    0.00000000    0.00000000
     atom    4 type  2   force =     0.00000000    0.00000000    0.00000000
     atom    5 type  2   force =     0.00000000    0.00000000    0.00000000
     atom    6 type  2   force =     0.00000000    0.00000000    0.00000000
     The SCF correction term to forces
     atom    1 type  1   force =    -0.00008159   -0.00010035   -0.00000869
     atom    2 type  1   force =     0.00015662    0.00012355   -0.00000315
     atom    3 type  2   force =    -0.00001957    0.00003238    0.00000415
     atom    4 type  2   force =     0.00016859    0.00017008   -0.00001906
     atom    5 type  2   force =    -0.00014335   -0.00014574    0.00000869
     atom    6 type  2   force =    -0.00000590    0.00001837    0.00000203

     Total force =     0.277658     Total SCF correction =     0.000398

     Computing stress (Cartesian axis) and pressure

          total   stress  (Ry/bohr**3)                   (kbar)     P=     -463.91
  -0.00363541   0.00000000   0.00000000         -534.79        0.00        0.00
   0.00000000  -0.00363541   0.00000000            0.00     -534.79        0.00
   0.00000000   0.00000000  -0.00218999            0.00        0.00     -322.16

     kinetic stress (kbar)  24032.24      0.00      0.00
                                0.00  24032.24      0.00
                                0.00      0.00  24522.73

     local   stress (kbar)  -3536.00      0.02      0.01
                                0.02  -3536.00      0.00
                                0.01      0.00 -20106.08

     nonloc. stress (kbar)   7570.05      0.00      0.00
                                0.00   7570.05      0.00
                                0.00      0.00   7598.06

     hartree stress (kbar)   4796.48     -0.00     -0.00
                               -0.00   4796.48     -0.00
                               -0.00     -0.00  10404.04

     exc-cor stress (kbar)   3477.80     -0.00     -0.00
                               -0.00   3477.80     -0.00
                               -0.00     -0.00   3497.28

     corecor stress (kbar)  -9654.97      0.00      0.00
                                0.00  -9654.97     -0.00
                                0.00     -0.00  -9654.78

     ewald   stress (kbar) -27220.39     -0.00     -0.00
                               -0.00 -27220.39     -0.00
                               -0.00     -0.00 -16583.41

     hubbard stress (kbar)      0.00      0.00      0.00
                                0.00      0.00      0.00
                                0.00      0.00      0.00

     DFT-D   stress (kbar)      0.00      0.00      0.00
                                0.00      0.00      0.00
                                0.00      0.00      0.00

     XDM     stress (kbar)      0.00      0.00      0.00
                                0.00      0.00      0.00
                                0.00      0.00      0.00

     dft-nl  stress (kbar)      0.00      0.00      0.00
                                0.00      0.00      0.00
                                0.00      0.00      0.00

     TS-vdW  stress (kbar)      0.00      0.00      0.00
                                0.00      0.00      0.00
                                0.00      0.00      0.00

[...]

                                0.00      0.00      0.00

     Writing all to output data dir new_calculations/myprefix.save/

     General routines

     Parallel routines

     PAW routines

   This run was terminated on:   9:12:44  20May2023

   JOB DONE.