     Program PWSCF v.7.0 starts on 21May2023 at 18:41:11

     Reading input from espresso_27025.pwi
Warning: card &CELL ignored
Warning: card / ignored

     Current dimensions of program PWSCF are:
     Max number of different atomic species (ntypx) = 10
     Max number of k-points (npk) =  40000
     Max angular momentum in pseudopotentials (lmaxx) =  4
     file O.pbe-n-kjpaw_psl.0.1.UPF: wavefunction(s)  2P renormalized

     gamma-point specific algorithms are used
     Message from routine setup:
     using ibrav=0 with symmetry is DISCOURAGED, use correct ibrav instead

     Subspace diagonalization in iterative solution of the eigenvalue problem:
     a serial algorithm will be used

     Using Slab Decomposition

     bravais-lattice index     =            0
     lattice parameter (alat)  =       7.6744  a.u.
     unit-cell volume          =    1071.1178 (a.u.)^3
     number of atoms/cell      =            8
     number of atomic types    =            4
     number of electrons       =        92.00
     number of Kohn-Sham states=           55
     kinetic-energy cutoff     =      30.0000  Ry
     charge density cutoff     =     240.0000  Ry
     scf convergence threshold =      1.0E-06
     mixing beta               =       0.7000
     number of iterations used =            8  plain     mixing
     Exchange-correlation= SLA  PW   PBX  PBC
                           (   1   4   3   4   0   0   0)

     celldm(1)=   7.674382  celldm(2)=   0.000000  celldm(3)=   0.000000
     celldm(4)=   0.000000  celldm(5)=   0.000000  celldm(6)=   0.000000

     crystal axes: (cart. coord. in units of alat)
               a(1) = (   1.000000   0.000000   0.000000 )
               a(2) = (   0.000000   1.000000   0.000000 )
               a(3) = (   0.000000   0.000000   2.369774 )

     reciprocal axes: (cart. coord. in units 2 pi/alat)
               b(1) = (  1.000000  0.000000  0.000000 )
               b(2) = (  0.000000  1.000000  0.000000 )
               b(3) = (  0.000000  0.000000  0.421981 )

     PseudoPot. # 1 for Cu read from file:
     /home/pragov/projects/rrg-bengioy-ad/pragov/crystal_structure_design/SSSP/Cu_pbe_v1.2.uspp.F.UPF
     MD5 check sum: 6e991ff952a84172a2a52a1c1e996048
     Pseudo is Ultrasoft + core correction, Zval = 19.0
     Generated by new atomic code, or converted to UPF format
     Using radial grid of  867 points,  6 beta functions with:
                l(1) =   0
                l(2) =   0
                l(3) =   1
                l(4) =   1
                l(5) =   2
                l(6) =   2
     Q(r) pseudized with  8 coefficients,  rinner =    1.150   1.150   1.150
                                                       1.150   1.150

     PseudoPot. # 2 for Bi read from file:
     /home/pragov/projects/rrg-bengioy-ad/pragov/crystal_structure_design/SSSP/Bi_pbe_v1.uspp.F.UPF
     MD5 check sum: cceb9f28ec65b6d7ff33140f5b0b1758
     Pseudo is Ultrasoft + core correction, Zval = 15.0
     Generated by new atomic code, or converted to UPF format
     Using radial grid of  899 points,  6 beta functions with:
                l(1) =   0
                l(2) =   0
                l(3) =   1
                l(4) =   1
                l(5) =   2
                l(6) =   2
     Q(r) pseudized with  6 coefficients,  rinner =    1.000   1.000   1.000
                                                       1.000   1.000

     PseudoPot. # 3 for Te read from file:
     /home/pragov/projects/rrg-bengioy-ad/pragov/crystal_structure_design/SSSP/Te_pbe_v1.uspp.F.UPF
     MD5 check sum: c319670d6894cc26e93307826a071b75
     Pseudo is Ultrasoft + core correction, Zval =  6.0
     Generated by new atomic code, or converted to UPF format
     Using radial grid of  891 points,  5 beta functions with:
                l(1) =   0
                l(2) =   0
                l(3) =   1
                l(4) =   1
                l(5) =   2
     Q(r) pseudized with  6 coefficients,  rinner =    1.800   1.800   1.800
                                                       1.800   1.800

     PseudoPot. # 4 for O  read from file:
     /home/pragov/projects/rrg-bengioy-ad/pragov/crystal_structure_design/SSSP/O.pbe-n-kjpaw_psl.0.1.UPF
     MD5 check sum: 0234752ac141de4415c5fc33072bef88
     Pseudo is Projector augmented-wave + core cor, Zval =  6.0
     Generated using "atomic" code by A. Dal Corso  v.5.0.99 svn rev. 10869
     Shape of augmentation charge: BESSEL
     Using radial grid of 1095 points,  4 beta functions with:
                l(1) =   0
                l(2) =   0
                l(3) =   1
                l(4) =   1
     Q(r) pseudized with 0 coefficients

     atomic species   valence    mass     pseudopotential
        Cu            19.00    63.54600     Cu( 1.00)
        Bi            15.00   208.98040     Bi( 1.00)
        Te             6.00   127.60000     Te( 1.00)
        O              6.00    15.99900     O ( 1.00)

     16 Sym. Ops., with inversion, found ( 8 have fractional translation)

                                    s                        frac. trans.

      isym =  1     identity

 cryst.   s( 1) = (     1          0          0      )
                  (     0          1          0      )
                  (     0          0          1      )

 cart.    s( 1) = (  1.0000000  0.0000000  0.0000000 )
                  (  0.0000000  1.0000000  0.0000000 )
                  (  0.0000000  0.0000000  1.0000000 )

      isym =  2     180 deg rotation - cart. axis [0,0,1]

[...]

 cryst.   s( 3) = (    -1          0          0      )    f =(  0.5000000 )
                  (     0          1          0      )       ( -0.5000000 )
                  (     0          0         -1      )       (  0.0000000 )

 cart.    s( 3) = ( -1.0000000  0.0000000  0.0000000 )    f =(  0.5000000 )
                  (  0.0000000  1.0000000  0.0000000 )       ( -0.5000000 )
                  (  0.0000000  0.0000000 -1.0000000 )       (  0.0000000 )

[...]

 cryst.   s( 6) = (     0         -1          0      )
                  (    -1          0          0      )
                  (     0          0         -1      )

 cart.    s( 6) = (  0.0000000 -1.0000000  0.0000000 )
                  ( -1.0000000  0.0000000  0.0000000 )
                  (  0.0000000  0.0000000 -1.0000000 )

[...]

      isym =  8      90 deg rotation - cart. axis [0,0,1]

[...]

      isym =  9     inversion

 cryst.   s( 9) = (    -1          0          0      )    f =(  0.5000000 )
                  (     0         -1          0      )       (  0.5000000 )
                  (     0          0         -1      )       (  0.0000000 )

 cart.    s( 9) = ( -1.0000000  0.0000000  0.0000000 )    f =(  0.5000000 )
                  (  0.0000000 -1.0000000  0.0000000 )       (  0.5000000 )
                  (  0.0000000  0.0000000 -1.0000000 )       (  0.0000000 )

      isym = 10     inv. 180 deg rotation - cart. axis [0,0,1]

 cryst.   s(10) = (     1          0          0      )    f =( -0.5000000 )
                  (     0          1          0      )       ( -0.5000000 )
                  (     0          0         -1      )       (  0.0000000 )

 cart.    s(10) = (  1.0000000  0.0000000  0.0000000 )    f =( -0.5000000 )
                  (  0.0000000  1.0000000  0.0000000 )       ( -0.5000000 )
                  (  0.0000000  0.0000000 -1.0000000 )       (  0.0000000 )

[...]

 cryst.   s(11) = (     1          0          0      )
                  (     0         -1          0      )
                  (     0          0          1      )

 cart.    s(11) = (  1.0000000  0.0000000  0.0000000 )
                  (  0.0000000 -1.0000000  0.0000000 )
                  (  0.0000000  0.0000000  1.0000000 )

[...]

 cryst.   s(14) = (     0          1          0      )    f =( -0.5000000 )
                  (     1          0          0      )       ( -0.5000000 )
                  (     0          0          1      )       (  0.0000000 )

 cart.    s(14) = (  0.0000000  1.0000000  0.0000000 )    f =( -0.5000000 )
                  (  1.0000000  0.0000000  0.0000000 )       ( -0.5000000 )
                  (  0.0000000  0.0000000  1.0000000 )       (  0.0000000 )

[...]

      isym = 16     inv.  90 deg rotation - cart. axis [0,0,1]

 cryst.   s(16) = (     0         -1          0      )
                  (     1          0          0      )
                  (     0          0         -1      )

 cart.    s(16) = (  0.0000000  1.0000000  0.0000000 )
                  ( -1.0000000  0.0000000  0.0000000 )
                  (  0.0000000  0.0000000 -1.0000000 )

   Cartesian axes

     site n.     atom                  positions (alat units)
         1           Cu  tau(   1) = (   0.0000000   0.0000000   1.1848872  )
         2           Cu  tau(   2) = (   0.5000000   0.5000000   1.1848872  )
         3           Bi  tau(   3) = (   0.0000000   0.5000000   2.0681875  )
         4           Bi  tau(   4) = (   0.5000000   0.0000000   0.3015870  )
         5           Te  tau(   5) = (   0.0000000   0.5000000   0.7572922  )
         6           Te  tau(   6) = (   0.5000000   0.0000000   1.6124822  )
         7           O   tau(   7) = (   0.0000000   0.0000000   0.0000000  )
         8           O   tau(   8) = (   0.5000000   0.5000000   0.0000000  )

   Crystallographic axes

     site n.     atom                  positions (cryst. coord.)
         1           Cu  tau(   1) = (  0.0000000  0.0000000  0.5000000  )
         2           Cu  tau(   2) = (  0.5000000  0.5000000  0.5000000  )
         3           Bi  tau(   3) = (  0.0000000  0.5000000  0.8727360  )
         4           Bi  tau(   4) = (  0.5000000  0.0000000  0.1272640  )
         5           Te  tau(   5) = (  0.0000000  0.5000000  0.3195630  )
         6           Te  tau(   6) = (  0.5000000  0.0000000  0.6804370  )
         7           O   tau(   7) = (  0.0000000  0.0000000  0.0000000  )
         8           O   tau(   8) = (  0.5000000  0.5000000  0.0000000  )

     number of k points=     1  Methfessel-Paxton smearing, width (Ry)=  0.0010
                       cart. coord. in units 2pi/alat
        k(    1) = (   0.0000000   0.0000000   0.0000000), wk =   2.0000000

                       cryst. coord.
        k(    1) = (   0.0000000   0.0000000   0.0000000), wk =   2.0000000

     Check: negative core charge=   -0.000004

     Initial potential from superposition of free atoms

     starting charge      87.9995, renormalised to      92.0000

     negative rho (up, down):  9.081E-02 0.000E+00
     Starting wfcs are   60 randomized atomic wfcs
     Checking if some PAW data can be deallocated...

     Self-consistent Calculation

     iteration #  1     ecut=    30.00 Ry     beta= 0.70
     Davidson diagonalization with overlap

     ethr =  1.00E-02,  avg # of iterations =  4.0

     negative rho (up, down):  8.279E-02 0.000E+00

     total energy              =   -1302.30304129 Ry
     estimated scf accuracy    <      14.71417697 Ry

[...]

     total energy              =   -1313.41566203 Ry
     estimated scf accuracy    <       0.00000692 Ry

     iteration # 15     ecut=    30.00 Ry     beta= 0.70
     Davidson diagonalization with overlap

     ethr =  7.52E-09,  avg # of iterations =  3.0

[...]

     End of self-consistent calculation

          k = 0.0000 0.0000 0.0000 (  1484 PWs)   bands (ev):

  -101.9959-101.9915 -59.4574 -59.4551 -59.3664 -59.3663 -59.3614 -59.3614
   -12.7196 -12.6977 -12.6947 -12.6749 -12.6749 -12.6225 -12.6225 -12.5513
   -12.5378 -12.5116  -8.2012  -6.0905  -1.8831  -1.7526   0.5985   1.6551
     5.4497   5.4497   5.7509   6.4760   6.7398   6.7398   7.1406   7.6286
     7.6286   7.8860   8.0009   8.2546   8.2546   8.2758   8.3634   8.6695
     8.7847   8.8781   8.8781   9.4815  10.1911  10.1911  11.0943  12.0001
    13.1228  14.0458  14.0458  14.2062  14.2062  14.4957  14.5781

     occupation numbers
     1.0000   1.0000   1.0000   1.0000   1.0000   1.0000   1.0000   1.0000
     1.0000   1.0000   1.0000   1.0000   1.0000   1.0000   1.0000   1.0000
     1.0000   1.0000   1.0000   1.0000   1.0000   1.0000   1.0000   1.0000
     1.0000   1.0000   1.0000   1.0000   1.0000   1.0000   1.0000   1.0000
     1.0000   1.0000   1.0000   1.0000   1.0000   1.0000   1.0000   1.0000
     1.0000   1.0000   1.0000   1.0000   1.0000   1.0000  -0.0000  -0.0000
    -0.0000  -0.0000  -0.0000  -0.0000  -0.0000  -0.0000  -0.0000

     the Fermi energy is    10.6062 ev

!    total energy              =   -1313.41566300 Ry
     estimated scf accuracy    <       0.00000010 Ry
     smearing contrib. (-TS)   =       0.00000000 Ry
     internal energy E=F+TS    =   -1313.41566300 Ry

     The total energy is F=E-TS. E is the sum of the following terms:
     one-electron contribution =    -939.06345536 Ry
     hartree contribution      =     522.17684987 Ry
     xc contribution           =    -251.09541985 Ry
     ewald contribution        =    -626.37478646 Ry
     one-center paw contrib.   =     -19.05885121 Ry
      -> PAW hartree energy AE =      58.30682755 Ry
      -> PAW hartree energy PS =     -58.10915174 Ry
      -> PAW xc energy AE      =     -34.19716334 Ry
      -> PAW xc energy PS      =      14.94063631 Ry
      -> total E_H with PAW    =     522.37452569 Ry
      -> total E_XC with PAW   =    -270.35194688 Ry

     convergence has been achieved in  15 iterations

     negative rho (up, down):  8.574E-02 0.000E+00

     Forces acting on atoms (cartesian axes, Ry/au):

     atom    1 type  1   force =     0.00000000    0.00000000    0.00000000
     atom    2 type  1   force =     0.00000000    0.00000000    0.00000000
     atom    3 type  2   force =     0.00000000    0.00000000    0.08141996
     atom    4 type  2   force =     0.00000000    0.00000000   -0.08141996
     atom    5 type  3   force =     0.00000000    0.00000000   -0.10103931
     atom    6 type  3   force =     0.00000000    0.00000000    0.10103931
     atom    7 type  4   force =     0.00000000    0.00000000    0.00000000
     atom    8 type  4   force =     0.00000000    0.00000000    0.00000000
     The non-local contrib.  to forces
     atom    1 type  1   force =     0.00000000    0.00000000    0.00000000
     atom    2 type  1   force =     0.00000000    0.00000000    0.00000000
     atom    3 type  2   force =     0.00000000    0.00000000    0.14354973
     atom    4 type  2   force =     0.00000000    0.00000000   -0.14354973
     atom    5 type  3   force =     0.00000000    0.00000000   -0.20881688
     atom    6 type  3   force =     0.00000000    0.00000000    0.20881688
     atom    7 type  4   force =     0.00000000    0.00000000   -0.00000000
     atom    8 type  4   force =     0.00000000    0.00000000    0.00000000
     The ionic contribution  to forces
     atom    1 type  1   force =    -0.00000000   -0.00000000    0.00000000
     atom    2 type  1   force =    -0.00000000   -0.00000000    0.00000000
     atom    3 type  2   force =     0.00000000    0.00000000   -4.31697492
     atom    4 type  2   force =     0.00000000   -0.00000000    4.31697492
     atom    5 type  3   force =    -0.00000000    0.00000000  -13.28134876
     atom    6 type  3   force =     0.00000000   -0.00000000   13.28134876
     atom    7 type  4   force =     0.00000000    0.00000000   -0.00000000
     atom    8 type  4   force =    -0.00000000   -0.00000000   -0.00000000
     The local contribution  to forces
     atom    1 type  1   force =    -0.00001449   -0.00000357   -0.00006202
     atom    2 type  1   force =     0.00001806    0.00000351   -0.00009535
     atom    3 type  2   force =    -0.00001463    0.00001471    4.26230556
     atom    4 type  2   force =    -0.00001056   -0.00001263   -4.26213410
     atom    5 type  3   force =    -0.00000346    0.00000128   13.41816930
     atom    6 type  3   force =     0.00000665   -0.00000073  -13.41824878
     atom    7 type  4   force =    -0.00000428   -0.00000776    0.00004227
     atom    8 type  4   force =     0.00000762    0.00001344    0.00006278
     The core correction contribution to forces
     atom    1 type  1   force =    -0.00000000    0.00000001    0.00000005
     atom    2 type  1   force =    -0.00000001    0.00000002   -0.00000009
     atom    3 type  2   force =    -0.00000110    0.00000063   -0.00808393
     atom    4 type  2   force =    -0.00000147   -0.00000083    0.00808748
     atom    5 type  3   force =     0.00000011   -0.00000006   -0.02869713
     atom    6 type  3   force =    -0.00000047    0.00000004    0.02869808
     atom    7 type  4   force =     0.00000005   -0.00000012   -0.00000073
     atom    8 type  4   force =     0.00000001    0.00000012   -0.00000033
     The Hubbard contrib.    to forces
     atom    1 type  1   force =     0.00000000    0.00000000    0.00000000
     atom    2 type  1   force =     0.00000000    0.00000000    0.00000000
     atom    3 type  2   force =     0.00000000    0.00000000    0.00000000
     atom    4 type  2   force =     0.00000000    0.00000000    0.00000000
     atom    5 type  3   force =     0.00000000    0.00000000    0.00000000
     atom    6 type  3   force =     0.00000000    0.00000000    0.00000000
     atom    7 type  4   force =     0.00000000    0.00000000    0.00000000
     atom    8 type  4   force =     0.00000000    0.00000000    0.00000000
     The SCF correction term to forces
     atom    1 type  1   force =     0.00002750    0.00001387    0.00008346
     atom    2 type  1   force =    -0.00003584    0.00000813    0.00015149
     atom    3 type  2   force =     0.00000424   -0.00000630    0.00060446
     atom    4 type  2   force =     0.00000015    0.00001294   -0.00081762
     atom    5 type  3   force =     0.00000246   -0.00000036   -0.00034832
     atom    6 type  3   force =    -0.00000174    0.00000006    0.00042187
     atom    7 type  4   force =     0.00000955    0.00000501   -0.00009865
     atom    8 type  4   force =    -0.00000975   -0.00000754   -0.00011396

     Total force =     0.183511     Total SCF correction =     0.001178

     Computing stress (Cartesian axis) and pressure

     negative rho (up, down):  8.574E-02 0.000E+00
          total   stress  (Ry/bohr**3)                   (kbar)     P=     -124.60
  -0.00024696   0.00000000   0.00000000          -36.33        0.00        0.00
   0.00000000  -0.00024696   0.00000000            0.00      -36.33        0.00
   0.00000000   0.00000000  -0.00204719            0.00        0.00     -301.15

     kinetic stress (kbar)  14423.35      0.00      0.00
                                0.00  14423.35      0.00
                                0.00      0.00  14307.68

     local   stress (kbar) -30357.44     -0.00      0.00
                               -0.00 -30357.45      0.00
                                0.00      0.00  20604.85

     nonloc. stress (kbar)  10977.52      0.00      0.00
                                0.00  10977.52      0.00
                                0.00      0.00  10890.60

     hartree stress (kbar)  32118.40      0.00     -0.00
                                0.00  32118.40      0.00
                               -0.00      0.00   7477.87

     exc-cor stress (kbar)   9043.46      0.00     -0.00
                                0.00   9043.46      0.00
                               -0.00      0.00   9039.98

     corecor stress (kbar) -16365.53     -0.00      0.00
                               -0.00 -16365.53     -0.00
                                0.00     -0.00 -16349.32

     ewald   stress (kbar) -19876.09     -0.00      0.00
                               -0.00 -19876.09     -0.00
                                0.00     -0.00 -46272.82

     hubbard stress (kbar)      0.00      0.00      0.00
                                0.00      0.00      0.00
                                0.00      0.00      0.00

     DFT-D   stress (kbar)      0.00      0.00      0.00
                                0.00      0.00      0.00
                                0.00      0.00      0.00

     XDM     stress (kbar)      0.00      0.00      0.00
                                0.00      0.00      0.00
                                0.00      0.00      0.00

     dft-nl  stress (kbar)      0.00      0.00      0.00
                                0.00      0.00      0.00
                                0.00      0.00      0.00

     TS-vdW  stress (kbar)      0.00      0.00      0.00
                                0.00      0.00      0.00
                                0.00      0.00      0.00

[...]

                                0.00      0.00      0.00

     Writing all to output data dir new_calculations/myprefix.save/

     General routines

     Parallel routines

     PAW routines

   This run was terminated on:  18:41:25  21May2023

   JOB DONE.