     Program PWSCF v.7.0 starts on 21May2023 at  4:20:35

     Reading input from espresso_23373.pwi
Warning: card &CELL ignored
Warning: card / ignored

     Current dimensions of program PWSCF are:
     Max number of different atomic species (ntypx) = 10
     Max number of k-points (npk) =  40000
     Max angular momentum in pseudopotentials (lmaxx) =  4
     file K.pbe-spn-kjpaw_psl.1.0.0.UPF: wavefunction(s)  3S renormalized

     gamma-point specific algorithms are used
     Message from routine setup:
     using ibrav=0 with symmetry is DISCOURAGED, use correct ibrav instead

     Subspace diagonalization in iterative solution of the eigenvalue problem:
     a serial algorithm will be used

     Using Slab Decomposition

     bravais-lattice index     =            0
     lattice parameter (alat)  =      19.5704  a.u.
     unit-cell volume          =    4056.1621 (a.u.)^3
     number of atoms/cell      =           11
     number of atomic types    =            3
     number of electrons       =       108.00
     number of Kohn-Sham states=           65
     kinetic-energy cutoff     =      30.0000  Ry
     charge density cutoff     =     240.0000  Ry
     scf convergence threshold =      1.0E-06
     mixing beta               =       0.7000
     number of iterations used =            8  plain     mixing
     Exchange-correlation= SLA  PW   PBE  PBE
                           (   1   4   3   4   0   0   0)

     celldm(1)=  19.570407  celldm(2)=   0.000000  celldm(3)=   0.000000
     celldm(4)=   0.000000  celldm(5)=   0.000000  celldm(6)=   0.000000

     crystal axes: (cart. coord. in units of alat)
               a(1) = (   1.000000   0.000000   0.000000 )
               a(2) = (   0.338517   0.940960   0.000000 )
               a(3) = (  -0.669258  -0.470480   0.575101 )

     reciprocal axes: (cart. coord. in units 2 pi/alat)
               b(1) = (  1.000000 -0.359757  0.869412 )
               b(2) = (  0.000000  1.062744  0.869412 )
               b(3) = (  0.000000  0.000000  1.738824 )

     PseudoPot. # 1 for K  read from file:
     /home/pragov/projects/rrg-bengioy-ad/pragov/crystal_structure_design/SSSP/K.pbe-spn-kjpaw_psl.1.0.0.UPF
     MD5 check sum: 7d58810084cac21f60fbe77ea2b688fd
     Pseudo is Projector augmented-wave + core cor, Zval =  9.0
     Generated using "atomic" code by A. Dal Corso  v.5.1
     Shape of augmentation charge: PSQ
     Using radial grid of 1165 points,  6 beta functions with:
                l(1) =   0
                l(2) =   0
                l(3) =   1
                l(4) =   1
                l(5) =   2
                l(6) =   2
     Q(r) pseudized with 0 coefficients

     PseudoPot. # 2 for Sb read from file:
     /home/pragov/projects/rrg-bengioy-ad/pragov/crystal_structure_design/SSSP/sb_pbe_v1.4.uspp.F.UPF
     MD5 check sum: 9bc50dfb53373b713f5709b9110fe27f
     Pseudo is Ultrasoft + core correction, Zval = 15.0
     Generated by new atomic code, or converted to UPF format
     Using radial grid of  891 points,  6 beta functions with:
                l(1) =   0
                l(2) =   0
                l(3) =   1
                l(4) =   1
                l(5) =   2
                l(6) =   2
     Q(r) pseudized with  8 coefficients,  rinner =    1.350   1.350   1.350
                                                       1.350   1.350

     PseudoPot. # 3 for Te read from file:
     /home/pragov/projects/rrg-bengioy-ad/pragov/crystal_structure_design/SSSP/Te_pbe_v1.uspp.F.UPF
     MD5 check sum: c319670d6894cc26e93307826a071b75
     Pseudo is Ultrasoft + core correction, Zval =  6.0
     Generated by new atomic code, or converted to UPF format
     Using radial grid of  891 points,  5 beta functions with:
                l(1) =   0
                l(2) =   0
                l(3) =   1
                l(4) =   1
                l(5) =   2
     Q(r) pseudized with  6 coefficients,  rinner =    1.800   1.800   1.800
                                                       1.800   1.800

     atomic species   valence    mass     pseudopotential
        K              9.00    39.09830     K ( 1.00)
        Sb            15.00   121.76000     Sb( 1.00)
        Te             6.00   127.60000     Te( 1.00)

      2 Sym. Ops. (no inversion) found

                                    s                        frac. trans.

      isym =  1     identity

 cryst.   s( 1) = (     1          0          0      )
                  (     0          1          0      )
                  (     0          0          1      )

 cart.    s( 1) = (  1.0000000 -0.0000000  0.0000000 )
                  (  0.0000000  1.0000000 -0.0000000 )
                  (  0.0000000  0.0000000  1.0000000 )

      isym =  2     180 deg rotation - cart. axis [0,0,1]

 cryst.   s( 2) = (    -1          0          0      )
                  (     0         -1          0      )
                  (     1          1          1      )

 cart.    s( 2) = ( -1.0000000  0.0000000  0.0000000 )
                  (  0.0000000 -1.0000000  0.0000000 )
                  (  0.0000000  0.0000000  1.0000000 )

   Cartesian axes

     site n.     atom                  positions (alat units)
         1           K   tau(   1) = (   0.9892666   0.3460452   0.0225848  )
         2           K   tau(   2) = (   0.5006458   0.3795547   0.2858352  )
         3           K   tau(   3) = (  -0.0087602   0.3432383   0.5525166  )
         4           K   tau(   4) = (  -0.1426354  -0.1278779   0.2892662  )
         5           K   tau(   5) = (   0.3492502   0.5949151   0.0225848  )
         6           K   tau(   6) = (   0.8378709   0.5614057   0.2858352  )
         7           K   tau(   7) = (   0.0087602  -0.3432383   0.5525166  )
         8           K   tau(   8) = (   0.1426354   0.1278779   0.2892662  )
         9           Sb  tau(   9) = (   0.6692584   0.4704802   0.0000000  )
        10           Sb  tau(  10) = (   0.1692584   0.4704802   0.2875507  )
        11           Te  tau(  11) = (   0.0000000   0.0000000   0.0000000  )

   Crystallographic axes

     site n.     atom                  positions (cryst. coord.)
         1           K   tau(   1) = (  0.8844100  0.3873930  0.0392710  )
         2           K   tau(   2) = (  0.6126070  0.6518780  0.4970170  )
         3           K   tau(   3) = (  0.3481220  0.8451390  0.9607290  )
         4           K   tau(   4) = (  0.1548610  0.1155900  0.5029830  )
         5           K   tau(   5) = (  0.1548610  0.6518780  0.0392710  )
         6           K   tau(   6) = (  0.8844100  0.8451390  0.4970170  )
         7           K   tau(   7) = (  0.6126070  0.1155900  0.9607290  )
         8           K   tau(   8) = (  0.3481220  0.3873930  0.5029830  )
         9           Sb  tau(   9) = (  0.5000000  0.5000000  0.0000000  )
        10           Sb  tau(  10) = (  0.2500000  0.7500000  0.5000000  )
        11           Te  tau(  11) = (  0.0000000  0.0000000  0.0000000  )

     number of k points=     1  Methfessel-Paxton smearing, width (Ry)=  0.0010
                       cart. coord. in units 2pi/alat
        k(    1) = (   0.0000000   0.0000000   0.0000000), wk =   2.0000000

                       cryst. coord.
        k(    1) = (   0.0000000   0.0000000   0.0000000), wk =   2.0000000

     Check: negative core charge=   -0.000004

     Initial potential from superposition of free atoms

     starting charge     105.8491, renormalised to     108.0000
     Starting wfcs are   86 randomized atomic wfcs
     Checking if some PAW data can be deallocated...

     Self-consistent Calculation

     iteration #  1     ecut=    30.00 Ry     beta= 0.70
     Davidson diagonalization with overlap

     ethr =  1.00E-02,  avg # of iterations =  5.0

     total energy              =   -1300.17748614 Ry
     estimated scf accuracy    <       2.14800870 Ry

[...]

     total energy              =   -1300.89386883 Ry
     estimated scf accuracy    <       0.00001508 Ry

     iteration # 53     ecut=    30.00 Ry     beta= 0.70
     Davidson diagonalization with overlap

     ethr =  4.86E-09,  avg # of iterations =  2.0

     End of self-consistent calculation

          k = 0.0000 0.0000 0.0000 (  5580 PWs)   bands (ev):

   -28.5965 -28.5211 -28.4912 -28.4284 -28.4209 -28.3850 -28.3782 -28.3568
   -24.7730 -24.7639 -24.7315 -24.7053 -24.5433 -24.3926 -24.2926 -24.1538
   -24.0062 -23.7908 -12.1325 -12.1146 -12.0789 -12.0660 -12.0419 -11.9986
   -11.9832 -11.9594 -11.9326 -11.9263 -11.9207 -11.9063 -11.8976 -11.8869
   -11.8795 -11.8594 -11.8418 -11.8076 -11.7894 -11.7709 -11.7668 -11.7404
   -11.7282 -11.7103  -7.1375  -4.6437  -4.5013   0.9144   0.9409   0.9464
     1.9637   2.1928   2.1945   2.2889   2.2925   2.4249   2.4350   4.2230
     4.2994   4.8172   4.8214   4.8662   5.2159   5.5056   5.5302   6.3506
     6.3575

     occupation numbers
     1.0000   1.0000   1.0000   1.0000   1.0000   1.0000   1.0000   1.0000
     1.0000   1.0000   1.0000   1.0000   1.0000   1.0000   1.0000   1.0000
     1.0000   1.0000   1.0000   1.0000   1.0000   1.0000   1.0000   1.0000
     1.0000   1.0000   1.0000   1.0000   1.0000   1.0000   1.0000   1.0000
     1.0000   1.0000   1.0000   1.0000   1.0000   1.0000   1.0000   1.0000
     1.0000   1.0000   1.0000   1.0000   1.0000   1.0000   1.0000   1.0000
     1.0000   1.0000   1.0000   1.0000   1.0000   0.7907   0.2093  -0.0000
    -0.0000  -0.0000  -0.0000  -0.0000  -0.0000  -0.0000  -0.0000  -0.0000
    -0.0000

     the Fermi energy is     2.4300 ev

!    total energy              =   -1300.89386884 Ry
     estimated scf accuracy    <       0.00000025 Ry
     smearing contrib. (-TS)   =      -0.00035718 Ry
     internal energy E=F+TS    =   -1300.89351166 Ry

     The total energy is F=E-TS. E is the sum of the following terms:
     one-electron contribution =    -594.21730410 Ry
     hartree contribution      =     324.40537357 Ry
     xc contribution           =    -192.54364045 Ry
     ewald contribution        =    -395.28343925 Ry
     one-center paw contrib.   =    -443.25450143 Ry
      -> PAW hartree energy AE =     302.32711329 Ry
      -> PAW hartree energy PS =    -300.68910914 Ry
      -> PAW xc energy AE      =    -529.54502311 Ry
      -> PAW xc energy PS      =      84.65251754 Ry
      -> total E_H with PAW    =     326.04337772 Ry
      -> total E_XC with PAW   =    -637.43614602 Ry

     convergence has been achieved in  53 iterations

     Forces acting on atoms (cartesian axes, Ry/au):

     atom    1 type  1   force =     0.00038392    0.00253940    0.00218625
     atom    2 type  1   force =     0.00839247   -0.00887028   -0.00115707
     atom    3 type  1   force =     0.00027105    0.00187219   -0.00206522
     atom    4 type  1   force =    -0.01084269    0.00085275    0.00037024
     atom    5 type  1   force =    -0.00038392   -0.00253940    0.00218625
     atom    6 type  1   force =    -0.00839247    0.00887028   -0.00115707
     atom    7 type  1   force =    -0.00027105   -0.00187219   -0.00206522
     atom    8 type  1   force =     0.01084269   -0.00085275    0.00037024
     atom    9 type  2   force =     0.00000000    0.00000000   -0.00103295
     atom   10 type  2   force =     0.00000000    0.00000000    0.00128511
     atom   11 type  3   force =     0.00000000    0.00000000    0.00107946
     The non-local contrib.  to forces
     atom    1 type  1   force =     0.01456931   -0.01781881   -0.04583690
     atom    2 type  1   force =     0.02877539   -0.04227228    0.02638189
     atom    3 type  1   force =    -0.01476583    0.02245505    0.04552404
     atom    4 type  1   force =    -0.03183586    0.03566811   -0.02782595
     atom    5 type  1   force =    -0.01456931    0.01781881   -0.04583690
     atom    6 type  1   force =    -0.02877539    0.04227228    0.02638189
     atom    7 type  1   force =     0.01476583   -0.02245505    0.04552404
     atom    8 type  1   force =     0.03183586   -0.03566811   -0.02782595
     atom    9 type  2   force =     0.00000000    0.00000000    0.00016875
     atom   10 type  2   force =     0.00000000    0.00000000    0.00064228
     atom   11 type  3   force =     0.00000000    0.00000000    0.00103715
     The ionic contribution  to forces
     atom    1 type  1   force =     2.77377276   -0.78126925   -4.30984408
     atom    2 type  1   force =     0.98979842   -4.57241329    2.23434302
     atom    3 type  1   force =     0.20382515    2.87448296    4.30984408
     atom    4 type  1   force =    -3.96739633    2.47919959   -2.23434302
     atom    5 type  1   force =    -2.77377276    0.78126925   -4.30984408
     atom    6 type  1   force =    -0.98979842    4.57241329    2.23434302
     atom    7 type  1   force =    -0.20382515   -2.87448296    4.30984408
     atom    8 type  1   force =     3.96739633   -2.47919959   -2.23434302
     atom    9 type  2   force =     0.00000000   -0.00000000    0.00000000
     atom   10 type  2   force =     0.00000000    0.00000000    0.00000000
     atom   11 type  3   force =    -0.00000000   -0.00000000   -0.00000000
     The local contribution  to forces
     atom    1 type  1   force =    -2.79204371    0.78636777    4.35484832
     atom    2 type  1   force =    -1.01085326    4.60439571   -2.25415367
     atom    3 type  1   force =    -0.18427803   -2.87946695   -4.35617005
     atom    4 type  1   force =     3.98818524   -2.51347012    2.25490908
     atom    5 type  1   force =     2.78223729   -0.81537266    4.35504320
     atom    6 type  1   force =     1.00927409   -4.60426568   -2.26659344
     atom    7 type  1   force =     0.19418816    2.90867969   -4.35504786
     atom    8 type  1   force =    -3.98734310    2.51210374    2.26487327
     atom    9 type  2   force =     0.00247858   -0.00086619   -0.00181404
     atom   10 type  2   force =     0.00086235    0.00083464    0.00013861
     atom   11 type  3   force =     0.00000980    0.00013393   -0.00056594
     The core correction contribution to forces
     atom    1 type  1   force =    -0.00187575   -0.00151516    0.00251487
     atom    2 type  1   force =    -0.00065070    0.00183929   -0.00076718
     atom    3 type  1   force =     0.00174353    0.00147708   -0.00312045
     atom    4 type  1   force =     0.00081729   -0.00187817    0.00103910
     atom    5 type  1   force =    -0.00044214   -0.00330748    0.00313017
     atom    6 type  1   force =     0.00052404   -0.00176085   -0.00345685
     atom    7 type  1   force =     0.00056384    0.00319919   -0.00274238
     atom    8 type  1   force =    -0.00074361    0.00154336    0.00309982
     atom    9 type  2   force =    -0.00003159    0.00002488   -0.00002587
     atom   10 type  2   force =     0.00000067   -0.00000189   -0.00001666
     atom   11 type  3   force =     0.00001440   -0.00002059    0.00005878
     The Hubbard contrib.    to forces
     atom    1 type  1   force =     0.00000000    0.00000000    0.00000000
     atom    2 type  1   force =     0.00000000    0.00000000    0.00000000
     atom    3 type  1   force =     0.00000000    0.00000000    0.00000000
     atom    4 type  1   force =     0.00000000    0.00000000    0.00000000
     atom    5 type  1   force =     0.00000000    0.00000000    0.00000000
     atom    6 type  1   force =     0.00000000    0.00000000    0.00000000
     atom    7 type  1   force =     0.00000000    0.00000000    0.00000000
     atom    8 type  1   force =     0.00000000    0.00000000    0.00000000
     atom    9 type  2   force =     0.00000000    0.00000000    0.00000000
     atom   10 type  2   force =     0.00000000    0.00000000    0.00000000
     atom   11 type  3   force =     0.00000000    0.00000000    0.00000000
     The SCF correction term to forces
     atom    1 type  1   force =    -0.00010494   -0.00009621   -0.00055170
     atom    2 type  1   force =     0.00043850   -0.00025042    0.00005703
     atom    3 type  1   force =    -0.00013582   -0.00017017    0.00060128
     atom    4 type  1   force =    -0.00011544    0.00042756   -0.00004147
     atom    5 type  1   force =     0.00009676    0.00018161   -0.00041607
     atom    6 type  1   force =    -0.00050091    0.00038054   -0.00001548
     atom    7 type  1   force =     0.00015421    0.00009271    0.00044714
     atom    8 type  1   force =     0.00019482   -0.00053794    0.00003295
     atom    9 type  2   force =    -0.00038274   -0.00019512    0.00005538
     atom   10 type  2   force =     0.00020555    0.00017128   -0.00006195
     atom   11 type  3   force =    -0.00007088   -0.00007348   -0.00003337

     Total force =     0.024085     Total SCF correction =     0.001624

     Computing stress (Cartesian axis) and pressure

          total   stress  (Ry/bohr**3)                   (kbar)     P=      -17.73
  -0.00018417   0.00000887   0.00000000          -27.09        1.30        0.00
   0.00000887  -0.00011551   0.00000000            1.30      -16.99        0.00
   0.00000000   0.00000000  -0.00006190            0.00        0.00       -9.11

     kinetic stress (kbar)   6244.75      0.64     -0.00
                                0.64   6264.50     -0.00
                               -0.00     -0.00   6270.04

     local   stress (kbar)  -5009.91   -262.36     -0.90
                             -262.36  -4798.78      0.99
                               -0.90      0.99  -4612.54

     nonloc. stress (kbar)   1032.39     -6.95     -0.00
                               -6.95   1006.88     -0.00
                               -0.00     -0.00   1012.21

     hartree stress (kbar)   4017.82    133.58      0.26
                              133.58   3920.42     -0.10
                                0.26     -0.10   3826.99

     exc-cor stress (kbar)   1218.24     -0.05      0.03
                               -0.05   1218.55      0.00
                                0.03      0.00   1218.63

     corecor stress (kbar)  -2849.18      0.07     -0.09
                                0.07  -2849.22      0.04
                               -0.09      0.04  -2849.22

     ewald   stress (kbar)  -4681.21    136.38     -0.00
                              136.38  -4779.34     -0.00
                               -0.00     -0.00  -4875.21

     hubbard stress (kbar)      0.00      0.00      0.00
                                0.00      0.00      0.00
                                0.00      0.00      0.00

     DFT-D   stress (kbar)      0.00      0.00      0.00
                                0.00      0.00      0.00
                                0.00      0.00      0.00

     XDM     stress (kbar)      0.00      0.00      0.00
                                0.00      0.00      0.00
                                0.00      0.00      0.00

     dft-nl  stress (kbar)      0.00      0.00      0.00
                                0.00      0.00      0.00
                                0.00      0.00      0.00

     TS-vdW  stress (kbar)      0.00      0.00      0.00
                                0.00      0.00      0.00
                                0.00      0.00      0.00

[...]

                                0.00      0.00      0.00

     Writing all to output data dir new_calculations/myprefix.save/

     General routines

     Parallel routines

     PAW routines

   This run was terminated on:   4:24: 0  21May2023

   JOB DONE.