     Program PWSCF v.7.0 starts on 21May2023 at 19:17:49

     Reading input from espresso_27049.pwi
Warning: card &CELL ignored
Warning: card / ignored

     Current dimensions of program PWSCF are:
     Max number of different atomic species (ntypx) = 10
     Max number of k-points (npk) =  40000
     Max angular momentum in pseudopotentials (lmaxx) =  4
     file O.pbe-n-kjpaw_psl.0.1.UPF: wavefunction(s)  2P renormalized

     gamma-point specific algorithms are used

     Subspace diagonalization in iterative solution of the eigenvalue problem:
     a serial algorithm will be used

     Using Slab Decomposition

     bravais-lattice index     =            0
     lattice parameter (alat)  =      11.1383  a.u.
     unit-cell volume          =    1569.1140 (a.u.)^3
     number of atoms/cell      =           16
     number of atomic types    =            3
     number of electrons       =       136.00
     number of Kohn-Sham states=           82
     kinetic-energy cutoff     =      30.0000  Ry
     charge density cutoff     =     240.0000  Ry
     scf convergence threshold =      1.0E-06
     mixing beta               =       0.7000
     number of iterations used =            8  plain     mixing
     Exchange-correlation= SLA  PW   PBX  PBC
                           (   1   4   3   4   0   0   0)

     celldm(1)=  11.138271  celldm(2)=   0.000000  celldm(3)=   0.000000
     celldm(4)=   0.000000  celldm(5)=   0.000000  celldm(6)=   0.000000

     crystal axes: (cart. coord. in units of alat)
               a(1) = (   1.000000   0.000000   0.000000 )
               a(2) = (   0.834364   0.551214   0.000000 )
               a(3) = (   0.447173   0.134373   2.060064 )

     reciprocal axes: (cart. coord. in units 2 pi/alat)
               b(1) = (  1.000000 -1.513683 -0.118334 )
               b(2) = (  0.000000  1.814176 -0.118334 )
               b(3) = (  0.000000  0.000000  0.485422 )

     PseudoPot. # 1 for Ca read from file:
     /home/pragov/projects/rrg-bengioy-ad/pragov/crystal_structure_design/SSSP/Ca_pbe_v1.uspp.F.UPF
     MD5 check sum: 403a4c14b9e4d4dfdc3024c9a3812218
     Pseudo is Ultrasoft + core correction, Zval = 10.0
     Generated by new atomic code, or converted to UPF format
     Using radial grid of  845 points,  6 beta functions with:
                l(1) =   0
                l(2) =   0
                l(3) =   1
                l(4) =   1
                l(5) =   2
                l(6) =   2
     Q(r) pseudized with  8 coefficients,  rinner =    1.500   1.500   1.500
                                                       1.500   1.500

     PseudoPot. # 2 for Tl read from file:
     /home/pragov/projects/rrg-bengioy-ad/pragov/crystal_structure_design/SSSP/Tl_pbe_v1.2.uspp.F.UPF
     MD5 check sum: b76cf1f7e72655a2b2c53cf6385d7059
     Pseudo is Ultrasoft + core correction, Zval = 13.0
     Generated by new atomic code, or converted to UPF format
     Using radial grid of  899 points,  6 beta functions with:
                l(1) =   0
                l(2) =   0
                l(3) =   1
                l(4) =   1
                l(5) =   2
                l(6) =   2
     Q(r) pseudized with  6 coefficients,  rinner =    1.100   1.100   1.100
                                                       1.100   1.100

     PseudoPot. # 3 for O  read from file:
     /home/pragov/projects/rrg-bengioy-ad/pragov/crystal_structure_design/SSSP/O.pbe-n-kjpaw_psl.0.1.UPF
     MD5 check sum: 0234752ac141de4415c5fc33072bef88
     Pseudo is Projector augmented-wave + core cor, Zval =  6.0
     Generated using "atomic" code by A. Dal Corso  v.5.0.99 svn rev. 10869
     Shape of augmentation charge: BESSEL
     Using radial grid of 1095 points,  4 beta functions with:
                l(1) =   0
                l(2) =   0
                l(3) =   1
                l(4) =   1
     Q(r) pseudized with 0 coefficients

     atomic species   valence    mass     pseudopotential
        Ca            10.00    40.07800     Ca( 1.00)
        Tl            13.00   204.38000     Tl( 1.00)
        O              6.00    15.99900     O ( 1.00)

     No symmetry found

                                    s                        frac. trans.

      isym =  1     identity

 cryst.   s( 1) = (     1          0          0      )
                  (     0          1          0      )
                  (     0          0          1      )

 cart.    s( 1) = (  1.0000000  0.0000000  0.0000000 )
                  (  0.0000000  1.0000000  0.0000000 )
                  (  0.0000000  0.0000000  1.0000000 )

   Cartesian axes

     site n.     atom                  positions (alat units)
         1           Ca  tau(   1) = (   0.9580833   0.2878978   0.5973464  )
         2           Ca  tau(   2) = (   1.3247722   0.3980854   1.4629626  )
         3           Ca  tau(   3) = (   1.7835015   0.5359306   1.7953313  )
         4           Tl  tau(   4) = (   1.8113966   0.5443128   1.1622324  )
         5           Tl  tau(   5) = (   0.4729600   0.1421214   0.9030990  )
         6           Tl  tau(   6) = (   2.2777646   0.6844534   2.0534449  )
         7           Tl  tau(   7) = (   0.4923307   0.1479421   0.2609916  )
         8           O   tau(   8) = (   1.6629948   0.4997191   0.8197695  )
         9           O   tau(   9) = (   0.6244154   0.1876328   1.2428551  )
        10           O   tau(  10) = (   1.9847938   0.5964176   1.4745196  )
        11           O   tau(  11) = (   0.3036993   0.0912596   0.5764965  )
        12           O   tau(  12) = (   1.6771148   0.5039620   0.3320102  )
        13           O   tau(  13) = (   0.6006281   0.1804848   1.7274110  )
        14           O   tau(  14) = (   1.1780568   0.3539984   0.1211359  )
        15           O   tau(  15) = (   1.0968326   0.3295910   1.9647983  )
        16           O   tau(  16) = (   1.1437142   0.3436786   1.0161389  )

   Crystallographic axes

     site n.     atom                  positions (cryst. coord.)
         1           Ca  tau(   1) = (  0.4516110  0.4516110  0.2899650  )
         2           Ca  tau(   2) = (  0.5490790  0.5490790  0.7101540  )
         3           Ca  tau(   3) = (  0.7598240  0.7598240  0.8714930  )
         4           Tl  tau(   4) = (  0.8499480  0.8499480  0.5641730  )
         5           Tl  tau(   5) = (  0.1509660  0.1509660  0.4383840  )
         6           Tl  tau(   6) = (  0.9987270  0.9987270  0.9967870  )
         7           Tl  tau(   7) = (  0.2375090  0.2375090  0.1266910  )
         8           O   tau(   8) = (  0.8095720  0.8095720  0.3979340  )
         9           O   tau(   9) = (  0.1933270  0.1933270  0.6033090  )
        10           O   tau(  10) = (  0.9075210  0.9075210  0.7157640  )
        11           O   tau(  11) = (  0.0973420  0.0973420  0.2798440  )
        12           O   tau(  12) = (  0.8749880  0.8749880  0.1611650  )
        13           O   tau(  13) = (  0.1230200  0.1230200  0.8385230  )
        14           O   tau(  14) = (  0.6278810  0.6278810  0.0588020  )
        15           O   tau(  15) = (  0.3654340  0.3654340  0.9537560  )
        16           O   tau(  16) = (  0.5032500  0.5032500  0.4932560  )

     number of k points=     1  Methfessel-Paxton smearing, width (Ry)=  0.0010
                       cart. coord. in units 2pi/alat
        k(    1) = (   0.0000000   0.0000000   0.0000000), wk =   2.0000000

                       cryst. coord.
        k(    1) = (   0.0000000   0.0000000   0.0000000), wk =   2.0000000

     Check: negative core charge=   -0.000011

     Initial potential from superposition of free atoms

     starting charge     135.9641, renormalised to     136.0000

     negative rho (up, down):  2.000E-01 0.000E+00
     Starting wfcs are  102 randomized atomic wfcs
     Checking if some PAW data can be deallocated...

     Self-consistent Calculation

     iteration #  1     ecut=    30.00 Ry     beta= 0.70
     Davidson diagonalization with overlap

     ethr =  1.00E-02,  avg # of iterations =  2.0

     negative rho (up, down):  2.296E-01 0.000E+00

     total energy              =   -1176.68102505 Ry
     estimated scf accuracy    <       4.58025656 Ry

[...]

     total energy              =   -1179.11621387 Ry
     estimated scf accuracy    <       0.00000227 Ry

     iteration # 19     ecut=    30.00 Ry     beta= 0.70
     Davidson diagonalization with overlap

     ethr =  1.67E-09,  avg # of iterations =  4.0

[...]

     End of self-consistent calculation

          k = 0.0000 0.0000 0.0000 (  2199 PWs)   bands (ev):

   -29.9188 -29.9154 -29.5583 -11.2969 -11.1990 -11.1096 -11.0410 -10.8880
   -10.7564 -10.7346 -10.6894 -10.4391  -8.5470  -8.1411  -8.0215  -7.7879
    -7.5748  -7.5195  -7.4797  -7.1847  -7.1015  -1.8139  -1.6736  -1.6687
    -1.5758  -1.5261  -1.5071  -1.4551  -1.4331  -1.3664  -1.3563  -1.3380
    -1.3339  -1.2693  -1.2237  -1.1438  -1.1180  -1.0827  -0.9927  -0.9905
    -0.6954   2.6659   2.9380   3.8814   3.9842   5.4431   5.7514   6.0439
     6.0978   6.2526   6.7489   6.9827   7.0833   7.1739   7.3028   7.5887
     7.6621   7.7937   7.8454   7.8741   7.9519   7.9582   8.0582   8.0692
     8.1141   8.3344   8.4827   8.5982   8.9530  10.5443  11.8163  12.2904
    13.7542  14.0190  14.2161  14.4260  14.5880  14.7629  15.1566  15.3043
    15.7469  15.9067

     occupation numbers
     1.0000   1.0000   1.0000   1.0000   1.0000   1.0000   1.0000   1.0000
     1.0000   1.0000   1.0000   1.0000   1.0000   1.0000   1.0000   1.0000
     1.0000   1.0000   1.0000   1.0000   1.0000   1.0000   1.0000   1.0000
     1.0000   1.0000   1.0000   1.0000   1.0000   1.0000   1.0000   1.0000
     1.0000   1.0000   1.0000   1.0000   1.0000   1.0000   1.0000   1.0000
     1.0000   1.0000   1.0000   1.0000   1.0000   1.0000   1.0000   1.0000
     1.0000   1.0000   1.0000   1.0000   1.0000   1.0000   1.0000   1.0000
     1.0000   1.0000   1.0000   1.0000   1.0000   1.0000   1.0000   1.0000
     1.0000   1.0000   1.0000   1.0000  -0.0000  -0.0000  -0.0000  -0.0000
    -0.0000  -0.0000  -0.0000  -0.0000  -0.0000  -0.0000  -0.0000  -0.0000
    -0.0000  -0.0000

     the Fermi energy is     8.8400 ev

!    total energy              =   -1179.11621388 Ry
     estimated scf accuracy    <       0.00000052 Ry
     smearing contrib. (-TS)   =       0.00000000 Ry
     internal energy E=F+TS    =   -1179.11621388 Ry

     The total energy is F=E-TS. E is the sum of the following terms:
     one-electron contribution =    -191.90498201 Ry
     hartree contribution      =     195.18037562 Ry
     xc contribution           =    -351.66124814 Ry
     ewald contribution        =    -744.97728043 Ry
     one-center paw contrib.   =     -85.75307891 Ry
      -> PAW hartree energy AE =     258.21927732 Ry
      -> PAW hartree energy PS =    -257.31246857 Ry
      -> PAW xc energy AE      =    -153.28500394 Ry
      -> PAW xc energy PS      =      66.62511627 Ry
      -> total E_H with PAW    =     196.08718437 Ry
      -> total E_XC with PAW   =    -438.32113580 Ry

     convergence has been achieved in  19 iterations

     negative rho (up, down):  2.319E-01 0.000E+00

     Forces acting on atoms (cartesian axes, Ry/au):

     atom    1 type  1   force =     0.02343373    0.00704353    0.00699749
     atom    2 type  1   force =    -0.03900191   -0.01172254   -0.01755303
     atom    3 type  1   force =    -0.01557898   -0.00468293    0.03654841
     atom    4 type  2   force =     0.02422810    0.00730693   -0.02410189
     atom    5 type  2   force =    -0.01194687   -0.00357843    0.00981473
     atom    6 type  2   force =     0.02738129    0.00822781    0.02984415
     atom    7 type  2   force =    -0.01646375   -0.00496494   -0.00734391
     atom    8 type  3   force =     0.05280641    0.01586787   -0.01474590
     atom    9 type  3   force =    -0.04521812   -0.01359932    0.01638465
     atom   10 type  3   force =     0.05434720    0.01632992    0.00311686
     atom   11 type  3   force =    -0.04040525   -0.01214038    0.00852210
     atom   12 type  3   force =     0.04765564    0.01431300    0.00883697
     atom   13 type  3   force =     0.03190117    0.00959366   -0.00791769
     atom   14 type  3   force =    -0.01202426   -0.00361660   -0.02654548
     atom   15 type  3   force =    -0.06964184   -0.02092990   -0.03014537
     atom   16 type  3   force =    -0.01147258   -0.00344767    0.00828792
     The non-local contrib.  to forces
     atom    1 type  1   force =    -0.02486107   -0.00747135   -0.02407982
     atom    2 type  1   force =     0.01054921    0.00316791    0.02885871
     atom    3 type  1   force =    -0.00225329   -0.00067472   -0.01754310
     atom    4 type  2   force =    -0.03036216   -0.00910160    0.03075198
     atom    5 type  2   force =     0.04679184    0.01407141   -0.08457312
     atom    6 type  2   force =    -0.03381132   -0.01016212   -0.03318487
     atom    7 type  2   force =     0.06058625    0.01819435    0.03308268
     atom    8 type  3   force =    -0.15632100   -0.04697577    0.60756940
     atom    9 type  3   force =     0.19604882    0.05889934   -0.44031411
     atom   10 type  3   force =    -0.44643998   -0.13414014   -0.65241358
     atom   11 type  3   force =     0.59414648    0.17854429    0.06387064
     atom   12 type  3   force =    -0.30469613   -0.09155687   -0.61563700
     atom   13 type  3   force =    -0.33561780   -0.10084937    0.79387392
     atom   14 type  3   force =     0.12862182    0.03864782    0.13800009
     atom   15 type  3   force =     0.15627899    0.04696430    0.26712681
     atom   16 type  3   force =     0.17426494    0.05236722   -0.14535433
     The ionic contribution  to forces
     atom    1 type  1   force =    -0.95519994   -0.28703134   -1.59832803
     atom    2 type  1   force =     0.59483025    0.17874260    3.25115303
     atom    3 type  1   force =     0.23189897    0.06968412   -5.50507432
     atom    4 type  2   force =     0.15087674    0.04533748    5.78830973
     atom    5 type  2   force =     0.17701818    0.05319281   -1.98931979
     atom    6 type  2   force =     0.61784095    0.18565717   -3.35656838
     atom    7 type  2   force =     0.00948305    0.00284959    3.36715628
     atom    8 type  3   force =     0.17890162    0.05375877   -4.32585798
     atom    9 type  3   force =    -0.07996763   -0.02402975    6.06418472
     atom   10 type  3   force =     0.02386727    0.00717196    3.69972821
     atom   11 type  3   force =    -0.90891874   -0.27312414   -0.73804930
     atom   12 type  3   force =     1.17981722    0.35452737    4.48004347
     atom   13 type  3   force =     0.70027264    0.21042735   -5.10486613
     atom   14 type  3   force =    -1.39185864   -0.41824443    0.52956834
     atom   15 type  3   force =    -0.07054339   -0.02119783   -5.54327792
     atom   16 type  3   force =    -0.45831856   -0.13772173    0.98119807
     The local contribution  to forces
     atom    1 type  1   force =     1.00338273    0.30151149    1.62925402
     atom    2 type  1   force =    -0.64607017   -0.19413564   -3.29763017
     atom    3 type  1   force =    -0.24436633   -0.07342815    5.55881181
     atom    4 type  2   force =    -0.10379557   -0.03121518   -5.84941151
     atom    5 type  2   force =    -0.22709731   -0.06824912    2.07880460
     atom    6 type  2   force =    -0.56270231   -0.16908541    3.42616484
     atom    7 type  2   force =    -0.07502846   -0.02253306   -3.40954584
     atom    8 type  3   force =     0.02779153    0.00834328    3.71039548
     atom    9 type  3   force =    -0.15860170   -0.04764349   -5.61226816
     atom   10 type  3   force =     0.47099173    0.14151475   -3.05226540
     atom   11 type  3   force =     0.28189557    0.08470288    0.68320525
     atom   12 type  3   force =    -0.83159877   -0.24989745   -3.86256153
     atom   13 type  3   force =    -0.33725434   -0.10133483    4.31258968
     atom   14 type  3   force =     1.25246768    0.37634964   -0.69180306
     atom   15 type  3   force =    -0.15317609   -0.04602823    5.24891316
     atom   16 type  3   force =     0.27464222    0.08253325   -0.82971573
     The core correction contribution to forces
     atom    1 type  1   force =    -0.00073501   -0.00022064   -0.00007674
     atom    2 type  1   force =     0.00121798    0.00036632    0.00033991
     atom    3 type  1   force =    -0.00050227   -0.00015091    0.00001409
     atom    4 type  2   force =     0.00756715    0.00227328    0.00617392
     atom    5 type  2   force =    -0.00802948   -0.00241353    0.00442864
     atom    6 type  2   force =     0.00530922    0.00159630   -0.00602049
     atom    7 type  2   force =    -0.01055202   -0.00317105    0.00224852
     atom    8 type  3   force =     0.00220950    0.00066393   -0.00710695
     atom    9 type  3   force =    -0.00267567   -0.00080379    0.00475837
     atom   10 type  3   force =     0.00574135    0.00172510    0.00819109
     atom   11 type  3   force =    -0.00758741   -0.00228008   -0.00068051
     atom   12 type  3   force =     0.00394852    0.00118645    0.00708589
     atom   13 type  3   force =     0.00444844    0.00133675   -0.00947204
     atom   14 type  3   force =    -0.00130048   -0.00039080   -0.00218874
     atom   15 type  3   force =    -0.00215577   -0.00064776   -0.00290931
     atom   16 type  3   force =    -0.00215931   -0.00064891    0.00192286
     The Hubbard contrib.    to forces
     atom    1 type  1   force =     0.00000000    0.00000000    0.00000000
     atom    2 type  1   force =     0.00000000    0.00000000    0.00000000
     atom    3 type  1   force =     0.00000000    0.00000000    0.00000000
     atom    4 type  2   force =     0.00000000    0.00000000    0.00000000
     atom    5 type  2   force =     0.00000000    0.00000000    0.00000000
     atom    6 type  2   force =     0.00000000    0.00000000    0.00000000
     atom    7 type  2   force =     0.00000000    0.00000000    0.00000000
     atom    8 type  3   force =     0.00000000    0.00000000    0.00000000
     atom    9 type  3   force =     0.00000000    0.00000000    0.00000000
     atom   10 type  3   force =     0.00000000    0.00000000    0.00000000
     atom   11 type  3   force =     0.00000000    0.00000000    0.00000000
     atom   12 type  3   force =     0.00000000    0.00000000    0.00000000
     atom   13 type  3   force =     0.00000000    0.00000000    0.00000000
     atom   14 type  3   force =     0.00000000    0.00000000    0.00000000
     atom   15 type  3   force =     0.00000000    0.00000000    0.00000000
     atom   16 type  3   force =     0.00000000    0.00000000    0.00000000
     The SCF correction term to forces
     atom    1 type  1   force =     0.00080639    0.00024441    0.00020851
     atom    2 type  1   force =     0.00043018    0.00012530   -0.00029407
     atom    3 type  1   force =    -0.00039668   -0.00012424    0.00032038
     atom    4 type  2   force =    -0.00009869    0.00000198    0.00005443
     atom    5 type  2   force =    -0.00067073   -0.00019097    0.00045484
     atom    6 type  2   force =     0.00070412    0.00021090   -0.00056650
     atom    7 type  2   force =    -0.00099320   -0.00031574   -0.00030511
     atom    8 type  3   force =     0.00018412    0.00006669    0.00023460
     atom    9 type  3   force =    -0.00006257   -0.00003260    0.00000428
     atom   10 type  3   force =     0.00014619    0.00004727   -0.00014301
     atom   11 type  3   force =     0.00001822    0.00000571    0.00015647
     atom   12 type  3   force =     0.00014417    0.00004253   -0.00011342
     atom   13 type  3   force =     0.00001161    0.00000279   -0.00006268
     atom   14 type  3   force =     0.00000474    0.00001019   -0.00014167
     atom   15 type  3   force =    -0.00008621   -0.00003135   -0.00001768
     atom   16 type  3   force =     0.00005749    0.00001154    0.00021748

     Total force =     0.171994     Total SCF correction =     0.002085

     Computing stress (Cartesian axis) and pressure

     negative rho (up, down):  2.319E-01 0.000E+00
          total   stress  (Ry/bohr**3)                   (kbar)     P=     -235.11
  -0.00161765  -0.00006439  -0.00002206         -237.96       -9.47       -3.25
  -0.00006439  -0.00142271  -0.00000662           -9.47     -209.29       -0.97
  -0.00002206  -0.00000662  -0.00175436           -3.25       -0.97     -258.08

     kinetic stress (kbar)  16605.47   -239.31    -24.91
                             -239.31  17329.95     -7.48
                              -24.91     -7.48  16284.14

     local   stress (kbar)  -3473.74     58.77   -122.02
                               58.77  -3651.66    -36.67
                             -122.02    -36.67   1730.13

     nonloc. stress (kbar)   8207.02     32.02      0.22
                               32.02   8110.06      0.07
                                0.22      0.07   8226.01

     hartree stress (kbar)   6846.50     10.83     48.56
                               10.83   6813.70     14.59
                               48.56     14.59   4638.04

     exc-cor stress (kbar)  12807.16      0.09     -0.27
                                0.09  12806.89     -0.08
                               -0.27     -0.08  12806.12

     corecor stress (kbar) -18980.68      0.70      0.08
                                0.70 -18982.79      0.03
                                0.08      0.03 -18985.72

     ewald   stress (kbar) -22249.68    127.43     95.09
                              127.43 -22635.45     28.57
                               95.09     28.57 -24956.80

     hubbard stress (kbar)      0.00      0.00      0.00
                                0.00      0.00      0.00
                                0.00      0.00      0.00

     DFT-D   stress (kbar)      0.00      0.00      0.00
                                0.00      0.00      0.00
                                0.00      0.00      0.00

     XDM     stress (kbar)      0.00      0.00      0.00
                                0.00      0.00      0.00
                                0.00      0.00      0.00

     dft-nl  stress (kbar)      0.00      0.00      0.00
                                0.00      0.00      0.00
                                0.00      0.00      0.00

     TS-vdW  stress (kbar)      0.00      0.00      0.00
                                0.00      0.00      0.00
                                0.00      0.00      0.00

[...]

                                0.00      0.00      0.00

     Writing all to output data dir new_calculations/myprefix.save/

     General routines

     Parallel routines

     PAW routines

   This run was terminated on:  19:18:19  21May2023

   JOB DONE.