     Program PWSCF v.7.0 starts on 21May2023 at 18:57:36

     Reading input from espresso_27038.pwi
Warning: card &CELL ignored
Warning: card / ignored

     Current dimensions of program PWSCF are:
     Max number of different atomic species (ntypx) = 10
     Max number of k-points (npk) =  40000
     Max angular momentum in pseudopotentials (lmaxx) =  4
     file O.pbe-n-kjpaw_psl.0.1.UPF: wavefunction(s)  2P renormalized

     gamma-point specific algorithms are used

     Subspace diagonalization in iterative solution of the eigenvalue problem:
     a serial algorithm will be used

     Using Slab Decomposition

     bravais-lattice index     =            0
     lattice parameter (alat)  =      10.3920  a.u.
     unit-cell volume          =    1986.8773 (a.u.)^3
     number of atoms/cell      =           19
     number of atomic types    =            4
     number of electrons       =       158.00
     number of Kohn-Sham states=           95
     kinetic-energy cutoff     =      30.0000  Ry
     charge density cutoff     =     240.0000  Ry
     scf convergence threshold =      1.0E-06
     mixing beta               =       0.7000
     number of iterations used =            8  plain     mixing
     Exchange-correlation= SLA  PW   PBX  PBC
                           (   1   4   3   4   0   0   0)

     celldm(1)=  10.391989  celldm(2)=   0.000000  celldm(3)=   0.000000
     celldm(4)=   0.000000  celldm(5)=   0.000000  celldm(6)=   0.000000

     crystal axes: (cart. coord. in units of alat)
               a(1) = (   1.000000   0.000000   0.000000 )
               a(2) = (  -0.002266   1.319055   0.000000 )
               a(3) = (  -0.065895  -0.305059   1.342184 )

     reciprocal axes: (cart. coord. in units 2 pi/alat)
               b(1) = (  1.000000  0.001718  0.049486 )
               b(2) = (  0.000000  0.758118  0.172309 )
               b(3) = (  0.000000  0.000000  0.745054 )

     PseudoPot. # 1 for Ca read from file:
     /home/pragov/projects/rrg-bengioy-ad/pragov/crystal_structure_design/SSSP/Ca_pbe_v1.uspp.F.UPF
     MD5 check sum: 403a4c14b9e4d4dfdc3024c9a3812218
     Pseudo is Ultrasoft + core correction, Zval = 10.0
     Generated by new atomic code, or converted to UPF format
     Using radial grid of  845 points,  6 beta functions with:
                l(1) =   0
                l(2) =   0
                l(3) =   1
                l(4) =   1
                l(5) =   2
                l(6) =   2
     Q(r) pseudized with  8 coefficients,  rinner =    1.500   1.500   1.500
                                                       1.500   1.500

     PseudoPot. # 2 for V  read from file:
     /home/pragov/projects/rrg-bengioy-ad/pragov/crystal_structure_design/SSSP/v_pbe_v1.4.uspp.F.UPF
     MD5 check sum: 22b79981416ebb76fdaf5b1b8640f6fb
     Pseudo is Ultrasoft + core correction, Zval = 13.0
     Generated by new atomic code, or converted to UPF format
     Using radial grid of  853 points,  6 beta functions with:
                l(1) =   0
                l(2) =   0
                l(3) =   1
                l(4) =   1
                l(5) =   2
                l(6) =   2
     Q(r) pseudized with  8 coefficients,  rinner =    1.100   1.100   1.100
                                                       1.100   1.100

     PseudoPot. # 3 for Bi read from file:
     /home/pragov/projects/rrg-bengioy-ad/pragov/crystal_structure_design/SSSP/Bi_pbe_v1.uspp.F.UPF
     MD5 check sum: cceb9f28ec65b6d7ff33140f5b0b1758
     Pseudo is Ultrasoft + core correction, Zval = 15.0
     Generated by new atomic code, or converted to UPF format
     Using radial grid of  899 points,  6 beta functions with:
                l(1) =   0
                l(2) =   0
                l(3) =   1
                l(4) =   1
                l(5) =   2
                l(6) =   2
     Q(r) pseudized with  6 coefficients,  rinner =    1.000   1.000   1.000
                                                       1.000   1.000

     PseudoPot. # 4 for O  read from file:
     /home/pragov/projects/rrg-bengioy-ad/pragov/crystal_structure_design/SSSP/O.pbe-n-kjpaw_psl.0.1.UPF
     MD5 check sum: 0234752ac141de4415c5fc33072bef88
     Pseudo is Projector augmented-wave + core cor, Zval =  6.0
     Generated using "atomic" code by A. Dal Corso  v.5.0.99 svn rev. 10869
     Shape of augmentation charge: BESSEL
     Using radial grid of 1095 points,  4 beta functions with:
                l(1) =   0
                l(2) =   0
                l(3) =   1
                l(4) =   1
     Q(r) pseudized with 0 coefficients

     atomic species   valence    mass     pseudopotential
        Ca            10.00    40.07800     Ca( 1.00)
        V             13.00    50.94150     V ( 1.00)
        Bi            15.00   208.98040     Bi( 1.00)
        O              6.00    15.99900     O ( 1.00)

     No symmetry found

                                    s                        frac. trans.

      isym =  1     identity

 cryst.   s( 1) = (     1          0          0      )
                  (     0          1          0      )
                  (     0          0          1      )

 cart.    s( 1) = (  1.0000000 -0.0000000  0.0000000 )
                  (  0.0000000  1.0000000  0.0000000 )
                  (  0.0000000  0.0000000  1.0000000 )

   Cartesian axes

     site n.     atom                  positions (alat units)
         1           Ca  tau(   1) = (   0.6969216   0.6632835   1.2254969  )
         2           Ca  tau(   2) = (   0.2556144   0.3473499   0.0970734  )
         3           Ca  tau(   3) = (   0.7447948   0.0116860   0.4042590  )
         4           V   tau(   4) = (   0.3002021   1.0057758   0.2603742  )
         5           V   tau(   5) = (   0.7383860   0.0331857   1.0825718  )
         6           Bi  tau(   6) = (   0.7058170   0.6507188   0.5592101  )
         7           Bi  tau(   7) = (   0.2056678   0.3428235   0.7723851  )
         8           O   tau(   8) = (  -0.0100585   0.3649366   0.4396095  )
         9           O   tau(   9) = (   0.9775087   1.0013274   0.2697319  )
        10           O   tau(  10) = (   0.4345929   0.7484031   0.1313152  )
        11           O   tau(  11) = (   0.8678385   0.2652958   1.2406717  )
        12           O   tau(  12) = (   0.4728890   0.3182852   0.4852732  )
        13           O   tau(  13) = (   0.4174017   1.2533903   0.1031159  )
        14           O   tau(  14) = (  -0.0434222   0.6172096   0.8747293  )
        15           O   tau(  15) = (   0.4679810   0.5956522   0.8846480  )
        16           O   tau(  16) = (   0.8064712  -0.2137864   1.2635143  )
        17           O   tau(  17) = (   0.4166186   0.0811302   1.0462792  )
        18           O   tau(  18) = (   0.9153344   0.0302262   0.8091140  )
        19           O   tau(  19) = (   0.4412494   1.0358966   0.5390988  )

   Crystallographic axes

     site n.     atom                  positions (cryst. coord.)
         1           Ca  tau(   1) = (  0.7587060  0.7140120  0.9130620  )
         2           Ca  tau(   2) = (  0.2610150  0.2800590  0.0723250  )
         3           Ca  tau(   3) = (  0.7648200  0.0785170  0.3011950  )
         4           V   tau(   4) = (  0.3148150  0.8073620  0.1939930  )
         5           V   tau(   5) = (  0.7920150  0.2116960  0.8065750  )
         6           Bi  tau(   6) = (  0.7346080  0.5896790  0.4166420  )
         7           Bi  tau(   7) = (  0.2444790  0.3929900  0.5754690  )
         8           O   tau(   8) = (  0.0123230  0.3524140  0.3275330  )
         9           O   tau(   9) = (  0.9925770  0.8056020  0.2009650  )
        10           O   tau(  10) = (  0.4423770  0.5900050  0.0978370  )
        11           O   tau(  11) = (  0.9296900  0.4149050  0.9243680  )
        12           O   tau(  12) = (  0.4974500  0.3249150  0.3615550  )
        13           O   tau(  13) = (  0.4246580  0.9679860  0.0768270  )
        14           O   tau(  14) = (  0.0009250  0.6186420  0.6517210  )
        15           O   tau(  15) = (  0.5127820  0.6040080  0.6591110  )
        16           O   tau(  16) = (  0.8686300  0.0556400  0.9413870  )
        17           O   tau(  17) = (  0.4685340  0.2417900  0.7795350  )
        18           O   tau(  18) = (  0.9554260  0.1623330  0.6028340  )
        19           O   tau(  19) = (  0.4697070  0.8782240  0.4016580  )

     number of k points=     1  Methfessel-Paxton smearing, width (Ry)=  0.0010
                       cart. coord. in units 2pi/alat
        k(    1) = (   0.0000000   0.0000000   0.0000000), wk =   2.0000000

                       cryst. coord.
        k(    1) = (   0.0000000   0.0000000   0.0000000), wk =   2.0000000

     Check: negative core charge=   -0.000013

     Initial potential from superposition of free atoms

     starting charge     155.9811, renormalised to     158.0000

     negative rho (up, down):  8.513E-02 0.000E+00
     Starting wfcs are  116 randomized atomic wfcs
     Checking if some PAW data can be deallocated...

     Self-consistent Calculation

     iteration #  1     ecut=    30.00 Ry     beta= 0.70
     Davidson diagonalization with overlap

     ethr =  1.00E-02,  avg # of iterations =  2.0

     negative rho (up, down):  8.431E-02 0.000E+00

     total energy              =   -1381.35647972 Ry
     estimated scf accuracy    <       7.71688805 Ry

[...]

     total energy              =   -1385.98787632 Ry
     estimated scf accuracy    <       0.00000384 Ry

     iteration # 17     ecut=    30.00 Ry     beta= 0.70
     Davidson diagonalization with overlap

     ethr =  2.43E-09,  avg # of iterations =  2.0

[...]

     End of self-consistent calculation

          k = 0.0000 0.0000 0.0000 (  2740 PWs)   bands (ev):

   -58.4034 -58.2088 -32.4601 -32.4021 -32.3134 -32.3038 -32.2403 -32.2032
   -32.1559 -32.1289 -32.1160 -16.3952 -16.3291 -16.3204 -16.2259 -16.0856
   -15.9442 -15.8980 -15.8759 -15.8569 -15.8173 -13.7194 -13.6853 -13.6213
   -13.5559 -13.4280 -13.4145 -13.3746 -13.3694 -13.3219 -11.9257 -11.1104
   -10.9032 -10.7841 -10.6655 -10.5317 -10.4534 -10.4260 -10.3853 -10.3024
   -10.1476  -9.4861  -3.9216  -2.1529   1.4509   1.6447   2.0007   2.2007
     2.2431   2.3358   2.5039   2.5817   2.6433   2.6660   2.7692   2.8533
     2.9612   3.0528   3.1507   3.1763   3.4009   3.5453   3.7723   3.9207
     3.9611   4.0901   4.2186   4.3519   4.4864   4.5789   4.6354   4.7597
     4.8800   4.9092   5.0573   5.1726   5.2454   5.4407   6.1467   6.7303
     8.7087   8.8442   8.9986   9.0492   9.7426   9.9018   9.9661  10.0777
    10.2336  10.4423  10.7182  11.2056  11.7338  11.8092  11.9280

     occupation numbers
     1.0000   1.0000   1.0000   1.0000   1.0000   1.0000   1.0000   1.0000
     1.0000   1.0000   1.0000   1.0000   1.0000   1.0000   1.0000   1.0000
     1.0000   1.0000   1.0000   1.0000   1.0000   1.0000   1.0000   1.0000
     1.0000   1.0000   1.0000   1.0000   1.0000   1.0000   1.0000   1.0000
     1.0000   1.0000   1.0000   1.0000   1.0000   1.0000   1.0000   1.0000
     1.0000   1.0000   1.0000   1.0000   1.0000   1.0000   1.0000   1.0000
     1.0000   1.0000   1.0000   1.0000   1.0000   1.0000   1.0000   1.0000
     1.0000   1.0000   1.0000   1.0000   1.0000   1.0000   1.0000   1.0000
     1.0000   1.0000   1.0000   1.0000   1.0000   1.0000   1.0000   1.0000
     1.0000   1.0000   1.0000   1.0000   1.0000   1.0000   1.0000  -0.0000
    -0.0000  -0.0000  -0.0000  -0.0000  -0.0000  -0.0000  -0.0000  -0.0000
    -0.0000  -0.0000  -0.0000  -0.0000  -0.0000  -0.0000  -0.0000

     the Fermi energy is     6.5481 ev

!    total energy              =   -1385.98787638 Ry
     estimated scf accuracy    <       0.00000099 Ry
     smearing contrib. (-TS)   =       0.00000000 Ry
     internal energy E=F+TS    =   -1385.98787638 Ry

     The total energy is F=E-TS. E is the sum of the following terms:
     one-electron contribution =    -599.46386721 Ry
     hartree contribution      =     374.62522978 Ry
     xc contribution           =    -293.23168043 Ry
     ewald contribution        =    -753.56253076 Ry
     one-center paw contrib.   =    -114.35502776 Ry
      -> PAW hartree energy AE =     350.28152956 Ry
      -> PAW hartree energy PS =    -349.09588816 Ry
      -> PAW xc energy AE      =    -205.25756435 Ry
      -> PAW xc energy PS      =      89.71689519 Ry
      -> total E_H with PAW    =     375.81087117 Ry
      -> total E_XC with PAW   =    -408.77234959 Ry

     convergence has been achieved in  17 iterations

     negative rho (up, down):  8.640E-02 0.000E+00

     Forces acting on atoms (cartesian axes, Ry/au):

     atom    1 type  1   force =    -0.00238115   -0.00013523   -0.01007852
     atom    2 type  1   force =    -0.00189298   -0.00077956    0.00025446
     atom    3 type  1   force =     0.00184526    0.01144513    0.00496708
     atom    4 type  2   force =    -0.00218810    0.01084426   -0.00784047
     atom    5 type  2   force =     0.00086865   -0.00313785    0.00249371
     atom    6 type  3   force =     0.00189345   -0.01877903    0.01495946
     atom    7 type  3   force =     0.00589569   -0.00311832    0.00386201
     atom    8 type  4   force =    -0.00458066    0.02078052   -0.01289338
     atom    9 type  4   force =     0.01897434   -0.00251007   -0.00094418
     atom   10 type  4   force =    -0.00354268    0.02359710    0.01895439
     atom   11 type  4   force =    -0.00482887   -0.01427387   -0.00863669
     atom   12 type  4   force =     0.00914799   -0.00644292    0.00870549
     atom   13 type  4   force =    -0.00694398   -0.03166350    0.01806014
     atom   14 type  4   force =     0.01672724    0.00867993   -0.01064433
     atom   15 type  4   force =    -0.01747850   -0.01025904   -0.00476829
     atom   16 type  4   force =    -0.01070867    0.02610483   -0.02737165
     atom   17 type  4   force =     0.02374590   -0.00995896    0.01079439
     atom   18 type  4   force =    -0.02729754    0.00353021    0.02096382
     atom   19 type  4   force =     0.00274462   -0.00392364   -0.02083744
     The non-local contrib.  to forces
     atom    1 type  1   force =    -0.00970724    0.02601319    0.00983373
     atom    2 type  1   force =     0.00615330   -0.02177265   -0.01010688
     atom    3 type  1   force =     0.00127478    0.00121448   -0.01750558
     atom    4 type  2   force =     0.00879207   -0.00105916    0.02020468
     atom    5 type  2   force =    -0.01438243   -0.01795137    0.02103153
     atom    6 type  3   force =    -0.01586930   -0.28730140    0.20901049
     atom    7 type  3   force =    -0.00197996   -0.07077222    0.01040191
     atom    8 type  4   force =     0.02348870    0.04706531    0.48444566
     atom    9 type  4   force =     0.58880607    0.12245057   -0.04318275
     atom   10 type  4   force =    -0.28788925    0.62810215    0.40200179
     atom   11 type  4   force =    -0.32479300   -0.69877069   -0.40467822
     atom   12 type  4   force =    -0.09580437    0.29827258    0.35745554
     atom   13 type  4   force =    -0.20236366   -0.62247001    0.56200746
     atom   14 type  4   force =    -0.03800736   -0.71701994   -0.52629936
     atom   15 type  4   force =    -0.14551358   -0.50796939   -0.51948939
     atom   16 type  4   force =    -0.17383581    0.64653400   -0.41138006
     atom   17 type  4   force =     0.55871010    0.20681335   -0.07700102
     atom   18 type  4   force =    -0.23893227    0.32618700    0.63771805
     atom   19 type  4   force =    -0.13010957   -0.12530781   -0.97386083
     The ionic contribution  to forces
     atom    1 type  1   force =     0.70083907    5.11910513   -1.88516544
     atom    2 type  1   force =     1.05362647   -2.54974277   -3.05352842
     atom    3 type  1   force =     2.43263948   -2.39067460    0.28897773
     atom    4 type  2   force =    -7.08181448    0.52790556   -0.65954045
     atom    5 type  2   force =    -4.09388829   -9.32720045   -3.57494662
     atom    6 type  3   force =     3.28219090   11.85101983   -1.49711543
     atom    7 type  3   force =     0.73653343   -3.65128496    5.17860438
     atom    8 type  4   force =    -0.04301104   -0.60513235   -5.76188831
     atom    9 type  4   force =    -6.50372299   -0.72464508    1.34124552
     atom   10 type  4   force =     2.82125968   -6.87275947   -5.86839303
     atom   11 type  4   force =     4.11524410    7.92169251    6.53964044
     atom   12 type  4   force =     0.38504720   -3.38771079   -3.89197406
     atom   13 type  4   force =     1.28321196    7.23804801   -9.84888830
     atom   14 type  4   force =     2.08898965    9.73495038    5.74809774
     atom   15 type  4   force =    -1.57281156    8.18406907    6.03969407
     atom   16 type  4   force =     2.97501366   -9.65028977    2.42932996
     atom   17 type  4   force =    -7.77350680   -4.83834808   -0.41732262
     atom   18 type  4   force =     4.43168409   -8.51864363   -5.84773115
     atom   19 type  4   force =     0.76247548    1.93964147   14.74090397
     The local contribution  to forces
     atom    1 type  1   force =    -0.69337762   -5.14570287    1.86421510
     atom    2 type  1   force =    -1.06180928    2.57062509    3.06512551
     atom    3 type  1   force =    -2.43275598    2.40173097   -0.26511355
     atom    4 type  2   force =     7.07491465   -0.51414969    0.63438759
     atom    5 type  2   force =     4.11417295    9.34236140    3.56127053
     atom    6 type  3   force =    -3.26548806  -11.59050014    1.30729105
     atom    7 type  3   force =    -0.73021936    3.70074580   -5.17883354
     atom    8 type  4   force =     0.01516807    0.57908679    5.26994004
     atom    9 type  4   force =     5.93868996    0.60085817   -1.29887674
     atom   10 type  4   force =    -2.53907383    6.27354808    5.48906275
     atom   11 type  4   force =    -3.79744337   -7.24268160   -6.14664707
     atom   12 type  4   force =    -0.28111632    3.08597840    3.54711797
     atom   13 type  4   force =    -1.08922064   -6.65239037    9.30984994
     atom   14 type  4   force =    -2.03457493   -9.01718489   -5.23783923
     atom   15 type  4   force =     1.69896668   -7.69162545   -5.53067671
     atom   16 type  4   force =    -2.81292776    9.03487098   -2.04835906
     atom   17 type  4   force =     7.24267501    4.62409299    0.50328028
     atom   18 type  4   force =    -4.22114379    8.19922144    5.23644235
     atom   19 type  4   force =    -0.63031089   -1.81906809  -13.79589189
     The core correction contribution to forces
     atom    1 type  1   force =    -0.00006209    0.00053175    0.00101267
     atom    2 type  1   force =     0.00009554   -0.00006636   -0.00104044
     atom    3 type  1   force =     0.00075845   -0.00081648   -0.00021128
     atom    4 type  2   force =    -0.00415034   -0.00120731   -0.00177315
     atom    5 type  2   force =    -0.00386321   -0.00030286   -0.00686803
     atom    6 type  3   force =     0.00079997    0.00794872   -0.00410606
     atom    7 type  3   force =     0.00136453    0.01692266   -0.00662262
     atom    8 type  4   force =    -0.00019002   -0.00046104   -0.00488469
     atom    9 type  4   force =    -0.00463100   -0.00100192    0.00023950
     atom   10 type  4   force =     0.00208241   -0.00508492   -0.00341911
     atom   11 type  4   force =     0.00239018    0.00557786    0.00287005
     atom   12 type  4   force =     0.00102543   -0.00312630   -0.00349660
     atom   13 type  4   force =     0.00136035    0.00515560   -0.00461203
     atom   14 type  4   force =     0.00038799    0.00776519    0.00514531
     atom   15 type  4   force =     0.00188664    0.00512724    0.00535074
     atom   16 type  4   force =     0.00121255   -0.00508677    0.00297718
     atom   17 type  4   force =    -0.00438196   -0.00248236    0.00127199
     atom   18 type  4   force =     0.00139777   -0.00312292   -0.00592384
     atom   19 type  4   force =     0.00065819    0.00108270    0.00810854
     The Hubbard contrib.    to forces
     atom    1 type  1   force =     0.00000000    0.00000000    0.00000000
     atom    2 type  1   force =     0.00000000    0.00000000    0.00000000
     atom    3 type  1   force =     0.00000000    0.00000000    0.00000000
     atom    4 type  2   force =     0.00000000    0.00000000    0.00000000
     atom    5 type  2   force =     0.00000000    0.00000000    0.00000000
     atom    6 type  3   force =     0.00000000    0.00000000    0.00000000
     atom    7 type  3   force =     0.00000000    0.00000000    0.00000000
     atom    8 type  4   force =     0.00000000    0.00000000    0.00000000
     atom    9 type  4   force =     0.00000000    0.00000000    0.00000000
     atom   10 type  4   force =     0.00000000    0.00000000    0.00000000
     atom   11 type  4   force =     0.00000000    0.00000000    0.00000000
     atom   12 type  4   force =     0.00000000    0.00000000    0.00000000
     atom   13 type  4   force =     0.00000000    0.00000000    0.00000000
     atom   14 type  4   force =     0.00000000    0.00000000    0.00000000
     atom   15 type  4   force =     0.00000000    0.00000000    0.00000000
     atom   16 type  4   force =     0.00000000    0.00000000    0.00000000
     atom   17 type  4   force =     0.00000000    0.00000000    0.00000000
     atom   18 type  4   force =     0.00000000    0.00000000    0.00000000
     atom   19 type  4   force =     0.00000000    0.00000000    0.00000000
     The SCF correction term to forces
     atom    1 type  1   force =    -0.00005075   -0.00003823    0.00003557
     atom    2 type  1   force =     0.00006352    0.00022132   -0.00018514
     atom    3 type  1   force =    -0.00004894    0.00003496   -0.00117008
     atom    4 type  2   force =     0.00009254   -0.00060094   -0.00110898
     atom    5 type  2   force =    -0.00114784   -0.00000038    0.00201646
     atom    6 type  3   force =     0.00028247    0.00009816   -0.00011043
     atom    7 type  3   force =     0.00021958    0.00131459    0.00032204
     atom    8 type  4   force =    -0.00001385    0.00026600   -0.00049593
     atom    9 type  4   force =    -0.00014517   -0.00012762   -0.00035955
     atom   10 type  4   force =     0.00010083   -0.00016454   -0.00028786
     atom   11 type  4   force =    -0.00020425   -0.00004775    0.00018827
     atom   12 type  4   force =     0.00001858    0.00018738   -0.00038720
     atom   13 type  4   force =     0.00009054    0.00003747   -0.00028677
     atom   14 type  4   force =    -0.00004558    0.00021338    0.00026137
     atom   15 type  4   force =     0.00001585    0.00018370    0.00036315
     atom   16 type  4   force =    -0.00014877    0.00012059    0.00007048
     atom   17 type  4   force =     0.00027207    0.00000934    0.00057592
     atom   18 type  4   force =    -0.00028082   -0.00006748    0.00046856
     atom   19 type  4   force =     0.00005394   -0.00022772   -0.00008707

     Total force =     0.098926     Total SCF correction =     0.003533

     Computing stress (Cartesian axis) and pressure

     negative rho (up, down):  8.640E-02 0.000E+00
          total   stress  (Ry/bohr**3)                   (kbar)     P=     -328.94
  -0.00221844   0.00005561  -0.00000217         -326.34        8.18       -0.32
   0.00005561  -0.00222523  -0.00000720            8.18     -327.34       -1.06
  -0.00000217  -0.00000720  -0.00226456           -0.32       -1.06     -333.13

     kinetic stress (kbar)  18183.89    -10.99    -21.28
                              -10.99  18208.59     32.41
                              -21.28     32.41  18193.66

     local   stress (kbar) -17443.31   -439.30  -1631.55
                             -439.30  -5390.23   2605.58
                            -1631.55   2605.58  -8494.67

     nonloc. stress (kbar)   6532.07     -3.02     -3.10
                               -3.02   6486.63     -0.33
                               -3.10     -0.33   6494.83

     hartree stress (kbar)  12165.61    187.19    618.76
                              187.19   7100.53  -1207.38
                              618.76  -1207.38   8470.49

     exc-cor stress (kbar)   2981.13     -0.25      1.43
                               -0.25   2976.44      0.36
                                1.43      0.36   2976.91

     corecor stress (kbar)  -8213.58      0.08      0.02
                                0.08  -8211.48     -0.60
                                0.02     -0.60  -8211.82

     ewald   stress (kbar) -14532.16    274.46   1035.41
                              274.46 -21497.83  -1431.10
                             1035.41  -1431.10 -19762.53

     hubbard stress (kbar)      0.00      0.00      0.00
                                0.00      0.00      0.00
                                0.00      0.00      0.00

     DFT-D   stress (kbar)      0.00      0.00      0.00
                                0.00      0.00      0.00
                                0.00      0.00      0.00

     XDM     stress (kbar)      0.00      0.00      0.00
                                0.00      0.00      0.00
                                0.00      0.00      0.00

     dft-nl  stress (kbar)      0.00      0.00      0.00
                                0.00      0.00      0.00
                                0.00      0.00      0.00

     TS-vdW  stress (kbar)      0.00      0.00      0.00
                                0.00      0.00      0.00
                                0.00      0.00      0.00

[...]

                                0.00      0.00      0.00

     Writing all to output data dir new_calculations/myprefix.save/

     General routines

     Parallel routines

     PAW routines

   This run was terminated on:  18:58:18  21May2023

   JOB DONE.