     Program PWSCF v.7.0 starts on 21May2023 at 11: 1:11

     Reading input from espresso_22727.pwi
Warning: card &CELL ignored
Warning: card / ignored

     Current dimensions of program PWSCF are:
     Max number of different atomic species (ntypx) = 10
     Max number of k-points (npk) =  40000
     Max angular momentum in pseudopotentials (lmaxx) =  4

     gamma-point specific algorithms are used
     Message from routine setup:
     using ibrav=0 with symmetry is DISCOURAGED, use correct ibrav instead

     Subspace diagonalization in iterative solution of the eigenvalue problem:
     a serial algorithm will be used

     Using Slab Decomposition

     bravais-lattice index     =            0
     lattice parameter (alat)  =      10.2682  a.u.
     unit-cell volume          =     765.5465 (a.u.)^3
     number of atoms/cell      =            4
     number of atomic types    =            3
     number of electrons       =        47.00
     number of Kohn-Sham states=           29
     kinetic-energy cutoff     =      30.0000  Ry
     charge density cutoff     =     240.0000  Ry
     scf convergence threshold =      1.0E-06
     mixing beta               =       0.7000
     number of iterations used =            8  plain     mixing
     Exchange-correlation= SLA  PW   PBE  PBE
                           (   1   4   3   4   0   0   0)

     celldm(1)=  10.268229  celldm(2)=   0.000000  celldm(3)=   0.000000
     celldm(4)=   0.000000  celldm(5)=   0.000000  celldm(6)=   0.000000

     crystal axes: (cart. coord. in units of alat)
               a(1) = (   1.000000   0.000000   0.000000 )
               a(2) = (   0.500000   0.866025   0.000000 )
               a(3) = (   0.500000   0.288675   0.816497 )

     reciprocal axes: (cart. coord. in units 2 pi/alat)
               b(1) = (  1.000000 -0.577350 -0.408248 )
               b(2) = (  0.000000  1.154701 -0.408248 )
               b(3) = (  0.000000  0.000000  1.224745 )

     PseudoPot. # 1 for Na read from file:
     /home/pragov/projects/rrg-bengioy-ad/pragov/crystal_structure_design/SSSP/na_pbe_v1.5.uspp.F.UPF
     MD5 check sum: 44600605ef58000f06b90626533354dc
     Pseudo is Ultrasoft, Zval =  9.0
     Generated by new atomic code, or converted to UPF format
     Using radial grid of  819 points,  5 beta functions with:
                l(1) =   0
                l(2) =   0
                l(3) =   1
                l(4) =   1
                l(5) =   2
     Q(r) pseudized with  8 coefficients,  rinner =    1.250   1.250   1.250
                                                       1.250   1.250

     PseudoPot. # 2 for Ce read from file:
     /home/pragov/projects/rrg-bengioy-ad/pragov/crystal_structure_design/SSSP/Ce.GGA-PBE-paw-v1.0.UPF
     MD5 check sum: f2b950f613061344c13339c8d844425d
     Pseudo is Projector augmented-wave + core cor, Zval = 12.0
     Generated using ATOMPAW code
     Shape of augmentation charge: BESSEL
     Using radial grid of 1102 points,  8 beta functions with:
                l(1) =   0
                l(2) =   0
                l(3) =   1
                l(4) =   1
                l(5) =   2
                l(6) =   2
                l(7) =   3
                l(8) =   3
     Q(r) pseudized with 0 coefficients

     PseudoPot. # 3 for Tl read from file:
     /home/pragov/projects/rrg-bengioy-ad/pragov/crystal_structure_design/SSSP/Tl_pbe_v1.2.uspp.F.UPF
     MD5 check sum: b76cf1f7e72655a2b2c53cf6385d7059
     Pseudo is Ultrasoft + core correction, Zval = 13.0
     Generated by new atomic code, or converted to UPF format
     Using radial grid of  899 points,  6 beta functions with:
                l(1) =   0
                l(2) =   0
                l(3) =   1
                l(4) =   1
                l(5) =   2
                l(6) =   2
     Q(r) pseudized with  6 coefficients,  rinner =    1.100   1.100   1.100
                                                       1.100   1.100

     atomic species   valence    mass     pseudopotential
        Na             9.00    22.98977     Na( 1.00)
        Ce            12.00   140.11600     Ce( 1.00)
        Tl            13.00   204.38000     Tl( 1.00)

     12 Sym. Ops., with inversion, found

                                    s                        frac. trans.

      isym =  1     identity

 cryst.   s( 1) = (     1          0          0      )
                  (     0          1          0      )
                  (     0          0          1      )

 cart.    s( 1) = (  1.0000000  0.0000000  0.0000000 )
                  (  0.0000000  1.0000000  0.0000000 )
                  (  0.0000000  0.0000000  1.0000000 )

      isym =  2     180 deg rotation - cart. axis [1,0,0]

[...]

      isym =  3     120 deg rotation - cryst. axis [0,0,1]

[...]

      isym =  6     180 deg rotation - cryst. axis [1,1,0]

[...]

      isym =  7     inversion

[...]

      isym =  8     inv. 180 deg rotation - cart. axis [1,0,0]

[...]

      isym =  9     inv. 120 deg rotation - cryst. axis [0,0,1]

 cryst.   s( 9) = (     1         -1          0      )
                  (     1          0          0      )
                  (     1          0         -1      )

 cart.    s( 9) = (  0.5000000  0.8660254 -0.0000000 )
                  ( -0.8660254  0.5000000 -0.0000000 )
                  (  0.0000000  0.0000000 -1.0000000 )

[...]

 cryst.   s(10) = (     0          1          0      )
                  (    -1          1          0      )
                  (     0          1         -1      )

 cart.    s(10) = (  0.5000000 -0.8660254  0.0000000 )
                  (  0.8660254  0.5000000 -0.0000000 )
                  (  0.0000000  0.0000000 -1.0000000 )

[...]

      isym = 12     inv. 180 deg rotation - cryst. axis [1,1,0]

 cryst.   s(12) = (     1         -1          0      )
                  (     0         -1          0      )
                  (     0         -1          1      )

 cart.    s(12) = (  0.5000000 -0.8660254  0.0000000 )
                  ( -0.8660254 -0.5000000  0.0000000 )
                  (  0.0000000  0.0000000  1.0000000 )

   Cartesian axes

     site n.     atom                  positions (alat units)
         1           Na  tau(   1) = (   0.0000000   0.0000000   0.0000000  )
         2           Ce  tau(   2) = (   1.0000000   0.5773503   0.4082483  )
         3           Tl  tau(   3) = (   1.5000000   0.8660254   0.6123724  )
         4           Tl  tau(   4) = (   0.5000000   0.2886751   0.2041241  )

   Crystallographic axes

     site n.     atom                  positions (cryst. coord.)
         1           Na  tau(   1) = (  0.0000000  0.0000000  0.0000000  )
         2           Ce  tau(   2) = (  0.5000000  0.5000000  0.5000000  )
         3           Tl  tau(   3) = (  0.7500000  0.7500000  0.7500000  )
         4           Tl  tau(   4) = (  0.2500000  0.2500000  0.2500000  )

     number of k points=     1  Methfessel-Paxton smearing, width (Ry)=  0.0010
                       cart. coord. in units 2pi/alat
        k(    1) = (   0.0000000   0.0000000   0.0000000), wk =   2.0000000

                       cryst. coord.
        k(    1) = (   0.0000000   0.0000000   0.0000000), wk =   2.0000000

     Check: negative core charge=   -0.000005

     Initial potential from superposition of free atoms

     starting charge      46.9770, renormalised to      47.0000

     negative rho (up, down):  1.035E-01 0.000E+00
     Starting wfcs are   55 randomized atomic wfcs
     Checking if some PAW data can be deallocated...

     Self-consistent Calculation

     iteration #  1     ecut=    30.00 Ry     beta= 0.70
     Davidson diagonalization with overlap

     ethr =  1.00E-02,  avg # of iterations =  1.0

     Threshold (ethr) on eigenvalues was too large:
     Diagonalizing with lowered threshold

     Davidson diagonalization with overlap

[...]

     negative rho (up, down):  1.033E-01 0.000E+00

     total energy              =    -867.37385005 Ry
     estimated scf accuracy    <       0.17049472 Ry

[...]

     c_bands:  1 eigenvalues not converged
     ethr =  1.02E-05,  avg # of iterations = 20.0

[...]

     c_bands:  1 eigenvalues not converged
     ethr =  1.89E-07,  avg # of iterations = 20.0

[...]

     total energy              =    -867.40005880 Ry
     estimated scf accuracy    <       0.00000215 Ry

     iteration # 68     ecut=    30.00 Ry     beta= 0.70
     Davidson diagonalization with overlap

     ethr =  4.57E-09,  avg # of iterations =  7.0

[...]

     End of self-consistent calculation

          k = 0.0000 0.0000 0.0000 (  1055 PWs)   bands (ev):

   -44.3069 -24.7058 -16.2045 -16.2041 -16.1969  -7.5393  -7.5064  -7.4969
    -1.2544  -1.2530  -1.1361  -1.1332  -1.1233  -1.0575  -1.0541  -1.0439
    -0.8732  -0.8721   1.9489   5.8615   8.5987   8.6026   8.6144  10.0857
    10.1408  10.1423  10.2727  10.2762  10.3264

     occupation numbers
     1.0000   1.0000   1.0000   1.0000   1.0000   1.0000   1.0000   1.0000
     1.0000   1.0000   1.0000   1.0000   1.0000   1.0000   1.0000   1.0000
     1.0000   1.0000   1.0000   1.0000   1.0000   1.0000   1.0000   0.5000
    -0.0000  -0.0000  -0.0000  -0.0000  -0.0000

     the Fermi energy is    10.0857 ev

!    total energy              =    -867.40005881 Ry
     estimated scf accuracy    <       0.00000078 Ry
     smearing contrib. (-TS)   =      -0.00028209 Ry
     internal energy E=F+TS    =    -867.39977672 Ry

     The total energy is F=E-TS. E is the sum of the following terms:
     one-electron contribution =    -123.84785879 Ry
     hartree contribution      =      93.28550924 Ry
     xc contribution           =    -148.91579490 Ry
     ewald contribution        =    -279.63449788 Ry
     one-center paw contrib.   =    -408.28713439 Ry
      -> PAW hartree energy AE =      43.99485396 Ry
      -> PAW hartree energy PS =     -43.68609854 Ry
      -> PAW xc energy AE      =    -417.14718835 Ry
      -> PAW xc energy PS      =       8.55129854 Ry
      -> total E_H with PAW    =      93.59426466 Ry
      -> total E_XC with PAW   =    -557.51168471 Ry

     convergence has been achieved in  68 iterations

     negative rho (up, down):  1.060E-01 0.000E+00

     Forces acting on atoms (cartesian axes, Ry/au):

     atom    1 type  1   force =     0.00000000   -0.00000000   -0.00000000
     atom    2 type  2   force =     0.00000000    0.00000000    0.00000000
     atom    3 type  3   force =     0.00000000   -0.00000000    0.00026430
     atom    4 type  3   force =     0.00000000    0.00000000   -0.00026430
     The non-local contrib.  to forces
     atom    1 type  1   force =     0.00000000    0.00000000   -0.00000000
     atom    2 type  2   force =     0.00000000   -0.00000000   -0.00000000
     atom    3 type  3   force =     0.00000000    0.00000000   -0.00093284
     atom    4 type  3   force =     0.00000000   -0.00000000    0.00093284
     The ionic contribution  to forces
     atom    1 type  1   force =    -0.00000000   -0.00000000   -0.00000000
     atom    2 type  2   force =    -0.00000000    0.00000000   -0.00000000
     atom    3 type  3   force =    -0.00000000    0.00000000    0.00000000
     atom    4 type  3   force =     0.00000000   -0.00000000    0.00000000
     The local contribution  to forces
     atom    1 type  1   force =     0.00000326   -0.00002067   -0.00000087
     atom    2 type  2   force =    -0.00029773    0.00008121    0.00000113
     atom    3 type  3   force =    -0.00011223   -0.00337555    0.00113244
     atom    4 type  3   force =     0.00006330    0.00344908   -0.00131274
     The core correction contribution to forces
     atom    1 type  1   force =     0.00000000    0.00000000    0.00000000
     atom    2 type  2   force =    -0.00000024    0.00000007   -0.00000003
     atom    3 type  3   force =    -0.00000648   -0.00026413    0.00006861
     atom    4 type  3   force =    -0.00000009    0.00026815   -0.00007242
     The Hubbard contrib.    to forces
     atom    1 type  1   force =     0.00000000    0.00000000    0.00000000
     atom    2 type  2   force =     0.00000000    0.00000000    0.00000000
     atom    3 type  3   force =     0.00000000    0.00000000    0.00000000
     atom    4 type  3   force =     0.00000000    0.00000000    0.00000000
     The SCF correction term to forces
     atom    1 type  1   force =     0.00005684    0.00011013   -0.00002354
     atom    2 type  2   force =    -0.00001052   -0.00008291    0.00001045
     atom    3 type  3   force =     0.00012858    0.00031670    0.00000147
     atom    4 type  3   force =    -0.00011297   -0.00039622    0.00019339

     Total force =     0.000374     Total SCF correction =     0.000589
     SCF correction compared to forces is large: reduce conv_thr to get better values

     Computing stress (Cartesian axis) and pressure

     negative rho (up, down):  1.060E-01 0.000E+00
          total   stress  (Ry/bohr**3)                   (kbar)     P=      -67.66
  -0.00045950  -0.00000000   0.00000000          -67.59       -0.00        0.00
  -0.00000000  -0.00045950   0.00000000           -0.00      -67.59        0.00
   0.00000000   0.00000000  -0.00046080            0.00        0.00      -67.79

     kinetic stress (kbar)   8152.77      0.00      0.00
                                0.00   8152.77     -0.00
                                0.00     -0.00   8153.86

     local   stress (kbar)   7981.97      0.17     -0.29
                                0.17   7982.25     14.41
                               -0.29     14.41   7979.89

     nonloc. stress (kbar)    471.04      0.00      0.00
                                0.00    471.04     -0.00
                                0.00     -0.00    474.00

     hartree stress (kbar)   5967.36     -0.00      0.02
                               -0.00   5984.29     -8.35
                                0.02     -8.35   5973.81

     exc-cor stress (kbar)  13863.81      0.00     -0.00
                                0.00  13864.17     -0.12
                               -0.00     -0.12  13863.94

     corecor stress (kbar) -18601.96      0.00      0.00
                                0.00 -18602.22      0.14
                                0.00      0.14 -18602.06

     ewald   stress (kbar) -17911.24      0.00     -0.00
                                0.00 -17911.24      0.00
                               -0.00      0.00 -17911.24

     hubbard stress (kbar)      0.00      0.00      0.00
                                0.00      0.00      0.00
                                0.00      0.00      0.00

     DFT-D   stress (kbar)      0.00      0.00      0.00
                                0.00      0.00      0.00
                                0.00      0.00      0.00

     XDM     stress (kbar)      0.00      0.00      0.00
                                0.00      0.00      0.00
                                0.00      0.00      0.00

     dft-nl  stress (kbar)      0.00      0.00      0.00
                                0.00      0.00      0.00
                                0.00      0.00      0.00

     TS-vdW  stress (kbar)      0.00      0.00      0.00
                                0.00      0.00      0.00
                                0.00      0.00      0.00

[...]

                                0.00      0.00      0.00

     Writing all to output data dir new_calculations/myprefix.save/

     General routines

     Parallel routines

     PAW routines

   This run was terminated on:  11: 2: 8  21May2023

   JOB DONE.