     Program PWSCF v.7.0 starts on 21May2023 at  8:25:50

     Reading input from espresso_22623.pwi
Warning: card &CELL ignored
Warning: card / ignored

     Current dimensions of program PWSCF are:
     Max number of different atomic species (ntypx) = 10
     Max number of k-points (npk) =  40000
     Max angular momentum in pseudopotentials (lmaxx) =  4
     file O.pbe-n-kjpaw_psl.0.1.UPF: wavefunction(s)  2P renormalized

     gamma-point specific algorithms are used
     Message from routine setup:
     using ibrav=0 with symmetry is DISCOURAGED, use correct ibrav instead

     Subspace diagonalization in iterative solution of the eigenvalue problem:
     a serial algorithm will be used

     Using Slab Decomposition

     bravais-lattice index     =            0
     lattice parameter (alat)  =      13.1665  a.u.
     unit-cell volume          =    2120.2038 (a.u.)^3
     number of atoms/cell      =           15
     number of atomic types    =            2
     number of electrons       =        80.00
     number of Kohn-Sham states=           48
     kinetic-energy cutoff     =      30.0000  Ry
     charge density cutoff     =     240.0000  Ry
     scf convergence threshold =      1.0E-06
     mixing beta               =       0.7000
     number of iterations used =            8  plain     mixing
     Exchange-correlation= SLA  PW   PBX  PBC
                           (   1   4   3   4   0   0   0)

     celldm(1)=  13.166517  celldm(2)=   0.000000  celldm(3)=   0.000000
     celldm(4)=   0.000000  celldm(5)=   0.000000  celldm(6)=   0.000000

     crystal axes: (cart. coord. in units of alat)
               a(1) = (   1.000000   0.000000   0.000000 )
               a(2) = (   0.000000   1.000000   0.000000 )
               a(3) = (   0.000000   0.000000   0.928891 )

     reciprocal axes: (cart. coord. in units 2 pi/alat)
               b(1) = (  1.000000  0.000000  0.000000 )
               b(2) = (  0.000000  1.000000  0.000000 )
               b(3) = (  0.000000  0.000000  1.076552 )

     PseudoPot. # 1 for Si read from file:
     /home/pragov/projects/rrg-bengioy-ad/pragov/crystal_structure_design/SSSP/Si.pbe-n-rrkjus_psl.1.0.0.UPF
     MD5 check sum: 0b0bb1205258b0d07b9f9672cf965d36
     Pseudo is Ultrasoft + core correction, Zval =  4.0
     Generated using "atomic" code by A. Dal Corso  v.5.1
     Using radial grid of 1141 points,  6 beta functions with:
                l(1) =   0
                l(2) =   0
                l(3) =   1
                l(4) =   1
                l(5) =   2
                l(6) =   2
     Q(r) pseudized with 0 coefficients

     PseudoPot. # 2 for O  read from file:
     /home/pragov/projects/rrg-bengioy-ad/pragov/crystal_structure_design/SSSP/O.pbe-n-kjpaw_psl.0.1.UPF
     MD5 check sum: 0234752ac141de4415c5fc33072bef88
     Pseudo is Projector augmented-wave + core cor, Zval =  6.0
     Generated using "atomic" code by A. Dal Corso  v.5.0.99 svn rev. 10869
     Shape of augmentation charge: BESSEL
     Using radial grid of 1095 points,  4 beta functions with:
                l(1) =   0
                l(2) =   0
                l(3) =   1
                l(4) =   1
     Q(r) pseudized with 0 coefficients

     atomic species   valence    mass     pseudopotential
        Si             4.00    28.08500     Si( 1.00)
        O              6.00    15.99900     O ( 1.00)

      8 Sym. Ops. (no inversion) found

                                    s                        frac. trans.

      isym =  1     identity

 cryst.   s( 1) = (     1          0          0      )
                  (     0          1          0      )
                  (     0          0          1      )

 cart.    s( 1) = (  1.0000000  0.0000000  0.0000000 )
                  (  0.0000000  1.0000000  0.0000000 )
                  (  0.0000000  0.0000000  1.0000000 )

      isym =  2     180 deg rotation - cart. axis [0,0,1]

[...]

      isym =  4     180 deg rotation - cart. axis [1,-1,0]

[...]

      isym =  5     inv. 180 deg rotation - cart. axis [0,1,0]

[...]

      isym =  8     inv.  90 deg rotation - cart. axis [0,0,1]

 cryst.   s( 8) = (     0         -1          0      )
                  (     1          0          0      )
                  (     0          0         -1      )

 cart.    s( 8) = (  0.0000000  1.0000000  0.0000000 )
                  ( -1.0000000  0.0000000  0.0000000 )
                  (  0.0000000  0.0000000 -1.0000000 )

   Cartesian axes

     site n.     atom                  positions (alat units)
         1           Si  tau(   1) = (   0.0000000   0.2694170   0.1106430  )
         2           Si  tau(   2) = (   0.7305830   0.0000000   0.8182482  )
         3           Si  tau(   3) = (   0.2694170   0.0000000   0.8182482  )
         4           Si  tau(   4) = (   0.0000000   0.7305830   0.1106430  )
         5           Si  tau(   5) = (   0.0000000   0.0000000   0.4644456  )
         6           O   tau(   6) = (   0.0000000   0.1922700   0.3313141  )
         7           O   tau(   7) = (   0.8077300   0.0000000   0.5975771  )
         8           O   tau(   8) = (   0.1922700   0.0000000   0.5975771  )
         9           O   tau(   9) = (   0.0000000   0.8077300   0.3313141  )
        10           O   tau(  10) = (   0.1919470   0.1919470   0.0000000  )
        11           O   tau(  11) = (   0.8080530   0.1919470   0.0000000  )
        12           O   tau(  12) = (   0.1919470   0.8080530   0.0000000  )
        13           O   tau(  13) = (   0.8080530   0.8080530   0.0000000  )
        14           O   tau(  14) = (   0.0000000   0.5000000   0.1109830  )
        15           O   tau(  15) = (   0.5000000   0.0000000   0.8179082  )

   Crystallographic axes

     site n.     atom                  positions (cryst. coord.)
         1           Si  tau(   1) = (  0.0000000  0.2694170  0.1191130  )
         2           Si  tau(   2) = (  0.7305830  0.0000000  0.8808870  )
         3           Si  tau(   3) = (  0.2694170  0.0000000  0.8808870  )
         4           Si  tau(   4) = (  0.0000000  0.7305830  0.1191130  )
         5           Si  tau(   5) = (  0.0000000  0.0000000  0.5000000  )
         6           O   tau(   6) = (  0.0000000  0.1922700  0.3566770  )
         7           O   tau(   7) = (  0.8077300  0.0000000  0.6433230  )
         8           O   tau(   8) = (  0.1922700  0.0000000  0.6433230  )
         9           O   tau(   9) = (  0.0000000  0.8077300  0.3566770  )
        10           O   tau(  10) = (  0.1919470  0.1919470  0.0000000  )
        11           O   tau(  11) = (  0.8080530  0.1919470  0.0000000  )
        12           O   tau(  12) = (  0.1919470  0.8080530  0.0000000  )
        13           O   tau(  13) = (  0.8080530  0.8080530  0.0000000  )
        14           O   tau(  14) = (  0.0000000  0.5000000  0.1194790  )
        15           O   tau(  15) = (  0.5000000  0.0000000  0.8805210  )

     number of k points=     1  Methfessel-Paxton smearing, width (Ry)=  0.0010
                       cart. coord. in units 2pi/alat
        k(    1) = (   0.0000000   0.0000000   0.0000000), wk =   2.0000000

                       cryst. coord.
        k(    1) = (   0.0000000   0.0000000   0.0000000), wk =   2.0000000

     Check: negative core charge=   -0.000009

     Initial potential from superposition of free atoms

     starting charge      79.9972, renormalised to      80.0000
     Starting wfcs are   60 randomized atomic wfcs
     Checking if some PAW data can be deallocated...

     Self-consistent Calculation

     iteration #  1     ecut=    30.00 Ry     beta= 0.70
     Davidson diagonalization with overlap

     ethr =  1.00E-02,  avg # of iterations =  3.0

     negative rho (up, down):  1.048E-05 0.000E+00

     total energy              =    -473.28166610 Ry
     estimated scf accuracy    <       3.46901692 Ry

[...]

     total energy              =    -474.75887204 Ry
     estimated scf accuracy    <       0.00000270 Ry

     iteration # 10     ecut=    30.00 Ry     beta= 0.70
     Davidson diagonalization with overlap

     ethr =  3.38E-09,  avg # of iterations =  2.0

[...]

     End of self-consistent calculation

          k = 0.0000 0.0000 0.0000 (  2969 PWs)   bands (ev):

   -20.9362 -19.9458 -19.7869 -19.7335 -19.7335 -19.1126 -19.0318 -18.8828
   -18.8827 -18.8397  -9.7283  -9.7282  -9.3133  -8.8153  -6.8366  -6.8365
    -6.6379  -6.6367  -6.6283  -6.6282  -5.4003  -4.9489  -3.9519  -3.9519
    -3.8320  -3.5283  -3.4710  -3.4709  -3.3898  -3.0338  -2.9928  -2.9894
    -2.9893  -2.5781  -2.5781  -2.4386  -2.2861  -2.1224  -2.1223  -1.4277
     4.0549   6.7858   7.1412   7.3471   7.5179   7.6757   7.6757   7.9393

     occupation numbers
     1.0000   1.0000   1.0000   1.0000   1.0000   1.0000   1.0000   1.0000
     1.0000   1.0000   1.0000   1.0000   1.0000   1.0000   1.0000   1.0000
     1.0000   1.0000   1.0000   1.0000   1.0000   1.0000   1.0000   1.0000
     1.0000   1.0000   1.0000   1.0000   1.0000   1.0000   1.0000   1.0000
     1.0000   1.0000   1.0000   1.0000   1.0000   1.0000   1.0000   1.0000
    -0.0000  -0.0000  -0.0000  -0.0000  -0.0000  -0.0000  -0.0000  -0.0000

     the Fermi energy is     0.7885 ev

!    total energy              =    -474.75887279 Ry
     estimated scf accuracy    <       0.00000078 Ry
     smearing contrib. (-TS)   =       0.00000000 Ry
     internal energy E=F+TS    =    -474.75887279 Ry

     The total energy is F=E-TS. E is the sum of the following terms:
     one-electron contribution =    -454.46478926 Ry
     hartree contribution      =     259.06968925 Ry
     xc contribution           =    -107.02805026 Ry
     ewald contribution        =     -77.29442467 Ry
     one-center paw contrib.   =     -95.04129784 Ry
      -> PAW hartree energy AE =     322.55489102 Ry
      -> PAW hartree energy PS =    -321.34049027 Ry
      -> PAW xc energy AE      =    -175.65338826 Ry
      -> PAW xc energy PS      =      79.39768967 Ry
      -> total E_H with PAW    =     260.28409000 Ry
      -> total E_XC with PAW   =    -203.28374885 Ry

     convergence has been achieved in  10 iterations

     negative rho (up, down):  1.162E-04 0.000E+00

     Forces acting on atoms (cartesian axes, Ry/au):

     atom    1 type  1   force =     0.00000000   -0.00263240   -0.00199948
     atom    2 type  1   force =     0.00263240    0.00000000    0.00199948
     atom    3 type  1   force =    -0.00263240    0.00000000    0.00199948
     atom    4 type  1   force =    -0.00000000    0.00263240   -0.00199948
     atom    5 type  1   force =     0.00000000    0.00000000    0.00000000
     atom    6 type  2   force =    -0.00000000    0.00386724    0.00257600
     atom    7 type  2   force =    -0.00386724    0.00000000   -0.00257600
     atom    8 type  2   force =     0.00386724    0.00000000   -0.00257600
     atom    9 type  2   force =     0.00000000   -0.00386724    0.00257600
     atom   10 type  2   force =     0.00305469    0.00305469    0.00000000
     atom   11 type  2   force =    -0.00305469    0.00305469    0.00000000
     atom   12 type  2   force =     0.00305469   -0.00305469   -0.00000000
     atom   13 type  2   force =    -0.00305469   -0.00305469    0.00000000
     atom   14 type  2   force =     0.00000000    0.00000000    0.00178767
     atom   15 type  2   force =     0.00000000    0.00000000   -0.00178767
     The non-local contrib.  to forces
     atom    1 type  1   force =     0.00000000    0.04887726    0.00921880
     atom    2 type  1   force =    -0.04887726    0.00000000   -0.00921880
     atom    3 type  1   force =     0.04887726    0.00000000   -0.00921880
     atom    4 type  1   force =    -0.00000000   -0.04887726    0.00921880
     atom    5 type  1   force =     0.00000000    0.00000000    0.00000000
     atom    6 type  2   force =    -0.00000000   -0.79173095   -0.60242811
     atom    7 type  2   force =     0.79173095    0.00000000    0.60242811
     atom    8 type  2   force =    -0.79173095    0.00000000    0.60242811
     atom    9 type  2   force =     0.00000000    0.79173095   -0.60242811
     atom   10 type  2   force =    -0.76465645   -0.76465645    0.00000000
     atom   11 type  2   force =     0.76465645   -0.76465645    0.00000000
     atom   12 type  2   force =    -0.76465645    0.76465645   -0.00000000
     atom   13 type  2   force =     0.76465645    0.76465645    0.00000000
     atom   14 type  2   force =     0.00000000    0.00000000    0.00567704
     atom   15 type  2   force =     0.00000000    0.00000000   -0.00567704
     The ionic contribution  to forces
     atom    1 type  1   force =     0.00000000    2.82987222    0.77932679
     atom    2 type  1   force =    -2.82987222    0.00000000   -0.77932679
     atom    3 type  1   force =     2.82987222    0.00000000   -0.77932679
     atom    4 type  1   force =     0.00000000   -2.82987222    0.77932679
     atom    5 type  1   force =    -0.00000000   -0.00000000    0.00000000
     atom    6 type  2   force =     0.00000000    7.08964053    4.72737064
     atom    7 type  2   force =    -7.08964053   -0.00000000   -4.72737064
     atom    8 type  2   force =     7.08964053    0.00000000   -4.72737064
     atom    9 type  2   force =     0.00000000   -7.08964053    4.72737064
     atom   10 type  2   force =     7.38308385    7.38308385   -0.00000000
     atom   11 type  2   force =    -7.38308385    7.38308385   -0.00000000
     atom   12 type  2   force =     7.38308385   -7.38308385    0.00000000
     atom   13 type  2   force =    -7.38308385   -7.38308385   -0.00000000
     atom   14 type  2   force =     0.00000000   -0.00000000    0.76720941
     atom   15 type  2   force =     0.00000000    0.00000000   -0.76720941
     The local contribution  to forces
     atom    1 type  1   force =    -0.00000869   -2.87644097   -0.78959251
     atom    2 type  1   force =     2.87644936   -0.00000673    0.78960189
     atom    3 type  1   force =    -2.87644087   -0.00000447    0.78960328
     atom    4 type  1   force =    -0.00001328    2.87645201   -0.78961660
     atom    5 type  1   force =    -0.00002263    0.00000732    0.00000655
     atom    6 type  2   force =    -0.00001900   -6.30076393   -4.12741190
     atom    7 type  2   force =     6.30075845   -0.00002362    4.12730502
     atom    8 type  2   force =    -6.30076086   -0.00000411    4.12736388
     atom    9 type  2   force =    -0.00002768    6.30076998   -4.12740585
     atom   10 type  2   force =    -6.62179338   -6.62176138    0.00002622
     atom   11 type  2   force =     6.62177822   -6.62176243    0.00004412
     atom   12 type  2   force =    -6.62182455    6.62177279    0.00000375
     atom   13 type  2   force =     6.62182474    6.62175343    0.00002863
     atom   14 type  2   force =    -0.00000441   -0.00000355   -0.77090898
     atom   15 type  2   force =    -0.00002884    0.00000598    0.77088056
     The core correction contribution to forces
     atom    1 type  1   force =    -0.00000013   -0.00474986   -0.00087888
     atom    2 type  1   force =     0.00474771    0.00000009    0.00087953
     atom    3 type  1   force =    -0.00474760   -0.00000081    0.00088021
     atom    4 type  1   force =     0.00000106    0.00475199   -0.00087818
     atom    5 type  1   force =    -0.00000005   -0.00000115   -0.00000007
     atom    6 type  2   force =     0.00000011    0.00709235    0.00535485
     atom    7 type  2   force =    -0.00709251   -0.00000010   -0.00535516
     atom    8 type  2   force =     0.00709246    0.00000007   -0.00535500
     atom    9 type  2   force =    -0.00000002   -0.00709244    0.00535510
     atom   10 type  2   force =     0.00681426    0.00681404   -0.00000007
     atom   11 type  2   force =    -0.00681428    0.00681398   -0.00000002
     atom   12 type  2   force =     0.00681414   -0.00681394    0.00000002
     atom   13 type  2   force =    -0.00681404   -0.00681393    0.00000001
     atom   14 type  2   force =     0.00000023    0.00000014   -0.00010900
     atom   15 type  2   force =    -0.00000024    0.00000020    0.00010879
     The Hubbard contrib.    to forces
     atom    1 type  1   force =     0.00000000    0.00000000    0.00000000
     atom    2 type  1   force =     0.00000000    0.00000000    0.00000000
     atom    3 type  1   force =     0.00000000    0.00000000    0.00000000
     atom    4 type  1   force =     0.00000000    0.00000000    0.00000000
     atom    5 type  1   force =     0.00000000    0.00000000    0.00000000
     atom    6 type  2   force =     0.00000000    0.00000000    0.00000000
     atom    7 type  2   force =     0.00000000    0.00000000    0.00000000
     atom    8 type  2   force =     0.00000000    0.00000000    0.00000000
     atom    9 type  2   force =     0.00000000    0.00000000    0.00000000
     atom   10 type  2   force =     0.00000000    0.00000000    0.00000000
     atom   11 type  2   force =     0.00000000    0.00000000    0.00000000
     atom   12 type  2   force =     0.00000000    0.00000000    0.00000000
     atom   13 type  2   force =     0.00000000    0.00000000    0.00000000
     atom   14 type  2   force =     0.00000000    0.00000000    0.00000000
     atom   15 type  2   force =     0.00000000    0.00000000    0.00000000
     The SCF correction term to forces
     atom    1 type  1   force =     0.00000738   -0.00019878   -0.00007415
     atom    2 type  1   force =     0.00016944    0.00000999    0.00006408
     atom    3 type  1   force =    -0.00017857    0.00000168    0.00006664
     atom    4 type  1   force =     0.00001950    0.00020033   -0.00004432
     atom    5 type  1   force =     0.00001921   -0.00001472   -0.00000142
     atom    6 type  2   force =     0.00002237   -0.00036959   -0.00031665
     atom    7 type  2   force =     0.00037903    0.00002333    0.00041524
     atom    8 type  2   force =    -0.00037067    0.00000552    0.00034666
     atom    9 type  2   force =     0.00003881    0.00036658   -0.00032104
     atom   10 type  2   force =    -0.00038223   -0.00043254   -0.00003207
     atom   11 type  2   force =     0.00040058   -0.00042594   -0.00004963
     atom   12 type  2   force =    -0.00034933    0.00042849    0.00000104
     atom   13 type  2   force =     0.00035732    0.00044697   -0.00002973
     atom   14 type  2   force =     0.00001433    0.00000510   -0.00008087
     atom   15 type  2   force =     0.00001748    0.00000296    0.00010935

     Total force =     0.014530     Total SCF correction =     0.001594
     SCF correction compared to forces is large: reduce conv_thr to get better values

     Computing stress (Cartesian axis) and pressure

     negative rho (up, down):  1.162E-04 0.000E+00
          total   stress  (Ry/bohr**3)                   (kbar)     P=     -219.30
  -0.00147628   0.00000000   0.00000000         -217.17        0.00        0.00
  -0.00000000  -0.00147628   0.00000000           -0.00     -217.17        0.00
   0.00000000   0.00000000  -0.00151971            0.00        0.00     -223.56

     kinetic stress (kbar)   8841.42     -0.00      0.00
                               -0.00   8841.42      0.00
                                0.00      0.00   8855.12

     local   stress (kbar) -10782.77      0.00      0.00
                                0.00 -10782.79      0.01
                                0.00      0.01 -17438.13

     nonloc. stress (kbar)   1705.70      0.00      0.00
                                0.00   1705.70      0.00
                                0.00      0.00   1703.51

     hartree stress (kbar)   4953.34     -0.00     -0.00
                               -0.00   4953.36     -0.00
                               -0.00     -0.00   8068.21

     exc-cor stress (kbar)   -421.56      0.00      0.00
                                0.00   -421.56      0.00
                                0.00      0.00   -421.70

     corecor stress (kbar)  -1551.39     -0.00     -0.00
                               -0.00  -1551.39     -0.00
                               -0.00     -0.00  -1551.51

     ewald   stress (kbar)  -2961.91      0.00     -0.00
                                0.00  -2961.91     -0.00
                               -0.00     -0.00    560.93

     hubbard stress (kbar)      0.00      0.00      0.00
                                0.00      0.00      0.00
                                0.00      0.00      0.00

     DFT-D   stress (kbar)      0.00      0.00      0.00
                                0.00      0.00      0.00
                                0.00      0.00      0.00

     XDM     stress (kbar)      0.00      0.00      0.00
                                0.00      0.00      0.00
                                0.00      0.00      0.00

     dft-nl  stress (kbar)      0.00      0.00      0.00
                                0.00      0.00      0.00
                                0.00      0.00      0.00

     TS-vdW  stress (kbar)      0.00      0.00      0.00
                                0.00      0.00      0.00
                                0.00      0.00      0.00

[...]

                                0.00      0.00      0.00

     Writing all to output data dir new_calculations/myprefix.save/

     General routines

     Parallel routines

     PAW routines

   This run was terminated on:   8:26: 7  21May2023

   JOB DONE.