     Program PWSCF v.7.0 starts on 20May2023 at 12:22:19

     Reading input from espresso_16320.pwi
Warning: card &CELL ignored
Warning: card / ignored

     Current dimensions of program PWSCF are:
     Max number of different atomic species (ntypx) = 10
     Max number of k-points (npk) =  40000
     Max angular momentum in pseudopotentials (lmaxx) =  4
     file Al.pbe-n-kjpaw_psl.1.0.0.UPF: wavefunction(s)  3S 3P renormalized

     gamma-point specific algorithms are used
     Message from routine setup:
     using ibrav=0 with symmetry is DISCOURAGED, use correct ibrav instead

     Subspace diagonalization in iterative solution of the eigenvalue problem:
     a serial algorithm will be used

     Using Slab Decomposition

     bravais-lattice index     =            0
     lattice parameter (alat)  =      12.0646  a.u.
     unit-cell volume          =    1241.7353 (a.u.)^3
     number of atoms/cell      =           10
     number of atomic types    =            3
     number of electrons       =        72.00
     number of Kohn-Sham states=           43
     kinetic-energy cutoff     =      30.0000  Ry
     charge density cutoff     =     240.0000  Ry
     scf convergence threshold =      1.0E-06
     mixing beta               =       0.7000
     number of iterations used =            8  plain     mixing
     Exchange-correlation=  SLA  PW   PBX  PBC
                           (   1   4   3   4   0   0   0)

     celldm(1)=  12.064648  celldm(2)=   0.000000  celldm(3)=   0.000000
     celldm(4)=   0.000000  celldm(5)=   0.000000  celldm(6)=   0.000000

     crystal axes: (cart. coord. in units of alat)
               a(1) = (   1.000000   0.000000   0.000000 )
               a(2) = (   0.500000   0.866025   0.000000 )
               a(3) = (   0.500000   0.288675   0.816497 )

     reciprocal axes: (cart. coord. in units 2 pi/alat)
               b(1) = (  1.000000 -0.577350 -0.408248 )
               b(2) = (  0.000000  1.154701 -0.408248 )
               b(3) = (  0.000000  0.000000  1.224745 )

     PseudoPot. # 1 for Rb read from file:
     /home/pragov/projects/rrg-bengioy-ad/pragov/crystal_structure_design/SSSP/Rb_ONCV_PBE-1.0.oncvpsp.upf
     MD5 check sum: 55a5172d6bfbce6759a58e35d43f6aa9
     Pseudo is Norm-conserving, Zval =  9.0
     Generated using ONCVPSP code by D. R. Hamann
     Using radial grid of 2308 points,  6 beta functions with:
                l(1) =   0
                l(2) =   0
                l(3) =   1
                l(4) =   1
                l(5) =   2
                l(6) =   2

     PseudoPot. # 2 for Al read from file:
     /home/pragov/projects/rrg-bengioy-ad/pragov/crystal_structure_design/SSSP/Al.pbe-n-kjpaw_psl.1.0.0.UPF
     MD5 check sum: cfc449ca30b5f3223ec38ddd88ac046d
     Pseudo is Projector augmented-wave + core cor, Zval =  3.0
     Generated using "atomic" code by A. Dal Corso  v.5.1
     Shape of augmentation charge: PSQ
     Using radial grid of 1135 points,  6 beta functions with:
                l(1) =   0
                l(2) =   0
                l(3) =   1
                l(4) =   1
                l(5) =   2
                l(6) =   2
     Q(r) pseudized with 0 coefficients

     PseudoPot. # 3 for F  read from file:
     /home/pragov/projects/rrg-bengioy-ad/pragov/crystal_structure_design/SSSP/f_pbe_v1.4.uspp.F.UPF
     MD5 check sum: 4c38b6a325caf53ec0e86aed9459de46
     Pseudo is Ultrasoft, Zval =  7.0
     Generated by new atomic code, or converted to UPF format
     Using radial grid of  799 points,  4 beta functions with:
                l(1) =   0
                l(2) =   0
                l(3) =   1
                l(4) =   1
     Q(r) pseudized with  8 coefficients,  rinner =    0.950   0.950   0.950

     atomic species   valence    mass     pseudopotential
        Rb             9.00    85.46780     Rb( 1.00)
        Al             3.00    26.98154     Al( 1.00)
        F              7.00    18.99840     F ( 1.00)

     12 Sym. Ops., with inversion, found

                                    s                        frac. trans.

      isym =  1     identity

 cryst.   s( 1) = (     1          0          0      )
                  (     0          1          0      )
                  (     0          0          1      )

 cart.    s( 1) = (  1.0000000  0.0000000  0.0000000 )
                  (  0.0000000  1.0000000 -0.0000000 )
                  (  0.0000000  0.0000000  1.0000000 )

      isym =  2     180 deg rotation - cart. axis [1,0,0]

[...]

      isym =  3     120 deg rotation - cryst. axis [0,0,1]

[...]

      isym =  6     180 deg rotation - cryst. axis [1,1,0]

[...]

      isym =  7     inversion

[...]

      isym =  8     inv. 180 deg rotation - cart. axis [1,0,0]

[...]

      isym =  9     inv. 120 deg rotation - cryst. axis [0,0,1]

 cryst.   s( 9) = (     1         -1          0      )
                  (     1          0          0      )
                  (     1          0         -1      )

 cart.    s( 9) = (  0.5000000  0.8660254 -0.0000000 )
                  ( -0.8660254  0.5000000 -0.0000000 )
                  (  0.0000000  0.0000000 -1.0000000 )

[...]

 cryst.   s(10) = (     0          1          0      )
                  (    -1          1          0      )
                  (     0          1         -1      )

 cart.    s(10) = (  0.5000000 -0.8660254  0.0000000 )
                  (  0.8660254  0.5000000 -0.0000000 )
                  (  0.0000000  0.0000000 -1.0000000 )

[...]

      isym = 12     inv. 180 deg rotation - cryst. axis [1,1,0]

 cryst.   s(12) = (     1         -1          0      )
                  (     0         -1          0      )
                  (     0         -1          1      )

 cart.    s(12) = (  0.5000000 -0.8660254  0.0000000 )
                  ( -0.8660254 -0.5000000  0.0000000 )
                  (  0.0000000  0.0000000  1.0000000 )

   Cartesian axes

     site n.     atom                  positions (alat units)
         1           Rb  tau(   1) = (   1.5000000   0.8660254   0.6123724  )
         2           Rb  tau(   2) = (   0.5000000   0.2886751   0.2041241  )
         3           Rb  tau(   3) = (   1.0000000   0.5773503   0.4082483  )
         4           Al  tau(   4) = (   0.0000000   0.0000000   0.0000000  )
         5           F   tau(   5) = (   1.0000000   0.2355150   0.1665343  )
         6           F   tau(   6) = (   0.7039620   0.4064327   0.6499623  )
         7           F   tau(   7) = (   1.0000000   0.9191855   0.6499623  )
         8           F   tau(   8) = (   0.7039620   0.7482679   0.1665343  )
         9           F   tau(   9) = (   1.2960380   0.4064327   0.6499623  )
        10           F   tau(  10) = (   1.2960380   0.7482679   0.1665343  )

   Crystallographic axes

     site n.     atom                  positions (cryst. coord.)
         1           Rb  tau(   1) = (  0.7500000  0.7500000  0.7500000  )
         2           Rb  tau(   2) = (  0.2500000  0.2500000  0.2500000  )
         3           Rb  tau(   3) = (  0.5000000  0.5000000  0.5000000  )
         4           Al  tau(   4) = (  0.0000000  0.0000000  0.0000000  )
         5           F   tau(   5) = (  0.7960380  0.2039620  0.2039620  )
         6           F   tau(   6) = (  0.2039620  0.2039620  0.7960380  )
         7           F   tau(   7) = (  0.2039620  0.7960380  0.7960380  )
         8           F   tau(   8) = (  0.2039620  0.7960380  0.2039620  )
         9           F   tau(   9) = (  0.7960380  0.2039620  0.7960380  )
        10           F   tau(  10) = (  0.7960380  0.7960380  0.2039620  )

     number of k points=     1  Methfessel-Paxton smearing, width (Ry)=  0.0010
                       cart. coord. in units 2pi/alat
        k(    1) = (   0.0000000   0.0000000   0.0000000), wk =   2.0000000

                       cryst. coord.
        k(    1) = (   0.0000000   0.0000000   0.0000000), wk =   2.0000000

     Initial potential from superposition of free atoms

     starting charge      71.9234, renormalised to      72.0000
     Starting wfcs are   43 randomized atomic wfcs
     Checking if some PAW data can be deallocated...

     Self-consistent Calculation

     iteration #  1     ecut=    30.00 Ry     beta= 0.70
     Davidson diagonalization with overlap

     ethr =  1.00E-02,  avg # of iterations =  9.0

     total energy              =    -478.62291687 Ry
     estimated scf accuracy    <       1.22442973 Ry

[...]

     total energy              =    -479.13906730 Ry
     estimated scf accuracy    <       0.00000110 Ry

     iteration #  8     ecut=    30.00 Ry     beta= 0.70
     Davidson diagonalization with overlap

     ethr =  1.53E-09,  avg # of iterations =  2.0

     End of self-consistent calculation

          k = 0.0000 0.0000 0.0000 (  1740 PWs)   bands (ev):

   -21.9466 -21.9149 -21.1986 -18.4633 -17.9332 -17.9331 -17.9331 -17.6868
   -17.6867  -6.1312  -6.1312  -6.1312  -6.0618  -6.0618  -6.0618  -5.3699
    -5.3699  -5.3699  -2.1317  -0.4369  -0.4368  -0.4368   0.0717   0.0717
     0.0717   0.4087   0.4088   1.1525   1.1526   1.1526   1.2752   1.2752
     1.2752   1.7635   1.7635   1.7635   7.6587  10.2044  10.2045  11.1427
    11.1427  11.1428  11.2304

     occupation numbers
     1.0000   1.0000   1.0000   1.0000   1.0000   1.0000   1.0000   1.0000
     1.0000   1.0000   1.0000   1.0000   1.0000   1.0000   1.0000   1.0000
     1.0000   1.0000   1.0000   1.0000   1.0000   1.0000   1.0000   1.0000
     1.0000   1.0000   1.0000   1.0000   1.0000   1.0000   1.0000   1.0000
     1.0000   1.0000   1.0000   1.0000  -0.0000  -0.0000  -0.0000  -0.0000
    -0.0000  -0.0000  -0.0000

     the Fermi energy is     3.0042 ev

!    total energy              =    -479.13906748 Ry
     estimated scf accuracy    <       0.00000002 Ry
     smearing contrib. (-TS)   =       0.00000000 Ry
     internal energy E=F+TS    =    -479.13906748 Ry

     The total energy is F=E-TS. E is the sum of the following terms:
     one-electron contribution =    -214.45581629 Ry
     hartree contribution      =     144.18271719 Ry
     xc contribution           =     -82.02573729 Ry
     ewald contribution        =    -292.19826672 Ry
     one-center paw contrib.   =     -34.64196437 Ry
      -> PAW hartree energy AE =       2.17471391 Ry
      -> PAW hartree energy PS =      -2.17196756 Ry
      -> PAW xc energy AE      =     -36.89148709 Ry
      -> PAW xc energy PS      =       2.24677636 Ry
      -> total E_H with PAW    =     144.18546354 Ry
      -> total E_XC with PAW   =    -116.67044801 Ry

     convergence has been achieved in   8 iterations

     Forces acting on atoms (cartesian axes, Ry/au):

     atom    1 type  1   force =     0.00000000    0.00000000   -0.00000388
     atom    2 type  1   force =     0.00000000    0.00000000    0.00000388
     atom    3 type  1   force =    -0.00000000   -0.00000000    0.00000000
     atom    4 type  2   force =     0.00000000    0.00000000    0.00000000
     atom    5 type  3   force =     0.00000000   -0.00287176   -0.00203146
     atom    6 type  3   force =    -0.00248702   -0.00143588    0.00203146
     atom    7 type  3   force =     0.00000000    0.00287176    0.00203146
     atom    8 type  3   force =    -0.00248702    0.00143588   -0.00203146
     atom    9 type  3   force =     0.00248702   -0.00143588    0.00203146
     atom   10 type  3   force =     0.00248702    0.00143588   -0.00203146
     The non-local contrib.  to forces
     atom    1 type  1   force =     0.00000000    0.00000000    0.00000061
     atom    2 type  1   force =     0.00000000    0.00000000   -0.00000061
     atom    3 type  1   force =     0.00000000    0.00000000   -0.00000000
     atom    4 type  2   force =     0.00000000    0.00000000   -0.00000000
     atom    5 type  3   force =     0.00000000   -0.58790712   -0.41571379
     atom    6 type  3   force =    -0.50914250   -0.29395356    0.41571379
     atom    7 type  3   force =     0.00000000    0.58790712    0.41571379
     atom    8 type  3   force =    -0.50914250    0.29395356   -0.41571379
     atom    9 type  3   force =     0.50914250   -0.29395356    0.41571379
     atom   10 type  3   force =     0.50914250    0.29395356   -0.41571379
     The ionic contribution  to forces
     atom    1 type  1   force =    -0.00000000    0.00000000    0.00000000
     atom    2 type  1   force =    -0.00000000    0.00000000    0.00000000
     atom    3 type  1   force =    -0.00000000   -0.00000000   -0.00000000
     atom    4 type  2   force =     0.00000000   -0.00000000    0.00000000
     atom    5 type  3   force =     0.00000000    4.78648135    3.38455342
     atom    6 type  3   force =     4.14521444    2.39324068   -3.38455342
     atom    7 type  3   force =     0.00000000   -4.78648135   -3.38455342
     atom    8 type  3   force =     4.14521444   -2.39324068    3.38455342
     atom    9 type  3   force =    -4.14521444    2.39324068   -3.38455342
     atom   10 type  3   force =    -4.14521444   -2.39324068    3.38455342
     The local contribution  to forces
     atom    1 type  1   force =    -0.00000089    0.00000783    0.00000166
     atom    2 type  1   force =     0.00000043   -0.00000196   -0.00000041
     atom    3 type  1   force =    -0.00000651   -0.00002458    0.00000216
     atom    4 type  2   force =     0.00000114    0.00000219    0.00000166
     atom    5 type  3   force =     0.00000621   -4.20156226   -2.97094584
     atom    6 type  3   force =    -3.63864721   -2.10077832    2.97095167
     atom    7 type  3   force =    -0.00000442    4.20155181    2.97094897
     atom    8 type  3   force =    -3.63866362    2.10078681   -2.97094898
     atom    9 type  3   force =     3.63864646   -2.10077943    2.97094679
     atom   10 type  3   force =     3.63866039    2.10077815   -2.97095409
     The core correction contribution to forces
     atom    1 type  1   force =     0.00000000    0.00000000    0.00000000
     atom    2 type  1   force =     0.00000000    0.00000000    0.00000000
     atom    3 type  1   force =     0.00000000    0.00000000    0.00000000
     atom    4 type  2   force =    -0.00000015   -0.00000085    0.00000051
     atom    5 type  3   force =     0.00000000    0.00000000    0.00000000
     atom    6 type  3   force =     0.00000000    0.00000000    0.00000000
     atom    7 type  3   force =     0.00000000    0.00000000    0.00000000
     atom    8 type  3   force =     0.00000000    0.00000000    0.00000000
     atom    9 type  3   force =     0.00000000    0.00000000    0.00000000
     atom   10 type  3   force =     0.00000000    0.00000000    0.00000000
     The Hubbard contrib.    to forces
     atom    1 type  1   force =     0.00000000    0.00000000    0.00000000
     atom    2 type  1   force =     0.00000000    0.00000000    0.00000000
     atom    3 type  1   force =     0.00000000    0.00000000    0.00000000
     atom    4 type  2   force =     0.00000000    0.00000000    0.00000000
     atom    5 type  3   force =     0.00000000    0.00000000    0.00000000
     atom    6 type  3   force =     0.00000000    0.00000000    0.00000000
     atom    7 type  3   force =     0.00000000    0.00000000    0.00000000
     atom    8 type  3   force =     0.00000000    0.00000000    0.00000000
     atom    9 type  3   force =     0.00000000    0.00000000    0.00000000
     atom   10 type  3   force =     0.00000000    0.00000000    0.00000000
     The SCF correction term to forces
     atom    1 type  1   force =    -0.00000818   -0.00001513   -0.00000462
     atom    2 type  1   force =     0.00000806   -0.00000202    0.00000643
     atom    3 type  1   force =     0.00000784    0.00001821   -0.00001386
     atom    4 type  2   force =    -0.00000274   -0.00000706    0.00000135
     atom    5 type  3   force =    -0.00001275    0.00011929    0.00007175
     atom    6 type  3   force =     0.00007396    0.00004993   -0.00007580
     atom    7 type  3   force =     0.00001085   -0.00010030   -0.00007831
     atom    8 type  3   force =     0.00010883   -0.00007081    0.00007421
     atom    9 type  3   force =    -0.00008576    0.00006160   -0.00007654
     atom   10 type  3   force =    -0.00011066   -0.00005791    0.00009319

     Total force =     0.008616     Total SCF correction =     0.000338

     Computing stress (Cartesian axis) and pressure

          total   stress  (Ry/bohr**3)                   (kbar)     P=      -48.93
  -0.00033260  -0.00000000  -0.00000000          -48.93       -0.00       -0.00
  -0.00000000  -0.00033260   0.00000000           -0.00      -48.93        0.00
  -0.00000000   0.00000000  -0.00033259           -0.00        0.00      -48.93

     kinetic stress (kbar)  12069.04     -0.00     -0.00
                               -0.00  12069.04     -0.00
                               -0.00     -0.00  12069.04

     local   stress (kbar)  -3874.73     -0.00      0.00
                               -0.00  -3874.73     -0.00
                                0.00     -0.00  -3874.73

     nonloc. stress (kbar)    646.44     -0.00     -0.00
                               -0.00    646.44     -0.00
                               -0.00     -0.00    646.44

     hartree stress (kbar)   5693.65      0.00     -0.00
                                0.00   5693.65      0.00
                               -0.00      0.00   5693.65

     exc-cor stress (kbar)  -2929.37     -0.00      0.00
                               -0.00  -2929.37     -0.00
                                0.00     -0.00  -2929.37

     corecor stress (kbar)   -115.30      0.00     -0.00
                                0.00   -115.30      0.00
                               -0.00      0.00   -115.30

     ewald   stress (kbar) -11538.65     -0.00      0.00
                               -0.00 -11538.65      0.00
                                0.00      0.00 -11538.65

     hubbard stress (kbar)      0.00      0.00      0.00
                                0.00      0.00      0.00
                                0.00      0.00      0.00

     DFT-D   stress (kbar)      0.00      0.00      0.00
                                0.00      0.00      0.00
                                0.00      0.00      0.00

     XDM     stress (kbar)      0.00      0.00      0.00
                                0.00      0.00      0.00
                                0.00      0.00      0.00

     dft-nl  stress (kbar)      0.00      0.00      0.00
                                0.00      0.00      0.00
                                0.00      0.00      0.00

     TS-vdW  stress (kbar)      0.00      0.00      0.00
                                0.00      0.00      0.00
                                0.00      0.00      0.00

[...]

                                0.00      0.00      0.00

     Writing all to output data dir new_calculations/myprefix.save/

     General routines

     Parallel routines

     PAW routines

   This run was terminated on:  12:22:35  20May2023

   JOB DONE.