     Program PWSCF v.7.0 starts on 21May2023 at  7:58:11

     Reading input from espresso_15565.pwi
Warning: card &CELL ignored
Warning: card / ignored

     Current dimensions of program PWSCF are:
     Max number of different atomic species (ntypx) = 10
     Max number of k-points (npk) =  40000
     Max angular momentum in pseudopotentials (lmaxx) =  4
     file O.pbe-n-kjpaw_psl.0.1.UPF: wavefunction(s)  2P renormalized

     gamma-point specific algorithms are used
     Message from routine setup:
     using ibrav=0 with symmetry is DISCOURAGED, use correct ibrav instead

     Subspace diagonalization in iterative solution of the eigenvalue problem:
     a serial algorithm will be used

     Using Slab Decomposition

     bravais-lattice index     =            0
     lattice parameter (alat)  =      10.3258  a.u.
     unit-cell volume          =    1257.1416 (a.u.)^3
     number of atoms/cell      =           18
     number of atomic types    =            3
     number of electrons       =       164.00
     number of Kohn-Sham states=           98
     kinetic-energy cutoff     =      30.0000  Ry
     charge density cutoff     =     240.0000  Ry
     scf convergence threshold =      1.0E-06
     mixing beta               =       0.7000
     number of iterations used =            8  plain     mixing
     Exchange-correlation=  SLA  PW   PBX  PBC
                           (   1   4   3   4   0   0   0)

     celldm(1)=  10.325826  celldm(2)=   0.000000  celldm(3)=   0.000000
     celldm(4)=   0.000000  celldm(5)=   0.000000  celldm(6)=   0.000000

     crystal axes: (cart. coord. in units of alat)
               a(1) = (   1.000000   0.000000   0.000000 )
               a(2) = (   0.331069   0.943607   0.000000 )
               a(3) = (   0.417326   0.295846   1.210093 )

     reciprocal axes: (cart. coord. in units 2 pi/alat)
               b(1) = (  1.000000 -0.350855 -0.259093 )
               b(2) = (  0.000000  1.059764 -0.259093 )
               b(3) = (  0.000000  0.000000  0.826383 )

     PseudoPot. # 1 for Mn read from file:
     /home/pragov/projects/rrg-bengioy-ad/pragov/crystal_structure_design/SSSP/mn_pbe_v1.5.uspp.F.UPF
     MD5 check sum: 82ef2b46521d7a7d9e736dc3972e4928
     Pseudo is Ultrasoft + core correction, Zval = 15.0
     Generated by new atomic code, or converted to UPF format
     Using radial grid of  859 points,  6 beta functions with:
                l(1) =   0
                l(2) =   0
                l(3) =   1
                l(4) =   1
                l(5) =   2
                l(6) =   2
     Q(r) pseudized with  8 coefficients,  rinner =    0.950   0.950   0.950
                                                       0.950   0.950

     PseudoPot. # 2 for O  read from file:
     /home/pragov/projects/rrg-bengioy-ad/pragov/crystal_structure_design/SSSP/O.pbe-n-kjpaw_psl.0.1.UPF
     MD5 check sum: 0234752ac141de4415c5fc33072bef88
     Pseudo is Projector augmented-wave + core cor, Zval =  6.0
     Generated using "atomic" code by A. Dal Corso  v.5.0.99 svn rev. 10869
     Shape of augmentation charge: BESSEL
     Using radial grid of 1095 points,  4 beta functions with:
                l(1) =   0
                l(2) =   0
                l(3) =   1
                l(4) =   1
     Q(r) pseudized with 0 coefficients

     PseudoPot. # 3 for F  read from file:
     /home/pragov/projects/rrg-bengioy-ad/pragov/crystal_structure_design/SSSP/f_pbe_v1.4.uspp.F.UPF
     MD5 check sum: 4c38b6a325caf53ec0e86aed9459de46
     Pseudo is Ultrasoft, Zval =  7.0
     Generated by new atomic code, or converted to UPF format
     Using radial grid of  799 points,  4 beta functions with:
                l(1) =   0
                l(2) =   0
                l(3) =   1
                l(4) =   1
     Q(r) pseudized with  8 coefficients,  rinner =    0.950   0.950   0.950

     atomic species   valence    mass     pseudopotential
        Mn            15.00    54.93804     Mn( 1.00)
        O              6.00    15.99900     O ( 1.00)
        F              7.00    18.99840     F ( 1.00)

      2 Sym. Ops., with inversion, found

                                    s                        frac. trans.

      isym =  1     identity

 cryst.   s( 1) = (     1          0          0      )
                  (     0          1          0      )
                  (     0          0          1      )

 cart.    s( 1) = (  1.0000000  0.0000000  0.0000000 )
                  (  0.0000000  1.0000000 -0.0000000 )
                  (  0.0000000  0.0000000  1.0000000 )

      isym =  2     inversion

 cryst.   s( 2) = (    -1          0          0      )
                  (     0         -1          0      )
                  (     0          0         -1      )

 cart.    s( 2) = ( -1.0000000 -0.0000000 -0.0000000 )
                  (  0.0000000 -1.0000000  0.0000000 )
                  (  0.0000000  0.0000000 -1.0000000 )

   Cartesian axes

     site n.     atom                  positions (alat units)
         1           Mn  tau(   1) = (   0.6655345   0.4718033   0.0000000  )
         2           Mn  tau(   2) = (   0.5780003   0.4097495   1.0215533  )
         3           Mn  tau(   3) = (   0.8741975   0.6197264   0.6050465  )
         4           Mn  tau(   4) = (   0.3433270   0.2433876   0.3883322  )
         5           Mn  tau(   5) = (   1.4050681   0.9960653   0.8217609  )
         6           Mn  tau(   6) = (   1.1703948   0.8297033   0.1885398  )
         7           O   tau(   7) = (   1.1046207   1.0578670   1.0032446  )
         8           O   tau(   8) = (   1.0793219   0.3303742   0.6050465  )
         9           O   tau(   9) = (   0.8605121   0.6100247   0.9656712  )
        10           O   tau(  10) = (   0.1347958   0.0955580   0.1566804  )
        11           O   tau(  11) = (   1.6135992   1.1438949   1.0534126  )
        12           O   tau(  12) = (   0.8878830   0.6294281   0.2444219  )
        13           O   tau(  13) = (   0.6690732   0.9090786   0.6050465  )
        14           O   tau(  14) = (   1.3639158   0.6921005   1.0032446  )
        15           O   tau(  15) = (   0.6437743   0.1815858   0.2068485  )
        16           O   tau(  16) = (   0.3844792   0.5473523   0.2068485  )
        17           F   tau(  17) = (   1.1850704   0.8401069   0.5598399  )
        18           F   tau(  18) = (   0.5633247   0.3993459   0.6502532  )

   Crystallographic axes

     site n.     atom                  positions (cryst. coord.)
         1           Mn  tau(   1) = (  0.5000000  0.5000000  0.0000000  )
         2           Mn  tau(   2) = (  0.1695600  0.1695600  0.8441940  )
         3           Mn  tau(   3) = (  0.5000000  0.5000000  0.5000000  )
         4           Mn  tau(   4) = (  0.1573190  0.1573190  0.3209110  )
         5           Mn  tau(   5) = (  0.8426810  0.8426810  0.6790890  )
         6           Mn  tau(   6) = (  0.8304400  0.8304400  0.1558060  )
         7           O   tau(   7) = (  0.4735290  0.8611550  0.8290640  )
         8           O   tau(   8) = (  0.8066450  0.1933550  0.5000000  )
         9           O   tau(   9) = (  0.3962830  0.3962830  0.7980140  )
        10           O   tau(  10) = (  0.0606740  0.0606740  0.1294780  )
        11           O   tau(  11) = (  0.9393260  0.9393260  0.8705220  )
        12           O   tau(  12) = (  0.6037170  0.6037170  0.2019860  )
        13           O   tau(  13) = (  0.1933550  0.8066450  0.5000000  )
        14           O   tau(  14) = (  0.8611550  0.4735290  0.8290640  )
        15           O   tau(  15) = (  0.5264710  0.1388450  0.1709360  )
        16           O   tau(  16) = (  0.1388450  0.5264710  0.1709360  )
        17           F   tau(  17) = (  0.7452640  0.7452640  0.4626420  )
        18           F   tau(  18) = (  0.2547360  0.2547360  0.5373580  )

     number of k points=     1  Methfessel-Paxton smearing, width (Ry)=  0.0010
                       cart. coord. in units 2pi/alat
        k(    1) = (   0.0000000   0.0000000   0.0000000), wk =   2.0000000

                       cryst. coord.
        k(    1) = (   0.0000000   0.0000000   0.0000000), wk =   2.0000000

     Check: negative core charge=   -0.000033

     Initial potential from superposition of free atoms

     starting charge     160.9995, renormalised to     164.0000
     Starting wfcs are  126 randomized atomic wfcs
     Checking if some PAW data can be deallocated...

     Self-consistent Calculation

     iteration #  1     ecut=    30.00 Ry     beta= 0.70
     Davidson diagonalization with overlap

     ethr =  1.00E-02,  avg # of iterations =  2.0

     total energy              =   -1770.64345105 Ry
     estimated scf accuracy    <      14.34666235 Ry

[...]

     total energy              =   -1780.32481976 Ry
     estimated scf accuracy    <       0.00000144 Ry

     iteration # 74     ecut=    30.00 Ry     beta= 0.70
     Davidson diagonalization with overlap

     ethr =  8.81E-10,  avg # of iterations =  1.0

     End of self-consistent calculation

          k = 0.0000 0.0000 0.0000 (  1740 PWs)   bands (ev):

   -70.8249 -70.8218 -70.7137 -70.7110 -70.6078 -70.6046 -39.7633 -39.7625
   -39.6915 -39.6844 -39.6706 -39.6580 -39.5669 -39.5442 -39.3079 -39.3040
   -39.3038 -39.2488 -39.2235 -39.2070 -39.2056 -39.1972 -39.0652 -39.0393
   -14.8110 -14.6782 -10.2286  -9.3928  -9.3926  -9.2151  -9.0620  -8.8499
    -8.7424  -8.7412  -8.6604  -8.6156   1.7086   2.2855   2.6011   2.6345
     2.7076   2.8949   3.0459   3.1908   3.4623   3.4640   3.5714   3.7605
     4.0752   4.2513   4.2814   4.4126   4.4836   4.5167   4.7405   4.8502
     5.0665   5.2735   5.6452   5.6540   5.8870   5.9563   6.1473   6.1913
     6.3492   6.5378   6.6204   6.9647   7.0526   7.1560   7.6249   7.8982
     8.4433   8.4545   8.5722   8.6705   8.7650   8.8009   8.8110   9.1004
     9.1687   9.1756   9.1761   9.2960   9.2978   9.3173   9.4164   9.7262
     9.8302   9.9164  10.3012  10.3284  10.3558  11.0461  11.4695  11.6515
    11.7072  11.7503

     occupation numbers
     1.0000   1.0000   1.0000   1.0000   1.0000   1.0000   1.0000   1.0000
     1.0000   1.0000   1.0000   1.0000   1.0000   1.0000   1.0000   1.0000
     1.0000   1.0000   1.0000   1.0000   1.0000   1.0000   1.0000   1.0000
     1.0000   1.0000   1.0000   1.0000   1.0000   1.0000   1.0000   1.0000
     1.0000   1.0000   1.0000   1.0000   1.0000   1.0000   1.0000   1.0000
     1.0000   1.0000   1.0000   1.0000   1.0000   1.0000   1.0000   1.0000
     1.0000   1.0000   1.0000   1.0000   1.0000   1.0000   1.0000   1.0000
     1.0000   1.0000   1.0000   1.0000   1.0000   1.0000   1.0000   1.0000
     1.0000   1.0000   1.0000   1.0000   1.0000   1.0000   1.0000   1.0000
     1.0000   1.0000   1.0000   1.0000   1.0000   1.0000   1.0000   1.0000
     0.9102   0.5626   0.5272  -0.0000  -0.0000  -0.0000  -0.0000  -0.0000
    -0.0000  -0.0000  -0.0000  -0.0000  -0.0000  -0.0000  -0.0000  -0.0000
    -0.0000  -0.0000

     the Fermi energy is     9.1766 ev

!    total energy              =   -1780.32481908 Ry
     estimated scf accuracy    <       0.00000083 Ry
     smearing contrib. (-TS)   =      -0.00062537 Ry
     internal energy E=F+TS    =   -1780.32419371 Ry

     The total energy is F=E-TS. E is the sum of the following terms:
     one-electron contribution =    -865.85985021 Ry
     hartree contribution      =     510.33935237 Ry
     xc contribution           =    -250.05807039 Ry
     ewald contribution        =   -1079.48945504 Ry
     one-center paw contrib.   =     -95.25617043 Ry
      -> PAW hartree energy AE =     287.35657853 Ry
      -> PAW hartree energy PS =    -286.34808799 Ry
      -> PAW xc energy AE      =    -170.31637645 Ry
      -> PAW xc energy PS      =      74.05171548 Ry
      -> total E_H with PAW    =     511.34784291 Ry
      -> total E_XC with PAW   =    -346.32273136 Ry

     convergence has been achieved in  74 iterations

     Forces acting on atoms (cartesian axes, Ry/au):

     atom    1 type  1   force =     0.00000000    0.00000000    0.00000000
     atom    2 type  1   force =    -0.02348480   -0.01664874    0.04746240
     atom    3 type  1   force =     0.00000000    0.00000000    0.00000000
     atom    4 type  1   force =    -0.00515583   -0.00365530   -0.03087888
     atom    5 type  1   force =     0.00515583    0.00365530    0.03087888
     atom    6 type  1   force =     0.02348480    0.01664874   -0.04746240
     atom    7 type  2   force =     0.00751908    0.02739962    0.00442818
     atom    8 type  2   force =    -0.02681017    0.03781877    0.00000010
     atom    9 type  2   force =    -0.00373529   -0.00264799   -0.01244598
     atom   10 type  2   force =     0.03697323    0.02621068   -0.01869055
     atom   11 type  2   force =    -0.03697323   -0.02621068    0.01869055
     atom   12 type  2   force =     0.00373529    0.00264799    0.01244598
     atom   13 type  2   force =     0.02681017   -0.03781877   -0.00000010
     atom   14 type  2   force =     0.02834369   -0.00197613    0.00442805
     atom   15 type  2   force =    -0.00751908   -0.02739962   -0.00442818
     atom   16 type  2   force =    -0.02834369    0.00197613   -0.00442805
     atom   17 type  3   force =    -0.03875668   -0.02747485    0.00402490
     atom   18 type  3   force =     0.03875668    0.02747485   -0.00402490
     The non-local contrib.  to forces
     atom    1 type  1   force =     0.00000000    0.00000000    0.00000000
     atom    2 type  1   force =     0.06925415    0.04909472    0.04138433
     atom    3 type  1   force =     0.00000000    0.00000000    0.00000000
     atom    4 type  1   force =    -0.03225628   -0.02286698   -0.06131939
     atom    5 type  1   force =     0.03225628    0.02286698    0.06131939
     atom    6 type  1   force =    -0.06925415   -0.04909472   -0.04138433
     atom    7 type  2   force =     0.07642465    0.02931613    0.06568507
     atom    8 type  2   force =     0.03313141   -0.04673603    0.00000019
     atom    9 type  2   force =    -0.08695043   -0.06163987   -0.15034799
     atom   10 type  2   force =     0.22553088    0.15988082   -0.21626243
     atom   11 type  2   force =    -0.22553088   -0.15988082    0.21626243
     atom   12 type  2   force =     0.08695043    0.06163987    0.15034799
     atom   13 type  2   force =    -0.03313141    0.04673603   -0.00000019
     atom   14 type  2   force =     0.05296458    0.06240916    0.06568505
     atom   15 type  2   force =    -0.07642465   -0.02931613   -0.06568507
     atom   16 type  2   force =    -0.05296458   -0.06240916   -0.06568505
     atom   17 type  3   force =    -0.11397849   -0.08080030   -0.20143562
     atom   18 type  3   force =     0.11397849    0.08080030    0.20143562
     The ionic contribution  to forces
     atom    1 type  1   force =    -0.00000000    0.00000000    0.00000000
     atom    2 type  1   force =     0.74850310    0.53062050   -0.80996703
     atom    3 type  1   force =    -0.00000000    0.00000000    0.00000000
     atom    4 type  1   force =     0.55978459    0.39683627   -0.67637018
     atom    5 type  1   force =    -0.55978459   -0.39683627    0.67637018
     atom    6 type  1   force =    -0.74850310   -0.53062050    0.80996703
     atom    7 type  2   force =    -2.00549299    1.20496530   -0.91631010
     atom    8 type  2   force =    -1.98794417    2.80423083   -0.00000000
     atom    9 type  2   force =     2.61204737    1.85170360    1.35897224
     atom   10 type  2   force =     0.52011091    0.36871125    2.47734685
     atom   11 type  2   force =    -0.52011091   -0.36871125   -2.47734685
     atom   12 type  2   force =    -2.61204737   -1.85170360   -1.35897224
     atom   13 type  2   force =     1.98794417   -2.80423083   -0.00000000
     atom   14 type  2   force =     0.47305682   -2.29132293   -0.91631010
     atom   15 type  2   force =     2.00549299   -1.20496530    0.91631010
     atom   16 type  2   force =    -0.47305682    2.29132293    0.91631010
     atom   17 type  3   force =     1.08606021    0.76991774    2.27379865
     atom   18 type  3   force =    -1.08606021   -0.76991774   -2.27379865
     The local contribution  to forces
     atom    1 type  1   force =     0.00018248    0.00012718    0.00006638
     atom    2 type  1   force =    -0.83534443   -0.59218011    0.82345155
     atom    3 type  1   force =     0.00009861    0.00006696   -0.00032436
     atom    4 type  1   force =    -0.53828253   -0.38159095    0.70061869
     atom    5 type  1   force =     0.53802801    0.38141312   -0.70069656
     atom    6 type  1   force =     0.83519922    0.59207958   -0.82311056
     atom    7 type  2   force =     1.93772650   -1.20668814    0.85534846
     atom    8 type  2   force =     1.92831353   -2.72036634    0.00002383
     atom    9 type  2   force =    -2.52891215   -1.79276874   -1.22266916
     atom   10 type  2   force =    -0.70580772   -0.50035271   -2.28112085
     atom   11 type  2   force =     0.70528874    0.49998554    2.28165586
     atom   12 type  2   force =     2.52938038    1.79309976    1.22264000
     atom   13 type  2   force =    -1.92855158    2.72019822    0.00002406
     atom   14 type  2   force =    -0.49711790    2.22794767    0.85534869
     atom   15 type  2   force =    -1.93724699    1.20621265   -0.85543944
     atom   16 type  2   force =     0.49682733   -2.22733887   -0.85543910
     atom   17 type  3   force =    -1.01043330   -0.71630552   -2.06807406
     atom   18 type  3   force =     1.01051174    0.71636114    2.06762997
     The core correction contribution to forces
     atom    1 type  1   force =    -0.00000105   -0.00000075    0.00000132
     atom    2 type  1   force =    -0.00599672   -0.00425112   -0.00742331
     atom    3 type  1   force =    -0.00000490   -0.00000349    0.00000176
     atom    4 type  1   force =     0.00536628    0.00380422    0.00663593
     atom    5 type  1   force =    -0.00536693   -0.00380467   -0.00664045
     atom    6 type  1   force =     0.00600005    0.00425349    0.00742114
     atom    7 type  2   force =    -0.00052356   -0.00063233   -0.00068165
     atom    8 type  2   force =    -0.00007389    0.00010391   -0.00000021
     atom    9 type  2   force =     0.00049525    0.00035108    0.00157974
     atom   10 type  2   force =    -0.00274793   -0.00194803    0.00224446
     atom   11 type  2   force =     0.00274903    0.00194881   -0.00224397
     atom   12 type  2   force =    -0.00049524   -0.00035108   -0.00157987
     atom   13 type  2   force =     0.00007358   -0.00010413   -0.00000021
     atom   14 type  2   force =    -0.00077001   -0.00028469   -0.00068165
     atom   15 type  2   force =     0.00052330    0.00063230    0.00068096
     atom   16 type  2   force =     0.00076989    0.00028446    0.00068096
     atom   17 type  3   force =     0.00000000    0.00000000    0.00000000
     atom   18 type  3   force =     0.00000000    0.00000000    0.00000000
     The Hubbard contrib.    to forces
     atom    1 type  1   force =     0.00000000    0.00000000    0.00000000
     atom    2 type  1   force =     0.00000000    0.00000000    0.00000000
     atom    3 type  1   force =     0.00000000    0.00000000    0.00000000
     atom    4 type  1   force =     0.00000000    0.00000000    0.00000000
     atom    5 type  1   force =     0.00000000    0.00000000    0.00000000
     atom    6 type  1   force =     0.00000000    0.00000000    0.00000000
     atom    7 type  2   force =     0.00000000    0.00000000    0.00000000
     atom    8 type  2   force =     0.00000000    0.00000000    0.00000000
     atom    9 type  2   force =     0.00000000    0.00000000    0.00000000
     atom   10 type  2   force =     0.00000000    0.00000000    0.00000000
     atom   11 type  2   force =     0.00000000    0.00000000    0.00000000
     atom   12 type  2   force =     0.00000000    0.00000000    0.00000000
     atom   13 type  2   force =     0.00000000    0.00000000    0.00000000
     atom   14 type  2   force =     0.00000000    0.00000000    0.00000000
     atom   15 type  2   force =     0.00000000    0.00000000    0.00000000
     atom   16 type  2   force =     0.00000000    0.00000000    0.00000000
     atom   17 type  3   force =     0.00000000    0.00000000    0.00000000
     atom   18 type  3   force =     0.00000000    0.00000000    0.00000000
     The SCF correction term to forces
     atom    1 type  1   force =    -0.00020158   -0.00014055   -0.00003664
     atom    2 type  1   force =     0.00012583    0.00008611    0.00001144
     atom    3 type  1   force =    -0.00016777   -0.00011591    0.00032055
     atom    4 type  1   force =     0.00023360    0.00016317   -0.00047753
     atom    5 type  1   force =     0.00002455    0.00001716    0.00049271
     atom    6 type  1   force =     0.00006950    0.00004972   -0.00036109
     atom    7 type  2   force =    -0.00061862    0.00043066    0.00036477
     atom    8 type  2   force =    -0.00024770    0.00057885   -0.00003806
     atom    9 type  2   force =    -0.00040798   -0.00028886    0.00003384
     atom   10 type  2   force =    -0.00008866   -0.00006359   -0.00088336
     atom   11 type  2   force =     0.00065503    0.00046408    0.00037830
     atom   12 type  2   force =    -0.00004558   -0.00003176    0.00002476
     atom   13 type  2   force =     0.00046477   -0.00042562   -0.00003811
     atom   14 type  2   force =     0.00020161   -0.00072566    0.00036442
     atom   15 type  2   force =     0.00013316    0.00002884   -0.00031636
     atom   16 type  2   force =     0.00007190    0.00011646   -0.00031660
     atom   17 type  3   force =    -0.00040967   -0.00028998   -0.00026518
     atom   18 type  3   force =     0.00032208    0.00022793    0.00070704

     Total force =     0.159562     Total SCF correction =     0.002483

     Computing stress (Cartesian axis) and pressure

          total   stress  (Ry/bohr**3)                   (kbar)     P=     -739.52
  -0.00486148  -0.00004831   0.00027241         -715.15       -7.11       40.07
  -0.00004831  -0.00482758   0.00019311           -7.11     -710.16       28.41
   0.00027241   0.00019311  -0.00539244           40.07       28.41     -793.26

     kinetic stress (kbar)  35805.22   -107.45     -3.78
                             -107.45  35880.62     -2.68
                               -3.78     -2.68  35415.05

     local   stress (kbar) -17473.30  -5887.25  13508.78
                            -5887.25 -13342.16   9576.50
                            13508.78   9576.50 -25329.90

     nonloc. stress (kbar)  13659.52     52.06   -117.08
                               52.06  13622.98    -83.00
                             -117.08    -83.00  13496.36

     hartree stress (kbar)  19402.38   2393.67  -5339.53
                             2393.67  17722.71  -3785.24
                            -5339.53  -3785.24  22592.53

     exc-cor stress (kbar)  -6103.09     -0.38     -9.62
                               -0.38  -6102.82     -6.82
                               -9.62     -6.82  -6099.63

     corecor stress (kbar)  -3017.93     -1.83      3.35
                               -1.83  -3016.64      2.37
                                3.35      2.37  -3013.45

     ewald   stress (kbar) -42987.95   3544.07  -8002.06
                             3544.07 -45474.85  -5672.73
                            -8002.06  -5672.73 -37854.22

     hubbard stress (kbar)      0.00      0.00      0.00
                                0.00      0.00      0.00
                                0.00      0.00      0.00

     DFT-D   stress (kbar)      0.00      0.00      0.00
                                0.00      0.00      0.00
                                0.00      0.00      0.00

     XDM     stress (kbar)      0.00      0.00      0.00
                                0.00      0.00      0.00
                                0.00      0.00      0.00

     dft-nl  stress (kbar)      0.00      0.00      0.00
                                0.00      0.00      0.00
                                0.00      0.00      0.00

     TS-vdW  stress (kbar)      0.00      0.00      0.00
                                0.00      0.00      0.00
                                0.00      0.00      0.00

[...]

                                0.00      0.00      0.00

     Writing all to output data dir new_calculations/myprefix.save/

     General routines

     Parallel routines

     PAW routines

   This run was terminated on:   8: 2:51  21May2023

   JOB DONE.