     Program PWSCF v.7.0 starts on 20May2023 at 14:26:37

     Reading input from espresso_19339.pwi
Warning: card &CELL ignored
Warning: card / ignored

     Current dimensions of program PWSCF are:
     Max number of different atomic species (ntypx) = 10
     Max number of k-points (npk) =  40000
     Max angular momentum in pseudopotentials (lmaxx) =  4

     gamma-point specific algorithms are used
     Message from routine setup:
     using ibrav=0 with symmetry is DISCOURAGED, use correct ibrav instead

     Subspace diagonalization in iterative solution of the eigenvalue problem:
     a serial algorithm will be used

     Using Slab Decomposition

     bravais-lattice index     =            0
     lattice parameter (alat)  =       8.0625  a.u.
     unit-cell volume          =    1086.9570 (a.u.)^3
     number of atoms/cell      =            5
     number of atomic types    =            3
     number of electrons       =        41.00
     number of Kohn-Sham states=           25
     kinetic-energy cutoff     =      30.0000  Ry
     charge density cutoff     =     240.0000  Ry
     scf convergence threshold =      1.0E-06
     mixing beta               =       0.7000
     number of iterations used =            8  plain     mixing
     Exchange-correlation=  SLA  PW   PBX  PBC
                           (   1   4   3   4   0   0   0)

     celldm(1)=   8.062533  celldm(2)=   0.000000  celldm(3)=   0.000000
     celldm(4)=   0.000000  celldm(5)=   0.000000  celldm(6)=   0.000000

     crystal axes: (cart. coord. in units of alat)
               a(1) = (   1.000000   0.000000   0.000000 )
               a(2) = (  -0.500000   0.866025   0.000000 )
               a(3) = (   0.000000   0.000000   2.394789 )

     reciprocal axes: (cart. coord. in units 2 pi/alat)
               b(1) = (  1.000000  0.577350  0.000000 )
               b(2) = (  0.000000  1.154701  0.000000 )
               b(3) = (  0.000000  0.000000  0.417573 )

     PseudoPot. # 1 for La read from file:
     /home/pragov/projects/rrg-bengioy-ad/pragov/crystal_structure_design/SSSP/La.GGA-PBE-paw-v1.0.UPF
     MD5 check sum: 436541e95c1ad8901025bd0b0ed42ae2
     Pseudo is Projector augmented-wave + core cor, Zval = 11.0
     Generated using ATOMPAW code
     Shape of augmentation charge: BESSEL
     Using radial grid of 1101 points,  8 beta functions with:
                l(1) =   0
                l(2) =   0
                l(3) =   1
                l(4) =   1
                l(5) =   2
                l(6) =   2
                l(7) =   3
                l(8) =   3
     Q(r) pseudized with 0 coefficients

     PseudoPot. # 2 for P  read from file:
     /home/pragov/projects/rrg-bengioy-ad/pragov/crystal_structure_design/SSSP/P.pbe-n-rrkjus_psl.1.0.0.UPF
     MD5 check sum: 8b930f418f0a4573dca56cd030ffe088
     Pseudo is Ultrasoft + core correction, Zval =  5.0
     Generated using "atomic" code by A. Dal Corso  v.5.1
     Using radial grid of 1147 points,  6 beta functions with:
                l(1) =   0
                l(2) =   0
                l(3) =   1
                l(4) =   1
                l(5) =   2
                l(6) =   2
     Q(r) pseudized with 0 coefficients

     PseudoPot. # 3 for Br read from file:
     /home/pragov/projects/rrg-bengioy-ad/pragov/crystal_structure_design/SSSP/br_pbe_v1.4.uspp.F.UPF
     MD5 check sum: d3ffb7b29f6225aa16fe06858fb2a80b
     Pseudo is Ultrasoft + core correction, Zval =  7.0
     Generated by new atomic code, or converted to UPF format
     Using radial grid of  879 points,  6 beta functions with:
                l(1) =   0
                l(2) =   0
                l(3) =   1
                l(4) =   1
                l(5) =   2
                l(6) =   2
     Q(r) pseudized with  8 coefficients,  rinner =    1.100   1.100   1.100
                                                       1.100   1.100

     atomic species   valence    mass     pseudopotential
        La            11.00   138.90547     La( 1.00)
        P              5.00    30.97376     P ( 1.00)
        Br             7.00    79.90400     Br( 1.00)

     12 Sym. Ops., with inversion, found

                                    s                        frac. trans.

      isym =  1     identity

 cryst.   s( 1) = (     1          0          0      )
                  (     0          1          0      )
                  (     0          0          1      )

 cart.    s( 1) = (  1.0000000  0.0000000  0.0000000 )
                  (  0.0000000  1.0000000  0.0000000 )
                  (  0.0000000  0.0000000  1.0000000 )

      isym =  2     180 deg rotation - cart. axis [1,0,0]

[...]

      isym =  3     120 deg rotation - cryst. axis [0,0,1]

[...]

      isym =  6     180 deg rotation - cryst. axis [1,1,0]

[...]

      isym =  7     inversion

[...]

      isym =  8     inv. 180 deg rotation - cart. axis [1,0,0]

[...]

      isym =  9     inv. 120 deg rotation - cryst. axis [0,0,1]

 cryst.   s( 9) = (     0         -1          0      )
                  (     1          1          0      )
                  (     0          0         -1      )

 cart.    s( 9) = (  0.5000001  0.8660255  0.0000000 )
                  ( -0.8660253  0.4999999  0.0000000 )
                  (  0.0000000  0.0000000 -1.0000000 )

[...]

 cryst.   s(10) = (     1          1          0      )
                  (    -1          0          0      )
                  (     0          0         -1      )

 cart.    s(10) = (  0.4999999 -0.8660255  0.0000000 )
                  (  0.8660253  0.5000001  0.0000000 )
                  (  0.0000000  0.0000000 -1.0000000 )

[...]

      isym = 12     inv. 180 deg rotation - cryst. axis [1,1,0]

 cryst.   s(12) = (     0         -1          0      )
                  (    -1          0          0      )
                  (     0          0          1      )

 cart.    s(12) = (  0.5000001 -0.8660253  0.0000000 )
                  ( -0.8660253 -0.5000001  0.0000000 )
                  (  0.0000000  0.0000000  1.0000000 )

   Cartesian axes

     site n.     atom                  positions (alat units)
         1           La  tau(   1) = (  -0.0000006   0.5773505   2.0101286  )
         2           La  tau(   2) = (   0.5000005   0.2886748   0.3846606  )
         3           P   tau(   3) = (   0.0000000   0.0000000   0.0000000  )
         4           Br  tau(   4) = (   0.5000005   0.2886748   1.5707064  )
         5           Br  tau(   5) = (  -0.0000006   0.5773505   0.8240829  )

   Crystallographic axes

     site n.     atom                  positions (cryst. coord.)
         1           La  tau(   1) = (  0.3333330  0.6666670  0.8393760  )
         2           La  tau(   2) = (  0.6666670  0.3333330  0.1606240  )
         3           P   tau(   3) = (  0.0000000  0.0000000  0.0000000  )
         4           Br  tau(   4) = (  0.6666670  0.3333330  0.6558850  )
         5           Br  tau(   5) = (  0.3333330  0.6666670  0.3441150  )

     number of k points=     1  Methfessel-Paxton smearing, width (Ry)=  0.0010
                       cart. coord. in units 2pi/alat
        k(    1) = (   0.0000000   0.0000000   0.0000000), wk =   2.0000000

                       cryst. coord.
        k(    1) = (   0.0000000   0.0000000   0.0000000), wk =   2.0000000

     Initial potential from superposition of free atoms

     starting charge      40.9827, renormalised to      41.0000
     Starting wfcs are   76 randomized atomic wfcs
     Checking if some PAW data can be deallocated...

     Self-consistent Calculation

     iteration #  1     ecut=    30.00 Ry     beta= 0.70
     Davidson diagonalization with overlap

     ethr =  1.00E-02,  avg # of iterations =  2.0

     total energy              =   -1024.23342129 Ry
     estimated scf accuracy    <       0.52534930 Ry

[...]

     total energy              =   -1024.52141973 Ry
     estimated scf accuracy    <       0.00000179 Ry

     iteration # 16     ecut=    30.00 Ry     beta= 0.70
     Davidson diagonalization with overlap

     ethr =  4.37E-09,  avg # of iterations =  5.0

     End of self-consistent calculation

          k = 0.0000 0.0000 0.0000 (  1484 PWs)   bands (ev):

   -24.8976 -24.8589  -9.3738  -9.0158  -8.5098  -8.5096  -8.4685  -8.4682
    -7.5480  -7.2641  -1.5619   3.3042   3.5524   4.1575   4.1576   4.1875
     4.1875   5.7004   5.8400   5.8402   8.7505   8.8317   8.8318   9.3606
     9.8474

     occupation numbers
     1.0000   1.0000   1.0000   1.0000   1.0000   1.0000   1.0000   1.0000
     1.0000   1.0000   1.0000   1.0000   1.0000   1.0000   1.0000   1.0000
     1.0000   1.0000   1.0000   1.0000   0.5000  -0.0000  -0.0000  -0.0000
    -0.0000

     the Fermi energy is     8.7505 ev

!    total energy              =   -1024.52141978 Ry
     estimated scf accuracy    <       0.00000029 Ry
     smearing contrib. (-TS)   =      -0.00028209 Ry
     internal energy E=F+TS    =   -1024.52113769 Ry

     The total energy is F=E-TS. E is the sum of the following terms:
     one-electron contribution =     -41.52321834 Ry
     hartree contribution      =      40.50311562 Ry
     xc contribution           =     -74.55261850 Ry
     ewald contribution        =    -152.69940332 Ry
     one-center paw contrib.   =    -796.24901315 Ry
      -> PAW hartree energy AE =      71.05072901 Ry
      -> PAW hartree energy PS =     -71.12281611 Ry
      -> PAW xc energy AE      =    -810.91343617 Ry
      -> PAW xc energy PS      =      14.73651012 Ry
      -> total E_H with PAW    =      40.43102852 Ry
      -> total E_XC with PAW   =    -870.72954455 Ry

     convergence has been achieved in  16 iterations

     Forces acting on atoms (cartesian axes, Ry/au):

     atom    1 type  1   force =     0.00000000    0.00000000    0.02500179
     atom    2 type  1   force =    -0.00000000   -0.00000000   -0.02500179
     atom    3 type  2   force =     0.00000000    0.00000000    0.00000000
     atom    4 type  3   force =     0.00000000    0.00000000    0.07433226
     atom    5 type  3   force =     0.00000000   -0.00000000   -0.07433226
     The non-local contrib.  to forces
     atom    1 type  1   force =     0.00000000   -0.00000000   -0.11399051
     atom    2 type  1   force =     0.00000000   -0.00000000    0.11399051
     atom    3 type  2   force =     0.00000000    0.00000000    0.00000000
     atom    4 type  3   force =     0.00000000    0.00000000    0.04011502
     atom    5 type  3   force =     0.00000000    0.00000000   -0.04011502
     The ionic contribution  to forces
     atom    1 type  1   force =     0.00001001   -0.00000578   -6.62392688
     atom    2 type  1   force =    -0.00001001    0.00000578    6.62392688
     atom    3 type  2   force =     0.00000000   -0.00000000   -0.00000000
     atom    4 type  3   force =    -0.00000712    0.00000411   -7.29846505
     atom    5 type  3   force =     0.00000712   -0.00000411    7.29846505
     The local contribution  to forces
     atom    1 type  1   force =    -0.00011289    0.00017810    6.76205501
     atom    2 type  1   force =     0.00022271   -0.00022922   -6.76254031
     atom    3 type  2   force =    -0.00000433    0.00003945   -0.00074869
     atom    4 type  3   force =    -0.00000792    0.00004518    7.33451037
     atom    5 type  3   force =    -0.00000061    0.00000708   -7.33379240
     The core correction contribution to forces
     atom    1 type  1   force =    -0.00000005    0.00000010    0.00005734
     atom    2 type  1   force =     0.00000008   -0.00000015   -0.00005725
     atom    3 type  2   force =     0.00000097    0.00000091   -0.00000382
     atom    4 type  3   force =     0.00000275   -0.00000287   -0.00202565
     atom    5 type  3   force =    -0.00000286   -0.00000046    0.00201876
     The Hubbard contrib.    to forces
     atom    1 type  1   force =     0.00000000    0.00000000    0.00000000
     atom    2 type  1   force =     0.00000000    0.00000000    0.00000000
     atom    3 type  2   force =     0.00000000    0.00000000    0.00000000
     atom    4 type  3   force =     0.00000000    0.00000000    0.00000000
     atom    5 type  3   force =     0.00000000    0.00000000    0.00000000
     The SCF correction term to forces
     atom    1 type  1   force =     0.00000868   -0.00002962    0.00087997
     atom    2 type  1   force =    -0.00010129    0.00014796   -0.00024849
     atom    3 type  2   force =     0.00001879   -0.00001596    0.00053596
     atom    4 type  3   force =     0.00000476   -0.00002373    0.00023418
     atom    5 type  3   force =     0.00001564   -0.00001048   -0.00087203

     Total force =     0.110909     Total SCF correction =     0.001405

     Computing stress (Cartesian axis) and pressure

          total   stress  (Ry/bohr**3)                   (kbar)     P=       49.75
   0.00091688   0.00000000   0.00000000          134.88        0.00        0.00
   0.00000000   0.00091688   0.00000000            0.00      134.88        0.00
  -0.00000000  -0.00000000  -0.00081923           -0.00       -0.00     -120.51

     kinetic stress (kbar)   5519.24      0.00      0.00
                                0.00   5519.24      0.00
                                0.00      0.00   5179.84

     local   stress (kbar)  -3831.25      0.09      0.08
                                0.09  -3831.18     -0.07
                                0.08     -0.07   4863.72

     nonloc. stress (kbar)   2211.33      0.00      0.00
                                0.00   2211.33      0.00
                                0.00      0.00   2307.14

     hartree stress (kbar)   3138.23     -0.03     -0.05
                               -0.03   3138.20      0.02
                               -0.05      0.02   -794.88

     exc-cor stress (kbar)   4114.56     -0.00     -0.00
                               -0.00   4114.56      0.00
                               -0.00      0.00   4114.23

     corecor stress (kbar)  -5722.05     -0.00     -0.00
                               -0.00  -5722.05     -0.00
                               -0.00     -0.00  -5715.14

     ewald   stress (kbar)  -5295.20      0.01      0.00
                                0.01  -5295.19     -0.00
                                0.00     -0.00 -10075.43

     hubbard stress (kbar)      0.00      0.00      0.00
                                0.00      0.00      0.00
                                0.00      0.00      0.00

     DFT-D   stress (kbar)      0.00      0.00      0.00
                                0.00      0.00      0.00
                                0.00      0.00      0.00

     XDM     stress (kbar)      0.00      0.00      0.00
                                0.00      0.00      0.00
                                0.00      0.00      0.00

     dft-nl  stress (kbar)      0.00      0.00      0.00
                                0.00      0.00      0.00
                                0.00      0.00      0.00

     TS-vdW  stress (kbar)      0.00      0.00      0.00
                                0.00      0.00      0.00
                                0.00      0.00      0.00

[...]

                                0.00      0.00      0.00

     Writing all to output data dir new_calculations/myprefix.save/

     General routines

     Parallel routines

     PAW routines

   This run was terminated on:  14:27:37  20May2023

   JOB DONE.