     Program PWSCF v.7.0 starts on 21May2023 at  0:54:59

     Reading input from espresso_10860.pwi
Warning: card &CELL ignored
Warning: card / ignored

     Current dimensions of program PWSCF are:
     Max number of different atomic species (ntypx) = 10
     Max number of k-points (npk) =  40000
     Max angular momentum in pseudopotentials (lmaxx) =  4
     file O.pbe-n-kjpaw_psl.0.1.UPF: wavefunction(s)  2P renormalized

     gamma-point specific algorithms are used
     Message from routine setup:
     using ibrav=0 with symmetry is DISCOURAGED, use correct ibrav instead

     Subspace diagonalization in iterative solution of the eigenvalue problem:
     a serial algorithm will be used

     Using Slab Decomposition

     bravais-lattice index     =            0
     lattice parameter (alat)  =      12.5968  a.u.
     unit-cell volume          =    1097.6770 (a.u.)^3
     number of atoms/cell      =           14
     number of atomic types    =            3
     number of electrons       =       164.00
     number of Kohn-Sham states=           98
     kinetic-energy cutoff     =      30.0000  Ry
     charge density cutoff     =     240.0000  Ry
     scf convergence threshold =      1.0E-06
     mixing beta               =       0.7000
     number of iterations used =            8  plain     mixing
     Exchange-correlation= SLA  PW   PBX  PBC
                           (   1   4   3   4   0   0   0)

     celldm(1)=  12.596828  celldm(2)=   0.000000  celldm(3)=   0.000000
     celldm(4)=   0.000000  celldm(5)=   0.000000  celldm(6)=   0.000000

     crystal axes: (cart. coord. in units of alat)
               a(1) = (   1.000000   0.000000   0.000000 )
               a(2) = (   0.325429   0.945566   0.000000 )
               a(3) = (  -0.662714  -0.472783   0.580763 )

     reciprocal axes: (cart. coord. in units 2 pi/alat)
               b(1) = (  1.000000 -0.344163  0.860937 )
               b(2) = (  0.000000  1.057567  0.860937 )
               b(3) = (  0.000000  0.000000  1.721873 )

     PseudoPot. # 1 for Zn read from file:
     /home/pragov/projects/rrg-bengioy-ad/pragov/crystal_structure_design/SSSP/Zn_pbe_v1.uspp.F.UPF
     MD5 check sum: df62231357ef9e81f77b2b3087fa5675
     Pseudo is Ultrasoft, Zval = 20.0
     Generated by new atomic code, or converted to UPF format
     Using radial grid of  943 points,  6 beta functions with:
                l(1) =   0
                l(2) =   0
                l(3) =   1
                l(4) =   1
                l(5) =   2
                l(6) =   2
     Q(r) pseudized with  8 coefficients,  rinner =    1.100   1.100   1.100
                                                       1.100   1.100

     PseudoPot. # 2 for Cu read from file:
     /home/pragov/projects/rrg-bengioy-ad/pragov/crystal_structure_design/SSSP/Cu_pbe_v1.2.uspp.F.UPF
     MD5 check sum: 6e991ff952a84172a2a52a1c1e996048
     Pseudo is Ultrasoft + core correction, Zval = 19.0
     Generated by new atomic code, or converted to UPF format
     Using radial grid of  867 points,  6 beta functions with:
                l(1) =   0
                l(2) =   0
                l(3) =   1
                l(4) =   1
                l(5) =   2
                l(6) =   2
     Q(r) pseudized with  8 coefficients,  rinner =    1.150   1.150   1.150
                                                       1.150   1.150

     PseudoPot. # 3 for O  read from file:
     /home/pragov/projects/rrg-bengioy-ad/pragov/crystal_structure_design/SSSP/O.pbe-n-kjpaw_psl.0.1.UPF
     MD5 check sum: 0234752ac141de4415c5fc33072bef88
     Pseudo is Projector augmented-wave + core cor, Zval =  6.0
     Generated using "atomic" code by A. Dal Corso  v.5.0.99 svn rev. 10869
     Shape of augmentation charge: BESSEL
     Using radial grid of 1095 points,  4 beta functions with:
                l(1) =   0
                l(2) =   0
                l(3) =   1
                l(4) =   1
     Q(r) pseudized with 0 coefficients

     atomic species   valence    mass     pseudopotential
        Zn            20.00    65.38000     Zn( 1.00)
        Cu            19.00    63.54600     Cu( 1.00)
        O              6.00    15.99900     O ( 1.00)

      4 Sym. Ops., with inversion, found ( 2 have fractional translation)

                                    s                        frac. trans.

      isym =  1     identity

 cryst.   s( 1) = (     1          0          0      )
                  (     0          1          0      )
                  (     0          0          1      )

 cart.    s( 1) = (  1.0000000  0.0000000  0.0000000 )
                  (  0.0000000  1.0000000 -0.0000000 )
                  (  0.0000000  0.0000000  1.0000000 )

      isym =  2     180 deg rotation - cart. axis [0,0,1]

 cryst.   s( 2) = (    -1          0          0      )
                  (     0         -1          0      )
                  (     1          1          1      )

 cart.    s( 2) = ( -1.0000000 -0.0000000  0.0000000 )
                  (  0.0000000 -1.0000000  0.0000000 )
                  (  0.0000000  0.0000000  1.0000000 )

      isym =  3     inversion

 cryst.   s( 3) = (    -1          0          0      )    f =(  0.2500000 )
                  (     0         -1          0      )       ( -0.2500000 )
                  (     0          0         -1      )       (  0.5000000 )

 cart.    s( 3) = ( -1.0000000 -0.0000000 -0.0000000 )    f =( -0.1627145 )
                  (  0.0000000 -1.0000000  0.0000000 )       ( -0.4727832 )
                  (  0.0000000  0.0000000 -1.0000000 )       (  0.2903814 )

      isym =  4     inv. 180 deg rotation - cart. axis [0,0,1]

 cryst.   s( 4) = (     1          0          0      )    f =(  0.2500000 )
                  (     0          1          0      )       ( -0.2500000 )
                  (    -1         -1         -1      )       (  0.5000000 )

 cart.    s( 4) = (  1.0000000  0.0000000 -0.0000000 )    f =( -0.1627145 )
                  (  0.0000000  1.0000000 -0.0000000 )       ( -0.4727832 )
                  (  0.0000000  0.0000000 -1.0000000 )       (  0.2903814 )

   Cartesian axes

     site n.     atom                  positions (alat units)
         1           Zn  tau(   1) = (   0.0000000   0.0000000   0.0000000  )
         2           Zn  tau(   2) = (   0.5000000   0.0000000   0.2903814  )
         3           Cu  tau(   3) = (   0.4127145   0.4727832   0.1451907  )
         4           Cu  tau(   4) = (   0.9127145   0.4727832   0.1451907  )
         5           Cu  tau(   5) = (  -0.0813572  -0.2363916   0.4355722  )
         6           Cu  tau(   6) = (   0.0813572   0.2363916   0.4355722  )
         7           O   tau(   7) = (  -0.2471739  -0.0139684   0.4485842  )
         8           O   tau(   8) = (   0.2471749   0.0139684   0.4485842  )
         9           O   tau(   9) = (   0.7563601   0.7019569   0.1321787  )
        10           O   tau(  10) = (   0.4098884   0.4867516   0.4225602  )
        11           O   tau(  11) = (   0.2563604   0.7019578   0.1582027  )
        12           O   tau(  12) = (  -0.0844604   0.4588149   0.4225602  )
        13           O   tau(  13) = (   0.5690686   0.2436087   0.1321787  )
        14           O   tau(  14) = (   0.0690689   0.2436096   0.1582027  )

   Crystallographic axes

     site n.     atom                  positions (cryst. coord.)
         1           Zn  tau(   1) = (  0.0000000  0.0000000  0.0000000  )
         2           Zn  tau(   2) = (  0.7500000  0.2500000  0.5000000  )
         3           Cu  tau(   3) = (  0.3750000  0.6250000  0.2500000  )
         4           Cu  tau(   4) = (  0.8750000  0.6250000  0.2500000  )
         5           Cu  tau(   5) = (  0.3750000  0.1250000  0.7500000  )
         6           Cu  tau(   6) = (  0.3750000  0.6250000  0.7500000  )
         7           O   tau(   7) = (  0.1438360  0.3714300  0.7724050  )
         8           O   tau(   8) = (  0.6285700  0.4009750  0.7724050  )
         9           O   tau(   9) = (  0.6285700  0.8561640  0.2275950  )
        10           O   tau(  10) = (  0.6061640  0.8785700  0.7275950  )
        11           O   tau(  11) = (  0.1509750  0.8785700  0.2724050  )
        12           O   tau(  12) = (  0.1214300  0.8490250  0.7275950  )
        13           O   tau(  13) = (  0.5990250  0.3714300  0.2275950  )
        14           O   tau(  14) = (  0.1214300  0.3938360  0.2724050  )

     number of k points=     1  Methfessel-Paxton smearing, width (Ry)=  0.0010
                       cart. coord. in units 2pi/alat
        k(    1) = (   0.0000000   0.0000000   0.0000000), wk =   2.0000000

                       cryst. coord.
        k(    1) = (   0.0000000   0.0000000   0.0000000), wk =   2.0000000

     Check: negative core charge=   -0.000015

     Initial potential from superposition of free atoms

     starting charge     159.9997, renormalised to     164.0000
     Starting wfcs are  110 randomized atomic wfcs
     Checking if some PAW data can be deallocated...

     Self-consistent Calculation

     iteration #  1     ecut=    30.00 Ry     beta= 0.70
     Davidson diagonalization with overlap

     ethr =  1.00E-02,  avg # of iterations =  3.0

     total energy              =   -2742.26952143 Ry
     estimated scf accuracy    <     151.59812493 Ry

[...]

     total energy              =   -2868.42740404 Ry
     estimated scf accuracy    <       0.00000594 Ry

     iteration # 20     ecut=    30.00 Ry     beta= 0.70
     Davidson diagonalization with overlap

     ethr =  3.62E-09,  avg # of iterations =  2.0

     End of self-consistent calculation

          k = 0.0000 0.0000 0.0000 (  1505 PWs)   bands (ev):

  -116.7972-116.7119-105.2953-105.2466-105.2155-105.1761 -70.9480 -70.8382
   -70.7229 -70.6668 -70.5547 -70.3928 -62.7731 -62.7381 -62.6803 -62.6130
   -62.5402 -62.5363 -62.4664 -62.2832 -61.9665 -61.8733 -61.7914 -61.7621
   -10.9802 -10.6558 -10.3538 -10.2628 -10.2372 -10.0669  -9.7856  -9.6525
     0.7287   1.4032   1.6085   1.7558   1.8827   1.9307   2.0026   2.0433
     2.1025   2.1499   2.2413   2.2542   2.3523   2.3963   2.4601   2.8450
     3.4024   3.6540   4.1052   4.1530   4.2039   4.2661   4.2944   4.3320
     4.4143   4.4760   4.4990   5.2114   5.6078   5.6490   5.7727   5.8055
     5.8156   5.8481   5.9334   5.9467   6.0968   6.2900   6.4523   6.4829
     6.5221   6.5480   6.5627   6.7284   6.8337   6.8900   7.7271   7.7657
     7.8661   7.9922   9.3402   9.4716   9.8832  10.0047  10.8684  13.1457
    14.6186  14.6879  15.6985  15.7219  15.8648  16.1992  16.8496  17.2951
    18.6132  18.7468

     occupation numbers
     1.0000   1.0000   1.0000   1.0000   1.0000   1.0000   1.0000   1.0000
     1.0000   1.0000   1.0000   1.0000   1.0000   1.0000   1.0000   1.0000
     1.0000   1.0000   1.0000   1.0000   1.0000   1.0000   1.0000   1.0000
     1.0000   1.0000   1.0000   1.0000   1.0000   1.0000   1.0000   1.0000
     1.0000   1.0000   1.0000   1.0000   1.0000   1.0000   1.0000   1.0000
     1.0000   1.0000   1.0000   1.0000   1.0000   1.0000   1.0000   1.0000
     1.0000   1.0000   1.0000   1.0000   1.0000   1.0000   1.0000   1.0000
     1.0000   1.0000   1.0000   1.0000   1.0000   1.0000   1.0000   1.0000
     1.0000   1.0000   1.0000   1.0000   1.0000   1.0000   1.0000   1.0000
     1.0000   1.0000   1.0000   1.0000   1.0000   1.0000   1.0000   1.0000
     1.0000   1.0000  -0.0000  -0.0000  -0.0000  -0.0000  -0.0000  -0.0000
    -0.0000  -0.0000  -0.0000  -0.0000  -0.0000  -0.0000  -0.0000  -0.0000
    -0.0000  -0.0000

     the Fermi energy is     8.2722 ev

!    total energy              =   -2868.42740456 Ry
     estimated scf accuracy    <       0.00000053 Ry
     smearing contrib. (-TS)   =       0.00000000 Ry
     internal energy E=F+TS    =   -2868.42740456 Ry

     The total energy is F=E-TS. E is the sum of the following terms:
     one-electron contribution =   -2294.72242804 Ry
     hartree contribution      =    1216.61339199 Ry
     xc contribution           =    -298.11098691 Ry
     ewald contribution        =   -1416.00677612 Ry
     one-center paw contrib.   =     -76.20060548 Ry
      -> PAW hartree energy AE =     231.88513475 Ry
      -> PAW hartree energy PS =    -231.12391903 Ry
      -> PAW xc energy AE      =    -136.45749193 Ry
      -> PAW xc energy PS      =      59.49567073 Ry
      -> total E_H with PAW    =    1217.37460771 Ry
      -> total E_XC with PAW   =    -375.07280811 Ry

     convergence has been achieved in  20 iterations

     Forces acting on atoms (cartesian axes, Ry/au):

     atom    1 type  1   force =     0.00000000    0.00000000   -0.01478804
     atom    2 type  1   force =     0.00000000    0.00000000    0.01478804
     atom    3 type  2   force =     0.00000000   -0.00000000   -0.00000000
     atom    4 type  2   force =    -0.00000000    0.00000000   -0.00000000
     atom    5 type  2   force =     0.00000000    0.00000000    0.00000000
     atom    6 type  2   force =     0.00000000    0.00000000    0.00000000
     atom    7 type  3   force =    -0.00122953   -0.01363655    0.01079963
     atom    8 type  3   force =     0.00122953    0.01363655    0.01079963
     atom    9 type  3   force =     0.01089383    0.01303796    0.01236151
     atom   10 type  3   force =     0.00122953    0.01363655   -0.01079963
     atom   11 type  3   force =     0.01089383    0.01303796   -0.01236151
     atom   12 type  3   force =    -0.00122953   -0.01363655   -0.01079963
     atom   13 type  3   force =    -0.01089383   -0.01303796    0.01236151
     atom   14 type  3   force =    -0.01089383   -0.01303796   -0.01236151
     The non-local contrib.  to forces
     atom    1 type  1   force =     0.00000000    0.00000000   -0.00011236
     atom    2 type  1   force =     0.00000000    0.00000000    0.00011236
     atom    3 type  2   force =     0.00000000    0.00000000    0.00000000
     atom    4 type  2   force =     0.00000000    0.00000000    0.00000000
     atom    5 type  2   force =     0.00000000   -0.00000000   -0.00000000
     atom    6 type  2   force =     0.00000000    0.00000000    0.00000000
     atom    7 type  3   force =    -0.20758435   -0.67393657    0.43762887
     atom    8 type  3   force =     0.20758435    0.67393657    0.43762887
     atom    9 type  3   force =     0.68874864   -0.03279272   -0.40966957
     atom   10 type  3   force =     0.20758435    0.67393657   -0.43762887
     atom   11 type  3   force =     0.68874864   -0.03279272    0.40966957
     atom   12 type  3   force =    -0.20758435   -0.67393657   -0.43762887
     atom   13 type  3   force =    -0.68874864    0.03279272   -0.40966957
     atom   14 type  3   force =    -0.68874864    0.03279272    0.40966957
     The ionic contribution  to forces
     atom    1 type  1   force =    -0.00005433    0.00007615    0.00000000
     atom    2 type  1   force =     0.00005433   -0.00007615   -0.00000000
     atom    3 type  2   force =     0.00000000   -0.00000000   -0.00000000
     atom    4 type  2   force =     0.00000000   -0.00000000    0.00000000
     atom    5 type  2   force =    -0.00000000    0.00000000    0.00000000
     atom    6 type  2   force =    -0.00000000    0.00000000   -0.00000000
     atom    7 type  3   force =    -2.34241164    7.65405155   -7.59128171
     atom    8 type  3   force =     2.34232932   -7.65397071   -7.59123587
     atom    9 type  3   force =    -6.47512615    4.70575593    7.59128171
     atom   10 type  3   force =     2.34241164   -7.65405156    7.59128171
     atom   11 type  3   force =    -6.47507650    4.70565178   -7.59123586
     atom   12 type  3   force =    -2.34232932    7.65397071    7.59123587
     atom   13 type  3   force =     6.47507650   -4.70565178    7.59123586
     atom   14 type  3   force =     6.47512615   -4.70575592   -7.59128171
     The local contribution  to forces
     atom    1 type  1   force =    -0.02779255   -0.02174271   -0.01668934
     atom    2 type  1   force =    -0.00036334   -0.01934773    0.01308565
     atom    3 type  2   force =     0.00459976    0.02608066    0.14079884
     atom    4 type  2   force =     0.02632396   -0.05429262    0.06296904
     atom    5 type  2   force =     0.05481905   -0.03010983   -0.08021819
     atom    6 type  2   force =     0.03070155    0.03916045    0.00599133
     atom    7 type  3   force =     2.55410463   -7.03659904    7.19274774
     atom    8 type  3   force =    -2.52897517    6.99398923    7.22249803
     atom    9 type  3   force =     5.83299425   -4.69295157   -7.18581964
     atom   10 type  3   force =    -2.58151656    6.99885216   -7.15816320
     atom   11 type  3   force =     5.82205197   -4.62820542    7.18987793
     atom   12 type  3   force =     2.51869492   -6.97503506   -7.10309120
     atom   13 type  3   force =    -5.77449719    4.66899455   -7.20580448
     atom   14 type  3   force =    -5.79017652    4.65055460    7.11250255
     The core correction contribution to forces
     atom    1 type  1   force =     0.00000000    0.00000000    0.00000000
     atom    2 type  1   force =     0.00000000    0.00000000    0.00000000
     atom    3 type  2   force =     0.00005178    0.00004971    0.00018972
     atom    4 type  2   force =     0.00007952   -0.00004220    0.00012871
     atom    5 type  2   force =    -0.00002617   -0.00001213   -0.00014097
     atom    6 type  2   force =    -0.00001508    0.00005302   -0.00005088
     atom    7 type  3   force =     0.00301134    0.00697710   -0.00401906
     atom    8 type  3   force =    -0.00229840   -0.00744302   -0.00357734
     atom    9 type  3   force =    -0.00722126   -0.00074072    0.00447134
     atom   10 type  3   force =    -0.00374588   -0.00757605    0.00491067
     atom   11 type  3   force =    -0.00685751    0.00076849   -0.00376373
     atom   12 type  3   force =     0.00218289    0.00798737    0.00586703
     atom   13 type  3   force =     0.00825878   -0.00043908    0.00375090
     atom   14 type  3   force =     0.00820776   -0.00032792   -0.00556383
     The Hubbard contrib.    to forces
     atom    1 type  1   force =     0.00000000    0.00000000    0.00000000
     atom    2 type  1   force =     0.00000000    0.00000000    0.00000000
     atom    3 type  2   force =     0.00000000    0.00000000    0.00000000
     atom    4 type  2   force =     0.00000000    0.00000000    0.00000000
     atom    5 type  2   force =     0.00000000    0.00000000    0.00000000
     atom    6 type  2   force =     0.00000000    0.00000000    0.00000000
     atom    7 type  3   force =     0.00000000    0.00000000    0.00000000
     atom    8 type  3   force =     0.00000000    0.00000000    0.00000000
     atom    9 type  3   force =     0.00000000    0.00000000    0.00000000
     atom   10 type  3   force =     0.00000000    0.00000000    0.00000000
     atom   11 type  3   force =     0.00000000    0.00000000    0.00000000
     atom   12 type  3   force =     0.00000000    0.00000000    0.00000000
     atom   13 type  3   force =     0.00000000    0.00000000    0.00000000
     atom   14 type  3   force =     0.00000000    0.00000000    0.00000000
     The SCF correction term to forces
     atom    1 type  1   force =    -0.00025485    0.00030910    0.00020868
     atom    2 type  1   force =    -0.00046748    0.00100903   -0.00021494
     atom    3 type  2   force =     0.00019550   -0.00089886    0.00119158
     atom    4 type  2   force =     0.00051839   -0.00116719   -0.00038093
     atom    5 type  2   force =     0.00079672   -0.00093134    0.00075967
     atom    6 type  2   force =     0.00054836   -0.00011070   -0.00129779
     atom    7 type  3   force =     0.00003944    0.00002321    0.00003463
     atom    8 type  3   force =    -0.00011823    0.00019851   -0.00026645
     atom    9 type  3   force =    -0.00011018    0.00014770   -0.00029782
     atom   10 type  3   force =    -0.00002070   -0.00007381    0.00001512
     atom   11 type  3   force =     0.00002659    0.00001162   -0.00002140
     atom   12 type  3   force =     0.00019307   -0.00025099    0.00016094
     atom   13 type  3   force =    -0.00002623   -0.00006868    0.00008200
     atom   14 type  3   force =     0.00013117   -0.00019069    0.00026159

     Total force =     0.058478     Total SCF correction =     0.003182

     Computing stress (Cartesian axis) and pressure

          total   stress  (Ry/bohr**3)                   (kbar)     P=    -1172.77
  -0.00705846   0.00005981   0.00000000        -1038.34        8.80        0.00
   0.00005981  -0.00876564   0.00000000            8.80    -1289.47        0.00
   0.00000000   0.00000000  -0.00809294            0.00        0.00    -1190.51

     kinetic stress (kbar)  35132.29    900.92     -0.00
                              900.92  34409.95     -0.00
                               -0.00     -0.00  33804.39

     local   stress (kbar)  -5081.83  29746.00    123.53
                            29746.00 -25307.08     72.52
                              123.53     72.52 -46654.74

     nonloc. stress (kbar)  12038.06    285.19     -0.00
                              285.19  11501.28     -0.00
                               -0.00     -0.00  11467.48

     hartree stress (kbar)  45955.91 -12083.90    -33.27
                           -12083.90  54221.08    -23.60
                              -33.27    -23.60  62867.34

     exc-cor stress (kbar) -12065.11    -12.58     -0.62
                              -12.58 -12056.70     -0.69
                               -0.62     -0.69 -12047.58

     corecor stress (kbar)   -647.86     -2.68      0.25
                               -2.68   -645.35      0.09
                                0.25      0.09   -643.83

     ewald   stress (kbar) -76369.80 -18824.15     -0.11
                           -18824.15 -63412.65     -0.08
                               -0.11     -0.08 -49983.57

     hubbard stress (kbar)      0.00      0.00      0.00
                                0.00      0.00      0.00
                                0.00      0.00      0.00

     DFT-D   stress (kbar)      0.00      0.00      0.00
                                0.00      0.00      0.00
                                0.00      0.00      0.00

     XDM     stress (kbar)      0.00      0.00      0.00
                                0.00      0.00      0.00
                                0.00      0.00      0.00

     dft-nl  stress (kbar)      0.00      0.00      0.00
                                0.00      0.00      0.00
                                0.00      0.00      0.00

     TS-vdW  stress (kbar)      0.00      0.00      0.00
                                0.00      0.00      0.00
                                0.00      0.00      0.00

[...]

                                0.00      0.00      0.00

     Writing all to output data dir new_calculations/myprefix.save/

     General routines

     Parallel routines

     PAW routines

   This run was terminated on:   0:55:31  21May2023

   JOB DONE.