     Program PWSCF v.7.0 starts on 20May2023 at  7:37:43

     Reading input from espresso_3255.pwi
Warning: card &CELL ignored
Warning: card / ignored

     Current dimensions of program PWSCF are:
     Max number of different atomic species (ntypx) = 10
     Max number of k-points (npk) =  40000
     Max angular momentum in pseudopotentials (lmaxx) =  4
     file O.pbe-n-kjpaw_psl.0.1.UPF: wavefunction(s)  2P renormalized

     gamma-point specific algorithms are used

     Subspace diagonalization in iterative solution of the eigenvalue problem:
     a serial algorithm will be used

     Using Slab Decomposition

     bravais-lattice index     =            0
     lattice parameter (alat)  =      12.1094  a.u.
     unit-cell volume          =    2030.7721 (a.u.)^3
     number of atoms/cell      =           14
     number of atomic types    =            3
     number of electrons       =        96.00
     number of Kohn-Sham states=           58
     kinetic-energy cutoff     =      30.0000  Ry
     charge density cutoff     =     240.0000  Ry
     scf convergence threshold =      1.0E-06
     mixing beta               =       0.7000
     number of iterations used =            8  plain     mixing
     Exchange-correlation= SLA  PW   PBX  PBC
                           (   1   4   3   4   0   0   0)

     celldm(1)=  12.109430  celldm(2)=   0.000000  celldm(3)=   0.000000
     celldm(4)=   0.000000  celldm(5)=   0.000000  celldm(6)=   0.000000

     crystal axes: (cart. coord. in units of alat)
               a(1) = (   1.000000   0.000000   0.000000 )
               a(2) = (  -0.465430   0.885085   0.000000 )
               a(3) = (   0.003139   0.005198   1.292127 )

     reciprocal axes: (cart. coord. in units 2 pi/alat)
               b(1) = (  1.000000  0.525859 -0.004545 )
               b(2) = (  0.000000  1.129835 -0.004545 )
               b(3) = (  0.000000  0.000000  0.773918 )

     PseudoPot. # 1 for Rb read from file:
     /home/pragov/projects/rrg-bengioy-ad/pragov/crystal_structure_design/SSSP/Rb_ONCV_PBE-1.0.oncvpsp.upf
     MD5 check sum: 55a5172d6bfbce6759a58e35d43f6aa9
     Pseudo is Norm-conserving, Zval =  9.0
     Generated using ONCVPSP code by D. R. Hamann
     Using radial grid of 2308 points,  6 beta functions with:
                l(1) =   0
                l(2) =   0
                l(3) =   1
                l(4) =   1
                l(5) =   2
                l(6) =   2

     PseudoPot. # 2 for Se read from file:
     /home/pragov/projects/rrg-bengioy-ad/pragov/crystal_structure_design/SSSP/Se_pbe_v1.uspp.F.UPF
     MD5 check sum: 1b3568f3a8ae88f9a2a0ad0698632c85
     Pseudo is Ultrasoft + core correction, Zval =  6.0
     Generated by new atomic code, or converted to UPF format
     Using radial grid of  877 points,  6 beta functions with:
                l(1) =   0
                l(2) =   0
                l(3) =   1
                l(4) =   1
                l(5) =   2
                l(6) =   2
     Q(r) pseudized with  8 coefficients,  rinner =    1.300   1.300   1.300
                                                       1.300   1.300

     PseudoPot. # 3 for O  read from file:
     /home/pragov/projects/rrg-bengioy-ad/pragov/crystal_structure_design/SSSP/O.pbe-n-kjpaw_psl.0.1.UPF
     MD5 check sum: 0234752ac141de4415c5fc33072bef88
     Pseudo is Projector augmented-wave + core cor, Zval =  6.0
     Generated using "atomic" code by A. Dal Corso  v.5.0.99 svn rev. 10869
     Shape of augmentation charge: BESSEL
     Using radial grid of 1095 points,  4 beta functions with:
                l(1) =   0
                l(2) =   0
                l(3) =   1
                l(4) =   1
     Q(r) pseudized with 0 coefficients

     atomic species   valence    mass     pseudopotential
        Rb             9.00    85.46780     Rb( 1.00)
        Se             6.00    78.97100     Se( 1.00)
        O              6.00    15.99900     O ( 1.00)

     No symmetry found

                                    s                        frac. trans.

      isym =  1     identity

 cryst.   s( 1) = (     1          0          0      )
                  (     0          1          0      )
                  (     0          0          1      )

 cart.    s( 1) = (  1.0000000  0.0000000 -0.0000000 )
                  (  0.0000000  1.0000000 -0.0000000 )
                  (  0.0000000  0.0000000  1.0000000 )

   Cartesian axes

     site n.     atom                  positions (alat units)
         1           Rb  tau(   1) = (   0.5278736   0.8760174   0.6388586  )
         2           Rb  tau(   2) = (   0.5312310   0.8775364   1.2849235  )
         3           Rb  tau(   3) = (  -0.0060133   0.5664755   0.3210419  )
         4           Rb  tau(   4) = (   0.5057472   0.2609312   0.9671054  )
         5           Se  tau(   5) = (   0.0367242   0.5959726   0.9615247  )
         6           Se  tau(   6) = (   0.5088241   0.3072887   0.3154612  )
         7           O   tau(   7) = (   0.0192223   0.3338812   0.9441237  )
         8           O   tau(   8) = (   0.2928176   0.6590933   0.9727533  )
         9           O   tau(   9) = (  -0.0817908   0.6847924   1.1755527  )
        10           O   tau(  10) = (  -0.0681410   0.7119454   0.7523139  )
        11           O   tau(  11) = (   0.6602772   0.2684514   0.1062503  )
        12           O   tau(  12) = (   0.6425975   0.2437323   0.5294891  )
        13           O   tau(  13) = (   0.2849969   0.1698129   0.2980601  )
        14           O   tau(  14) = (   0.4454977   0.5633314   0.3266898  )

   Crystallographic axes

     site n.     atom                  positions (cryst. coord.)
         1           Rb  tau(   1) = (  0.9856320  0.9868520  0.4944240  )
         2           Rb  tau(   2) = (  0.9868520  0.9856320  0.9944250  )
         3           Rb  tau(   3) = (  0.2904140  0.6385650  0.2484600  )
         4           Rb  tau(   4) = (  0.6385650  0.2904140  0.7484600  )
         5           Se  tau(   5) = (  0.3457520  0.6689810  0.7441410  )
         6           Se  tau(   6) = (  0.6689810  0.3457520  0.2441410  )
         7           O   tau(   7) = (  0.1905060  0.3729400  0.7306740  )
         8           O   tau(   8) = (  0.6349870  0.7402460  0.7528310  )
         9           O   tau(   9) = (  0.2729710  0.7683600  0.9097810  )
        10           O   tau(  10) = (  0.3028230  0.8009620  0.5822290  )
        11           O   tau(  11) = (  0.8009620  0.3028230  0.0822290  )
        12           O   tau(  12) = (  0.7683600  0.2729710  0.4097810  )
        13           O   tau(  13) = (  0.3729400  0.1905060  0.2306740  )
        14           O   tau(  14) = (  0.7402460  0.6349870  0.2528310  )

     number of k points=     1  Methfessel-Paxton smearing, width (Ry)=  0.0010
                       cart. coord. in units 2pi/alat
        k(    1) = (   0.0000000   0.0000000   0.0000000), wk =   2.0000000

                       cryst. coord.
        k(    1) = (   0.0000000   0.0000000   0.0000000), wk =   2.0000000

     Check: negative core charge=   -0.000008

     Initial potential from superposition of free atoms

     starting charge      95.9008, renormalised to      96.0000
     Starting wfcs are   60 randomized atomic wfcs
     Checking if some PAW data can be deallocated...

     Self-consistent Calculation

     iteration #  1     ecut=    30.00 Ry     beta= 0.70
     Davidson diagonalization with overlap

     ethr =  1.00E-02,  avg # of iterations =  4.0

     total energy              =    -614.37662681 Ry
     estimated scf accuracy    <       3.29915294 Ry

[...]

     total energy              =    -615.96852132 Ry
     estimated scf accuracy    <       0.00000104 Ry

     iteration # 10     ecut=    30.00 Ry     beta= 0.70
     Davidson diagonalization with overlap

     ethr =  1.09E-09,  avg # of iterations =  2.0

     End of self-consistent calculation

          k = 0.0000 0.0000 0.0000 (  2828 PWs)   bands (ev):

   -22.1066 -22.0929 -22.0387 -22.0267 -18.0457 -18.0424 -14.8070 -14.7897
   -14.7799 -14.7511 -14.6451 -14.6301  -7.0381  -6.6048  -6.4605  -6.3349
    -6.3014  -6.2760  -6.2234  -6.1788  -6.1605  -6.1486  -6.0881  -6.0437
    -6.0405  -5.7283  -2.3800  -2.3155  -2.2714  -2.2136  -2.1772  -2.1371
     0.7407   0.8168   0.8216   0.8789   0.9558   1.0565   1.1333   1.2168
     1.2713   1.3179   2.0608   2.1260   2.1737   2.1839   2.2414   2.2759
     5.8523   7.1815   8.8077   9.2375   9.3797   9.4046   9.5395   9.7708
     9.8380  10.0095

     occupation numbers
     1.0000   1.0000   1.0000   1.0000   1.0000   1.0000   1.0000   1.0000
     1.0000   1.0000   1.0000   1.0000   1.0000   1.0000   1.0000   1.0000
     1.0000   1.0000   1.0000   1.0000   1.0000   1.0000   1.0000   1.0000
     1.0000   1.0000   1.0000   1.0000   1.0000   1.0000   1.0000   1.0000
     1.0000   1.0000   1.0000   1.0000   1.0000   1.0000   1.0000   1.0000
     1.0000   1.0000   1.0000   1.0000   1.0000   1.0000   1.0000   1.0000
    -0.0000  -0.0000  -0.0000  -0.0000  -0.0000  -0.0000  -0.0000  -0.0000
    -0.0000  -0.0000

     the Fermi energy is     4.0728 ev

!    total energy              =    -615.96852150 Ry
     estimated scf accuracy    <       0.00000002 Ry
     smearing contrib. (-TS)   =       0.00000000 Ry
     internal energy E=F+TS    =    -615.96852150 Ry

     The total energy is F=E-TS. E is the sum of the following terms:
     one-electron contribution =    -214.82169704 Ry
     hartree contribution      =     149.72566274 Ry
     xc contribution           =    -149.19879799 Ry
     ewald contribution        =    -325.42116600 Ry
     one-center paw contrib.   =     -76.25252321 Ry
      -> PAW hartree energy AE =     235.27387052 Ry
      -> PAW hartree energy PS =    -234.48439949 Ry
      -> PAW xc energy AE      =    -137.14772279 Ry
      -> PAW xc energy PS      =      60.10572856 Ry
      -> total E_H with PAW    =     150.51513376 Ry
      -> total E_XC with PAW   =    -226.24079222 Ry

     convergence has been achieved in  10 iterations

     Forces acting on atoms (cartesian axes, Ry/au):

     atom    1 type  1   force =     0.00048896    0.00068446    0.00030544
     atom    2 type  1   force =     0.00037453    0.00074864    0.00030312
     atom    3 type  1   force =    -0.00138203   -0.00159331   -0.00001773
     atom    4 type  1   force =    -0.00077184   -0.00196983   -0.00002742
     atom    5 type  2   force =     0.02294661   -0.01947006   -0.00477443
     atom    6 type  2   force =    -0.02792201    0.01124914   -0.00477054
     atom    7 type  3   force =    -0.00260469    0.01832313    0.00121031
     atom    8 type  3   force =    -0.01441787   -0.00467911   -0.00083077
     atom    9 type  3   force =    -0.00217454    0.00385592    0.00101529
     atom   10 type  3   force =    -0.00036651    0.00137308    0.00309906
     atom   11 type  3   force =     0.00139136    0.00031426    0.00308994
     atom   12 type  3   force =     0.00442885   -0.00012962    0.00102046
     atom   13 type  3   force =     0.01744038    0.00623197    0.00120901
     atom   14 type  3   force =     0.00256879   -0.01493868   -0.00083173
     The non-local contrib.  to forces
     atom    1 type  1   force =     0.00744101    0.00620084   -0.00050868
     atom    2 type  1   force =     0.00202482    0.00947178   -0.00051099
     atom    3 type  1   force =    -0.01753212    0.00331010    0.00361902
     atom    4 type  1   force =     0.01108857   -0.01397463    0.00361651
     atom    5 type  2   force =     0.02690604   -0.03089708   -0.00511230
     atom    6 type  2   force =    -0.03983939    0.00943315   -0.00511319
     atom    7 type  3   force =     0.15367691    1.68435783    0.13611584
     atom    8 type  3   force =    -1.62714134   -0.38612191   -0.07983137
     atom    9 type  3   force =     0.79641323   -0.57692160   -1.47637913
     atom   10 type  3   force =     0.66180364   -0.79593217    1.42973895
     atom   11 type  3   force =    -1.01246814    0.21530187    1.42973621
     atom   12 type  3   force =    -0.88127939    0.43637573   -1.47636931
     atom   13 type  3   force =     1.41929431    0.91997636    0.13612171
     atom   14 type  3   force =     0.41558623   -1.61986858   -0.07982865
     The ionic contribution  to forces
     atom    1 type  1   force =     0.29108025    0.08146314   -0.03969810
     atom    2 type  1   force =    -0.06338131    0.29554549   -0.03977732
     atom    3 type  1   force =     0.64654201    0.37922362    0.10425632
     atom    4 type  1   force =     0.03472616    0.74874432    0.10425565
     atom    5 type  2   force =    -0.15218684   -0.66931714   -0.01987801
     atom    6 type  2   force =    -0.52157093   -0.44621910   -0.01987804
     atom    7 type  3   force =    -0.44405012   -6.90099140   -0.46132617
     atom    8 type  3   force =     6.89134136    1.41849759    0.33304225
     atom    9 type  3   force =    -3.06775515    2.21578835    5.83679125
     atom   10 type  3   force =    -2.94115244    2.73618378   -5.75314746
     atom   11 type  3   force =     3.79064933   -1.32966281   -5.75316630
     atom   12 type  3   force =     3.38897971   -1.68392470    5.83681041
     atom   13 type  3   force =    -5.90126883   -3.60493864   -0.46132772
     atom   14 type  3   force =    -1.95195321    6.75960750    0.33304325
     The local contribution  to forces
     atom    1 type  1   force =    -0.29802463   -0.08695114    0.04053880
     atom    2 type  1   force =     0.06174548   -0.30424860    0.04057415
     atom    3 type  1   force =    -0.63045337   -0.38413786   -0.10790671
     atom    4 type  1   force =    -0.04656596   -0.73676643   -0.10788928
     atom    5 type  2   force =     0.15222419    0.67631081    0.01943610
     atom    6 type  2   force =     0.52776486    0.44951002    0.01945837
     atom    7 type  3   force =     0.28927559    5.25165658    0.32783222
     atom    8 type  3   force =    -5.29482621   -1.04080944   -0.25488542
     atom    9 type  3   force =     2.27702044   -1.64068095   -4.37394688
     atom   10 type  3   force =     2.28546316   -1.94680593    4.34063817
     atom   11 type  3   force =    -2.78687424    1.11674554    4.34074159
     atom   12 type  3   force =    -2.51199339    1.25176744   -4.37407310
     atom   13 type  3   force =     4.51361776    2.70036921    0.32783992
     atom   14 type  3   force =     1.54320370   -5.17090327   -0.25488599
     The core correction contribution to forces
     atom    1 type  1   force =     0.00000000    0.00000000    0.00000000
     atom    2 type  1   force =     0.00000000    0.00000000    0.00000000
     atom    3 type  1   force =     0.00000000    0.00000000    0.00000000
     atom    4 type  1   force =     0.00000000    0.00000000    0.00000000
     atom    5 type  2   force =    -0.00404116    0.00440300    0.00076439
     atom    6 type  2   force =     0.00577394   -0.00152737    0.00076476
     atom    7 type  3   force =    -0.00153464   -0.01670732   -0.00142020
     atom    8 type  3   force =     0.01616866    0.00376205    0.00083375
     atom    9 type  3   force =    -0.00785633    0.00566286    0.01452774
     atom   10 type  3   force =    -0.00647749    0.00790770   -0.01409863
     atom   11 type  3   force =     0.01001340   -0.00205260   -0.01409858
     atom   12 type  3   force =     0.00866838   -0.00431781    0.01452740
     atom   13 type  3   force =    -0.01407324   -0.00913440   -0.00142030
     atom   14 type  3   force =    -0.00419585    0.01606143    0.00083368
     The Hubbard contrib.    to forces
     atom    1 type  1   force =     0.00000000    0.00000000    0.00000000
     atom    2 type  1   force =     0.00000000    0.00000000    0.00000000
     atom    3 type  1   force =     0.00000000    0.00000000    0.00000000
     atom    4 type  1   force =     0.00000000    0.00000000    0.00000000
     atom    5 type  2   force =     0.00000000    0.00000000    0.00000000
     atom    6 type  2   force =     0.00000000    0.00000000    0.00000000
     atom    7 type  3   force =     0.00000000    0.00000000    0.00000000
     atom    8 type  3   force =     0.00000000    0.00000000    0.00000000
     atom    9 type  3   force =     0.00000000    0.00000000    0.00000000
     atom   10 type  3   force =     0.00000000    0.00000000    0.00000000
     atom   11 type  3   force =     0.00000000    0.00000000    0.00000000
     atom   12 type  3   force =     0.00000000    0.00000000    0.00000000
     atom   13 type  3   force =     0.00000000    0.00000000    0.00000000
     atom   14 type  3   force =     0.00000000    0.00000000    0.00000000
     The SCF correction term to forces
     atom    1 type  1   force =    -0.00000868   -0.00003323   -0.00002708
     atom    2 type  1   force =    -0.00001545   -0.00002488    0.00001679
     atom    3 type  1   force =     0.00006044    0.00000598    0.00001313
     atom    4 type  1   force =    -0.00002162    0.00002207   -0.00001079
     atom    5 type  2   force =     0.00004339    0.00002549    0.00001489
     atom    6 type  2   force =    -0.00005148    0.00004758   -0.00000292
     atom    7 type  3   force =     0.00002658    0.00000259    0.00000813
     atom    8 type  3   force =     0.00003866   -0.00001225    0.00000953
     atom    9 type  3   force =     0.00000227    0.00000241    0.00002181
     atom   10 type  3   force =    -0.00000438    0.00001485   -0.00003247
     atom   11 type  3   force =     0.00007002   -0.00002259   -0.00012348
     atom   12 type  3   force =     0.00005255   -0.00003512    0.00012457
     atom   13 type  3   force =    -0.00013061   -0.00004541   -0.00000509
     atom   14 type  3   force =    -0.00007308    0.00015939    0.00000548

     Total force =     0.055514     Total SCF correction =     0.000332

     Computing stress (Cartesian axis) and pressure

          total   stress  (Ry/bohr**3)                   (kbar)     P=     -176.37
  -0.00117863  -0.00003269  -0.00000091         -173.38       -4.81       -0.13
  -0.00003269  -0.00121302  -0.00000148           -4.81     -178.44       -0.22
  -0.00000091  -0.00000148  -0.00120508           -0.13       -0.22     -177.27

     kinetic stress (kbar)   9939.91      4.35      1.44
                                4.35   9944.49      2.38
                                1.44      2.38   9934.90

     local   stress (kbar)  -5828.79    301.11   -121.51
                              301.11  -5512.12   -201.18
                             -121.51   -201.18  -4857.54

     nonloc. stress (kbar)   1854.23     -2.08      0.28
                               -2.08   1852.04      0.46
                                0.28      0.46   1856.37

     hartree stress (kbar)   3747.76    -53.71     38.96
                              -53.71   3691.27     64.50
                               38.96     64.50   3406.80

     exc-cor stress (kbar)   1547.99     -0.80      0.21
                               -0.80   1547.16      0.35
                                0.21      0.35   1547.59

     corecor stress (kbar)  -3876.02      0.24      0.03
                                0.24  -3875.77      0.05
                                0.03      0.05  -3876.52

     ewald   stress (kbar)  -7558.47   -253.92     80.46
                             -253.92  -7825.52    133.22
                               80.46    133.22  -8188.87

     hubbard stress (kbar)      0.00      0.00      0.00
                                0.00      0.00      0.00
                                0.00      0.00      0.00

     DFT-D   stress (kbar)      0.00      0.00      0.00
                                0.00      0.00      0.00
                                0.00      0.00      0.00

     XDM     stress (kbar)      0.00      0.00      0.00
                                0.00      0.00      0.00
                                0.00      0.00      0.00

     dft-nl  stress (kbar)      0.00      0.00      0.00
                                0.00      0.00      0.00
                                0.00      0.00      0.00

     TS-vdW  stress (kbar)      0.00      0.00      0.00
                                0.00      0.00      0.00
                                0.00      0.00      0.00

[...]

                                0.00      0.00      0.00

     Writing all to output data dir new_calculations/myprefix.save/

     General routines

     Parallel routines

     PAW routines

   This run was terminated on:   7:38: 0  20May2023

   JOB DONE.