     Program PWSCF v.7.0 starts on 21May2023 at 14: 6:55

     Reading input from espresso_23699.pwi
Warning: card &CELL ignored
Warning: card / ignored

     Current dimensions of program PWSCF are:
     Max number of different atomic species (ntypx) = 10
     Max number of k-points (npk) =  40000
     Max angular momentum in pseudopotentials (lmaxx) =  4
     file O.pbe-n-kjpaw_psl.0.1.UPF: wavefunction(s)  2P renormalized

     gamma-point specific algorithms are used
     Message from routine setup:
     using ibrav=0 with symmetry is DISCOURAGED, use correct ibrav instead

     Subspace diagonalization in iterative solution of the eigenvalue problem:
     a serial algorithm will be used

     Using Slab Decomposition

     bravais-lattice index     =            0
     lattice parameter (alat)  =      11.8492  a.u.
     unit-cell volume          =    1280.6937 (a.u.)^3
     number of atoms/cell      =           19
     number of atomic types    =            3
     number of electrons       =       185.00
     number of Kohn-Sham states=          112
     kinetic-energy cutoff     =      30.0000  Ry
     charge density cutoff     =     240.0000  Ry
     scf convergence threshold =      1.0E-06
     mixing beta               =       0.7000
     number of iterations used =            8  plain     mixing
     Exchange-correlation= SLA  PW   PBX  PBC
                           (   1   4   3   4   0   0   0)

     celldm(1)=  11.849201  celldm(2)=   0.000000  celldm(3)=   0.000000
     celldm(4)=   0.000000  celldm(5)=   0.000000  celldm(6)=   0.000000

     crystal axes: (cart. coord. in units of alat)
               a(1) = (   1.000000   0.000000   0.000000 )
               a(2) = (  -0.333333   0.942809   0.000000 )
               a(3) = (  -0.333333  -0.471405   0.816497 )

     reciprocal axes: (cart. coord. in units 2 pi/alat)
               b(1) = (  1.000000  0.353553  0.612372 )
               b(2) = (  0.000000  1.060660  0.612372 )
               b(3) = (  0.000000  0.000000  1.224745 )

     PseudoPot. # 1 for Cu read from file:
     /home/pragov/projects/rrg-bengioy-ad/pragov/crystal_structure_design/SSSP/Cu_pbe_v1.2.uspp.F.UPF
     MD5 check sum: 6e991ff952a84172a2a52a1c1e996048
     Pseudo is Ultrasoft + core correction, Zval = 19.0
     Generated by new atomic code, or converted to UPF format
     Using radial grid of  867 points,  6 beta functions with:
                l(1) =   0
                l(2) =   0
                l(3) =   1
                l(4) =   1
                l(5) =   2
                l(6) =   2
     Q(r) pseudized with  8 coefficients,  rinner =    1.150   1.150   1.150
                                                       1.150   1.150

     PseudoPot. # 2 for Ge read from file:
     /home/pragov/projects/rrg-bengioy-ad/pragov/crystal_structure_design/SSSP/ge_pbe_v1.4.uspp.F.UPF
     MD5 check sum: 9c9eaa91e581c3f09632fb3098b2c6b2
     Pseudo is Ultrasoft + core correction, Zval = 14.0
     Generated by new atomic code, or converted to UPF format
     Using radial grid of  873 points,  6 beta functions with:
                l(1) =   0
                l(2) =   0
                l(3) =   1
                l(4) =   1
                l(5) =   2
                l(6) =   2
     Q(r) pseudized with  8 coefficients,  rinner =    1.400   1.400   1.400
                                                       1.400   1.400

     PseudoPot. # 3 for O  read from file:
     /home/pragov/projects/rrg-bengioy-ad/pragov/crystal_structure_design/SSSP/O.pbe-n-kjpaw_psl.0.1.UPF
     MD5 check sum: 0234752ac141de4415c5fc33072bef88
     Pseudo is Projector augmented-wave + core cor, Zval =  6.0
     Generated using "atomic" code by A. Dal Corso  v.5.0.99 svn rev. 10869
     Shape of augmentation charge: BESSEL
     Using radial grid of 1095 points,  4 beta functions with:
                l(1) =   0
                l(2) =   0
                l(3) =   1
                l(4) =   1
     Q(r) pseudized with 0 coefficients

     atomic species   valence    mass     pseudopotential
        Cu            19.00    63.54600     Cu( 1.00)
        Ge            14.00    72.63000     Ge( 1.00)
        O              6.00    15.99900     O ( 1.00)

      2 Sym. Ops., with inversion, found

                                    s                        frac. trans.

      isym =  1     identity

 cryst.   s( 1) = (     1          0          0      )
                  (     0          1          0      )
                  (     0          0          1      )

 cart.    s( 1) = (  1.0000000  0.0000000 -0.0000000 )
                  (  0.0000000  1.0000000 -0.0000000 )
                  (  0.0000000  0.0000000  1.0000000 )

      isym =  2     inversion

 cryst.   s( 2) = (    -1          0          0      )
                  (     0         -1          0      )
                  (     0          0         -1      )

 cart.    s( 2) = ( -1.0000000 -0.0000000  0.0000000 )
                  (  0.0000000 -1.0000000  0.0000000 )
                  (  0.0000000  0.0000000 -1.0000000 )

   Cartesian axes

     site n.     atom                  positions (alat units)
         1           Cu  tau(   1) = (   0.3333333   0.4714045   0.0000000  )
         2           Cu  tau(   2) = (   0.3333333  -0.2357023   0.4082483  )
         3           Cu  tau(   3) = (  -0.3333333   0.2357023   0.4082483  )
         4           Ge  tau(   4) = (  -0.1666667  -0.2357023   0.4082483  )
         5           Ge  tau(   5) = (  -0.1666667   0.4714045   0.0000000  )
         6           Ge  tau(   6) = (   0.1666667   0.2357023   0.4082483  )
         7           Ge  tau(   7) = (   0.5000000   0.0000000   0.0000000  )
         8           O   tau(   8) = (  -0.0018743   0.7084328   0.1058155  )
         9           O   tau(   9) = (   0.3352077  -0.2370283   0.7106811  )
        10           O   tau(  10) = (   0.2469347   0.5324976   0.4105443  )
        11           O   tau(  11) = (   0.5802690   0.5606975   0.1500680  )
        12           O   tau(  12) = (   0.6685417  -0.0255497   0.2558843  )
        13           O   tau(  13) = (  -0.0863987   0.3210185   0.2558843  )
        14           O   tau(  14) = (   0.3314587   0.2088280   0.1500680  )
        15           O   tau(  15) = (  -0.3352083   0.4969542   0.5606123  )
        16           O   tau(  16) = (   0.0863987  -0.0610931   0.4059523  )
        17           O   tau(  17) = (  -0.2469357  -0.0892930   0.6664286  )
        18           O   tau(  18) = (   0.4197320   0.1503861   0.5606123  )
        19           O   tau(  19) = (   0.0018747   0.2625766   0.6664286  )

   Crystallographic axes

     site n.     atom                  positions (cryst. coord.)
         1           Cu  tau(   1) = (  0.5000000  0.5000000  0.0000000  )
         2           Cu  tau(   2) = (  0.5000000  0.0000000  0.5000000  )
         3           Cu  tau(   3) = (  0.0000000  0.5000000  0.5000000  )
         4           Ge  tau(   4) = ( -0.0000000  0.0000000  0.5000000  )
         5           Ge  tau(   5) = ( -0.0000000  0.5000000  0.0000000  )
         6           Ge  tau(   6) = (  0.5000000  0.5000000  0.5000000  )
         7           Ge  tau(   7) = (  0.5000000  0.0000000  0.0000000  )
         8           O   tau(   8) = (  0.3133930  0.8162050  0.1295970  )
         9           O   tau(   9) = (  0.6866070  0.1837950  0.8704030  )
        10           O   tau(  10) = (  0.6866070  0.8162050  0.5028120  )
        11           O   tau(  11) = (  0.8704030  0.6866070  0.1837950  )
        12           O   tau(  12) = (  0.8162050  0.1295970  0.3133930  )
        13           O   tau(  13) = (  0.1837950  0.4971880  0.3133930  )
        14           O   tau(  14) = (  0.4971880  0.3133930  0.1837950  )
        15           O   tau(  15) = (  0.1837950  0.8704030  0.6866070  )
        16           O   tau(  16) = (  0.3133930  0.1837950  0.4971880  )
        17           O   tau(  17) = (  0.1295970  0.3133930  0.8162050  )
        18           O   tau(  18) = (  0.8162050  0.5028120  0.6866070  )
        19           O   tau(  19) = (  0.5028120  0.6866070  0.8162050  )

     number of k points=     1  Methfessel-Paxton smearing, width (Ry)=  0.0010
                       cart. coord. in units 2pi/alat
        k(    1) = (   0.0000000   0.0000000   0.0000000), wk =   2.0000000

                       cryst. coord.
        k(    1) = (   0.0000000   0.0000000   0.0000000), wk =   2.0000000

     Check: negative core charge=   -0.000014

     Initial potential from superposition of free atoms

     starting charge     181.9965, renormalised to     185.0000
     Starting wfcs are  123 randomized atomic wfcs
     Checking if some PAW data can be deallocated...

     Self-consistent Calculation

     iteration #  1     ecut=    30.00 Ry     beta= 0.70
     Davidson diagonalization with overlap

     ethr =  1.00E-02,  avg # of iterations =  3.0

     total energy              =   -2559.81223574 Ry
     estimated scf accuracy    <       3.25661767 Ry

[...]

     total energy              =   -2561.13466405 Ry
     estimated scf accuracy    <       0.00000363 Ry

     iteration # 18     ecut=    30.00 Ry     beta= 0.70
     Davidson diagonalization with overlap

     ethr =  1.96E-09,  avg # of iterations =  1.0

     End of self-consistent calculation

          k = 0.0000 0.0000 0.0000 (  1780 PWs)   bands (ev):

  -104.7831-104.6684-104.5027 -61.9933 -61.8930 -61.8237 -61.4336 -61.1416
   -61.0460 -60.6456 -60.4978 -60.0307 -15.4586 -15.3741 -15.3579 -15.2858
   -15.2522 -15.1961 -15.1706 -15.1473 -15.0772 -15.0372 -14.9793 -14.9472
   -14.8723 -14.7599 -14.7306 -14.5001 -14.4612 -14.3793 -14.2860 -14.1012
   -11.4872 -11.3080 -10.6670 -10.2699 -10.1581 -10.0830  -9.9124  -9.7588
    -9.5815  -9.4773  -9.2975  -9.2375   0.3591   0.4411   0.5066   2.8532
     2.9420   3.0221   3.4730   3.6744   3.7826   4.0532   4.1131   4.3904
     4.6839   4.9115   4.9578   5.1134   5.5205   5.5850   5.6563   5.7121
     5.8073   5.8262   6.0480   6.0852   6.1467   6.1644   6.2040   6.8549
     6.9243   7.1977   7.4380   7.4870   7.7550   7.9787   8.0066   8.0450
     8.1003   8.1736   8.4075   8.4361   8.5578   8.6402   8.7617   8.8605
     8.9692   9.2718   9.4204   9.5181   9.8744  10.2290  10.3633  10.6728
    15.2217  15.5163  15.5537  15.8730  16.2355  16.4102  16.8855  16.9826
    17.2680  17.6306  18.2420  18.4256  20.0967  20.1196  20.2873  20.3094

     occupation numbers
     1.0000   1.0000   1.0000   1.0000   1.0000   1.0000   1.0000   1.0000
     1.0000   1.0000   1.0000   1.0000   1.0000   1.0000   1.0000   1.0000
     1.0000   1.0000   1.0000   1.0000   1.0000   1.0000   1.0000   1.0000
     1.0000   1.0000   1.0000   1.0000   1.0000   1.0000   1.0000   1.0000
     1.0000   1.0000   1.0000   1.0000   1.0000   1.0000   1.0000   1.0000
     1.0000   1.0000   1.0000   1.0000   1.0000   1.0000   1.0000   1.0000
     1.0000   1.0000   1.0000   1.0000   1.0000   1.0000   1.0000   1.0000
     1.0000   1.0000   1.0000   1.0000   1.0000   1.0000   1.0000   1.0000
     1.0000   1.0000   1.0000   1.0000   1.0000   1.0000   1.0000   1.0000
     1.0000   1.0000   1.0000   1.0000   1.0000   1.0000   1.0000   1.0000
     1.0000   1.0000   1.0000   1.0000   1.0000   1.0000   1.0000   1.0000
     1.0000   1.0000   1.0000   1.0000   0.5000  -0.0000  -0.0000  -0.0000
    -0.0000  -0.0000  -0.0000  -0.0000  -0.0000  -0.0000  -0.0000  -0.0000
    -0.0000  -0.0000  -0.0000  -0.0000  -0.0000  -0.0000  -0.0000  -0.0000

     the Fermi energy is     9.8744 ev

!    total energy              =   -2561.13466427 Ry
     estimated scf accuracy    <       0.00000005 Ry
     smearing contrib. (-TS)   =      -0.00028209 Ry
     internal energy E=F+TS    =   -2561.13438218 Ry

     The total energy is F=E-TS. E is the sum of the following terms:
     one-electron contribution =   -1602.13247777 Ry
     hartree contribution      =     934.52425105 Ry
     xc contribution           =    -438.36942967 Ry
     ewald contribution        =   -1340.76948848 Ry
     one-center paw contrib.   =    -114.38723730 Ry
      -> PAW hartree energy AE =     347.94787632 Ry
      -> PAW hartree energy PS =    -347.04035550 Ry
      -> PAW xc energy AE      =    -204.38767905 Ry
      -> PAW xc energy PS      =      89.09292092 Ry
      -> total E_H with PAW    =     935.43177187 Ry
      -> total E_XC with PAW   =    -553.66418780 Ry

     convergence has been achieved in  18 iterations

     Forces acting on atoms (cartesian axes, Ry/au):

     atom    1 type  1   force =     0.00000000    0.00000000    0.00000000
     atom    2 type  1   force =     0.00000000    0.00000000    0.00000000
     atom    3 type  1   force =     0.00000000    0.00000000    0.00000000
     atom    4 type  2   force =     0.00000000    0.00000000    0.00000000
     atom    5 type  2   force =     0.00000000    0.00000000    0.00000000
     atom    6 type  2   force =     0.00000000    0.00000000    0.00000000
     atom    7 type  2   force =     0.00000000    0.00000000    0.00000000
     atom    8 type  3   force =     0.05259438    0.03819179    0.10535247
     atom    9 type  3   force =    -0.05259438   -0.03819179   -0.10535247
     atom   10 type  3   force =     0.00598576    0.04127172   -0.03480566
     atom   11 type  3   force =    -0.02283797    0.08214831    0.01742298
     atom   12 type  3   force =     0.02157575    0.01117101    0.02995657
     atom   13 type  3   force =    -0.00483082    0.10561661   -0.05682639
     atom   14 type  3   force =     0.01104531   -0.09432449    0.20239233
     atom   15 type  3   force =    -0.02157575   -0.01117101   -0.02995657
     atom   16 type  3   force =    -0.00598576   -0.04127172    0.03480566
     atom   17 type  3   force =     0.02283797   -0.08214831   -0.01742298
     atom   18 type  3   force =     0.00483082   -0.10561661    0.05682639
     atom   19 type  3   force =    -0.01104531    0.09432449   -0.20239233
     The non-local contrib.  to forces
     atom    1 type  1   force =     0.00000000    0.00000000    0.00000000
     atom    2 type  1   force =     0.00000000    0.00000000    0.00000000
     atom    3 type  1   force =     0.00000000    0.00000000    0.00000000
     atom    4 type  2   force =     0.00000000    0.00000000    0.00000000
     atom    5 type  2   force =     0.00000000    0.00000000    0.00000000
     atom    6 type  2   force =     0.00000000    0.00000000    0.00000000
     atom    7 type  2   force =     0.00000000    0.00000000    0.00000000
     atom    8 type  3   force =     0.18813694    0.03291355    0.08099890
     atom    9 type  3   force =    -0.18813694   -0.03291355   -0.08099890
     atom   10 type  3   force =     0.06582137   -0.09886557   -0.07373403
     atom   11 type  3   force =     0.01385245    0.01600566    0.12428096
     atom   12 type  3   force =    -0.17413085   -0.11875021    0.02618821
     atom   13 type  3   force =     0.07703590    0.21944366    0.09892595
     atom   14 type  3   force =     0.18263763   -0.01655931    0.28369785
     atom   15 type  3   force =     0.17413085    0.11875021   -0.02618821
     atom   16 type  3   force =    -0.06582137    0.09886557    0.07373403
     atom   17 type  3   force =    -0.01385245   -0.01600566   -0.12428096
     atom   18 type  3   force =    -0.07703590   -0.21944366   -0.09892595
     atom   19 type  3   force =    -0.18263763    0.01655931   -0.28369785
     The ionic contribution  to forces
     atom    1 type  1   force =     0.00000000   -0.00000000    0.00000000
     atom    2 type  1   force =     0.00000000   -0.00000000   -0.00000000
     atom    3 type  1   force =    -0.00000000    0.00000000    0.00000000
     atom    4 type  2   force =     0.00000000   -0.00000000   -0.00000000
     atom    5 type  2   force =     0.00000000   -0.00000000    0.00000000
     atom    6 type  2   force =    -0.00000000    0.00000000   -0.00000000
     atom    7 type  2   force =    -0.00000000    0.00000000   -0.00000000
     atom    8 type  3   force =    -5.38769699    3.80959567   -5.81845684
     atom    9 type  3   force =     5.38769699   -3.80959567    5.81845684
     atom   10 type  3   force =     4.75083126   -3.35936254    6.59848905
     atom   11 type  3   force =     4.75071174    7.39414586   -0.38997821
     atom   12 type  3   force =     5.38762024   -3.13407933   -6.20852905
     atom   13 type  3   force =     4.75084780   -4.03478957   -6.20851757
     atom   14 type  3   force =    -5.38765201   -6.94384013   -0.38995122
     atom   15 type  3   force =    -5.38762024    3.13407932    6.20852905
     atom   16 type  3   force =    -4.75083126    3.35936254   -6.59848905
     atom   17 type  3   force =    -4.75071174   -7.39414586    0.38997821
     atom   18 type  3   force =    -4.75084780    4.03478957    6.20851757
     atom   19 type  3   force =     5.38765202    6.94384014    0.38995122
     The local contribution  to forces
     atom    1 type  1   force =     0.00002214    0.00006599   -0.00002436
     atom    2 type  1   force =    -0.00000311   -0.00001581    0.00002638
     atom    3 type  1   force =     0.00002594    0.00001864    0.00000450
     atom    4 type  2   force =     0.00000790   -0.00000164   -0.00001464
     atom    5 type  2   force =    -0.00001844    0.00000034    0.00000638
     atom    6 type  2   force =    -0.00003019    0.00000734    0.00004194
     atom    7 type  2   force =     0.00003056   -0.00002356   -0.00003119
     atom    8 type  3   force =     5.25439452   -3.80340272    5.84338235
     atom    9 type  3   force =    -5.25439378    3.80340018   -5.84338340
     atom   10 type  3   force =    -4.81023113    3.49696618   -6.55906826
     atom   11 type  3   force =    -4.78729658   -7.32785570    0.28404575
     atom   12 type  3   force =    -5.19460515    3.26309012    6.21190402
     atom   13 type  3   force =    -4.83171640    3.92077990    6.05523247
     atom   14 type  3   force =     5.21806248    6.86834972    0.30882990
     atom   15 type  3   force =     5.19461251   -3.26309432   -6.21191026
     atom   16 type  3   force =     4.81022668   -3.49696724    6.55907315
     atom   17 type  3   force =     4.78729017    7.32786976   -0.28406067
     atom   18 type  3   force =     4.83170535   -3.92077851   -6.05522419
     atom   19 type  3   force =    -5.21805918   -6.86834944   -0.30882811
     The core correction contribution to forces
     atom    1 type  1   force =     0.00000001    0.00000003    0.00000000
     atom    2 type  1   force =    -0.00000000    0.00000000    0.00000000
     atom    3 type  1   force =     0.00000000    0.00000000   -0.00000000
     atom    4 type  2   force =    -0.00000002    0.00000015   -0.00000010
     atom    5 type  2   force =     0.00000000    0.00000013   -0.00000010
     atom    6 type  2   force =     0.00000007   -0.00000005   -0.00000007
     atom    7 type  2   force =    -0.00000013    0.00000007    0.00000017
     atom    8 type  3   force =    -0.00221918   -0.00092071   -0.00059270
     atom    9 type  3   force =     0.00221914    0.00092076    0.00059273
     atom   10 type  3   force =    -0.00041771    0.00251984   -0.00051490
     atom   11 type  3   force =    -0.00020762   -0.00014686   -0.00100316
     atom   12 type  3   force =     0.00273372    0.00086604    0.00032866
     atom   13 type  3   force =    -0.00094833    0.00014509   -0.00252037
     atom   14 type  3   force =    -0.00201809   -0.00218553   -0.00025160
     atom   15 type  3   force =    -0.00273383   -0.00086599   -0.00032865
     atom   16 type  3   force =     0.00041775   -0.00251983    0.00051483
     atom   17 type  3   force =     0.00020749    0.00014693    0.00100305
     atom   18 type  3   force =     0.00094833   -0.00014510    0.00252030
     atom   19 type  3   force =     0.00201804    0.00218542    0.00025164
     The Hubbard contrib.    to forces
     atom    1 type  1   force =     0.00000000    0.00000000    0.00000000
     atom    2 type  1   force =     0.00000000    0.00000000    0.00000000
     atom    3 type  1   force =     0.00000000    0.00000000    0.00000000
     atom    4 type  2   force =     0.00000000    0.00000000    0.00000000
     atom    5 type  2   force =     0.00000000    0.00000000    0.00000000
     atom    6 type  2   force =     0.00000000    0.00000000    0.00000000
     atom    7 type  2   force =     0.00000000    0.00000000    0.00000000
     atom    8 type  3   force =     0.00000000    0.00000000    0.00000000
     atom    9 type  3   force =     0.00000000    0.00000000    0.00000000
     atom   10 type  3   force =     0.00000000    0.00000000    0.00000000
     atom   11 type  3   force =     0.00000000    0.00000000    0.00000000
     atom   12 type  3   force =     0.00000000    0.00000000    0.00000000
     atom   13 type  3   force =     0.00000000    0.00000000    0.00000000
     atom   14 type  3   force =     0.00000000    0.00000000    0.00000000
     atom   15 type  3   force =     0.00000000    0.00000000    0.00000000
     atom   16 type  3   force =     0.00000000    0.00000000    0.00000000
     atom   17 type  3   force =     0.00000000    0.00000000    0.00000000
     atom   18 type  3   force =     0.00000000    0.00000000    0.00000000
     atom   19 type  3   force =     0.00000000    0.00000000    0.00000000
     The SCF correction term to forces
     atom    1 type  1   force =    -0.00002789   -0.00008248    0.00003034
     atom    2 type  1   force =     0.00001087    0.00001865   -0.00002310
     atom    3 type  1   force =    -0.00003382   -0.00002238   -0.00000795
     atom    4 type  2   force =    -0.00001020    0.00000195    0.00001757
     atom    5 type  2   force =     0.00002156   -0.00000102   -0.00000949
     atom    6 type  2   force =     0.00003762   -0.00000724   -0.00005104
     atom    7 type  2   force =    -0.00003690    0.00002990    0.00003710
     atom    8 type  3   force =    -0.00002196    0.00000808    0.00002170
     atom    9 type  3   force =     0.00001916   -0.00000142   -0.00001878
     atom   10 type  3   force =    -0.00001661    0.00001366    0.00002012
     atom   11 type  3   force =     0.00009895    0.00000010    0.00007529
     atom   12 type  3   force =    -0.00004581    0.00004583    0.00006641
     atom   13 type  3   force =    -0.00004944    0.00003677    0.00004952
     atom   14 type  3   force =     0.00001391   -0.00009182    0.00006887
     atom   15 type  3   force =     0.00003134   -0.00003879   -0.00005683
     atom   16 type  3   force =     0.00002385   -0.00001291   -0.00002967
     atom   17 type  3   force =    -0.00009861   -0.00001273   -0.00006497
     atom   18 type  3   force =     0.00006119   -0.00003967   -0.00006495
     atom   19 type  3   force =    -0.00001995    0.00008649   -0.00006774

     Total force =     0.428310     Total SCF correction =     0.000331

     Computing stress (Cartesian axis) and pressure

          total   stress  (Ry/bohr**3)                   (kbar)     P=    -1210.88
  -0.00749599  -0.00007626  -0.00018377        -1102.70      -11.22      -27.03
  -0.00007626  -0.00855228   0.00045511          -11.22    -1258.08       66.95
  -0.00018377   0.00045511  -0.00864584          -27.03       66.95    -1271.85

     kinetic stress (kbar)  30845.76     32.18    -31.89
                               32.18  30674.84     49.35
                              -31.89     49.35  30680.19

     local   stress (kbar) -14204.55   -100.53     73.38
                             -100.53 -13975.70    -38.01
                               73.38    -38.01 -13910.77

     nonloc. stress (kbar)   9931.97     33.97    -56.57
                               33.97   9705.02     58.02
                              -56.57     58.02   9670.85

     hartree stress (kbar)  35787.16     23.01    -11.67
                               23.01  35802.93     -1.60
                              -11.67     -1.60  35752.72

     exc-cor stress (kbar)   2682.87      0.44      0.08
                                0.44   2684.67     -0.30
                                0.08     -0.30   2683.61

     corecor stress (kbar) -14810.76     -0.25     -0.31
                               -0.25 -14814.67     -0.43
                               -0.31     -0.43 -14813.18

     ewald   stress (kbar) -51335.15     -0.04     -0.06
                               -0.04 -51335.17     -0.09
                               -0.06     -0.09 -51335.27

     hubbard stress (kbar)      0.00      0.00      0.00
                                0.00      0.00      0.00
                                0.00      0.00      0.00

     DFT-D   stress (kbar)      0.00      0.00      0.00
                                0.00      0.00      0.00
                                0.00      0.00      0.00

     XDM     stress (kbar)      0.00      0.00      0.00
                                0.00      0.00      0.00
                                0.00      0.00      0.00

     dft-nl  stress (kbar)      0.00      0.00      0.00
                                0.00      0.00      0.00
                                0.00      0.00      0.00

     TS-vdW  stress (kbar)      0.00      0.00      0.00
                                0.00      0.00      0.00
                                0.00      0.00      0.00

[...]

                                0.00      0.00      0.00

     Writing all to output data dir new_calculations/myprefix.save/

     General routines

     Parallel routines

     PAW routines

   This run was terminated on:  14: 7:39  21May2023

   JOB DONE.