     Program PWSCF v.7.0 starts on 21May2023 at  3:19:38

     Reading input from espresso_5878.pwi
Warning: card &CELL ignored
Warning: card / ignored

     Current dimensions of program PWSCF are:
     Max number of different atomic species (ntypx) = 10
     Max number of k-points (npk) =  40000
     Max angular momentum in pseudopotentials (lmaxx) =  4

     gamma-point specific algorithms are used
     Message from routine setup:
     using ibrav=0 with symmetry is DISCOURAGED, use correct ibrav instead

     Subspace diagonalization in iterative solution of the eigenvalue problem:
     a serial algorithm will be used

     Using Slab Decomposition

     bravais-lattice index     =            0
     lattice parameter (alat)  =      15.2134  a.u.
     unit-cell volume          =    3703.0007 (a.u.)^3
     number of atoms/cell      =           14
     number of atomic types    =            3
     number of electrons       =       120.00
     number of Kohn-Sham states=           72
     kinetic-energy cutoff     =      30.0000  Ry
     charge density cutoff     =     240.0000  Ry
     scf convergence threshold =      1.0E-06
     mixing beta               =       0.7000
     number of iterations used =            8  plain     mixing
     Exchange-correlation=  SLA  PW   PBX  PBC
                           (   1   4   3   4   0   0   0)

     celldm(1)=  15.213446  celldm(2)=   0.000000  celldm(3)=   0.000000
     celldm(4)=   0.000000  celldm(5)=   0.000000  celldm(6)=   0.000000

     crystal axes: (cart. coord. in units of alat)
               a(1) = (   1.000000   0.000000   0.000000 )
               a(2) = (  -0.500000   0.866025   0.000000 )
               a(3) = (   0.000000   0.000000   1.214340 )

     reciprocal axes: (cart. coord. in units 2 pi/alat)
               b(1) = (  1.000000  0.577350  0.000000 )
               b(2) = (  0.000000  1.154701  0.000000 )
               b(3) = (  0.000000  0.000000  0.823492 )

     PseudoPot. # 1 for Rb read from file:
     /home/pragov/projects/rrg-bengioy-ad/pragov/crystal_structure_design/SSSP/Rb_ONCV_PBE-1.0.oncvpsp.upf
     MD5 check sum: 55a5172d6bfbce6759a58e35d43f6aa9
     Pseudo is Norm-conserving, Zval =  9.0
     Generated using ONCVPSP code by D. R. Hamann
     Using radial grid of 2308 points,  6 beta functions with:
                l(1) =   0
                l(2) =   0
                l(3) =   1
                l(4) =   1
                l(5) =   2
                l(6) =   2

     PseudoPot. # 2 for Sb read from file:
     /home/pragov/projects/rrg-bengioy-ad/pragov/crystal_structure_design/SSSP/sb_pbe_v1.4.uspp.F.UPF
     MD5 check sum: 9bc50dfb53373b713f5709b9110fe27f
     Pseudo is Ultrasoft + core correction, Zval = 15.0
     Generated by new atomic code, or converted to UPF format
     Using radial grid of  891 points,  6 beta functions with:
                l(1) =   0
                l(2) =   0
                l(3) =   1
                l(4) =   1
                l(5) =   2
                l(6) =   2
     Q(r) pseudized with  8 coefficients,  rinner =    1.350   1.350   1.350
                                                       1.350   1.350

     PseudoPot. # 3 for Br read from file:
     /home/pragov/projects/rrg-bengioy-ad/pragov/crystal_structure_design/SSSP/br_pbe_v1.4.uspp.F.UPF
     MD5 check sum: d3ffb7b29f6225aa16fe06858fb2a80b
     Pseudo is Ultrasoft + core correction, Zval =  7.0
     Generated by new atomic code, or converted to UPF format
     Using radial grid of  879 points,  6 beta functions with:
                l(1) =   0
                l(2) =   0
                l(3) =   1
                l(4) =   1
                l(5) =   2
                l(6) =   2
     Q(r) pseudized with  8 coefficients,  rinner =    1.100   1.100   1.100
                                                       1.100   1.100

     atomic species   valence    mass     pseudopotential
        Rb             9.00    85.46780     Rb( 1.00)
        Sb            15.00   121.76000     Sb( 1.00)
        Br             7.00    79.90400     Br( 1.00)

     12 Sym. Ops., with inversion, found

                                    s                        frac. trans.

      isym =  1     identity

 cryst.   s( 1) = (     1          0          0      )
                  (     0          1          0      )
                  (     0          0          1      )

 cart.    s( 1) = (  1.0000000 -0.0000000  0.0000000 )
                  (  0.0000000  1.0000000  0.0000000 )
                  (  0.0000000  0.0000000  1.0000000 )

      isym =  2     180 deg rotation - cart. axis [1,0,0]

[...]

      isym =  3     120 deg rotation - cryst. axis [0,0,1]

[...]

      isym =  6     180 deg rotation - cryst. axis [1,1,0]

[...]

      isym =  7     inversion

[...]

      isym =  8     inv. 180 deg rotation - cart. axis [1,0,0]

[...]

      isym =  9     inv. 120 deg rotation - cryst. axis [0,0,1]

 cryst.   s( 9) = (     0         -1          0      )
                  (     1          1          0      )
                  (     0          0         -1      )

 cart.    s( 9) = (  0.5000001  0.8660255  0.0000000 )
                  ( -0.8660253  0.4999999  0.0000000 )
                  (  0.0000000  0.0000000 -1.0000000 )

[...]

 cryst.   s(10) = (     1          1          0      )
                  (    -1          0          0      )
                  (     0          0         -1      )

 cart.    s(10) = (  0.4999999 -0.8660255  0.0000000 )
                  (  0.8660253  0.5000001  0.0000000 )
                  (  0.0000000  0.0000000 -1.0000000 )

[...]

      isym = 12     inv. 180 deg rotation - cryst. axis [1,1,0]

 cryst.   s(12) = (     0         -1          0      )
                  (    -1          0          0      )
                  (     0          0          1      )

 cart.    s(12) = (  0.5000001 -0.8660253  0.0000000 )
                  ( -0.8660253 -0.5000001  0.0000000 )
                  (  0.0000000  0.0000000  1.0000000 )

   Cartesian axes

     site n.     atom                  positions (alat units)
         1           Rb  tau(   1) = (   0.0000000   0.0000000   0.0000000  )
         2           Rb  tau(   2) = (   0.5000005   0.2886748   0.8133214  )
         3           Rb  tau(   3) = (  -0.0000006   0.5773505   0.4010189  )
         4           Sb  tau(   4) = (   0.5000005   0.2886748   0.2282863  )
         5           Sb  tau(   5) = (  -0.0000006   0.5773505   0.9860541  )
         6           Br  tau(   6) = (   0.7417660   0.1490915   0.4114149  )
         7           Br  tau(   7) = (   0.4999999   0.5678424   0.4114149  )
         8           Br  tau(   8) = (   0.2582340   0.1490915   0.4114149  )
         9           Br  tau(   9) = (   0.2417659   0.7169339   0.8029255  )
        10           Br  tau(  10) = (  -0.0000000   0.2981829   0.8029255  )
        11           Br  tau(  11) = (   0.2499999   0.4330127   0.0000000  )
        12           Br  tau(  12) = (   0.5000000   0.0000000   0.0000000  )
        13           Br  tau(  13) = (  -0.2500001   0.4330127   0.0000000  )
        14           Br  tau(  14) = (  -0.2417661   0.7169339   0.8029255  )

   Crystallographic axes

     site n.     atom                  positions (cryst. coord.)
         1           Rb  tau(   1) = (  0.0000000  0.0000000  0.0000000  )
         2           Rb  tau(   2) = (  0.6666670  0.3333330  0.6697640  )
         3           Rb  tau(   3) = (  0.3333330  0.6666670  0.3302360  )
         4           Sb  tau(   4) = (  0.6666670  0.3333330  0.1879920  )
         5           Sb  tau(   5) = (  0.3333330  0.6666670  0.8120080  )
         6           Br  tau(   6) = (  0.8278440  0.1721560  0.3387970  )
         7           Br  tau(   7) = (  0.8278440  0.6556880  0.3387970  )
         8           Br  tau(   8) = (  0.3443120  0.1721560  0.3387970  )
         9           Br  tau(   9) = (  0.6556880  0.8278440  0.6612030  )
        10           Br  tau(  10) = (  0.1721560  0.3443120  0.6612030  )
        11           Br  tau(  11) = (  0.5000000  0.5000000  0.0000000  )
        12           Br  tau(  12) = (  0.5000000  0.0000000  0.0000000  )
        13           Br  tau(  13) = (  0.0000000  0.5000000  0.0000000  )
        14           Br  tau(  14) = (  0.1721560  0.8278440  0.6612030  )

     number of k points=     1  Methfessel-Paxton smearing, width (Ry)=  0.0010
                       cart. coord. in units 2pi/alat
        k(    1) = (   0.0000000   0.0000000   0.0000000), wk =   2.0000000

                       cryst. coord.
        k(    1) = (   0.0000000   0.0000000   0.0000000), wk =   2.0000000

     Check: negative core charge=   -0.000002

     Initial potential from superposition of free atoms

     starting charge     117.9255, renormalised to     120.0000
     Starting wfcs are   69 randomized atomic wfcs +    3 random wfcs

     Self-consistent Calculation

     iteration #  1     ecut=    30.00 Ry     beta= 0.70
     Davidson diagonalization with overlap

     ethr =  1.00E-02,  avg # of iterations =  6.0

     Threshold (ethr) on eigenvalues was too large:
     Diagonalizing with lowered threshold

     Davidson diagonalization with overlap

[...]

     total energy              =    -939.10684819 Ry
     estimated scf accuracy    <       0.56312746 Ry

[...]

     total energy              =    -939.29496089 Ry
     estimated scf accuracy    <       0.00003744 Ry

     iteration #  7     ecut=    30.00 Ry     beta= 0.70
     Davidson diagonalization with overlap

     ethr =  3.12E-08,  avg # of iterations =  2.0

     End of self-consistent calculation

          k = 0.0000 0.0000 0.0000 (  5114 PWs)   bands (ev):

   -26.7215 -26.7215 -26.7211 -26.7211 -26.7190 -26.7172 -26.7123 -26.7123
   -26.7118 -26.7118 -23.8631 -23.6886 -23.6883 -11.8297 -11.5961 -11.3180
   -11.2359 -11.2359 -11.2105 -11.2105 -11.0602 -11.0601  -7.9196  -7.9196
    -7.9175  -7.7543  -7.7543  -7.7509  -7.7509  -7.7470  -7.7440  -6.3733
    -5.7802  -1.6137  -1.5540  -1.5540  -0.4895  -0.4895  -0.3543   0.0768
     0.2283   0.2283   0.3503   0.3503   0.5680   0.5680   0.5868   1.0962
     1.0962   1.0965   1.1501   1.2162   1.2162   1.4160   1.4160   1.4812
     1.4813   1.5153   1.5264   2.6845   4.5830   5.1348   5.1348   5.9880
     6.3589   6.3589   6.3683   7.5905   7.7893   7.8065   7.8066   8.3599

     occupation numbers
     1.0000   1.0000   1.0000   1.0000   1.0000   1.0000   1.0000   1.0000
     1.0000   1.0000   1.0000   1.0000   1.0000   1.0000   1.0000   1.0000
     1.0000   1.0000   1.0000   1.0000   1.0000   1.0000   1.0000   1.0000
     1.0000   1.0000   1.0000   1.0000   1.0000   1.0000   1.0000   1.0000
     1.0000   1.0000   1.0000   1.0000   1.0000   1.0000   1.0000   1.0000
     1.0000   1.0000   1.0000   1.0000   1.0000   1.0000   1.0000   1.0000
     1.0000   1.0000   1.0000   1.0000   1.0000   1.0000   1.0000   1.0000
     1.0000   1.0000   1.0000   1.0000  -0.0000  -0.0000  -0.0000  -0.0000
    -0.0000  -0.0000  -0.0000  -0.0000  -0.0000  -0.0000  -0.0000  -0.0000

     the Fermi energy is     4.0768 ev

!    total energy              =    -939.29496914 Ry
     estimated scf accuracy    <       0.00000076 Ry
     smearing contrib. (-TS)   =       0.00000000 Ry
     internal energy E=F+TS    =    -939.29496914 Ry

     The total energy is F=E-TS. E is the sum of the following terms:
     one-electron contribution =    -387.27436420 Ry
     hartree contribution      =     234.90751413 Ry
     xc contribution           =    -345.84555746 Ry
     ewald contribution        =    -441.08256162 Ry

     convergence has been achieved in   7 iterations

     Forces acting on atoms (cartesian axes, Ry/au):

     atom    1 type  1   force =     0.00000000   -0.00000000    0.00000000
     atom    2 type  1   force =    -0.00000000   -0.00000000   -0.00047621
     atom    3 type  1   force =     0.00000000    0.00000000    0.00047621
     atom    4 type  2   force =     0.00000000    0.00000000    0.01161553
     atom    5 type  2   force =     0.00000000    0.00000000   -0.01161553
     atom    6 type  3   force =     0.00098062   -0.00056616   -0.00442220
     atom    7 type  3   force =    -0.00000000    0.00113232   -0.00442220
     atom    8 type  3   force =    -0.00098062   -0.00056616   -0.00442220
     atom    9 type  3   force =     0.00098062    0.00056616    0.00442220
     atom   10 type  3   force =    -0.00000000   -0.00113232    0.00442220
     atom   11 type  3   force =     0.00000000    0.00000000    0.00000000
     atom   12 type  3   force =    -0.00000000   -0.00000000    0.00000000
     atom   13 type  3   force =    -0.00000000   -0.00000000    0.00000000
     atom   14 type  3   force =    -0.00098062    0.00056616    0.00442220
     The non-local contrib.  to forces
     atom    1 type  1   force =     0.00000000    0.00000000    0.00000000
     atom    2 type  1   force =     0.00000000    0.00000000    0.00342402
     atom    3 type  1   force =    -0.00000000   -0.00000000   -0.00342402
     atom    4 type  2   force =     0.00000000    0.00000000    0.28861560
     atom    5 type  2   force =     0.00000000    0.00000000   -0.28861560
     atom    6 type  3   force =     0.01422066   -0.00821030    0.00535033
     atom    7 type  3   force =    -0.00000000    0.01642061    0.00535033
     atom    8 type  3   force =    -0.01422066   -0.00821031    0.00535033
     atom    9 type  3   force =     0.01422066    0.00821031   -0.00535033
     atom   10 type  3   force =     0.00000000   -0.01642061   -0.00535033
     atom   11 type  3   force =    -0.00000000    0.00000000   -0.00000000
     atom   12 type  3   force =     0.00000000   -0.00000000    0.00000000
     atom   13 type  3   force =    -0.00000000   -0.00000000    0.00000000
     atom   14 type  3   force =    -0.01422066    0.00821030   -0.00535033
     The ionic contribution  to forces
     atom    1 type  1   force =     0.00000000    0.00000000    0.00000000
     atom    2 type  1   force =    -0.00002377    0.00001372   -1.02350240
     atom    3 type  1   force =     0.00002377   -0.00001372    1.02350240
     atom    4 type  2   force =    -0.00003541    0.00002044    0.19470089
     atom    5 type  2   force =     0.00003541   -0.00002044   -0.19470089
     atom    6 type  3   force =     5.11269078   -2.95181299    3.93433637
     atom    7 type  3   force =    -0.00002254    5.90359435    3.93431410
     atom    8 type  3   force =    -5.11267361   -2.95177826    3.93431410
     atom    9 type  3   force =     5.11267361    2.95177826   -3.93431410
     atom   10 type  3   force =     0.00002254   -5.90359435   -3.93431410
     atom   11 type  3   force =    -0.00000000   -0.00000000   -0.00000000
     atom   12 type  3   force =    -0.00000000    0.00000000    0.00000000
     atom   13 type  3   force =     0.00000000   -0.00000000    0.00000000
     atom   14 type  3   force =    -5.11269078    2.95181299   -3.93433637
     The local contribution  to forces
     atom    1 type  1   force =    -0.00000119   -0.00000219   -0.00000961
     atom    2 type  1   force =    -0.00008996   -0.00005774    1.01935841
     atom    3 type  1   force =     0.00009799    0.00004434   -1.01934839
     atom    4 type  2   force =    -0.00005084   -0.00001187   -0.46882398
     atom    5 type  2   force =     0.00004639    0.00001836    0.46882991
     atom    6 type  3   force =    -5.14033475    2.96773924   -3.95298973
     atom    7 type  3   force =    -0.00001790   -5.93551089   -3.95297811
     atom    8 type  3   force =     5.14032510    2.96775653   -3.95297453
     atom    9 type  3   force =    -5.14033819   -2.96776078    3.95298833
     atom   10 type  3   force =     0.00001442    5.93552756    3.95299530
     atom   11 type  3   force =    -0.00001566    0.00001151   -0.00001654
     atom   12 type  3   force =     0.00000024   -0.00002125   -0.00001907
     atom   13 type  3   force =     0.00001711    0.00001076   -0.00001928
     atom   14 type  3   force =     5.14035342   -2.96774971    3.95301381
     The core correction contribution to forces
     atom    1 type  1   force =     0.00000000    0.00000000    0.00000000
     atom    2 type  1   force =     0.00000000    0.00000000    0.00000000
     atom    3 type  1   force =     0.00000000    0.00000000    0.00000000
     atom    4 type  2   force =    -0.00000151   -0.00000011   -0.00201431
     atom    5 type  2   force =     0.00000142   -0.00000003    0.00201428
     atom    6 type  3   force =     0.01458766   -0.00842244    0.00945509
     atom    7 type  3   force =    -0.00000105    0.01684396    0.00945401
     atom    8 type  3   force =    -0.01458804   -0.00842144    0.00945317
     atom    9 type  3   force =     0.01458733    0.00842102   -0.00945266
     atom   10 type  3   force =     0.00000119   -0.01684363   -0.00945388
     atom   11 type  3   force =     0.00000012    0.00000023   -0.00000008
     atom   12 type  3   force =     0.00000007   -0.00000044   -0.00000013
     atom   13 type  3   force =    -0.00000006    0.00000011   -0.00000023
     atom   14 type  3   force =    -0.01458687    0.00842215   -0.00945489
     The Hubbard contrib.    to forces
     atom    1 type  1   force =     0.00000000    0.00000000    0.00000000
     atom    2 type  1   force =     0.00000000    0.00000000    0.00000000
     atom    3 type  1   force =     0.00000000    0.00000000    0.00000000
     atom    4 type  2   force =     0.00000000    0.00000000    0.00000000
     atom    5 type  2   force =     0.00000000    0.00000000    0.00000000
     atom    6 type  3   force =     0.00000000    0.00000000    0.00000000
     atom    7 type  3   force =     0.00000000    0.00000000    0.00000000
     atom    8 type  3   force =     0.00000000    0.00000000    0.00000000
     atom    9 type  3   force =     0.00000000    0.00000000    0.00000000
     atom   10 type  3   force =     0.00000000    0.00000000    0.00000000
     atom   11 type  3   force =     0.00000000    0.00000000    0.00000000
     atom   12 type  3   force =     0.00000000    0.00000000    0.00000000
     atom   13 type  3   force =     0.00000000    0.00000000    0.00000000
     atom   14 type  3   force =     0.00000000    0.00000000    0.00000000
     The SCF correction term to forces
     atom    1 type  1   force =    -0.00000039    0.00000594    0.00001151
     atom    2 type  1   force =     0.00014272    0.00005323    0.00024411
     atom    3 type  1   force =    -0.00015104   -0.00003810   -0.00025344
     atom    4 type  2   force =     0.00007661   -0.00001197   -0.00086797
     atom    5 type  2   force =    -0.00006732    0.00000539    0.00085147
     atom    6 type  3   force =    -0.00018398    0.00014275   -0.00057856
     atom    7 type  3   force =     0.00004765   -0.00021740   -0.00056235
     atom    8 type  3   force =     0.00018055    0.00008577   -0.00056478
     atom    9 type  3   force =    -0.00016221   -0.00007951    0.00054604
     atom   10 type  3   force =    -0.00004411    0.00019796    0.00054423
     atom   11 type  3   force =     0.00001506   -0.00001314    0.00001780
     atom   12 type  3   force =    -0.00000069    0.00002415    0.00002074
     atom   13 type  3   force =    -0.00001740   -0.00001218    0.00002157
     atom   14 type  3   force =     0.00016043   -0.00013038    0.00055221

     Total force =     0.019883     Total SCF correction =     0.001947

     Computing stress (Cartesian axis) and pressure

          total   stress  (Ry/bohr**3)                   (kbar)     P=      -10.54
  -0.00000898  -0.00000000   0.00000000           -1.32       -0.00        0.00
  -0.00000000  -0.00000898   0.00000000           -0.00       -1.32        0.00
  -0.00000000  -0.00000000  -0.00019696           -0.00       -0.00      -28.97

     kinetic stress (kbar)   5134.85      0.00      0.00
                                0.00   5134.85      0.00
                                0.00      0.00   5094.42

     local   stress (kbar)    910.19     -0.00      0.00
                               -0.00    910.18      0.00
                                0.00      0.00    579.98

     nonloc. stress (kbar)  -1344.63     -0.00      0.00
                               -0.00  -1344.63      0.00
                                0.00      0.00  -1336.55

     hartree stress (kbar)   3064.09     -0.00     -0.00
                               -0.00   3064.10     -0.00
                               -0.00     -0.00   3203.72

     exc-cor stress (kbar)   7313.68     -0.00     -0.00
                               -0.00   7313.68     -0.00
                               -0.00     -0.00   7313.89

     corecor stress (kbar)  -9174.44      0.00     -0.00
                                0.00  -9174.44      0.00
                               -0.00      0.00  -9172.14

     ewald   stress (kbar)  -5905.06      0.00      0.00
                                0.00  -5905.06     -0.00
                                0.00     -0.00  -5712.29

     hubbard stress (kbar)      0.00      0.00      0.00
                                0.00      0.00      0.00
                                0.00      0.00      0.00

     DFT-D   stress (kbar)      0.00      0.00      0.00
                                0.00      0.00      0.00
                                0.00      0.00      0.00

     XDM     stress (kbar)      0.00      0.00      0.00
                                0.00      0.00      0.00
                                0.00      0.00      0.00

     dft-nl  stress (kbar)      0.00      0.00      0.00
                                0.00      0.00      0.00
                                0.00      0.00      0.00

     TS-vdW  stress (kbar)      0.00      0.00      0.00
                                0.00      0.00      0.00
                                0.00      0.00      0.00

[...]

                                0.00      0.00      0.00

     Writing all to output data dir new_calculations/myprefix.save/

     General routines

     Parallel routines

   This run was terminated on:   3:20:53  21May2023

   JOB DONE.