     Program PWSCF v.7.0 starts on 20May2023 at 15: 2:39

     Reading input from espresso_5495.pwi
Warning: card &CELL ignored
Warning: card / ignored

     Current dimensions of program PWSCF are:
     Max number of different atomic species (ntypx) = 10
     Max number of k-points (npk) =  40000
     Max angular momentum in pseudopotentials (lmaxx) =  4
     file Ba.pbe-spn-kjpaw_psl.1.0.0.UPF: wavefunction(s)  5S 6S renormalized

     gamma-point specific algorithms are used
     Message from routine setup:
     using ibrav=0 with symmetry is DISCOURAGED, use correct ibrav instead

     Subspace diagonalization in iterative solution of the eigenvalue problem:
     a serial algorithm will be used

     Using Slab Decomposition

     bravais-lattice index     =            0
     lattice parameter (alat)  =      16.6783  a.u.
     unit-cell volume          =    3570.3559 (a.u.)^3
     number of atoms/cell      =           14
     number of atomic types    =            3
     number of electrons       =       112.00
     number of Kohn-Sham states=           67
     kinetic-energy cutoff     =      30.0000  Ry
     charge density cutoff     =     240.0000  Ry
     scf convergence threshold =      1.0E-06
     mixing beta               =       0.7000
     number of iterations used =            8  plain     mixing
     Exchange-correlation=  SLA  PW   PBX  PBC
                           (   1   4   3   4   0   0   0)

     celldm(1)=  16.678263  celldm(2)=   0.000000  celldm(3)=   0.000000
     celldm(4)=   0.000000  celldm(5)=   0.000000  celldm(6)=   0.000000

     crystal axes: (cart. coord. in units of alat)
               a(1) = (   1.000000   0.000000   0.000000 )
               a(2) = (  -0.315229   0.949016   0.000000 )
               a(3) = (  -0.342386  -0.474508   0.810934 )

     reciprocal axes: (cart. coord. in units 2 pi/alat)
               b(1) = (  1.000000  0.332164  0.616573 )
               b(2) = (  0.000000  1.053723  0.616573 )
               b(3) = (  0.000000  0.000000  1.233146 )

     PseudoPot. # 1 for Rb read from file:
     /home/pragov/projects/rrg-bengioy-ad/pragov/crystal_structure_design/SSSP/Rb_ONCV_PBE-1.0.oncvpsp.upf
     MD5 check sum: 55a5172d6bfbce6759a58e35d43f6aa9
     Pseudo is Norm-conserving, Zval =  9.0
     Generated using ONCVPSP code by D. R. Hamann
     Using radial grid of 2308 points,  6 beta functions with:
                l(1) =   0
                l(2) =   0
                l(3) =   1
                l(4) =   1
                l(5) =   2
                l(6) =   2

     PseudoPot. # 2 for Ba read from file:
     /home/pragov/projects/rrg-bengioy-ad/pragov/crystal_structure_design/SSSP/Ba.pbe-spn-kjpaw_psl.1.0.0.UPF
     MD5 check sum: c432291d3e53af55f19d5e8866385beb
     Pseudo is Projector augmented-wave + core cor, Zval = 10.0
     Generated using "atomic" code by A. Dal Corso  v.5.1
     Shape of augmentation charge: PSQ
     Using radial grid of 1251 points,  7 beta functions with:
                l(1) =   0
                l(2) =   0
                l(3) =   0
                l(4) =   1
                l(5) =   1
                l(6) =   2
                l(7) =   2
     Q(r) pseudized with 0 coefficients

     PseudoPot. # 3 for Br read from file:
     /home/pragov/projects/rrg-bengioy-ad/pragov/crystal_structure_design/SSSP/br_pbe_v1.4.uspp.F.UPF
     MD5 check sum: d3ffb7b29f6225aa16fe06858fb2a80b
     Pseudo is Ultrasoft + core correction, Zval =  7.0
     Generated by new atomic code, or converted to UPF format
     Using radial grid of  879 points,  6 beta functions with:
                l(1) =   0
                l(2) =   0
                l(3) =   1
                l(4) =   1
                l(5) =   2
                l(6) =   2
     Q(r) pseudized with  8 coefficients,  rinner =    1.100   1.100   1.100
                                                       1.100   1.100

     atomic species   valence    mass     pseudopotential
        Rb             9.00    85.46780     Rb( 1.00)
        Ba            10.00   137.32700     Ba( 1.00)
        Br             7.00    79.90400     Br( 1.00)

      2 Sym. Ops. (no inversion) found ( 1 have fractional translation)

                                    s                        frac. trans.

      isym =  1     identity

 cryst.   s( 1) = (     1          0          0      )
                  (     0          1          0      )
                  (     0          0          1      )

 cart.    s( 1) = (  1.0000000  0.0000000 -0.0000000 )
                  (  0.0000000  1.0000000 -0.0000000 )
                  (  0.0000000  0.0000000  1.0000000 )

      isym =  2     inv. 180 deg rotation - cart. axis [0,0,1]

 cryst.   s( 2) = (     1          0          0      )    f =(  0.2500000 )
                  (     0          1          0      )       ( -0.2500000 )
                  (    -1         -1         -1      )       ( -0.5000000 )

 cart.    s( 2) = (  1.0000000  0.0000000  0.0000000 )    f =(  0.5000000 )
                  (  0.0000000  1.0000000  0.0000000 )       (  0.0000000 )
                  (  0.0000000  0.0000000 -1.0000000 )       ( -0.4054671 )

   Cartesian axes

     site n.     atom                  positions (alat units)
         1           Rb  tau(   1) = (  -0.0006208   0.1808378   0.5117855  )
         2           Rb  tau(   2) = (   0.5141992   0.5309240   0.2991488  )
         3           Rb  tau(   3) = (   0.1569936  -0.2936701   0.7046159  )
         4           Rb  tau(   4) = (   0.0141992   0.5309240   0.1063183  )
         5           Ba  tau(   5) = (   0.5000000  -0.0000000   0.4054671  )
         6           Ba  tau(   6) = (   0.0000000   0.0000000   0.0000000  )
         7           Br  tau(   7) = (   0.7752230   0.2221494   0.2023086  )
         8           Br  tau(   8) = (  -0.3759353   0.3312198   0.6086256  )
         9           Br  tau(   9) = (   0.3203790   0.7912072   0.0931999  )
        10           Br  tau(  10) = (   0.3074901   0.0789472   0.7177344  )
        11           Br  tau(  11) = (  -0.2183206  -0.1432890   0.6077758  )
        12           Br  tau(  12) = (   0.2752240   0.2221494   0.2031585  )
        13           Br  tau(  13) = (   0.1498754   0.5534560   0.4986670  )
        14           Br  tau(  14) = (   0.1356068  -0.1578085   0.3122673  )

   Crystallographic axes

     site n.     atom                  positions (cryst. coord.)
         1           Rb  tau(   1) = (  0.3750000  0.5061060  0.6311060  )
         2           Rb  tau(   2) = (  0.8750000  0.7438940  0.3688940  )
         3           Rb  tau(   3) = (  0.4938940  0.1250000  0.8688940  )
         4           Rb  tau(   4) = (  0.2561060  0.6250000  0.1311060  )
         5           Ba  tau(   5) = (  0.7500000  0.2500000  0.5000000  )
         6           Ba  tau(   6) = (  0.0000000  0.0000000  0.0000000  )
         7           Br  tau(   7) = (  0.9737510  0.3588220  0.2494760  )
         8           Br  tau(   8) = (  0.1093460  0.7242760  0.7505240  )
         9           Br  tau(   9) = (  0.6406540  0.8911780  0.1149290  )
        10           Br  tau(  10) = (  0.7762490  0.5257240  0.8850710  )
        11           Br  tau(  11) = (  0.1088220  0.2237510  0.7494760  )
        12           Br  tau(  12) = (  0.4742760  0.3593460  0.2505240  )
        13           Br  tau(  13) = (  0.6411780  0.8906540  0.6149290  )
        14           Br  tau(  14) = (  0.2757240  0.0262490  0.3850710  )

     number of k points=     1  Methfessel-Paxton smearing, width (Ry)=  0.0010
                       cart. coord. in units 2pi/alat
        k(    1) = (   0.0000000   0.0000000   0.0000000), wk =   2.0000000

                       cryst. coord.
        k(    1) = (   0.0000000   0.0000000   0.0000000), wk =   2.0000000

     Check: negative core charge=   -0.000001

     Initial potential from superposition of free atoms

     starting charge     111.8668, renormalised to     112.0000
     Starting wfcs are   62 randomized atomic wfcs +    5 random wfcs
     Checking if some PAW data can be deallocated...

     Self-consistent Calculation

     iteration #  1     ecut=    30.00 Ry     beta= 0.70
     Davidson diagonalization with overlap

     ethr =  1.00E-02,  avg # of iterations = 12.0

     Threshold (ethr) on eigenvalues was too large:
     Diagonalizing with lowered threshold

     Davidson diagonalization with overlap

[...]

     negative rho (up, down):  1.249E-01 0.000E+00

     total energy              =   -1447.13263398 Ry
     estimated scf accuracy    <       0.83360323 Ry

[...]

     total energy              =   -1447.31591562 Ry
     estimated scf accuracy    <       0.00000128 Ry

     iteration # 14     ecut=    30.00 Ry     beta= 0.70
     Davidson diagonalization with overlap

     ethr =  1.15E-09,  avg # of iterations =  4.0

[...]

     End of self-consistent calculation

          k = 0.0000 0.0000 0.0000 (  4975 PWs)   bands (ev):

   -23.4459 -23.4364 -22.3541 -22.3454 -22.3223 -22.2809 -11.1641 -10.9080
   -10.8211 -10.5293 -10.2802 -10.2085 -10.1069 -10.0107  -9.1240  -9.0362
    -8.8214  -8.7515  -8.6774  -8.4629  -6.4656  -6.4595  -6.4398  -6.4217
    -6.4083  -6.4011  -6.3989  -6.3765  -6.3680  -6.3602  -6.3531  -6.3433
     0.5534   0.7092   0.7614   0.8610   0.9012   0.9841   1.0555   1.2494
     1.2805   1.3093   1.5751   1.6196   1.6957   1.7229   1.7527   1.7968
     1.9445   2.0139   2.0391   2.0720   2.2589   2.5025   2.5126   2.6133
     6.2648   7.3449   7.4412   7.4750   7.5688   7.9300   8.1977   8.5005
     8.5458   8.5614   8.9205

     occupation numbers
     1.0000   1.0000   1.0000   1.0000   1.0000   1.0000   1.0000   1.0000
     1.0000   1.0000   1.0000   1.0000   1.0000   1.0000   1.0000   1.0000
     1.0000   1.0000   1.0000   1.0000   1.0000   1.0000   1.0000   1.0000
     1.0000   1.0000   1.0000   1.0000   1.0000   1.0000   1.0000   1.0000
     1.0000   1.0000   1.0000   1.0000   1.0000   1.0000   1.0000   1.0000
     1.0000   1.0000   1.0000   1.0000   1.0000   1.0000   1.0000   1.0000
     1.0000   1.0000   1.0000   1.0000   1.0000   1.0000   1.0000   1.0000
    -0.0000  -0.0000  -0.0000  -0.0000  -0.0000  -0.0000  -0.0000  -0.0000
    -0.0000  -0.0000  -0.0000

     the Fermi energy is     4.9768 ev

!    total energy              =   -1447.31591547 Ry
     estimated scf accuracy    <       0.00000060 Ry
     smearing contrib. (-TS)   =       0.00000000 Ry
     internal energy E=F+TS    =   -1447.31591547 Ry

     The total energy is F=E-TS. E is the sum of the following terms:
     one-electron contribution =     -98.95567052 Ry
     hartree contribution      =      89.88089856 Ry
     xc contribution           =    -280.35223465 Ry
     ewald contribution        =    -407.91329917 Ry
     one-center paw contrib.   =    -749.97560969 Ry
      -> PAW hartree energy AE =      56.79066527 Ry
      -> PAW hartree energy PS =     -56.48382406 Ry
      -> PAW xc energy AE      =    -788.39932676 Ry
      -> PAW xc energy PS      =      38.11687586 Ry
      -> total E_H with PAW    =      90.18773977 Ry
      -> total E_XC with PAW   =   -1030.63468555 Ry

     convergence has been achieved in  14 iterations

     negative rho (up, down):  2.058E-03 0.000E+00

     Forces acting on atoms (cartesian axes, Ry/au):

     atom    1 type  1   force =     0.00413298   -0.00654934    0.00187778
     atom    2 type  1   force =     0.00160125   -0.00415145    0.00175676
     atom    3 type  1   force =     0.00413298   -0.00654934   -0.00187778
     atom    4 type  1   force =     0.00160125   -0.00415145   -0.00175676
     atom    5 type  2   force =     0.00621391    0.00186444    0.00361394
     atom    6 type  2   force =     0.00621391    0.00186444   -0.00361394
     atom    7 type  3   force =     0.01102408   -0.00863861    0.02852354
     atom    8 type  3   force =    -0.01551385   -0.00159061    0.00253381
     atom    9 type  3   force =     0.02343863    0.00964198   -0.06024898
     atom   10 type  3   force =    -0.03089700    0.00942359    0.05110312
     atom   11 type  3   force =    -0.01551385   -0.00159061   -0.00253381
     atom   12 type  3   force =     0.01102408   -0.00863861   -0.02852354
     atom   13 type  3   force =    -0.03089700    0.00942359   -0.05110312
     atom   14 type  3   force =     0.02343863    0.00964198    0.06024898
     The non-local contrib.  to forces
     atom    1 type  1   force =    -0.00370183    0.00074468    0.00474889
     atom    2 type  1   force =     0.00353233   -0.00505937   -0.00294377
     atom    3 type  1   force =    -0.00370183    0.00074468   -0.00474889
     atom    4 type  1   force =     0.00353233   -0.00505937    0.00294377
     atom    5 type  2   force =    -0.00017499    0.00045405    0.00018603
     atom    6 type  2   force =    -0.00017499    0.00045405   -0.00018603
     atom    7 type  3   force =    -0.00159700    0.01364591    0.02309957
     atom    8 type  3   force =    -0.01078994   -0.00111980    0.00593909
     atom    9 type  3   force =     0.03061194   -0.01828034   -0.02477178
     atom   10 type  3   force =    -0.05862756    0.04257149    0.03907319
     atom   11 type  3   force =    -0.01078994   -0.00111980   -0.00593909
     atom   12 type  3   force =    -0.00159700    0.01364591   -0.02309957
     atom   13 type  3   force =    -0.05862756    0.04257149   -0.03907319
     atom   14 type  3   force =     0.03061194   -0.01828034    0.02477178
     The ionic contribution  to forces
     atom    1 type  1   force =    -0.25278694    0.18241319    0.31173173
     atom    2 type  1   force =     0.25278309   -0.18239994   -0.31173786
     atom    3 type  1   force =    -0.25278492    0.18239741   -0.31173786
     atom    4 type  1   force =     0.25279870   -0.18239688    0.31173173
     atom    5 type  2   force =    -0.00000194   -0.00000557    0.00000408
     atom    6 type  2   force =    -0.00000467   -0.00000360    0.00000408
     atom    7 type  3   force =    -0.17713923    0.88203773    0.12058791
     atom    8 type  3   force =     0.89292106    0.10989478   -0.12057822
     atom    9 type  3   force =    -0.26010000   -0.56654541   -0.65977821
     atom   10 type  3   force =    -0.45566731   -0.42540108    0.65977057
     atom   11 type  3   force =     0.89290705    0.10993577    0.12058791
     atom   12 type  3   force =    -0.17718255    0.88203811   -0.12057822
     atom   13 type  3   force =    -0.45566948   -0.42543041   -0.65977821
     atom   14 type  3   force =    -0.26007285   -0.56653410    0.65977057
     The local contribution  to forces
     atom    1 type  1   force =     0.25351399   -0.18628446   -0.31433503
     atom    2 type  1   force =    -0.25504191    0.18646839    0.31896164
     atom    3 type  1   force =     0.26081809   -0.18556642    0.31488582
     atom    4 type  1   force =    -0.26132862    0.18770594   -0.31391819
     atom    5 type  2   force =     0.00388447    0.00215050   -0.00671025
     atom    6 type  2   force =     0.00254541    0.00626838   -0.01422430
     atom    7 type  3   force =     0.22247183   -0.91450163   -0.08665856
     atom    8 type  3   force =    -0.95675392   -0.08858005    0.09379785
     atom    9 type  3   force =     0.22060359    0.62177923    0.60749427
     atom   10 type  3   force =     0.49703080    0.38796932   -0.64149901
     atom   11 type  3   force =    -0.85368850   -0.11975117   -0.13862942
     atom   12 type  3   force =     0.15664990   -0.89787468    0.14198364
     atom   13 type  3   force =     0.47174293    0.39528248    0.66018613
     atom   14 type  3   force =     0.27602238    0.58724953   -0.63885371
     The core correction contribution to forces
     atom    1 type  1   force =     0.00000000    0.00000000    0.00000000
     atom    2 type  1   force =     0.00000000    0.00000000    0.00000000
     atom    3 type  1   force =     0.00000000    0.00000000    0.00000000
     atom    4 type  1   force =     0.00000000    0.00000000    0.00000000
     atom    5 type  2   force =    -0.00088211    0.00065967   -0.00327563
     atom    6 type  2   force =     0.00032164    0.00129501   -0.00263083
     atom    7 type  3   force =    -0.00671036    0.00599219   -0.00192624
     atom    8 type  3   force =     0.00989988   -0.00386033    0.00127078
     atom    9 type  3   force =     0.00476382   -0.00887786    0.00410472
     atom   10 type  3   force =    -0.00664057    0.00492642    0.00077941
     atom   11 type  3   force =    -0.00167659   -0.00103407   -0.00066370
     atom   12 type  3   force =     0.00023602    0.00526853   -0.00024471
     atom   13 type  3   force =    -0.00223758    0.00392528   -0.00540194
     atom   14 type  3   force =    -0.00247495   -0.00365529    0.00184484
     The Hubbard contrib.    to forces
     atom    1 type  1   force =     0.00000000    0.00000000    0.00000000
     atom    2 type  1   force =     0.00000000    0.00000000    0.00000000
     atom    3 type  1   force =     0.00000000    0.00000000    0.00000000
     atom    4 type  1   force =     0.00000000    0.00000000    0.00000000
     atom    5 type  2   force =     0.00000000    0.00000000    0.00000000
     atom    6 type  2   force =     0.00000000    0.00000000    0.00000000
     atom    7 type  3   force =     0.00000000    0.00000000    0.00000000
     atom    8 type  3   force =     0.00000000    0.00000000    0.00000000
     atom    9 type  3   force =     0.00000000    0.00000000    0.00000000
     atom   10 type  3   force =     0.00000000    0.00000000    0.00000000
     atom   11 type  3   force =     0.00000000    0.00000000    0.00000000
     atom   12 type  3   force =     0.00000000    0.00000000    0.00000000
     atom   13 type  3   force =     0.00000000    0.00000000    0.00000000
     atom   14 type  3   force =     0.00000000    0.00000000    0.00000000
     The SCF correction term to forces
     atom    1 type  1   force =     0.00000185    0.00000600    0.00000582
     atom    2 type  1   force =     0.00000208    0.00000004   -0.00000450
     atom    3 type  1   force =    -0.00001043   -0.00000010   -0.00000320
     atom    4 type  1   force =     0.00000652   -0.00000804    0.00000466
     atom    5 type  2   force =     0.00006623    0.00011133    0.00001608
     atom    6 type  2   force =    -0.00006921   -0.00010128    0.00002952
     atom    7 type  3   force =     0.00000287    0.00001121   -0.00000083
     atom    8 type  3   force =     0.00000852    0.00000951   -0.00000008
     atom    9 type  3   force =     0.00000416   -0.00001031   -0.00001160
     atom   10 type  3   force =    -0.00001210    0.00000037    0.00001299
     atom   11 type  3   force =     0.00001671   -0.00000242    0.00000609
     atom   12 type  3   force =    -0.00000432    0.00001316   -0.00000637
     atom   13 type  3   force =    -0.00000355   -0.00001452   -0.00000188
     atom   14 type  3   force =    -0.00001075   -0.00000751    0.00000188

     Total force =     0.136588     Total SCF correction =     0.000187

     Computing stress (Cartesian axis) and pressure

     negative rho (up, down):  2.058E-03 0.000E+00
          total   stress  (Ry/bohr**3)                   (kbar)     P=       62.21
   0.00057240  -0.00087361  -0.00000000           84.20     -128.51       -0.00
  -0.00087361   0.00002431  -0.00000000         -128.51        3.58       -0.00
  -0.00000000  -0.00000000   0.00067196           -0.00       -0.00       98.85

     kinetic stress (kbar)   4781.70   -117.78      0.00
                             -117.78   4703.21      0.00
                                0.00      0.00   4763.42

     local   stress (kbar)   2272.94    113.38    -18.27
                              113.38   2354.48     10.17
                              -18.27     10.17   2157.37

     nonloc. stress (kbar)  -1034.39     47.70     -0.00
                               47.70  -1003.32     -0.00
                               -0.00     -0.00  -1017.07

     hartree stress (kbar)   1233.38    -54.67      1.94
                              -54.67   1195.22     -0.82
                                1.94     -0.82   1274.65

     exc-cor stress (kbar)   6299.68     -1.16     -0.14
                               -1.16   6298.86      0.10
                               -0.14      0.10   6300.19

     corecor stress (kbar)  -7864.45      9.97      2.33
                                9.97  -7856.53     -1.24
                                2.33     -1.24  -7865.95

     ewald   stress (kbar)  -5604.66   -125.96     -0.00
                             -125.96  -5688.34     -0.00
                               -0.00     -0.00  -5513.77

     hubbard stress (kbar)      0.00      0.00      0.00
                                0.00      0.00      0.00
                                0.00      0.00      0.00

     DFT-D   stress (kbar)      0.00      0.00      0.00
                                0.00      0.00      0.00
                                0.00      0.00      0.00

     XDM     stress (kbar)      0.00      0.00      0.00
                                0.00      0.00      0.00
                                0.00      0.00      0.00

     dft-nl  stress (kbar)      0.00      0.00      0.00
                                0.00      0.00      0.00
                                0.00      0.00      0.00

     TS-vdW  stress (kbar)      0.00      0.00      0.00
                                0.00      0.00      0.00
                                0.00      0.00      0.00

[...]

                                0.00      0.00      0.00

     Writing all to output data dir new_calculations/myprefix.save/

     General routines

     Parallel routines

     PAW routines

   This run was terminated on:  15: 3:39  20May2023

   JOB DONE.