     Program PWSCF v.7.0 starts on 21May2023 at  0:14: 7

     Reading input from espresso_6628.pwi
Warning: card &CELL ignored
Warning: card / ignored

     Current dimensions of program PWSCF are:
     Max number of different atomic species (ntypx) = 10
     Max number of k-points (npk) =  40000
     Max angular momentum in pseudopotentials (lmaxx) =  4
     file O.pbe-n-kjpaw_psl.0.1.UPF: wavefunction(s)  2P renormalized

     gamma-point specific algorithms are used
     Message from routine setup:
     using ibrav=0 with symmetry is DISCOURAGED, use correct ibrav instead

     Subspace diagonalization in iterative solution of the eigenvalue problem:
     a serial algorithm will be used

     Using Slab Decomposition

     bravais-lattice index     =            0
     lattice parameter (alat)  =       9.5742  a.u.
     unit-cell volume          =     265.2898 (a.u.)^3
     number of atoms/cell      =            4
     number of atomic types    =            3
     number of electrons       =        32.00
     number of Kohn-Sham states=           20
     kinetic-energy cutoff     =      30.0000  Ry
     charge density cutoff     =     240.0000  Ry
     scf convergence threshold =      1.0E-06
     mixing beta               =       0.7000
     number of iterations used =            8  plain     mixing
     Exchange-correlation= SLA  PW   PBX  PBC
                           (   1   4   3   4   0   0   0)

     celldm(1)=   9.574187  celldm(2)=   0.000000  celldm(3)=   0.000000
     celldm(4)=   0.000000  celldm(5)=   0.000000  celldm(6)=   0.000000

     crystal axes: (cart. coord. in units of alat)
               a(1) = (   1.000000   0.000000   0.000000 )
               a(2) = (   0.813497   0.581569   0.000000 )
               a(3) = (   0.813497   0.260880   0.519773 )

     reciprocal axes: (cart. coord. in units 2 pi/alat)
               b(1) = (  1.000000 -1.398798 -0.863029 )
               b(2) = (  0.000000  1.719487 -0.863029 )
               b(3) = (  0.000000  0.000000  1.923916 )

     PseudoPot. # 1 for Li read from file:
     /home/pragov/projects/rrg-bengioy-ad/pragov/crystal_structure_design/SSSP/li_pbe_v1.4.uspp.F.UPF
     MD5 check sum: e912e257baa3777c20ea3d68f190483c
     Pseudo is Ultrasoft, Zval =  3.0
     Generated by new atomic code, or converted to UPF format
     Using radial grid of  751 points,  5 beta functions with:
                l(1) =   0
                l(2) =   0
                l(3) =   0
                l(4) =   1
                l(5) =   1
     Q(r) pseudized with 10 coefficients,  rinner =    1.150   1.150   1.150

     PseudoPot. # 2 for Rh read from file:
     /home/pragov/projects/rrg-bengioy-ad/pragov/crystal_structure_design/SSSP/Rh_ONCV_PBE-1.0.oncvpsp.upf
     MD5 check sum: ba07c69523b14cacd10683cd4c4284c1
     Pseudo is Norm-conserving, Zval = 17.0
     Generated using ONCVPSP code by D. R. Hamann
     Using radial grid of 1442 points,  6 beta functions with:
                l(1) =   0
                l(2) =   0
                l(3) =   1
                l(4) =   1
                l(5) =   2
                l(6) =   2

     PseudoPot. # 3 for O  read from file:
     /home/pragov/projects/rrg-bengioy-ad/pragov/crystal_structure_design/SSSP/O.pbe-n-kjpaw_psl.0.1.UPF
     MD5 check sum: 0234752ac141de4415c5fc33072bef88
     Pseudo is Projector augmented-wave + core cor, Zval =  6.0
     Generated using "atomic" code by A. Dal Corso  v.5.0.99 svn rev. 10869
     Shape of augmentation charge: BESSEL
     Using radial grid of 1095 points,  4 beta functions with:
                l(1) =   0
                l(2) =   0
                l(3) =   1
                l(4) =   1
     Q(r) pseudized with 0 coefficients

     atomic species   valence    mass     pseudopotential
        Li             3.00     6.94000     Li( 1.00)
        Rh            17.00   102.90550     Rh( 1.00)
        O              6.00    15.99900     O ( 1.00)

      2 Sym. Ops., with inversion, found

                                    s                        frac. trans.

      isym =  1     identity

 cryst.   s( 1) = (     1          0          0      )
                  (     0          1          0      )
                  (     0          0          1      )

 cart.    s( 1) = (  1.0000000  0.0000000  0.0000000 )
                  (  0.0000000  1.0000000 -0.0000000 )
                  (  0.0000000  0.0000000  1.0000000 )

      isym =  2     inversion

 cryst.   s( 2) = (    -1          0          0      )
                  (     0         -1          0      )
                  (     0          0         -1      )

 cart.    s( 2) = ( -1.0000000 -0.0000000 -0.0000000 )
                  (  0.0000000 -1.0000000  0.0000000 )
                  (  0.0000000  0.0000000 -1.0000000 )

   Cartesian axes

     site n.     atom                  positions (alat units)
         1           Li  tau(   1) = (   1.3134971   0.4212243   0.2598866  )
         2           Rh  tau(   2) = (   0.0000000   0.0000000   0.0000000  )
         3           O   tau(   3) = (   1.9513471   0.6257758   0.3860906  )
         4           O   tau(   4) = (   0.6756471   0.2166727   0.1336825  )

   Crystallographic axes

     site n.     atom                  positions (cryst. coord.)
         1           Li  tau(   1) = (  0.5000000  0.5000000  0.5000000  )
         2           Rh  tau(   2) = (  0.0000000  0.0000000  0.0000000  )
         3           O   tau(   3) = (  0.7428060  0.7428060  0.7428060  )
         4           O   tau(   4) = (  0.2571940  0.2571940  0.2571940  )

     number of k points=     1  Methfessel-Paxton smearing, width (Ry)=  0.0010
                       cart. coord. in units 2pi/alat
        k(    1) = (   0.0000000   0.0000000   0.0000000), wk =   2.0000000

                       cryst. coord.
        k(    1) = (   0.0000000   0.0000000   0.0000000), wk =   2.0000000

     Check: negative core charge=   -0.000015

     Initial potential from superposition of free atoms

     starting charge      31.5488, renormalised to      32.0000
     Starting wfcs are   23 randomized atomic wfcs
     Checking if some PAW data can be deallocated...

     Self-consistent Calculation

     iteration #  1     ecut=    30.00 Ry     beta= 0.70
     Davidson diagonalization with overlap

     ethr =  1.00E-02,  avg # of iterations =  2.0

     total energy              =    -314.00803088 Ry
     estimated scf accuracy    <       0.79137322 Ry

[...]

     total energy              =    -314.43629760 Ry
     estimated scf accuracy    <       0.00000296 Ry

     iteration #  8     ecut=    30.00 Ry     beta= 0.70
     Davidson diagonalization with overlap

     ethr =  9.26E-09,  avg # of iterations =  4.0

     End of self-consistent calculation

          k = 0.0000 0.0000 0.0000 (   356 PWs)   bands (ev):

   -66.3887 -34.6417 -34.3883 -34.3883 -33.7132  -7.2362  -5.9161   5.2988
     6.1906   6.1906   9.6416   9.6416  10.0220  10.5713  10.5714  12.2573
    14.6081  14.6081  15.7819  18.2304

     occupation numbers
     1.0000   1.0000   1.0000   1.0000   1.0000   1.0000   1.0000   1.0000
     1.0000   1.0000   1.0000   1.0000   1.0000   1.0000   1.0000   1.0000
    -0.0000  -0.0000  -0.0000  -0.0000

     the Fermi energy is    13.0608 ev

!    total energy              =    -314.43629868 Ry
     estimated scf accuracy    <       0.00000055 Ry
     smearing contrib. (-TS)   =       0.00000000 Ry
     internal energy E=F+TS    =    -314.43629868 Ry

     The total energy is F=E-TS. E is the sum of the following terms:
     one-electron contribution =    -132.15091085 Ry
     hartree contribution      =      82.09856629 Ry
     xc contribution           =     -40.44653429 Ry
     ewald contribution        =    -204.93912172 Ry
     one-center paw contrib.   =     -18.99829811 Ry
      -> PAW hartree energy AE =      60.24501956 Ry
      -> PAW hartree energy PS =     -60.00860752 Ry
      -> PAW xc energy AE      =     -34.46002813 Ry
      -> PAW xc energy PS      =      15.22531798 Ry
      -> total E_H with PAW    =      82.33497833 Ry
      -> total E_XC with PAW   =     -59.68124444 Ry

     convergence has been achieved in   8 iterations

     Forces acting on atoms (cartesian axes, Ry/au):

     atom    1 type  1   force =     0.00000000    0.00000000    0.00000000
     atom    2 type  2   force =     0.00000000    0.00000000    0.00000000
     atom    3 type  3   force =    -0.16216637   -0.05201840   -0.03209447
     atom    4 type  3   force =     0.16216637    0.05201840    0.03209447
     The non-local contrib.  to forces
     atom    1 type  1   force =     0.00000000    0.00000000    0.00000000
     atom    2 type  2   force =     0.00000000    0.00000000    0.00000000
     atom    3 type  3   force =    -0.17407195   -0.05582879   -0.03441837
     atom    4 type  3   force =     0.17407195    0.05582879    0.03441837
     The ionic contribution  to forces
     atom    1 type  1   force =     0.00000000    0.00000000    0.00000000
     atom    2 type  2   force =     0.00000000   -0.00000000   -0.00000000
     atom    3 type  3   force =    13.13308984    4.21163953    2.59849968
     atom    4 type  3   force =   -13.13308984   -4.21163953   -2.59849968
     The local contribution  to forces
     atom    1 type  1   force =    -0.00020942   -0.00006584   -0.00004408
     atom    2 type  2   force =     0.00181543    0.00032498   -0.00020599
     atom    3 type  3   force =   -13.12351633   -4.20855784   -2.59654375
     atom    4 type  3   force =    13.12300290    4.20849110    2.59658577
     The core correction contribution to forces
     atom    1 type  1   force =     0.00000000    0.00000000    0.00000000
     atom    2 type  2   force =     0.00000000    0.00000000    0.00000000
     atom    3 type  3   force =     0.00125654    0.00040330    0.00024875
     atom    4 type  3   force =    -0.00126284   -0.00040450   -0.00024885
     The Hubbard contrib.    to forces
     atom    1 type  1   force =     0.00000000    0.00000000    0.00000000
     atom    2 type  2   force =     0.00000000    0.00000000    0.00000000
     atom    3 type  3   force =     0.00000000    0.00000000    0.00000000
     atom    4 type  3   force =     0.00000000    0.00000000    0.00000000
     The SCF correction term to forces
     atom    1 type  1   force =     0.00010665    0.00004324    0.00002885
     atom    2 type  2   force =    -0.00208262   -0.00035236    0.00035071
     atom    3 type  3   force =     0.00101564    0.00030784    0.00011364
     atom    4 type  3   force =    -0.00061569   -0.00027503   -0.00016672

     Total force =     0.245087     Total SCF correction =     0.002494

     Computing stress (Cartesian axis) and pressure

          total   stress  (Ry/bohr**3)                   (kbar)     P=     -474.44
  -0.00322355   0.00000084   0.00000046         -474.20        0.12        0.07
   0.00000084  -0.00322609   0.00000027            0.12     -474.57        0.04
   0.00000046   0.00000027  -0.00322591            0.07        0.04     -474.55

     kinetic stress (kbar)  41047.33    622.45    384.04
                              622.45  39305.97    123.16
                              384.04    123.16  39182.34

     local   stress (kbar)  23266.79  20230.65  12481.89
                            20230.65 -33330.42   4002.83
                            12481.89   4002.83 -37348.48

     nonloc. stress (kbar)   5071.23    -88.41    -54.55
                              -88.41   5318.55    -17.49
                              -54.55    -17.49   5336.13

     hartree stress (kbar)  -2176.66  -8984.46  -5543.23
                            -8984.46  22958.23  -1777.66
                            -5543.23  -1777.66  24742.65

     exc-cor stress (kbar)  -6587.48     -1.09     -0.67
                               -1.09  -6584.42     -0.22
                               -0.67     -0.22  -6584.21

     corecor stress (kbar)   -468.43     -0.79     -0.49
                               -0.79   -466.21     -0.16
                               -0.49     -0.16   -466.06

     ewald   stress (kbar) -60626.99 -11778.23  -7266.93
                           -11778.23 -27676.27  -2330.42
                            -7266.93  -2330.42 -25336.92

     hubbard stress (kbar)      0.00      0.00      0.00
                                0.00      0.00      0.00
                                0.00      0.00      0.00

     DFT-D   stress (kbar)      0.00      0.00      0.00
                                0.00      0.00      0.00
                                0.00      0.00      0.00

     XDM     stress (kbar)      0.00      0.00      0.00
                                0.00      0.00      0.00
                                0.00      0.00      0.00

     dft-nl  stress (kbar)      0.00      0.00      0.00
                                0.00      0.00      0.00
                                0.00      0.00      0.00

     TS-vdW  stress (kbar)      0.00      0.00      0.00
                                0.00      0.00      0.00
                                0.00      0.00      0.00

[...]

                                0.00      0.00      0.00

     Writing all to output data dir new_calculations/myprefix.save/

     General routines

     Parallel routines

     PAW routines

   This run was terminated on:   0:14:15  21May2023

   JOB DONE.