     Program PWSCF v.7.0 starts on 20May2023 at  3:39:42

     Reading input from espresso_5111.pwi
Warning: card &CELL ignored
Warning: card / ignored

     Current dimensions of program PWSCF are:
     Max number of different atomic species (ntypx) = 10
     Max number of k-points (npk) =  40000
     Max angular momentum in pseudopotentials (lmaxx) =  4
     file O.pbe-n-kjpaw_psl.0.1.UPF: wavefunction(s)  2P renormalized

     gamma-point specific algorithms are used

     Subspace diagonalization in iterative solution of the eigenvalue problem:
     a serial algorithm will be used

     Using Slab Decomposition

     bravais-lattice index     =            0
     lattice parameter (alat)  =      13.1006  a.u.
     unit-cell volume          =    1584.5106 (a.u.)^3
     number of atoms/cell      =           16
     number of atomic types    =            4
     number of electrons       =        88.00
     number of Kohn-Sham states=           53
     kinetic-energy cutoff     =      30.0000  Ry
     charge density cutoff     =     240.0000  Ry
     scf convergence threshold =      1.0E-06
     mixing beta               =       0.7000
     number of iterations used =            8  plain     mixing
     Exchange-correlation= SLA  PW   PBX  PBC
                           (   1   4   3   4   0   0   0)

     celldm(1)=  13.100601  celldm(2)=   0.000000  celldm(3)=   0.000000
     celldm(4)=   0.000000  celldm(5)=   0.000000  celldm(6)=   0.000000

     crystal axes: (cart. coord. in units of alat)
               a(1) = (   1.000000   0.000000   0.000000 )
               a(2) = (  -0.061012   0.998137   0.000000 )
               a(3) = (   0.461455   0.490523   0.706043 )

     reciprocal axes: (cart. coord. in units 2 pi/alat)
               b(1) = (  1.000000  0.061126 -0.696046 )
               b(2) = (  0.000000  1.001866 -0.696046 )
               b(3) = (  0.000000  0.000000  1.416344 )

     PseudoPot. # 1 for Cs read from file:
     /home/pragov/projects/rrg-bengioy-ad/pragov/crystal_structure_design/SSSP/Cs_pbe_v1.uspp.F.UPF
     MD5 check sum: 3476d69cb178dfad3ffaa59df4e07ca4
     Pseudo is Ultrasoft + core correction, Zval =  9.0
     Generated by new atomic code, or converted to UPF format
     Using radial grid of  905 points,  6 beta functions with:
                l(1) =   0
                l(2) =   0
                l(3) =   1
                l(4) =   1
                l(5) =   2
                l(6) =   2
     Q(r) pseudized with  6 coefficients,  rinner =    1.500   1.500   1.500
                                                       1.500   1.500

     PseudoPot. # 2 for Si read from file:
     /home/pragov/projects/rrg-bengioy-ad/pragov/crystal_structure_design/SSSP/Si.pbe-n-rrkjus_psl.1.0.0.UPF
     MD5 check sum: 0b0bb1205258b0d07b9f9672cf965d36
     Pseudo is Ultrasoft + core correction, Zval =  4.0
     Generated using "atomic" code by A. Dal Corso  v.5.1
     Using radial grid of 1141 points,  6 beta functions with:
                l(1) =   0
                l(2) =   0
                l(3) =   1
                l(4) =   1
                l(5) =   2
                l(6) =   2
     Q(r) pseudized with 0 coefficients

     PseudoPot. # 3 for B  read from file:
     /home/pragov/projects/rrg-bengioy-ad/pragov/crystal_structure_design/SSSP/b_pbe_v1.4.uspp.F.UPF
     MD5 check sum: cc6de2960df11db49a60e589f9ebb39b
     Pseudo is Ultrasoft + core correction, Zval =  3.0
     Generated by new atomic code, or converted to UPF format
     Using radial grid of  781 points,  4 beta functions with:
                l(1) =   0
                l(2) =   0
                l(3) =   1
                l(4) =   1
     Q(r) pseudized with  8 coefficients,  rinner =    1.100   1.100   1.100

     PseudoPot. # 4 for O  read from file:
     /home/pragov/projects/rrg-bengioy-ad/pragov/crystal_structure_design/SSSP/O.pbe-n-kjpaw_psl.0.1.UPF
     MD5 check sum: 0234752ac141de4415c5fc33072bef88
     Pseudo is Projector augmented-wave + core cor, Zval =  6.0
     Generated using "atomic" code by A. Dal Corso  v.5.0.99 svn rev. 10869
     Shape of augmentation charge: BESSEL
     Using radial grid of 1095 points,  4 beta functions with:
                l(1) =   0
                l(2) =   0
                l(3) =   1
                l(4) =   1
     Q(r) pseudized with 0 coefficients

     atomic species   valence    mass     pseudopotential
        Cs             9.00   132.90545     Cs( 1.00)
        Si             4.00    28.08500     Si( 1.00)
        B              3.00    10.81000     B ( 1.00)
        O              6.00    15.99900     O ( 1.00)

     No symmetry found

                                    s                        frac. trans.

      isym =  1     identity

 cryst.   s( 1) = (     1          0          0      )
                  (     0          1          0      )
                  (     0          0          1      )

 cart.    s( 1) = (  1.0000000 -0.0000000  0.0000000 )
                  (  0.0000000  1.0000000  0.0000000 )
                  (  0.0000000  0.0000000  1.0000000 )

   Cartesian axes

     site n.     atom                  positions (alat units)
         1           Cs  tau(   1) = (   0.4767258   0.4922652   0.0000000  )
         2           Cs  tau(   2) = (   0.4305779   0.9979947   0.3530216  )
         3           Si  tau(   3) = (   0.9725122   0.4881753   0.3530216  )
         4           B   tau(   4) = (   1.0170055   0.1940435   0.0802743  )
         5           B   tau(   5) = (   1.2688107   0.4617105   0.6257690  )
         6           B   tau(   6) = (   0.5958755   0.5094205   0.4966125  )
         7           B   tau(   7) = (   0.9283271   0.8628142   0.2094308  )
         8           O   tau(   8) = (   1.0756773   0.4197304   0.5521181  )
         9           O   tau(   9) = (   1.0471239   0.3893783   0.1539252  )
        10           O   tau(  10) = (   1.0059317   0.7238487   0.3315593  )
        11           O   tau(  11) = (   0.7393169   0.4404391   0.3744840  )
        12           O   tau(  12) = (   0.9971371   1.0466513   0.2376146  )
        13           O   tau(  13) = (   0.4165791   0.4295224   0.4684287  )
        14           O   tau(  14) = (   0.6324597   0.6494446   0.6318325  )
        15           O   tau(  15) = (   0.7907960   0.8177549   0.0742108  )
        16           O   tau(  16) = (   0.8258614   0.1638192   0.0000000  )

   Crystallographic axes

     site n.     atom                  positions (cryst. coord.)
         1           Cs  tau(   1) = (  0.5068160  0.4931840  0.0000000  )
         2           Cs  tau(   2) = (  0.2458620  0.7541380  0.5000000  )
         3           Si  tau(   3) = (  0.7566330  0.2433670  0.5000000  )
         4           B   tau(   4) = (  0.9729920  0.1385310  0.1136960  )
         5           B   tau(   5) = (  0.8614690  0.0270080  0.8863040  )
         6           B   tau(   6) = (  0.2813490  0.1647060  0.7033740  )
         7           B   tau(   7) = (  0.8352940  0.7186510  0.2966260  )
         8           O   tau(   8) = (  0.7170340  0.0362140  0.7819890  )
         9           O   tau(   9) = (  0.9637860  0.2829660  0.2180110  )
        10           O   tau(  10) = (  0.8193970  0.4944190  0.4696020  )
        11           O   tau(  11) = (  0.5055810  0.1806030  0.5303980  )
        12           O   tau(  12) = (  0.8957240  0.8832140  0.3365440  )
        13           O   tau(  13) = (  0.1167860  0.1042760  0.6634560  )
        14           O   tau(  14) = (  0.2323730  0.2108720  0.8948920  )
        15           O   tau(  15) = (  0.7891280  0.7676270  0.1051080  )
        16           O   tau(  16) = (  0.8358750  0.1641250  0.0000000  )

     number of k points=     1  Methfessel-Paxton smearing, width (Ry)=  0.0010
                       cart. coord. in units 2pi/alat
        k(    1) = (   0.0000000   0.0000000   0.0000000), wk =   2.0000000

                       cryst. coord.
        k(    1) = (   0.0000000   0.0000000   0.0000000), wk =   2.0000000

     Check: negative core charge=   -0.000010

     Initial potential from superposition of free atoms

     starting charge      87.9195, renormalised to      88.0000
     Starting wfcs are   82 randomized atomic wfcs
     Checking if some PAW data can be deallocated...

     Self-consistent Calculation

     iteration #  1     ecut=    30.00 Ry     beta= 0.70
     Davidson diagonalization with overlap

     ethr =  1.00E-02,  avg # of iterations =  2.0

     total energy              =    -538.15847501 Ry
     estimated scf accuracy    <       2.46942314 Ry

[...]

     total energy              =    -539.14797135 Ry
     estimated scf accuracy    <       0.00000334 Ry

     iteration #  9     ecut=    30.00 Ry     beta= 0.70
     Davidson diagonalization with overlap

     ethr =  3.79E-09,  avg # of iterations =  2.0

     End of self-consistent calculation

          k = 0.0000 0.0000 0.0000 (  2207 PWs)   bands (ev):

   -16.5779 -16.0261 -15.6825 -15.5008 -15.3153 -14.9799 -14.6139 -14.3656
   -14.0024 -13.8996 -13.4496  -4.6893  -3.9625  -3.9569  -3.6153  -3.0822
    -3.0713  -3.0235  -2.7051  -2.6646  -2.6291  -1.8560  -1.7598  -1.4720
    -1.4463  -1.0513  -0.8746  -0.0097   0.0169   0.2760   0.8043   1.1996
     1.3830   1.8430   2.0530   2.0548   2.1840   2.5127   2.5143   2.7528
     2.8967   3.0852   3.1796   3.8488   8.3646   9.6693  10.3439  10.5710
    10.7527  11.1546  11.4157  11.5237  12.1044

     occupation numbers
     1.0000   1.0000   1.0000   1.0000   1.0000   1.0000   1.0000   1.0000
     1.0000   1.0000   1.0000   1.0000   1.0000   1.0000   1.0000   1.0000
     1.0000   1.0000   1.0000   1.0000   1.0000   1.0000   1.0000   1.0000
     1.0000   1.0000   1.0000   1.0000   1.0000   1.0000   1.0000   1.0000
     1.0000   1.0000   1.0000   1.0000   1.0000   1.0000   1.0000   1.0000
     1.0000   1.0000   1.0000   1.0000  -0.0000  -0.0000  -0.0000  -0.0000
    -0.0000  -0.0000  -0.0000  -0.0000  -0.0000

     the Fermi energy is     5.0018 ev

!    total energy              =    -539.14797221 Ry
     estimated scf accuracy    <       0.00000009 Ry
     smearing contrib. (-TS)   =       0.00000000 Ry
     internal energy E=F+TS    =    -539.14797221 Ry

     The total energy is F=E-TS. E is the sum of the following terms:
     one-electron contribution =    -232.12107760 Ry
     hartree contribution      =     163.31493899 Ry
     xc contribution           =    -146.62762116 Ry
     ewald contribution        =    -238.14078715 Ry
     one-center paw contrib.   =     -85.57342529 Ry
      -> PAW hartree energy AE =     287.58692208 Ry
      -> PAW hartree energy PS =    -286.53373935 Ry
      -> PAW xc energy AE      =    -157.67601049 Ry
      -> PAW xc energy PS      =      71.04940247 Ry
      -> total E_H with PAW    =     164.36812173 Ry
      -> total E_XC with PAW   =    -233.25422918 Ry

     convergence has been achieved in   9 iterations

     Forces acting on atoms (cartesian axes, Ry/au):

     atom    1 type  1   force =     0.00545612   -0.00512971    0.00000169
     atom    2 type  1   force =    -0.00763172    0.00717204   -0.00000203
     atom    3 type  2   force =    -0.00269374    0.00253124    0.00000009
     atom    4 type  3   force =    -0.00288842   -0.00882341   -0.00028389
     atom    5 type  3   force =     0.00863023    0.00342148    0.00028427
     atom    6 type  3   force =    -0.00479245    0.00240076    0.00804008
     atom    7 type  3   force =    -0.00268604    0.00464388   -0.00803491
     atom    8 type  4   force =    -0.00054876   -0.00607092    0.00649711
     atom    9 type  4   force =     0.00602444    0.00091920   -0.00650015
     atom   10 type  4   force =     0.00038467    0.00963376    0.00490936
     atom   11 type  4   force =    -0.00958638   -0.00096777   -0.00490894
     atom   12 type  4   force =     0.00103296   -0.01106297   -0.01028663
     atom   13 type  4   force =     0.01110216   -0.00035751    0.01028992
     atom   14 type  4   force =    -0.00781005    0.00088827    0.00035349
     atom   15 type  4   force =    -0.00136535    0.00773527   -0.00035843
     atom   16 type  4   force =     0.00737233   -0.00693361   -0.00000101
     The non-local contrib.  to forces
     atom    1 type  1   force =    -0.00181844    0.00170124   -0.00000293
     atom    2 type  1   force =     0.00871191   -0.00819331    0.00000499
     atom    3 type  2   force =    -0.02636451    0.02480474    0.00000081
     atom    4 type  3   force =     0.10850506    0.02567127    0.03138262
     atom    5 type  3   force =    -0.01899561   -0.10987446   -0.03139026
     atom    6 type  3   force =     0.07888092   -0.01901679   -0.06628367
     atom    7 type  3   force =     0.02378568   -0.07757658    0.06627750
     atom    8 type  4   force =     0.56969799    0.68642296   -0.80390077
     atom    9 type  4   force =    -0.65039061   -0.61050098    0.80390632
     atom   10 type  4   force =    -0.83323897   -0.34518478   -0.86016022
     atom   11 type  4   force =     0.29370509    0.85275007    0.86014882
     atom   12 type  4   force =    -0.80439042   -0.66959041   -1.01296202
     atom   13 type  4   force =     0.61926729    0.84374816    1.01298167
     atom   14 type  4   force =    -1.11006293   -0.87587867   -0.35180215
     atom   15 type  4   force =     0.80652550    1.16143008    0.35179772
     atom   16 type  4   force =     1.07737891   -1.01354242   -0.00001155
     The ionic contribution  to forces
     atom    1 type  1   force =    -1.42816564    1.34353308   -0.00000000
     atom    2 type  1   force =     0.26553279   -0.24979742   -0.00000000
     atom    3 type  2   force =     0.05224294   -0.04914704    0.00000000
     atom    4 type  3   force =     0.78275426    1.57583960    0.46171246
     atom    5 type  3   force =    -1.52514628   -0.87744145   -0.46171246
     atom    6 type  3   force =     1.12466737   -0.38845459   -1.11007231
     atom    7 type  3   force =     0.45634934   -1.09887167    1.11007231
     atom    8 type  4   force =    -5.20957568   -3.90572296    3.36878623
     atom    9 type  4   force =     3.58059899    5.43816711   -3.36878623
     atom   10 type  4   force =     4.27543281    1.43322932    3.01620782
     atom   11 type  4   force =    -1.16970567   -4.35491224   -3.01620782
     atom   12 type  4   force =     4.71278607    1.37528095    7.98420897
     atom   13 type  4   force =    -1.08518137   -4.78791517   -7.98420896
     atom   14 type  4   force =     7.75155590    5.14886788   -0.31714061
     atom   15 type  4   force =    -4.66633614   -8.05125868    0.31714061
     atom   16 type  4   force =    -7.91780968    7.44860326   -0.00000000
     The local contribution  to forces
     atom    1 type  1   force =     1.43438392   -1.34936186   -0.00000046
     atom    2 type  1   force =    -0.28039480    0.26377630   -0.00000066
     atom    3 type  2   force =    -0.03209851    0.03020227   -0.00000607
     atom    4 type  3   force =    -0.88850911   -1.60980853   -0.49223240
     atom    5 type  3   force =     1.55260548    0.98506389    0.49223477
     atom    6 type  3   force =    -1.20469019    0.40892149    1.18177093
     atom    7 type  3   force =    -0.48166539    1.17747630   -1.18177349
     atom    8 type  4   force =     4.64522064    3.21947687   -2.56530959
     atom    9 type  4   force =    -2.93005372   -4.83296639    2.56531399
     atom   10 type  4   force =    -3.44928880   -1.08166304   -2.15904785
     atom   11 type  4   force =     0.86920390    3.50886908    2.15903467
     atom   12 type  4   force =    -3.91482191   -0.72199533   -6.99099650
     atom   13 type  4   force =     0.48175354    3.95156340    6.99099211
     atom   14 type  4   force =    -6.65988957   -4.27949611    0.66674135
     atom   15 type  4   force =     3.86515436    6.90858633   -0.66677397
     atom   16 type  4   force =     6.85766961   -6.45132514   -0.00000712
     The core correction contribution to forces
     atom    1 type  1   force =     0.00102429   -0.00096154    0.00000089
     atom    2 type  1   force =    -0.00150633    0.00141587   -0.00000251
     atom    3 type  2   force =     0.00356788   -0.00335673   -0.00000012
     atom    4 type  3   force =    -0.00561308   -0.00049634   -0.00120103
     atom    5 type  3   force =     0.00015264    0.00563308    0.00120145
     atom    6 type  3   force =    -0.00366566    0.00097590    0.00266885
     atom    7 type  3   force =    -0.00119732    0.00359944   -0.00266855
     atom    8 type  4   force =    -0.00567669   -0.00633423    0.00711146
     atom    9 type  4   force =     0.00597622    0.00605241   -0.00711158
     atom   10 type  4   force =     0.00759527    0.00343253    0.00795594
     atom   11 type  4   force =    -0.00296275   -0.00779052   -0.00795578
     atom   12 type  4   force =     0.00752752    0.00534009    0.00940194
     atom   13 type  4   force =    -0.00487105   -0.00783944   -0.00940233
     atom   14 type  4   force =     0.01055450    0.00752372    0.00276679
     atom   15 type  4   force =    -0.00686600   -0.01099388   -0.00276679
     atom   16 type  4   force =    -0.00988485    0.00929909    0.00000015
     The Hubbard contrib.    to forces
     atom    1 type  1   force =     0.00000000    0.00000000    0.00000000
     atom    2 type  1   force =     0.00000000    0.00000000    0.00000000
     atom    3 type  2   force =     0.00000000    0.00000000    0.00000000
     atom    4 type  3   force =     0.00000000    0.00000000    0.00000000
     atom    5 type  3   force =     0.00000000    0.00000000    0.00000000
     atom    6 type  3   force =     0.00000000    0.00000000    0.00000000
     atom    7 type  3   force =     0.00000000    0.00000000    0.00000000
     atom    8 type  4   force =     0.00000000    0.00000000    0.00000000
     atom    9 type  4   force =     0.00000000    0.00000000    0.00000000
     atom   10 type  4   force =     0.00000000    0.00000000    0.00000000
     atom   11 type  4   force =     0.00000000    0.00000000    0.00000000
     atom   12 type  4   force =     0.00000000    0.00000000    0.00000000
     atom   13 type  4   force =     0.00000000    0.00000000    0.00000000
     atom   14 type  4   force =     0.00000000    0.00000000    0.00000000
     atom   15 type  4   force =     0.00000000    0.00000000    0.00000000
     atom   16 type  4   force =     0.00000000    0.00000000    0.00000000
     The SCF correction term to forces
     atom    1 type  1   force =     0.00002948   -0.00003778    0.00000319
     atom    2 type  1   force =     0.00002219   -0.00002654   -0.00000484
     atom    3 type  2   force =    -0.00004407    0.00003086    0.00000448
     atom    4 type  3   force =    -0.00002806   -0.00002654    0.00005346
     atom    5 type  3   force =     0.00001149    0.00004328   -0.00005022
     atom    6 type  3   force =     0.00001259   -0.00002238   -0.00004472
     atom    7 type  3   force =     0.00003914    0.00001925    0.00005633
     atom    8 type  4   force =    -0.00021754    0.00008930   -0.00019123
     atom    9 type  4   force =    -0.00010895    0.00016991    0.00017636
     atom   10 type  4   force =    -0.00011816   -0.00017740   -0.00004732
     atom   11 type  4   force =     0.00017054    0.00011870    0.00007017
     atom   12 type  4   force =    -0.00007083   -0.00009540    0.00005999
     atom   13 type  4   force =     0.00013123    0.00008840   -0.00007356
     atom   14 type  4   force =     0.00002954   -0.00012568   -0.00021288
     atom   15 type  4   force =     0.00015442   -0.00002572    0.00024301
     atom   16 type  4   force =     0.00001581    0.00003447    0.00001652

     Total force =     0.040201     Total SCF correction =     0.000691

     Computing stress (Cartesian axis) and pressure

          total   stress  (Ry/bohr**3)                   (kbar)     P=     -272.32
  -0.00184887   0.00003773   0.00000708         -271.98        5.55        1.04
   0.00003773  -0.00184425   0.00000753            5.55     -271.30        1.11
   0.00000708   0.00000753  -0.00186036            1.04        1.11     -273.67

     kinetic stress (kbar)  12233.99    -52.22    -66.58
                              -52.22  12227.60    -70.78
                              -66.58    -70.78  12252.86

     local   stress (kbar) -11642.29  -2323.90  -2737.92
                            -2323.90 -11926.39  -2910.38
                            -2737.92  -2910.38 -11615.19

     nonloc. stress (kbar)   4521.22     -3.59      3.27
                               -3.59   4520.78      3.48
                                3.27      3.48   4531.39

     hartree stress (kbar)   4984.66    838.32   1092.90
                              838.32   5087.15   1161.74
                             1092.90   1161.74   5090.26

     exc-cor stress (kbar)   2434.97      4.07      4.23
                                4.07   2435.46      4.49
                                4.23      4.49   2432.56

     corecor stress (kbar)  -5425.65     -1.10     -1.89
                               -1.10  -5425.78     -2.01
                               -1.89     -2.01  -5425.67

     ewald   stress (kbar)  -7378.87   1543.96   1707.04
                             1543.96  -7190.12   1814.57
                             1707.04   1814.57  -7539.87

     hubbard stress (kbar)      0.00      0.00      0.00
                                0.00      0.00      0.00
                                0.00      0.00      0.00

     DFT-D   stress (kbar)      0.00      0.00      0.00
                                0.00      0.00      0.00
                                0.00      0.00      0.00

     XDM     stress (kbar)      0.00      0.00      0.00
                                0.00      0.00      0.00
                                0.00      0.00      0.00

     dft-nl  stress (kbar)      0.00      0.00      0.00
                                0.00      0.00      0.00
                                0.00      0.00      0.00

     TS-vdW  stress (kbar)      0.00      0.00      0.00
                                0.00      0.00      0.00
                                0.00      0.00      0.00

[...]

                                0.00      0.00      0.00

     Writing all to output data dir new_calculations/myprefix.save/

     General routines

     Parallel routines

     PAW routines

   This run was terminated on:   3:40:16  20May2023

   JOB DONE.