     Program PWSCF v.7.0 starts on 20May2023 at 18: 3:11

     Reading input from espresso_11509.pwi
Warning: card &CELL ignored
Warning: card / ignored

     Current dimensions of program PWSCF are:
     Max number of different atomic species (ntypx) = 10
     Max number of k-points (npk) =  40000
     Max angular momentum in pseudopotentials (lmaxx) =  4
     file O.pbe-n-kjpaw_psl.0.1.UPF: wavefunction(s)  2P renormalized

     gamma-point specific algorithms are used
     Message from routine setup:
     using ibrav=0 with symmetry is DISCOURAGED, use correct ibrav instead

     Subspace diagonalization in iterative solution of the eigenvalue problem:
     a serial algorithm will be used

     Using Slab Decomposition

     bravais-lattice index     =            0
     lattice parameter (alat)  =      17.3615  a.u.
     unit-cell volume          =    2827.0172 (a.u.)^3
     number of atoms/cell      =           18
     number of atomic types    =            2
     number of electrons       =       144.00
     number of Kohn-Sham states=           86
     kinetic-energy cutoff     =      30.0000  Ry
     charge density cutoff     =     240.0000  Ry
     scf convergence threshold =      1.0E-06
     mixing beta               =       0.7000
     number of iterations used =            8  plain     mixing
     Exchange-correlation= SLA  PW   PBX  PBC
                           (   1   4   3   4   0   0   0)

     celldm(1)=  17.361529  celldm(2)=   0.000000  celldm(3)=   0.000000
     celldm(4)=   0.000000  celldm(5)=   0.000000  celldm(6)=   0.000000

     crystal axes: (cart. coord. in units of alat)
               a(1) = (   1.000000   0.000000   0.000000 )
               a(2) = (  -0.700178   0.713968   0.000000 )
               a(3) = (   0.000000   0.000000   0.756634 )

     reciprocal axes: (cart. coord. in units 2 pi/alat)
               b(1) = (  1.000000  0.980686  0.000000 )
               b(2) = (  0.000000  1.400623  0.000000 )
               b(3) = (  0.000000  0.000000  1.321643 )

     PseudoPot. # 1 for Re read from file:
     /home/pragov/projects/rrg-bengioy-ad/pragov/crystal_structure_design/SSSP/Re_pbe_v1.2.uspp.F.UPF
     MD5 check sum: 85f993410f3e006da9d71c142b4ad953
     Pseudo is Ultrasoft + core correction, Zval = 15.0
     Generated by new atomic code, or converted to UPF format
     Using radial grid of  981 points,  8 beta functions with:
                l(1) =   0
                l(2) =   0
                l(3) =   1
                l(4) =   1
                l(5) =   2
                l(6) =   2
                l(7) =   3
                l(8) =   3
     Q(r) pseudized with  8 coefficients,  rinner =    1.150   1.150   1.150
                                                       1.150   1.150   1.150
                                                       1.150

     PseudoPot. # 2 for O  read from file:
     /home/pragov/projects/rrg-bengioy-ad/pragov/crystal_structure_design/SSSP/O.pbe-n-kjpaw_psl.0.1.UPF
     MD5 check sum: 0234752ac141de4415c5fc33072bef88
     Pseudo is Projector augmented-wave + core cor, Zval =  6.0
     Generated using "atomic" code by A. Dal Corso  v.5.0.99 svn rev. 10869
     Shape of augmentation charge: BESSEL
     Using radial grid of 1095 points,  4 beta functions with:
                l(1) =   0
                l(2) =   0
                l(3) =   1
                l(4) =   1
     Q(r) pseudized with 0 coefficients

     atomic species   valence    mass     pseudopotential
        Re            15.00   186.20700     Re( 1.00)
        O              6.00    15.99900     O ( 1.00)

      2 Sym. Ops. (no inversion) found ( 1 have fractional translation)

                                    s                        frac. trans.

      isym =  1     identity

 cryst.   s( 1) = (     1          0          0      )
                  (     0          1          0      )
                  (     0          0          1      )

 cart.    s( 1) = (  1.0000000 -0.0000000  0.0000000 )
                  (  0.0000000  1.0000000  0.0000000 )
                  (  0.0000000  0.0000000  1.0000000 )

      isym =  2     180 deg rotation - cart. axis [0,0,1]

 cryst.   s( 2) = (    -1          0          0      )    f =(  0.0000000 )
                  (     0         -1          0      )       (  0.0000000 )
                  (     0          0          1      )       ( -0.5000000 )

 cart.    s( 2) = ( -1.0000000  0.0000000  0.0000000 )    f =(  0.0000000 )
                  (  0.0000000 -1.0000000  0.0000000 )       (  0.0000000 )
                  (  0.0000000  0.0000000  1.0000000 )       ( -0.3783170 )

   Cartesian axes

     site n.     atom                  positions (alat units)
         1           Re  tau(   1) = (  -0.1028884   0.2304217   0.1188490  )
         2           Re  tau(   2) = (   0.4027100   0.4835462   0.4971660  )
         3           Re  tau(   3) = (   0.0632677   0.6260907   0.4971660  )
         4           Re  tau(   4) = (   0.2365539   0.0878773   0.1188490  )
         5           O   tau(   5) = (   0.3859362   0.0552897   0.2269349  )
         6           O   tau(   6) = (  -0.0861145   0.6586783   0.6052519  )
         7           O   tau(   7) = (   0.5305707   0.3997093   0.6052519  )
         8           O   tau(   8) = (  -0.2307491   0.3142587   0.2269349  )
         9           O   tau(   9) = (   0.2954563   0.1699786   0.7170271  )
        10           O   tau(  10) = (   0.0043653   0.5439893   0.3387102  )
        11           O   tau(  11) = (   0.3853345   0.3840062   0.3387102  )
        12           O   tau(  12) = (  -0.0855128   0.3299617   0.7170271  )
        13           O   tau(  13) = (  -0.5413844   0.6373992   0.0707596  )
        14           O   tau(  14) = (   0.8412061   0.0765688   0.4490766  )
        15           O   tau(  15) = (   0.0863618   0.2056542   0.2021582  )
        16           O   tau(  16) = (   0.2134598   0.5083138   0.5804752  )
        17           O   tau(  17) = (   0.8341483   0.0597620   0.0707596  )
        18           O   tau(  18) = (  -0.5343266   0.6542060   0.4490766  )

   Crystallographic axes

     site n.     atom                  positions (cryst. coord.)
         1           Re  tau(   1) = (  0.1230830  0.3227340  0.1570760  )
         2           Re  tau(   2) = (  0.8769170  0.6772660  0.6570760  )
         3           Re  tau(   3) = (  0.6772660  0.8769170  0.6570760  )
         4           Re  tau(   4) = (  0.3227340  0.1230830  0.1570760  )
         5           O   tau(   5) = (  0.4401580  0.0774400  0.2999270  )
         6           O   tau(   6) = (  0.5598420  0.9225600  0.7999270  )
         7           O   tau(   7) = (  0.9225600  0.5598420  0.7999270  )
         8           O   tau(   8) = (  0.0774400  0.4401580  0.2999270  )
         9           O   tau(   9) = (  0.4621520  0.2380760  0.9476540  )
        10           O   tau(  10) = (  0.5378480  0.7619240  0.4476540  )
        11           O   tau(  11) = (  0.7619240  0.5378480  0.4476540  )
        12           O   tau(  12) = (  0.2380760  0.4621520  0.9476540  )
        13           O   tau(  13) = (  0.0837040  0.8927560  0.0935190  )
        14           O   tau(  14) = (  0.9162960  0.1072440  0.5935190  )
        15           O   tau(  15) = (  0.2880440  0.2880440  0.2671810  )
        16           O   tau(  16) = (  0.7119560  0.7119560  0.7671810  )
        17           O   tau(  17) = (  0.8927560  0.0837040  0.0935190  )
        18           O   tau(  18) = (  0.1072440  0.9162960  0.5935190  )

     number of k points=     1  Methfessel-Paxton smearing, width (Ry)=  0.0010
                       cart. coord. in units 2pi/alat
        k(    1) = (   0.0000000   0.0000000   0.0000000), wk =   2.0000000

                       cryst. coord.
        k(    1) = (   0.0000000   0.0000000   0.0000000), wk =   2.0000000

     Check: negative core charge=   -0.000010

     Initial potential from superposition of free atoms

     starting charge     141.9998, renormalised to     144.0000

     negative rho (up, down):  5.203E-01 0.000E+00
     Starting wfcs are  108 randomized atomic wfcs
     Checking if some PAW data can be deallocated...

     Self-consistent Calculation

     iteration #  1     ecut=    30.00 Ry     beta= 0.70
     Davidson diagonalization with overlap

     ethr =  1.00E-02,  avg # of iterations =  2.0

     negative rho (up, down):  5.925E-01 0.000E+00

     total energy              =   -1340.03348731 Ry
     estimated scf accuracy    <       7.95700487 Ry

[...]

     total energy              =   -1345.02877814 Ry
     estimated scf accuracy    <       0.00000168 Ry

     iteration # 13     ecut=    30.00 Ry     beta= 0.70
     Davidson diagonalization with overlap

     ethr =  1.17E-09,  avg # of iterations =  3.0

[...]

     End of self-consistent calculation

          k = 0.0000 0.0000 0.0000 (  3906 PWs)   bands (ev):

   -81.0901 -81.0900 -81.0888 -81.0887 -43.0861 -43.0857 -43.0792 -43.0787
   -43.0757 -43.0756 -43.0694 -43.0689 -43.0637 -43.0635 -43.0049 -43.0048
   -18.5746 -18.5510 -17.3264 -17.3003 -17.1913 -17.1796 -16.9504 -16.9205
   -16.9193 -16.8907 -16.7927 -16.7916 -16.7451 -16.7391  -6.2882  -6.2670
    -5.1251  -5.0798  -4.8623  -4.8307  -4.6240  -4.6198  -4.5992  -4.5005
    -4.3288  -4.2041  -4.1335  -4.1289  -3.9418  -3.8373  -3.7505  -3.7405
    -3.6892  -3.5508  -3.3038  -3.1023  -2.6936  -2.5877  -2.3584  -2.0846
    -2.0137  -1.8703  -1.7876  -1.7064  -1.4746  -1.3874  -1.3387  -1.2180
    -1.1064  -1.0186  -0.9853  -0.9732  -0.8234  -0.7871  -0.7524  -0.6679
     2.9179   2.9210   2.9692   3.0938   3.2229   3.2731   3.7478   3.8612
     4.3767   4.4138   5.0199   5.1388   5.1841   5.3587

     occupation numbers
     1.0000   1.0000   1.0000   1.0000   1.0000   1.0000   1.0000   1.0000
     1.0000   1.0000   1.0000   1.0000   1.0000   1.0000   1.0000   1.0000
     1.0000   1.0000   1.0000   1.0000   1.0000   1.0000   1.0000   1.0000
     1.0000   1.0000   1.0000   1.0000   1.0000   1.0000   1.0000   1.0000
     1.0000   1.0000   1.0000   1.0000   1.0000   1.0000   1.0000   1.0000
     1.0000   1.0000   1.0000   1.0000   1.0000   1.0000   1.0000   1.0000
     1.0000   1.0000   1.0000   1.0000   1.0000   1.0000   1.0000   1.0000
     1.0000   1.0000   1.0000   1.0000   1.0000   1.0000   1.0000   1.0000
     1.0000   1.0000   1.0000   1.0000   1.0000   1.0000   1.0000   1.0000
    -0.0000  -0.0000  -0.0000  -0.0000  -0.0000  -0.0000  -0.0000  -0.0000
    -0.0000  -0.0000  -0.0000  -0.0000  -0.0000  -0.0000

     the Fermi energy is     0.0747 ev

!    total energy              =   -1345.02877822 Ry
     estimated scf accuracy    <       0.00000056 Ry
     smearing contrib. (-TS)   =       0.00000000 Ry
     internal energy E=F+TS    =   -1345.02877822 Ry

     The total energy is F=E-TS. E is the sum of the following terms:
     one-electron contribution =    -985.04238624 Ry
     hartree contribution      =     519.04011792 Ry
     xc contribution           =    -311.73191789 Ry
     ewald contribution        =    -433.75482283 Ry
     one-center paw contrib.   =    -133.53976918 Ry
      -> PAW hartree energy AE =     404.32662071 Ry
      -> PAW hartree energy PS =    -403.02941400 Ry
      -> PAW xc energy AE      =    -238.87150428 Ry
      -> PAW xc energy PS      =     104.03452839 Ry
      -> total E_H with PAW    =     520.33732463 Ry
      -> total E_XC with PAW   =    -446.56889379 Ry

     convergence has been achieved in  13 iterations

     negative rho (up, down):  5.419E-01 0.000E+00

     Forces acting on atoms (cartesian axes, Ry/au):

     atom    1 type  1   force =    -0.02160618    0.00347014   -0.01805815
     atom    2 type  1   force =     0.02160618   -0.00347014   -0.01805815
     atom    3 type  1   force =    -0.01761259    0.01293986   -0.01807010
     atom    4 type  1   force =     0.01761259   -0.01293986   -0.01807010
     atom    5 type  2   force =    -0.02283624    0.00833512   -0.00935103
     atom    6 type  2   force =     0.02283624   -0.00833512   -0.00935103
     atom    7 type  2   force =    -0.02193643    0.01046212   -0.00934803
     atom    8 type  2   force =     0.02193643   -0.01046212   -0.00934803
     atom    9 type  2   force =    -0.01024201   -0.00865275    0.02310055
     atom   10 type  2   force =     0.01024201    0.00865275    0.02310055
     atom   11 type  2   force =    -0.00099373    0.01338790    0.02312096
     atom   12 type  2   force =     0.00099373   -0.01338790    0.02312096
     atom   13 type  2   force =     0.01141215    0.02032087    0.00633155
     atom   14 type  2   force =    -0.01141215   -0.02032087    0.00633155
     atom   15 type  2   force =    -0.00173546   -0.00413846   -0.00404417
     atom   16 type  2   force =     0.00173546    0.00413846   -0.00404417
     atom   17 type  2   force =     0.00650957    0.02235876    0.00631842
     atom   18 type  2   force =    -0.00650957   -0.02235876    0.00631842
     The non-local contrib.  to forces
     atom    1 type  1   force =     0.24363994   -0.01137970    0.15386599
     atom    2 type  1   force =    -0.24363994    0.01137970    0.15386599
     atom    3 type  1   force =     0.17870375   -0.16604833    0.15382204
     atom    4 type  1   force =    -0.17870375    0.16604833    0.15382204
     atom    5 type  2   force =    -1.36559061    0.30612176   -0.96549288
     atom    6 type  2   force =     1.36559061   -0.30612176   -0.96549288
     atom    7 type  2   force =    -1.17471363    0.76063894   -0.96548871
     atom    8 type  2   force =     1.17471363   -0.76063894   -0.96548871
     atom    9 type  2   force =    -0.57169602   -0.69166807    1.42466310
     atom   10 type  2   force =     0.57169602    0.69166807    1.42466310
     atom   11 type  2   force =     0.09354057    0.89247717    1.42467664
     atom   12 type  2   force =    -0.09354057   -0.89247717    1.42467664
     atom   13 type  2   force =     0.65186280    1.48249986    0.38023032
     atom   14 type  2   force =    -0.65186280   -1.48249986    0.38023032
     atom   15 type  2   force =    -0.25322423   -0.60302699   -1.10691349
     atom   16 type  2   force =     0.25322423    0.60302699   -1.10691349
     atom   17 type  2   force =     0.60202160    1.50341102    0.38022535
     atom   18 type  2   force =    -0.60202160   -1.50341102    0.38022535
     The ionic contribution  to forces
     atom    1 type  1   force =    -7.11974739    7.44852706    1.98320004
     atom    2 type  1   force =     7.11974739   -7.44852706    1.98320004
     atom    3 type  1   force =   -10.30310281   -0.13202585    1.98320004
     atom    4 type  1   force =    10.30310281    0.13202585    1.98320004
     atom    5 type  2   force =    16.14209509   -3.42117150    9.22387244
     atom    6 type  2   force =   -16.14209509    3.42117150    9.22387244
     atom    7 type  2   force =    13.74495254   -9.12950864    9.22387244
     atom    8 type  2   force =   -13.74495254    9.12950864    9.22387244
     atom    9 type  2   force =     8.37781686    5.89986623  -13.66482210
     atom   10 type  2   force =    -8.37781686   -5.89986623  -13.66482210
     atom   11 type  2   force =     1.65365054  -10.11245157  -13.66482210
     atom   12 type  2   force =    -1.65365054   10.11245157  -13.66482210
     atom   13 type  2   force =    -2.92647938  -15.86589370   -2.70547687
     atom   14 type  2   force =     2.92647938   15.86589370   -2.70547687
     atom   15 type  2   force =     2.96688981    7.06508142   10.32645299
     atom   16 type  2   force =    -2.96688981   -7.06508142   10.32645299
     atom   17 type  2   force =    -9.27868242  -13.19836797   -2.70547687
     atom   18 type  2   force =     9.27868242   13.19836797   -2.70547687
     The local contribution  to forces
     atom    1 type  1   force =     6.82554306   -7.42712851   -2.16436210
     atom    2 type  1   force =    -6.82554388    7.42745069   -2.16334199
     atom    3 type  1   force =    10.08173683    0.32675581   -2.16320487
     atom    4 type  1   force =   -10.08208218   -0.32733128   -2.16467603
     atom    5 type  2   force =   -14.81104538    3.12599326   -8.27615665
     atom    6 type  2   force =    14.81096402   -3.12608183   -8.27599553
     atom    7 type  2   force =   -12.60220201    8.38581340   -8.27594484
     atom    8 type  2   force =    12.60220194   -8.38574534   -8.27615775
     atom    9 type  2   force =    -7.82132423   -5.22275630   12.27554223
     atom   10 type  2   force =     7.82138798    5.22280152   12.27592852
     atom   11 type  2   force =    -1.74743446    9.24112337   12.27578722
     atom   12 type  2   force =     1.74747091   -9.24100043   12.27569339
     atom   13 type  2   force =     2.29180236   14.41653825    2.33463450
     atom   14 type  2   force =    -2.29190048  -14.41682425    2.33493304
     atom   15 type  2   force =    -2.71785782   -6.47205708   -9.23474149
     atom   16 type  2   force =     2.71779383    6.47204747   -9.23450642
     atom   17 type  2   force =     8.68834344   11.73049391    2.33466839
     atom   18 type  2   force =    -8.68829627  -11.73046053    2.33488874
     The core correction contribution to forces
     atom    1 type  1   force =     0.02877911   -0.00589863    0.00902808
     atom    2 type  1   force =    -0.02878049    0.00590856    0.00904611
     atom    3 type  1   force =     0.02435757   -0.01642599    0.00904829
     atom    4 type  1   force =    -0.02437007    0.01641142    0.00901743
     atom    5 type  2   force =     0.01145347   -0.00257776    0.00814783
     atom    6 type  2   force =    -0.01145363    0.00257777    0.00814802
     atom    7 type  2   force =     0.00986008   -0.00637244    0.00814778
     atom    8 type  2   force =    -0.00985982    0.00637253    0.00814804
     atom    9 type  2   force =     0.00492878    0.00586081   -0.01215976
     atom   10 type  2   force =    -0.00492902   -0.00586115   -0.01216044
     atom   11 type  2   force =    -0.00073344   -0.00762309   -0.01216048
     atom   12 type  2   force =     0.00073348    0.00762276   -0.01215972
     atom   13 type  2   force =    -0.00557876   -0.01265147   -0.00312091
     atom   14 type  2   force =     0.00557903    0.01265219   -0.00312155
     atom   15 type  2   force =     0.00247051    0.00588443    0.01086716
     atom   16 type  2   force =    -0.00247123   -0.00588404    0.01086740
     atom   17 type  2   force =    -0.00512673   -0.01284164   -0.00312104
     atom   18 type  2   force =     0.00512651    0.01284168   -0.00312141
     The Hubbard contrib.    to forces
     atom    1 type  1   force =     0.00000000    0.00000000    0.00000000
     atom    2 type  1   force =     0.00000000    0.00000000    0.00000000
     atom    3 type  1   force =     0.00000000    0.00000000    0.00000000
     atom    4 type  1   force =     0.00000000    0.00000000    0.00000000
     atom    5 type  2   force =     0.00000000    0.00000000    0.00000000
     atom    6 type  2   force =     0.00000000    0.00000000    0.00000000
     atom    7 type  2   force =     0.00000000    0.00000000    0.00000000
     atom    8 type  2   force =     0.00000000    0.00000000    0.00000000
     atom    9 type  2   force =     0.00000000    0.00000000    0.00000000
     atom   10 type  2   force =     0.00000000    0.00000000    0.00000000
     atom   11 type  2   force =     0.00000000    0.00000000    0.00000000
     atom   12 type  2   force =     0.00000000    0.00000000    0.00000000
     atom   13 type  2   force =     0.00000000    0.00000000    0.00000000
     atom   14 type  2   force =     0.00000000    0.00000000    0.00000000
     atom   15 type  2   force =     0.00000000    0.00000000    0.00000000
     atom   16 type  2   force =     0.00000000    0.00000000    0.00000000
     atom   17 type  2   force =     0.00000000    0.00000000    0.00000000
     atom   18 type  2   force =     0.00000000    0.00000000    0.00000000
     The SCF correction term to forces
     atom    1 type  1   force =     0.00018609   -0.00067202    0.00028491
     atom    2 type  1   force =    -0.00016991    0.00029601   -0.00088281
     atom    3 type  1   force =     0.00069517    0.00073391   -0.00100519
     atom    4 type  1   force =    -0.00033109   -0.00004449    0.00065654
     atom    5 type  2   force =     0.00023617   -0.00002141    0.00027889
     atom    6 type  2   force =    -0.00018469    0.00012842    0.00013683
     atom    7 type  2   force =     0.00018003   -0.00011775    0.00006185
     atom    8 type  2   force =    -0.00015333    0.00003240    0.00030195
     atom    9 type  2   force =     0.00004067    0.00005333   -0.00011494
     atom   10 type  2   force =    -0.00008805   -0.00008071   -0.00049596
     atom   11 type  2   force =    -0.00001937   -0.00013807   -0.00035139
     atom   12 type  2   force =    -0.00002198    0.00001529   -0.00025562
     atom   13 type  2   force =    -0.00020535   -0.00018716    0.00008888
     atom   14 type  2   force =     0.00028224    0.00044226   -0.00023719
     atom   15 type  2   force =    -0.00002819   -0.00000868    0.00030857
     atom   16 type  2   force =     0.00006399    0.00004103    0.00005801
     atom   17 type  2   force =    -0.00005338   -0.00032781    0.00005511
     atom   18 type  2   force =    -0.00000768    0.00031189   -0.00020935

     Total force =     0.105790     Total SCF correction =     0.002381

     Computing stress (Cartesian axis) and pressure

     negative rho (up, down):  5.419E-01 0.000E+00
          total   stress  (Ry/bohr**3)                   (kbar)     P=     -261.99
  -0.00180096   0.00000664   0.00000000         -264.93        0.98        0.00
   0.00000664  -0.00178796   0.00000000            0.98     -263.02        0.00
   0.00000000   0.00000000  -0.00175395            0.00        0.00     -258.02

     kinetic stress (kbar)  15087.10     43.31      0.00
                               43.31  15172.05      0.00
                                0.00      0.00  15185.07

     local   stress (kbar) -10176.63      4.72      0.06
                                4.72 -10167.37      0.06
                                0.06      0.06 -11714.99

     nonloc. stress (kbar)  -2560.93    -10.67      0.00
                              -10.67  -2581.86      0.00
                                0.00      0.00  -2580.56

     hartree stress (kbar)   8627.72     86.35     -0.05
                               86.35   8797.07     -0.05
                               -0.05     -0.05   9583.69

     exc-cor stress (kbar)   4201.96      0.39      0.00
                                0.39   4202.73      0.00
                                0.00      0.00   4202.07

     corecor stress (kbar)  -7830.85      0.08     -0.00
                                0.08  -7830.70     -0.00
                               -0.00     -0.00  -7830.91

     ewald   stress (kbar)  -7613.30   -123.20      0.00
                             -123.20  -7854.94      0.00
                                0.00      0.00  -7102.38

     hubbard stress (kbar)      0.00      0.00      0.00
                                0.00      0.00      0.00
                                0.00      0.00      0.00

     DFT-D   stress (kbar)      0.00      0.00      0.00
                                0.00      0.00      0.00
                                0.00      0.00      0.00

     XDM     stress (kbar)      0.00      0.00      0.00
                                0.00      0.00      0.00
                                0.00      0.00      0.00

     dft-nl  stress (kbar)      0.00      0.00      0.00
                                0.00      0.00      0.00
                                0.00      0.00      0.00

     TS-vdW  stress (kbar)      0.00      0.00      0.00
                                0.00      0.00      0.00
                                0.00      0.00      0.00

[...]

                                0.00      0.00      0.00

     Writing all to output data dir new_calculations/myprefix.save/

     General routines

     Parallel routines

     PAW routines

   This run was terminated on:  18: 4: 2  20May2023

   JOB DONE.