     Program PWSCF v.7.0 starts on 21May2023 at  3:55: 4

     Reading input from espresso_25303.pwi
Warning: card &CELL ignored
Warning: card / ignored

     Current dimensions of program PWSCF are:
     Max number of different atomic species (ntypx) = 10
     Max number of k-points (npk) =  40000
     Max angular momentum in pseudopotentials (lmaxx) =  4
     file O.pbe-n-kjpaw_psl.0.1.UPF: wavefunction(s)  2P renormalized

     gamma-point specific algorithms are used
     Message from routine setup:
     using ibrav=0 with symmetry is DISCOURAGED, use correct ibrav instead

     Subspace diagonalization in iterative solution of the eigenvalue problem:
     a serial algorithm will be used

     Using Slab Decomposition

     bravais-lattice index     =            0
     lattice parameter (alat)  =       7.4268  a.u.
     unit-cell volume          =     701.9916 (a.u.)^3
     number of atoms/cell      =            6
     number of atomic types    =            3
     number of electrons       =        48.00
     number of Kohn-Sham states=           29
     kinetic-energy cutoff     =      30.0000  Ry
     charge density cutoff     =     240.0000  Ry
     scf convergence threshold =      1.0E-06
     mixing beta               =       0.7000
     number of iterations used =            8  plain     mixing
     Exchange-correlation= SLA  PW   PBX  PBC
                           (   1   4   3   4   0   0   0)

     celldm(1)=   7.426799  celldm(2)=   0.000000  celldm(3)=   0.000000
     celldm(4)=   0.000000  celldm(5)=   0.000000  celldm(6)=   0.000000

     crystal axes: (cart. coord. in units of alat)
               a(1) = (   1.000000   0.000000   0.000000 )
               a(2) = (   0.000000   1.000000   0.000000 )
               a(3) = (   0.000000   0.000000   1.713669 )

     reciprocal axes: (cart. coord. in units 2 pi/alat)
               b(1) = (  1.000000  0.000000  0.000000 )
               b(2) = (  0.000000  1.000000  0.000000 )
               b(3) = (  0.000000  0.000000  0.583543 )

     PseudoPot. # 1 for Y  read from file:
     /home/pragov/projects/rrg-bengioy-ad/pragov/crystal_structure_design/SSSP/Y_pbe_v1.uspp.F.UPF
     MD5 check sum: 2cf71db95cafeb975fc457bd7f14888e
     Pseudo is Ultrasoft + core correction, Zval = 11.0
     Generated by new atomic code, or converted to UPF format
     Using radial grid of  885 points,  6 beta functions with:
                l(1) =   0
                l(2) =   0
                l(3) =   1
                l(4) =   1
                l(5) =   2
                l(6) =   2
     Q(r) pseudized with  6 coefficients,  rinner =    1.200   1.200   1.200
                                                       1.200   1.200

     PseudoPot. # 2 for Cl read from file:
     /home/pragov/projects/rrg-bengioy-ad/pragov/crystal_structure_design/SSSP/cl_pbe_v1.4.uspp.F.UPF
     MD5 check sum: fc6f6913ecf08c9257cb748ef0700058
     Pseudo is Ultrasoft + core correction, Zval =  7.0
     Generated by new atomic code, or converted to UPF format
     Using radial grid of  909 points,  6 beta functions with:
                l(1) =   0
                l(2) =   0
                l(3) =   1
                l(4) =   1
                l(5) =   2
                l(6) =   2
     Q(r) pseudized with  8 coefficients,  rinner =    1.300   1.300   1.300
                                                       1.300   1.300

     PseudoPot. # 3 for O  read from file:
     /home/pragov/projects/rrg-bengioy-ad/pragov/crystal_structure_design/SSSP/O.pbe-n-kjpaw_psl.0.1.UPF
     MD5 check sum: 0234752ac141de4415c5fc33072bef88
     Pseudo is Projector augmented-wave + core cor, Zval =  6.0
     Generated using "atomic" code by A. Dal Corso  v.5.0.99 svn rev. 10869
     Shape of augmentation charge: BESSEL
     Using radial grid of 1095 points,  4 beta functions with:
                l(1) =   0
                l(2) =   0
                l(3) =   1
                l(4) =   1
     Q(r) pseudized with 0 coefficients

     atomic species   valence    mass     pseudopotential
        Y             11.00    88.90584     Y ( 1.00)
        Cl             7.00    35.45000     Cl( 1.00)
        O              6.00    15.99900     O ( 1.00)

     16 Sym. Ops., with inversion, found ( 8 have fractional translation)

                                    s                        frac. trans.

      isym =  1     identity

 cryst.   s( 1) = (     1          0          0      )
                  (     0          1          0      )
                  (     0          0          1      )

 cart.    s( 1) = (  1.0000000  0.0000000  0.0000000 )
                  (  0.0000000  1.0000000  0.0000000 )
                  (  0.0000000  0.0000000  1.0000000 )

      isym =  2     180 deg rotation - cart. axis [0,0,1]

[...]

 cryst.   s( 3) = (    -1          0          0      )    f =(  0.5000000 )
                  (     0          1          0      )       ( -0.5000000 )
                  (     0          0         -1      )       (  0.0000000 )

 cart.    s( 3) = ( -1.0000000  0.0000000  0.0000000 )    f =(  0.5000000 )
                  (  0.0000000  1.0000000  0.0000000 )       ( -0.5000000 )
                  (  0.0000000  0.0000000 -1.0000000 )       (  0.0000000 )

[...]

 cryst.   s( 6) = (     0         -1          0      )
                  (    -1          0          0      )
                  (     0          0         -1      )

 cart.    s( 6) = (  0.0000000 -1.0000000  0.0000000 )
                  ( -1.0000000  0.0000000  0.0000000 )
                  (  0.0000000  0.0000000 -1.0000000 )

[...]

      isym =  8      90 deg rotation - cart. axis [0,0,1]

[...]

      isym =  9     inversion

 cryst.   s( 9) = (    -1          0          0      )    f =(  0.5000000 )
                  (     0         -1          0      )       (  0.5000000 )
                  (     0          0         -1      )       (  0.0000000 )

 cart.    s( 9) = ( -1.0000000  0.0000000  0.0000000 )    f =(  0.5000000 )
                  (  0.0000000 -1.0000000  0.0000000 )       (  0.5000000 )
                  (  0.0000000  0.0000000 -1.0000000 )       (  0.0000000 )

      isym = 10     inv. 180 deg rotation - cart. axis [0,0,1]

 cryst.   s(10) = (     1          0          0      )    f =(  0.5000000 )
                  (     0          1          0      )       ( -0.5000000 )
                  (     0          0         -1      )       (  0.0000000 )

 cart.    s(10) = (  1.0000000  0.0000000  0.0000000 )    f =(  0.5000000 )
                  (  0.0000000  1.0000000  0.0000000 )       ( -0.5000000 )
                  (  0.0000000  0.0000000 -1.0000000 )       (  0.0000000 )

[...]

 cryst.   s(11) = (     1          0          0      )
                  (     0         -1          0      )
                  (     0          0          1      )

 cart.    s(11) = (  1.0000000  0.0000000  0.0000000 )
                  (  0.0000000 -1.0000000  0.0000000 )
                  (  0.0000000  0.0000000  1.0000000 )

[...]

 cryst.   s(14) = (     0          1          0      )    f =(  0.5000000 )
                  (     1          0          0      )       ( -0.5000000 )
                  (     0          0          1      )       (  0.0000000 )

 cart.    s(14) = (  0.0000000  1.0000000  0.0000000 )    f =(  0.5000000 )
                  (  1.0000000  0.0000000  0.0000000 )       ( -0.5000000 )
                  (  0.0000000  0.0000000  1.0000000 )       (  0.0000000 )

[...]

      isym = 16     inv.  90 deg rotation - cart. axis [0,0,1]

 cryst.   s(16) = (     0         -1          0      )
                  (     1          0          0      )
                  (     0          0         -1      )

 cart.    s(16) = (  0.0000000  1.0000000  0.0000000 )
                  ( -1.0000000  0.0000000  0.0000000 )
                  (  0.0000000  0.0000000 -1.0000000 )

   Cartesian axes

     site n.     atom                  positions (alat units)
         1           Y   tau(   1) = (   0.5000000   0.0000000   1.4282057  )
         2           Y   tau(   2) = (   0.0000000   0.5000000   0.2854629  )
         3           Cl  tau(   3) = (   0.0000000   0.5000000   1.0766740  )
         4           Cl  tau(   4) = (   0.5000000   0.0000000   0.6369946  )
         5           O   tau(   5) = (   0.0000000   0.0000000   0.0000000  )
         6           O   tau(   6) = (   0.5000000   0.5000000   0.0000000  )

   Crystallographic axes

     site n.     atom                  positions (cryst. coord.)
         1           Y   tau(   1) = (  0.5000000  0.0000000  0.8334200  )
         2           Y   tau(   2) = (  0.0000000  0.5000000  0.1665800  )
         3           Cl  tau(   3) = (  0.0000000  0.5000000  0.6282860  )
         4           Cl  tau(   4) = (  0.5000000  0.0000000  0.3717140  )
         5           O   tau(   5) = (  0.0000000  0.0000000  0.0000000  )
         6           O   tau(   6) = (  0.5000000  0.5000000  0.0000000  )

     number of k points=     1  Methfessel-Paxton smearing, width (Ry)=  0.0010
                       cart. coord. in units 2pi/alat
        k(    1) = (   0.0000000   0.0000000   0.0000000), wk =   2.0000000

                       cryst. coord.
        k(    1) = (   0.0000000   0.0000000   0.0000000), wk =   2.0000000

     Check: negative core charge=   -0.000009

     Initial potential from superposition of free atoms

     starting charge      47.9910, renormalised to      48.0000

     negative rho (up, down):  1.150E-01 0.000E+00
     Starting wfcs are   42 randomized atomic wfcs
     Checking if some PAW data can be deallocated...

     Self-consistent Calculation

     iteration #  1     ecut=    30.00 Ry     beta= 0.70
     Davidson diagonalization with overlap

     ethr =  1.00E-02,  avg # of iterations =  3.0

     negative rho (up, down):  1.174E-01 0.000E+00

     total energy              =    -325.04767869 Ry
     estimated scf accuracy    <       1.34382334 Ry

[...]

     total energy              =    -325.73840617 Ry
     estimated scf accuracy    <       0.00000102 Ry

     iteration #  9     ecut=    30.00 Ry     beta= 0.70
     Davidson diagonalization with overlap

     ethr =  2.13E-09,  avg # of iterations =  2.0

[...]

     End of self-consistent calculation

          k = 0.0000 0.0000 0.0000 (   984 PWs)   bands (ev):

   -32.9302 -32.8645 -13.5116 -12.9960 -12.9960 -12.7953 -12.7953 -12.7783
    -8.6567  -8.5362  -5.7147  -4.9743   4.0838   4.5923   4.5923   4.8888
     5.5430   5.9712   5.9712   6.3913   6.3913   7.1967   7.6559   7.6559
    12.5319  12.6752  12.7591  13.3062  13.9531

     occupation numbers
     1.0000   1.0000   1.0000   1.0000   1.0000   1.0000   1.0000   1.0000
     1.0000   1.0000   1.0000   1.0000   1.0000   1.0000   1.0000   1.0000
     1.0000   1.0000   1.0000   1.0000   1.0000   1.0000   1.0000   1.0000
    -0.0000  -0.0000  -0.0000  -0.0000  -0.0000

     the Fermi energy is     8.1948 ev

!    total energy              =    -325.73840612 Ry
     estimated scf accuracy    <       0.00000027 Ry
     smearing contrib. (-TS)   =       0.00000000 Ry
     internal energy E=F+TS    =    -325.73840612 Ry

     The total energy is F=E-TS. E is the sum of the following terms:
     one-electron contribution =     -78.81702526 Ry
     hartree contribution      =      63.78106015 Ry
     xc contribution           =     -78.21016075 Ry
     ewald contribution        =    -213.45937695 Ry
     one-center paw contrib.   =     -19.03290332 Ry
      -> PAW hartree energy AE =      59.62363950 Ry
      -> PAW hartree energy PS =     -59.40540984 Ry
      -> PAW xc energy AE      =     -34.39209241 Ry
      -> PAW xc energy PS      =      15.14095943 Ry
      -> total E_H with PAW    =      63.99928981 Ry
      -> total E_XC with PAW   =     -97.46129372 Ry

     convergence has been achieved in   9 iterations

     negative rho (up, down):  1.154E-01 0.000E+00

     Forces acting on atoms (cartesian axes, Ry/au):

     atom    1 type  1   force =     0.00000000    0.00000000    0.03243203
     atom    2 type  1   force =     0.00000000    0.00000000   -0.03243203
     atom    3 type  2   force =     0.00000000    0.00000000   -0.02899995
     atom    4 type  2   force =     0.00000000    0.00000000    0.02899995
     atom    5 type  3   force =     0.00000000    0.00000000    0.00000000
     atom    6 type  3   force =     0.00000000    0.00000000    0.00000000
     The non-local contrib.  to forces
     atom    1 type  1   force =     0.00000000    0.00000000    0.14694322
     atom    2 type  1   force =     0.00000000    0.00000000   -0.14694322
     atom    3 type  2   force =     0.00000000    0.00000000    0.04209422
     atom    4 type  2   force =     0.00000000    0.00000000   -0.04209422
     atom    5 type  3   force =     0.00000000    0.00000000    0.00000000
     atom    6 type  3   force =     0.00000000    0.00000000    0.00000000
     The ionic contribution  to forces
     atom    1 type  1   force =    -0.00000000    0.00000000  -13.43723470
     atom    2 type  1   force =     0.00000000   -0.00000000   13.43723470
     atom    3 type  2   force =     0.00000000   -0.00000000   -5.18223329
     atom    4 type  2   force =    -0.00000000    0.00000000    5.18223329
     atom    5 type  3   force =     0.00000000    0.00000000    0.00000000
     atom    6 type  3   force =    -0.00000000   -0.00000000    0.00000000
     The local contribution  to forces
     atom    1 type  1   force =    -0.00001850    0.00000415   13.33890620
     atom    2 type  1   force =     0.00001590    0.00001312  -13.33967715
     atom    3 type  2   force =     0.00001276   -0.00000317    5.11247413
     atom    4 type  2   force =    -0.00000447    0.00000869   -5.11176906
     atom    5 type  3   force =    -0.00000339   -0.00001117   -0.00034338
     atom    6 type  3   force =    -0.00000222    0.00000216   -0.00032449
     The core correction contribution to forces
     atom    1 type  1   force =    -0.00000040    0.00000028   -0.01594259
     atom    2 type  1   force =     0.00000139   -0.00000015    0.01593228
     atom    3 type  2   force =     0.00000014    0.00000028   -0.00086198
     atom    4 type  2   force =     0.00000002   -0.00000013    0.00086354
     atom    5 type  3   force =    -0.00000016   -0.00000002    0.00000157
     atom    6 type  3   force =    -0.00000009   -0.00000002    0.00000172
     The Hubbard contrib.    to forces
     atom    1 type  1   force =     0.00000000    0.00000000    0.00000000
     atom    2 type  1   force =     0.00000000    0.00000000    0.00000000
     atom    3 type  2   force =     0.00000000    0.00000000    0.00000000
     atom    4 type  2   force =     0.00000000    0.00000000    0.00000000
     atom    5 type  3   force =     0.00000000    0.00000000    0.00000000
     atom    6 type  3   force =     0.00000000    0.00000000    0.00000000
     The SCF correction term to forces
     atom    1 type  1   force =     0.00000274    0.00000387   -0.00025962
     atom    2 type  1   force =    -0.00000802   -0.00001309    0.00100184
     atom    3 type  2   force =    -0.00000570    0.00000024   -0.00048606
     atom    4 type  2   force =     0.00000139   -0.00000257   -0.00024663
     atom    5 type  3   force =     0.00000124    0.00001033    0.00047966
     atom    6 type  3   force =     0.00000403   -0.00000324    0.00047163

     Total force =     0.061528     Total SCF correction =     0.001349

     Computing stress (Cartesian axis) and pressure

     negative rho (up, down):  1.154E-01 0.000E+00
          total   stress  (Ry/bohr**3)                   (kbar)     P=     -123.32
  -0.00067490   0.00000000   0.00000000          -99.28        0.00        0.00
   0.00000000  -0.00067490   0.00000000            0.00      -99.28        0.00
   0.00000000   0.00000000  -0.00116511            0.00        0.00     -171.39

     kinetic stress (kbar)  14311.96      0.00      0.00
                                0.00  14311.96      0.00
                                0.00      0.00  13968.07

     local   stress (kbar) -16537.59      0.00     -0.00
                                0.00 -16537.59      0.00
                               -0.00      0.00   4823.42

     nonloc. stress (kbar)   9497.69      0.00      0.00
                                0.00   9497.69      0.00
                                0.00      0.00   9506.60

     hartree stress (kbar)   7611.62      0.00     -0.00
                                0.00   7611.61     -0.00
                               -0.00     -0.00  -1857.66

     exc-cor stress (kbar)   2952.91     -0.00     -0.00
                               -0.00   2952.91     -0.00
                               -0.00     -0.00   2948.54

     corecor stress (kbar)  -6901.54      0.00     -0.00
                                0.00  -6901.54      0.00
                               -0.00      0.00  -6897.75

     ewald   stress (kbar) -11034.32     -0.00      0.00
                               -0.00 -11034.32     -0.00
                                0.00     -0.00 -22662.61

     hubbard stress (kbar)      0.00      0.00      0.00
                                0.00      0.00      0.00
                                0.00      0.00      0.00

     DFT-D   stress (kbar)      0.00      0.00      0.00
                                0.00      0.00      0.00
                                0.00      0.00      0.00

     XDM     stress (kbar)      0.00      0.00      0.00
                                0.00      0.00      0.00
                                0.00      0.00      0.00

     dft-nl  stress (kbar)      0.00      0.00      0.00
                                0.00      0.00      0.00
                                0.00      0.00      0.00

     TS-vdW  stress (kbar)      0.00      0.00      0.00
                                0.00      0.00      0.00
                                0.00      0.00      0.00

[...]

                                0.00      0.00      0.00

     Writing all to output data dir new_calculations/myprefix.save/

     General routines

     Parallel routines

     PAW routines

   This run was terminated on:   3:55:31  21May2023

   JOB DONE.