     Program PWSCF v.7.0 starts on 21May2023 at  3:36:39

     Reading input from espresso_18838.pwi
Warning: card &CELL ignored
Warning: card / ignored

     Current dimensions of program PWSCF are:
     Max number of different atomic species (ntypx) = 10
     Max number of k-points (npk) =  40000
     Max angular momentum in pseudopotentials (lmaxx) =  4

     gamma-point specific algorithms are used
     Message from routine setup:
     using ibrav=0 with symmetry is DISCOURAGED, use correct ibrav instead

     Subspace diagonalization in iterative solution of the eigenvalue problem:
     a serial algorithm will be used

     Using Slab Decomposition

     bravais-lattice index     =            0
     lattice parameter (alat)  =      26.0046  a.u.
     unit-cell volume          =    2997.5207 (a.u.)^3
     number of atoms/cell      =           16
     number of atomic types    =            4
     number of electrons       =       148.00
     number of Kohn-Sham states=           89
     kinetic-energy cutoff     =      30.0000  Ry
     charge density cutoff     =     240.0000  Ry
     scf convergence threshold =      1.0E-06
     mixing beta               =       0.7000
     number of iterations used =            8  plain     mixing
     Exchange-correlation=  SLA  PW   PBX  PBC
                           (   1   4   3   4   0   0   0)

     celldm(1)=  26.004638  celldm(2)=   0.000000  celldm(3)=   0.000000
     celldm(4)=   0.000000  celldm(5)=   0.000000  celldm(6)=   0.000000

     crystal axes: (cart. coord. in units of alat)
               a(1) = (   1.000000   0.000000   0.000000 )
               a(2) = (   0.754800   0.473629   0.000000 )
               a(3) = (   0.245200  -0.307899   0.359892 )

     reciprocal axes: (cart. coord. in units 2 pi/alat)
               b(1) = (  1.000000 -1.593653 -2.044740 )
               b(2) = (  0.000000  2.111359  1.806338 )
               b(3) = (  0.000000  0.000000  2.778614 )

     PseudoPot. # 1 for Rb read from file:
     /home/pragov/projects/rrg-bengioy-ad/pragov/crystal_structure_design/SSSP/Rb_ONCV_PBE-1.0.oncvpsp.upf
     MD5 check sum: 55a5172d6bfbce6759a58e35d43f6aa9
     Pseudo is Norm-conserving, Zval =  9.0
     Generated using ONCVPSP code by D. R. Hamann
     Using radial grid of 2308 points,  6 beta functions with:
                l(1) =   0
                l(2) =   0
                l(3) =   1
                l(4) =   1
                l(5) =   2
                l(6) =   2

     PseudoPot. # 2 for V  read from file:
     /home/pragov/projects/rrg-bengioy-ad/pragov/crystal_structure_design/SSSP/v_pbe_v1.4.uspp.F.UPF
     MD5 check sum: 22b79981416ebb76fdaf5b1b8640f6fb
     Pseudo is Ultrasoft + core correction, Zval = 13.0
     Generated by new atomic code, or converted to UPF format
     Using radial grid of  853 points,  6 beta functions with:
                l(1) =   0
                l(2) =   0
                l(3) =   1
                l(4) =   1
                l(5) =   2
                l(6) =   2
     Q(r) pseudized with  8 coefficients,  rinner =    1.100   1.100   1.100
                                                       1.100   1.100

     PseudoPot. # 3 for Cu read from file:
     /home/pragov/projects/rrg-bengioy-ad/pragov/crystal_structure_design/SSSP/Cu_pbe_v1.2.uspp.F.UPF
     MD5 check sum: 6e991ff952a84172a2a52a1c1e996048
     Pseudo is Ultrasoft + core correction, Zval = 19.0
     Generated by new atomic code, or converted to UPF format
     Using radial grid of  867 points,  6 beta functions with:
                l(1) =   0
                l(2) =   0
                l(3) =   1
                l(4) =   1
                l(5) =   2
                l(6) =   2
     Q(r) pseudized with  8 coefficients,  rinner =    1.150   1.150   1.150
                                                       1.150   1.150

     PseudoPot. # 4 for S  read from file:
     /home/pragov/projects/rrg-bengioy-ad/pragov/crystal_structure_design/SSSP/s_pbe_v1.4.uspp.F.UPF
     MD5 check sum: 88d86576ff6df21479756cfb9bdac1df
     Pseudo is Ultrasoft + core correction, Zval =  6.0
     Generated by new atomic code, or converted to UPF format
     Using radial grid of  907 points,  6 beta functions with:
                l(1) =   0
                l(2) =   0
                l(3) =   1
                l(4) =   1
                l(5) =   2
                l(6) =   2
     Q(r) pseudized with  8 coefficients,  rinner =    1.300   1.300   1.300
                                                       1.300   1.300

     atomic species   valence    mass     pseudopotential
        Rb             9.00    85.46780     Rb( 1.00)
        V             13.00    50.94150     V ( 1.00)
        Cu            19.00    63.54600     Cu( 1.00)
        S              6.00    32.06000     S ( 1.00)

      2 Sym. Ops., with inversion, found ( 1 have fractional translation)

                                    s                        frac. trans.

      isym =  1     identity

 cryst.   s( 1) = (     1          0          0      )
                  (     0          1          0      )
                  (     0          0          1      )

 cart.    s( 1) = (  1.0000000 -0.0000000 -0.0000000 )
                  (  0.0000000  1.0000000  0.0000000 )
                  (  0.0000000  0.0000000  1.0000000 )

      isym =  2     inversion

 cryst.   s( 2) = (    -1          0          0      )    f =( -0.2500000 )
                  (     0         -1          0      )       ( -0.2500000 )
                  (     0          0         -1      )       ( -0.2500000 )

 cart.    s( 2) = ( -1.0000000  0.0000000  0.0000000 )    f =( -0.5000000 )
                  (  0.0000000 -1.0000000 -0.0000000 )       ( -0.0414323 )
                  (  0.0000000  0.0000000 -1.0000000 )       ( -0.0899729 )

   Cartesian axes

     site n.     atom                  positions (alat units)
         1           Rb  tau(   1) = (   1.2319207  -0.0144892   0.3338294  )
         2           Rb  tau(   2) = (   1.7680793   0.2630830   0.2060081  )
         3           Rb  tau(   3) = (   0.7319207  -0.0559215   0.2438565  )
         4           Rb  tau(   4) = (   1.2680793   0.2216507   0.1160352  )
         5           V   tau(   5) = (   1.5000000   0.1242969   0.2699188  )
         6           V   tau(   6) = (   1.0000000   0.0828646   0.1799459  )
         7           Cu  tau(   7) = (   0.0000000   0.0000000   0.0000000  )
         8           Cu  tau(   8) = (   0.5000000   0.0414323   0.0899729  )
         9           S   tau(   9) = (   1.0334906   0.2346973   0.2108192  )
        10           S   tau(  10) = (   0.9665094   0.0076197   0.3153879  )
        11           S   tau(  11) = (   0.8753827   0.0762562   0.0821971  )
        12           S   tau(  12) = (   1.1246173   0.0128852   0.1113793  )
        13           S   tau(  13) = (   0.6205828  -0.2793523   0.3384854  )
        14           S   tau(  14) = (   1.5334906   0.1995419   0.1344768  )
        15           S   tau(  15) = (   1.3794172   0.4388047   0.0077758  )
        16           S   tau(  16) = (   0.4665094  -0.0275358   0.2390455  )

   Crystallographic axes

     site n.     atom                  positions (cryst. coord.)
         1           Rb  tau(   1) = (  0.5724170  0.5724170  0.9275830  )
         2           Rb  tau(   2) = (  0.9275830  0.9275830  0.5724170  )
         3           Rb  tau(   3) = (  0.3224170  0.3224170  0.6775830  )
         4           Rb  tau(   4) = (  0.6775830  0.6775830  0.3224170  )
         5           V   tau(   5) = (  0.7500000  0.7500000  0.7500000  )
         6           V   tau(   6) = (  0.5000000  0.5000000  0.5000000  )
         7           Cu  tau(   7) = (  0.0000000  0.0000000  0.0000000  )
         8           Cu  tau(   8) = (  0.2500000  0.2500000  0.2500000  )
         9           S   tau(   9) = (  0.2283940  0.8763410  0.5857850  )
        10           S   tau(  10) = (  0.3094800  0.5857850  0.8763410  )
        11           S   tau(  11) = (  0.5857850  0.3094800  0.2283940  )
        12           S   tau(  12) = (  0.8763410  0.2283940  0.3094800  )
        13           S   tau(  13) = (  0.3736590  0.0216060  0.9405200  )
        14           S   tau(  14) = (  0.9405200  0.6642150  0.3736590  )
        15           S   tau(  15) = (  0.6642150  0.9405200  0.0216060  )
        16           S   tau(  16) = (  0.0216060  0.3736590  0.6642150  )

     number of k points=     1  Methfessel-Paxton smearing, width (Ry)=  0.0010
                       cart. coord. in units 2pi/alat
        k(    1) = (   0.0000000   0.0000000   0.0000000), wk =   2.0000000

                       cryst. coord.
        k(    1) = (   0.0000000   0.0000000   0.0000000), wk =   2.0000000

     Check: negative core charge=   -0.000002

     Initial potential from superposition of free atoms

     starting charge     145.8982, renormalised to     148.0000

     negative rho (up, down):  1.582E-03 0.000E+00
     Starting wfcs are   98 randomized atomic wfcs

     Self-consistent Calculation

     iteration #  1     ecut=    30.00 Ry     beta= 0.70
     Davidson diagonalization with overlap

     ethr =  1.00E-02,  avg # of iterations =  7.0

     negative rho (up, down):  3.900E-03 0.000E+00

     total energy              =   -1486.38421423 Ry
     estimated scf accuracy    <       5.74144894 Ry

[...]

     total energy              =   -1489.88432791 Ry
     estimated scf accuracy    <       0.00001047 Ry

     iteration # 18     ecut=    30.00 Ry     beta= 0.70
     Davidson diagonalization with overlap

     ethr =  9.50E-10,  avg # of iterations =  2.0

[...]

     End of self-consistent calculation

          k = 0.0000 0.0000 0.0000 (  4143 PWs)   bands (ev):

  -107.5652-106.8286 -64.9302 -64.9027 -64.8952 -64.6219 -64.5574 -64.2841
   -59.9614 -59.6744 -33.7896 -33.7769 -33.7395 -33.5837 -33.5030 -33.0389
   -22.3540 -22.0004 -21.9149 -21.6917 -14.3438 -13.8967  -8.0005  -7.8194
    -7.5895  -7.0039  -6.8077  -6.7120  -6.0251  -6.0056  -5.9501  -5.8642
    -5.8322  -5.7706  -5.7566  -5.7064  -5.6234  -5.5367  -5.0849  -4.8388
    -0.0093   0.3431   0.5601   0.7117   1.0293   1.0638   1.1532   1.2500
     1.3526   1.5415   1.6176   1.6535   1.7604   1.9333   1.9688   2.1575
     2.2422   2.3217   2.5420   2.6123   2.6276   2.7318   2.9175   3.0896
     3.1781   3.2254   3.4799   3.5330   3.8363   3.9004   3.9053   4.1419
     4.2002   4.2693   5.6884   5.8754   5.9769   6.1603   6.5336   6.8673
     6.8934   6.9265   7.1482   7.1771   7.5792   7.7745   8.1147   9.4239
     9.5108

     occupation numbers
     1.0000   1.0000   1.0000   1.0000   1.0000   1.0000   1.0000   1.0000
     1.0000   1.0000   1.0000   1.0000   1.0000   1.0000   1.0000   1.0000
     1.0000   1.0000   1.0000   1.0000   1.0000   1.0000   1.0000   1.0000
     1.0000   1.0000   1.0000   1.0000   1.0000   1.0000   1.0000   1.0000
     1.0000   1.0000   1.0000   1.0000   1.0000   1.0000   1.0000   1.0000
     1.0000   1.0000   1.0000   1.0000   1.0000   1.0000   1.0000   1.0000
     1.0000   1.0000   1.0000   1.0000   1.0000   1.0000   1.0000   1.0000
     1.0000   1.0000   1.0000   1.0000   1.0000   1.0000   1.0000   1.0000
     1.0000   1.0000   1.0000   1.0000   1.0000   1.0000   1.0000   1.0000
     1.0000   1.0000  -0.0000  -0.0000  -0.0000  -0.0000  -0.0000  -0.0000
    -0.0000  -0.0000  -0.0000  -0.0000  -0.0000  -0.0000  -0.0000  -0.0000
    -0.0000

     the Fermi energy is     5.0630 ev

!    total energy              =   -1489.88432830 Ry
     estimated scf accuracy    <       0.00000052 Ry
     smearing contrib. (-TS)   =       0.00000000 Ry
     internal energy E=F+TS    =   -1489.88432830 Ry

     The total energy is F=E-TS. E is the sum of the following terms:
     one-electron contribution =   -1416.55364158 Ry
     hartree contribution      =     746.80343388 Ry
     xc contribution           =    -214.81560637 Ry
     ewald contribution        =    -605.31851423 Ry

     convergence has been achieved in  18 iterations

     negative rho (up, down):  2.291E-03 0.000E+00

     Forces acting on atoms (cartesian axes, Ry/au):

     atom    1 type  1   force =     0.00621577   -0.00049208   -0.00239273
     atom    2 type  1   force =    -0.00567977    0.00026292    0.00296337
     atom    3 type  1   force =     0.00567977   -0.00026292   -0.00296337
     atom    4 type  1   force =    -0.00621577    0.00049208    0.00239273
     atom    5 type  2   force =    -0.00672114    0.00027164   -0.00976321
     atom    6 type  2   force =     0.00672114   -0.00027164    0.00976321
     atom    7 type  3   force =     0.00468543    0.00322725   -0.00007315
     atom    8 type  3   force =    -0.00468543   -0.00322725    0.00007315
     atom    9 type  4   force =    -0.01227737   -0.01850819    0.12808163
     atom   10 type  4   force =    -0.00264584    0.04200020   -0.07321892
     atom   11 type  4   force =     0.05251629   -0.05469334   -0.09900478
     atom   12 type  4   force =    -0.03986690    0.02452506    0.04302643
     atom   13 type  4   force =     0.03986690   -0.02452506   -0.04302643
     atom   14 type  4   force =     0.00264584   -0.04200020    0.07321892
     atom   15 type  4   force =    -0.05251629    0.05469334    0.09900478
     atom   16 type  4   force =     0.01227737    0.01850819   -0.12808163
     The non-local contrib.  to forces
     atom    1 type  1   force =    -0.01009576   -0.00505887    0.01066967
     atom    2 type  1   force =     0.01340580    0.00412531   -0.00823638
     atom    3 type  1   force =    -0.01340580   -0.00412531    0.00823638
     atom    4 type  1   force =     0.01009576    0.00505887   -0.01066967
     atom    5 type  2   force =    -0.02839325   -0.01786443    0.00306191
     atom    6 type  2   force =     0.02839325    0.01786443   -0.00306191
     atom    7 type  3   force =    -0.00272769    0.01373920    0.01728572
     atom    8 type  3   force =     0.00272769   -0.01373920   -0.01728572
     atom    9 type  4   force =    -0.07365962    0.03706532    0.12056866
     atom   10 type  4   force =     0.05882734    0.02726392    0.01381644
     atom   11 type  4   force =     0.06645103   -0.01313692   -0.12379518
     atom   12 type  4   force =    -0.04646569   -0.06203844   -0.01651725
     atom   13 type  4   force =     0.04646569    0.06203844    0.01651725
     atom   14 type  4   force =    -0.05882734   -0.02726392   -0.01381644
     atom   15 type  4   force =    -0.06645103    0.01313692    0.12379518
     atom   16 type  4   force =     0.07365962   -0.03706532   -0.12056866
     The ionic contribution  to forces
     atom    1 type  1   force =     1.50288949    0.77805405   -0.35829196
     atom    2 type  1   force =    -1.50288949   -0.77805405    0.35829196
     atom    3 type  1   force =     1.50288949    0.77805405   -0.35829196
     atom    4 type  1   force =    -1.50288949   -0.77805405    0.35829196
     atom    5 type  2   force =    -0.00000001    0.00000002    0.00000000
     atom    6 type  2   force =     0.00000001   -0.00000002   -0.00000000
     atom    7 type  3   force =    -0.00000001    0.00000002    0.00000000
     atom    8 type  3   force =     0.00000001   -0.00000002   -0.00000000
     atom    9 type  4   force =     4.16214126   12.19575183   -6.44016825
     atom   10 type  4   force =    -4.16214126  -12.82191849    5.08040709
     atom   11 type  4   force =   -13.97011098    3.43475316   -0.75764069
     atom   12 type  4   force =    13.97011098   -2.80858651    2.11740184
     atom   13 type  4   force =   -13.97011098    2.80858651   -2.11740184
     atom   14 type  4   force =     4.16214126   12.82191849   -5.08040709
     atom   15 type  4   force =    13.97011098   -3.43475316    0.75764069
     atom   16 type  4   force =    -4.16214126  -12.19575183    6.44016825
     The local contribution  to forces
     atom    1 type  1   force =    -1.48458642   -0.76482920    0.34539542
     atom    2 type  1   force =     1.47862305    0.76585504   -0.34711193
     atom    3 type  1   force =    -1.48909832   -0.78266050    0.34712217
     atom    4 type  1   force =     1.48849678    0.78184665   -0.34496303
     atom    5 type  2   force =     0.04519791    0.03286940   -0.00420696
     atom    6 type  2   force =     0.00286592   -0.00284942    0.02104900
     atom    7 type  3   force =     0.00987331   -0.00730599   -0.04123310
     atom    8 type  3   force =    -0.00592730    0.01361803   -0.00672369
     atom    9 type  4   force =    -4.08872787  -12.27398097    6.44280671
     atom   10 type  4   force =     4.08395117   12.86181820   -5.15111844
     atom   11 type  4   force =    13.94753501   -3.47864672    0.80182932
     atom   12 type  4   force =   -13.94727619    2.87238646   -2.08182634
     atom   13 type  4   force =    13.99324760   -2.93763560    2.05394603
     atom   14 type  4   force =    -4.10993627  -12.83035604    5.16950858
     atom   15 type  4   force =   -13.97894521    3.49817814   -0.78956157
     atom   16 type  4   force =     4.10355421   12.24616753   -6.43756497
     The core correction contribution to forces
     atom    1 type  1   force =     0.00000000    0.00000000    0.00000000
     atom    2 type  1   force =     0.00000000    0.00000000    0.00000000
     atom    3 type  1   force =     0.00000000    0.00000000    0.00000000
     atom    4 type  1   force =     0.00000000    0.00000000    0.00000000
     atom    5 type  2   force =     0.00074681    0.00036691    0.00019046
     atom    6 type  2   force =     0.00039362   -0.00028801    0.00042722
     atom    7 type  3   force =     0.00002574   -0.00002347   -0.00003327
     atom    8 type  3   force =     0.00011141    0.00005529   -0.00003559
     atom    9 type  4   force =     0.00028545    0.00878685    0.00637876
     atom   10 type  4   force =    -0.00151318   -0.00463885   -0.00196846
     atom   11 type  4   force =    -0.01284809    0.01417264   -0.01742884
     atom   12 type  4   force =     0.01302428   -0.01600771    0.00980151
     atom   13 type  4   force =    -0.00122215    0.00395688   -0.00995689
     atom   14 type  4   force =    -0.00902105    0.01454804    0.01175629
     atom   15 type  4   force =     0.00173547   -0.01008545    0.00952776
     atom   16 type  4   force =     0.00923908   -0.00930661   -0.00868311
     The Hubbard contrib.    to forces
     atom    1 type  1   force =     0.00000000    0.00000000    0.00000000
     atom    2 type  1   force =     0.00000000    0.00000000    0.00000000
     atom    3 type  1   force =     0.00000000    0.00000000    0.00000000
     atom    4 type  1   force =     0.00000000    0.00000000    0.00000000
     atom    5 type  2   force =     0.00000000    0.00000000    0.00000000
     atom    6 type  2   force =     0.00000000    0.00000000    0.00000000
     atom    7 type  3   force =     0.00000000    0.00000000    0.00000000
     atom    8 type  3   force =     0.00000000    0.00000000    0.00000000
     atom    9 type  4   force =     0.00000000    0.00000000    0.00000000
     atom   10 type  4   force =     0.00000000    0.00000000    0.00000000
     atom   11 type  4   force =     0.00000000    0.00000000    0.00000000
     atom   12 type  4   force =     0.00000000    0.00000000    0.00000000
     atom   13 type  4   force =     0.00000000    0.00000000    0.00000000
     atom   14 type  4   force =     0.00000000    0.00000000    0.00000000
     atom   15 type  4   force =     0.00000000    0.00000000    0.00000000
     atom   16 type  4   force =     0.00000000    0.00000000    0.00000000
     The SCF correction term to forces
     atom    1 type  1   force =     0.00003027   -0.00010171    0.00003663
     atom    2 type  1   force =    -0.00018331   -0.00012131    0.00006302
     atom    3 type  1   force =    -0.00006979    0.00001092    0.00001336
     atom    4 type  1   force =     0.00010299    0.00019696   -0.00006403
     atom    5 type  2   force =     0.00056581    0.00006238   -0.00003565
     atom    6 type  2   force =    -0.00009325    0.00016401    0.00012187
     atom    7 type  3   force =    -0.00016964    0.00002545   -0.00022760
     atom    8 type  3   force =     0.00071903    0.00004661   -0.00001694
     atom    9 type  4   force =    -0.00002353   -0.00003479   -0.00012126
     atom   10 type  4   force =    -0.00009189   -0.00006902   -0.00010710
     atom   11 type  4   force =    -0.00002959    0.00002187    0.00014431
     atom   12 type  4   force =    -0.00009475    0.00006507    0.00013829
     atom   13 type  4   force =     0.00065228   -0.00017749   -0.00015934
     atom   14 type  4   force =    -0.00003274   -0.00039123    0.00042603
     atom   15 type  4   force =    -0.00048541    0.00007426   -0.00028359
     atom   16 type  4   force =     0.00025878    0.00056084   -0.00005016

     Total force =     0.296251     Total SCF correction =     0.001649

     Computing stress (Cartesian axis) and pressure

     negative rho (up, down):  2.291E-03 0.000E+00
          total   stress  (Ry/bohr**3)                   (kbar)     P=     -118.78
  -0.00134184  -0.00085782   0.00010089         -197.39     -126.19       14.84
  -0.00085782  -0.00010511   0.00004630         -126.19      -15.46        6.81
   0.00010089   0.00004630  -0.00097536           14.84        6.81     -143.48

     kinetic stress (kbar)   9155.86    -79.47      6.94
                              -79.47   9255.19    -32.82
                                6.94    -32.82   9100.00

     local   stress (kbar)    -15.96   2048.78   -947.93
                             2048.78  -8009.31 -11568.36
                             -947.93 -11568.36 -27823.42

     nonloc. stress (kbar)   3299.62    -17.31     -3.79
                              -17.31   3325.59      8.47
                               -3.79      8.47   3301.82

     hartree stress (kbar)   6829.60   -912.90    422.71
                             -912.90  10427.34   5230.54
                              422.71   5230.54  19392.88

     exc-cor stress (kbar)  -1125.09      0.43     -0.11
                                0.43  -1125.08      1.36
                               -0.11      1.36  -1122.33

     corecor stress (kbar)  -1838.90      0.44      0.01
                                0.44  -1839.69      0.15
                                0.01      0.15  -1838.09

     ewald   stress (kbar) -16502.51  -1166.16    537.01
                            -1166.16 -12049.50   6367.47
                              537.01   6367.47  -1154.34

     hubbard stress (kbar)      0.00      0.00      0.00
                                0.00      0.00      0.00
                                0.00      0.00      0.00

     DFT-D   stress (kbar)      0.00      0.00      0.00
                                0.00      0.00      0.00
                                0.00      0.00      0.00

     XDM     stress (kbar)      0.00      0.00      0.00
                                0.00      0.00      0.00
                                0.00      0.00      0.00

     dft-nl  stress (kbar)      0.00      0.00      0.00
                                0.00      0.00      0.00
                                0.00      0.00      0.00

     TS-vdW  stress (kbar)      0.00      0.00      0.00
                                0.00      0.00      0.00
                                0.00      0.00      0.00

[...]

                                0.00      0.00      0.00

     Writing all to output data dir new_calculations/myprefix.save/

     General routines

     Parallel routines

   This run was terminated on:   3:38: 9  21May2023

   JOB DONE.