     Program PWSCF v.7.0 starts on 20May2023 at 18:32:30

     Reading input from espresso_25020.pwi
Warning: card &CELL ignored
Warning: card / ignored

     Current dimensions of program PWSCF are:
     Max number of different atomic species (ntypx) = 10
     Max number of k-points (npk) =  40000
     Max angular momentum in pseudopotentials (lmaxx) =  4

     gamma-point specific algorithms are used
     Message from routine setup:
     using ibrav=0 with symmetry is DISCOURAGED, use correct ibrav instead

     Subspace diagonalization in iterative solution of the eigenvalue problem:
     a serial algorithm will be used

     Using Slab Decomposition

     bravais-lattice index     =            0
     lattice parameter (alat)  =      12.0210  a.u.
     unit-cell volume          =    1219.6845 (a.u.)^3
     number of atoms/cell      =            9
     number of atomic types    =            3
     number of electrons       =        75.00
     number of Kohn-Sham states=           46
     kinetic-energy cutoff     =      30.0000  Ry
     charge density cutoff     =     240.0000  Ry
     scf convergence threshold =      1.0E-06
     mixing beta               =       0.7000
     number of iterations used =            8  plain     mixing
     Exchange-correlation=  SLA  PW   PBX  PBC
                           (   1   4   3   4   0   0   0)

     celldm(1)=  12.020983  celldm(2)=   0.000000  celldm(3)=   0.000000
     celldm(4)=   0.000000  celldm(5)=   0.000000  celldm(6)=   0.000000

     crystal axes: (cart. coord. in units of alat)
               a(1) = (   1.000000   0.000000   0.000000 )
               a(2) = (  -0.500000   0.866025   0.000000 )
               a(3) = (   0.000000   0.000000   0.810769 )

     reciprocal axes: (cart. coord. in units 2 pi/alat)
               b(1) = (  1.000000  0.577350  0.000000 )
               b(2) = (  0.000000  1.154701  0.000000 )
               b(3) = (  0.000000  0.000000  1.233397 )

     PseudoPot. # 1 for Cs read from file:
     /home/pragov/projects/rrg-bengioy-ad/pragov/crystal_structure_design/SSSP/Cs_pbe_v1.uspp.F.UPF
     MD5 check sum: 3476d69cb178dfad3ffaa59df4e07ca4
     Pseudo is Ultrasoft + core correction, Zval =  9.0
     Generated by new atomic code, or converted to UPF format
     Using radial grid of  905 points,  6 beta functions with:
                l(1) =   0
                l(2) =   0
                l(3) =   1
                l(4) =   1
                l(5) =   2
                l(6) =   2
     Q(r) pseudized with  6 coefficients,  rinner =    1.500   1.500   1.500
                                                       1.500   1.500

     PseudoPot. # 2 for Tc read from file:
     /home/pragov/projects/rrg-bengioy-ad/pragov/crystal_structure_design/SSSP/Tc_ONCV_PBE-1.0.oncvpsp.upf
     MD5 check sum: 1c2b1e6c8b361b656073c0c20ed4f60a
     Pseudo is Norm-conserving, Zval = 15.0
     Generated using ONCVPSP code by D. R. Hamann
     Using radial grid of 1492 points,  6 beta functions with:
                l(1) =   0
                l(2) =   0
                l(3) =   1
                l(4) =   1
                l(5) =   2
                l(6) =   2

     PseudoPot. # 3 for F  read from file:
     /home/pragov/projects/rrg-bengioy-ad/pragov/crystal_structure_design/SSSP/f_pbe_v1.4.uspp.F.UPF
     MD5 check sum: 4c38b6a325caf53ec0e86aed9459de46
     Pseudo is Ultrasoft, Zval =  7.0
     Generated by new atomic code, or converted to UPF format
     Using radial grid of  799 points,  4 beta functions with:
                l(1) =   0
                l(2) =   0
                l(3) =   1
                l(4) =   1
     Q(r) pseudized with  8 coefficients,  rinner =    0.950   0.950   0.950

     atomic species   valence    mass     pseudopotential
        Cs             9.00   132.90545     Cs( 1.00)
        Tc            15.00    97.90721     Tc( 1.00)
        F              7.00    18.99840     F ( 1.00)

     12 Sym. Ops., with inversion, found

                                    s                        frac. trans.

      isym =  1     identity

 cryst.   s( 1) = (     1          0          0      )
                  (     0          1          0      )
                  (     0          0          1      )

 cart.    s( 1) = (  1.0000000 -0.0000000  0.0000000 )
                  (  0.0000000  1.0000000  0.0000000 )
                  (  0.0000000  0.0000000  1.0000000 )

      isym =  2     180 deg rotation - cart. axis [1,0,0]

[...]

      isym =  3     120 deg rotation - cryst. axis [0,0,1]

[...]

      isym =  6     180 deg rotation - cryst. axis [1,1,0]

[...]

      isym =  7     inversion

[...]

      isym =  8     inv. 180 deg rotation - cart. axis [1,0,0]

[...]

      isym =  9     inv. 120 deg rotation - cryst. axis [0,0,1]

 cryst.   s( 9) = (     0         -1          0      )
                  (     1          1          0      )
                  (     0          0         -1      )

 cart.    s( 9) = (  0.5000000  0.8660254  0.0000000 )
                  ( -0.8660254  0.5000000  0.0000000 )
                  (  0.0000000  0.0000000 -1.0000000 )

[...]

 cryst.   s(10) = (     1          1          0      )
                  (    -1          0          0      )
                  (     0          0         -1      )

 cart.    s(10) = (  0.5000000 -0.8660254  0.0000000 )
                  (  0.8660254  0.5000000  0.0000000 )
                  (  0.0000000  0.0000000 -1.0000000 )

[...]

      isym = 12     inv. 180 deg rotation - cryst. axis [1,1,0]

 cryst.   s(12) = (     0         -1          0      )
                  (    -1          0          0      )
                  (     0          0          1      )

 cart.    s(12) = (  0.5000000 -0.8660254  0.0000000 )
                  ( -0.8660254 -0.5000000  0.0000000 )
                  (  0.0000000  0.0000000  1.0000000 )

   Cartesian axes

     site n.     atom                  positions (alat units)
         1           Cs  tau(   1) = (   0.5000005   0.2886748   0.5686975  )
         2           Cs  tau(   2) = (  -0.0000005   0.5773505   0.2420712  )
         3           Tc  tau(   3) = (   0.0000000   0.0000000   0.0000000  )
         4           F   tau(   4) = (  -0.2758880   0.7366343   0.6390357  )
         5           F   tau(   5) = (   0.2758880   0.7366343   0.6390357  )
         6           F   tau(   6) = (  -0.0000000   0.2587822   0.6390357  )
         7           F   tau(   7) = (   0.7758880   0.1293911   0.1717330  )
         8           F   tau(   8) = (   0.2241120   0.1293911   0.1717330  )
         9           F   tau(   9) = (   0.5000000   0.6072431   0.1717330  )

   Crystallographic axes

     site n.     atom                  positions (cryst. coord.)
         1           Cs  tau(   1) = (  0.6666670  0.3333330  0.7014300  )
         2           Cs  tau(   2) = (  0.3333330  0.6666670  0.2985700  )
         3           Tc  tau(   3) = (  0.0000000  0.0000000  0.0000000  )
         4           F   tau(   4) = (  0.1494080  0.8505920  0.7881850  )
         5           F   tau(   5) = (  0.7011840  0.8505920  0.7881850  )
         6           F   tau(   6) = (  0.1494080  0.2988160  0.7881850  )
         7           F   tau(   7) = (  0.8505920  0.1494080  0.2118150  )
         8           F   tau(   8) = (  0.2988160  0.1494080  0.2118150  )
         9           F   tau(   9) = (  0.8505920  0.7011840  0.2118150  )

     number of k points=     1  Methfessel-Paxton smearing, width (Ry)=  0.0010
                       cart. coord. in units 2pi/alat
        k(    1) = (   0.0000000   0.0000000   0.0000000), wk =   2.0000000

                       cryst. coord.
        k(    1) = (   0.0000000   0.0000000   0.0000000), wk =   2.0000000

     Initial potential from superposition of free atoms

     starting charge      74.9205, renormalised to      75.0000
     Starting wfcs are   60 randomized atomic wfcs

     Self-consistent Calculation

     iteration #  1     ecut=    30.00 Ry     beta= 0.70
     Davidson diagonalization with overlap

     ethr =  1.00E-02,  avg # of iterations =  2.0

     total energy              =    -578.88699149 Ry
     estimated scf accuracy    <       1.30458368 Ry

[...]

     total energy              =    -579.59081968 Ry
     estimated scf accuracy    <       0.00000590 Ry

     iteration # 21     ecut=    30.00 Ry     beta= 0.70
     Davidson diagonalization with overlap

     ethr =  7.87E-09,  avg # of iterations =  1.0

     End of self-consistent calculation

          k = 0.0000 0.0000 0.0000 (  1707 PWs)   bands (ev):

   -63.0104 -35.1304 -35.1303 -34.9797 -18.3057 -18.0268 -18.0268 -17.8058
   -17.8058 -17.7533 -15.4857 -15.4422  -2.8880  -2.8880  -2.6590  -2.3062
    -2.3062  -2.1890  -1.3114  -1.3113  -0.8286  -0.4035  -0.1426  -0.1426
     0.1064   0.1525   0.1525   0.9176   0.9874   0.9874   1.2228   1.2229
     1.3266   1.4774   1.5258   1.5258   5.3362   5.3373   5.3373   8.4696
     8.4696   9.0441  10.8165  11.4668  11.7531  11.7533

     occupation numbers
     1.0000   1.0000   1.0000   1.0000   1.0000   1.0000   1.0000   1.0000
     1.0000   1.0000   1.0000   1.0000   1.0000   1.0000   1.0000   1.0000
     1.0000   1.0000   1.0000   1.0000   1.0000   1.0000   1.0000   1.0000
     1.0000   1.0000   1.0000   1.0000   1.0000   1.0000   1.0000   1.0000
     1.0000   1.0000   1.0000   1.0000   0.5459   0.4774   0.4767  -0.0000
    -0.0000  -0.0000  -0.0000  -0.0000  -0.0000  -0.0000

     the Fermi energy is     5.3369 ev

!    total energy              =    -579.59081966 Ry
     estimated scf accuracy    <       0.00000022 Ry
     smearing contrib. (-TS)   =      -0.00084255 Ry
     internal energy E=F+TS    =    -579.58997711 Ry

     The total energy is F=E-TS. E is the sum of the following terms:
     one-electron contribution =    -352.58337325 Ry
     hartree contribution      =     211.13261539 Ry
     xc contribution           =    -134.17219130 Ry
     ewald contribution        =    -303.96702795 Ry

     convergence has been achieved in  21 iterations

     Forces acting on atoms (cartesian axes, Ry/au):

     atom    1 type  1   force =     0.00000000    0.00000000   -0.00958491
     atom    2 type  1   force =    -0.00000000    0.00000000    0.00958491
     atom    3 type  2   force =     0.00000000    0.00000000    0.00000000
     atom    4 type  3   force =    -0.00733978    0.00423762    0.01369745
     atom    5 type  3   force =     0.00733978    0.00423762    0.01369745
     atom    6 type  3   force =    -0.00000000   -0.00847525    0.01369745
     atom    7 type  3   force =     0.00733978   -0.00423762   -0.01369745
     atom    8 type  3   force =    -0.00733978   -0.00423762   -0.01369745
     atom    9 type  3   force =    -0.00000000    0.00847525   -0.01369745
     The non-local contrib.  to forces
     atom    1 type  1   force =     0.00000000    0.00000000    0.01851077
     atom    2 type  1   force =     0.00000000    0.00000000   -0.01851077
     atom    3 type  2   force =     0.00000000   -0.00000000    0.00000000
     atom    4 type  3   force =    -0.67474613    0.38956485    0.55826230
     atom    5 type  3   force =     0.67474613    0.38956489    0.55826230
     atom    6 type  3   force =    -0.00000000   -0.77912974    0.55826230
     atom    7 type  3   force =     0.67474613   -0.38956485   -0.55826230
     atom    8 type  3   force =    -0.67474613   -0.38956489   -0.55826230
     atom    9 type  3   force =    -0.00000000    0.77912974   -0.55826230
     The ionic contribution  to forces
     atom    1 type  1   force =    -0.00003179    0.00001835   -1.96687494
     atom    2 type  1   force =     0.00003179   -0.00001835    1.96687494
     atom    3 type  2   force =     0.00000000    0.00000000   -0.00000000
     atom    4 type  3   force =    11.44729159   -6.60909662   -8.27384169
     atom    5 type  3   force =   -11.44729353   -6.60911741   -8.27384269
     atom    6 type  3   force =     0.00001635   13.21820571   -8.27384269
     atom    7 type  3   force =   -11.44729159    6.60909662    8.27384169
     atom    8 type  3   force =    11.44729353    6.60911741    8.27384269
     atom    9 type  3   force =    -0.00001635  -13.21820571    8.27384269
     The local contribution  to forces
     atom    1 type  1   force =     0.00000171    0.00000091    1.94000610
     atom    2 type  1   force =    -0.00001061    0.00001261   -1.94001693
     atom    3 type  2   force =     0.00000290   -0.00000379   -0.00000261
     atom    4 type  3   force =   -10.77990402    6.22380978    7.72914209
     atom    5 type  3   force =    10.77998136    6.22387060    7.72919209
     atom    6 type  3   force =    -0.00001708  -12.44766837    7.72917117
     atom    7 type  3   force =    10.77991378   -6.22381367   -7.72913850
     atom    8 type  3   force =   -10.77998039   -6.22387216   -7.72919570
     atom    9 type  3   force =     0.00001799   12.44766919   -7.72917578
     The core correction contribution to forces
     atom    1 type  1   force =    -0.00000197    0.00000495   -0.00126012
     atom    2 type  1   force =    -0.00000079   -0.00000145    0.00125663
     atom    3 type  2   force =     0.00000000    0.00000000    0.00000000
     atom    4 type  3   force =     0.00000000    0.00000000    0.00000000
     atom    5 type  3   force =     0.00000000    0.00000000    0.00000000
     atom    6 type  3   force =     0.00000000    0.00000000    0.00000000
     atom    7 type  3   force =     0.00000000    0.00000000    0.00000000
     atom    8 type  3   force =     0.00000000    0.00000000    0.00000000
     atom    9 type  3   force =     0.00000000    0.00000000    0.00000000
     The Hubbard contrib.    to forces
     atom    1 type  1   force =     0.00000000    0.00000000    0.00000000
     atom    2 type  1   force =     0.00000000    0.00000000    0.00000000
     atom    3 type  2   force =     0.00000000    0.00000000    0.00000000
     atom    4 type  3   force =     0.00000000    0.00000000    0.00000000
     atom    5 type  3   force =     0.00000000    0.00000000    0.00000000
     atom    6 type  3   force =     0.00000000    0.00000000    0.00000000
     atom    7 type  3   force =     0.00000000    0.00000000    0.00000000
     atom    8 type  3   force =     0.00000000    0.00000000    0.00000000
     atom    9 type  3   force =     0.00000000    0.00000000    0.00000000
     The SCF correction term to forces
     atom    1 type  1   force =     0.00002219   -0.00000242    0.00002534
     atom    2 type  1   force =    -0.00002302    0.00000277   -0.00002690
     atom    3 type  2   force =    -0.00000158    0.00000333    0.00000100
     atom    4 type  3   force =     0.00001125   -0.00003513    0.00014113
     atom    5 type  3   force =    -0.00010409   -0.00008092    0.00007770
     atom    6 type  3   force =    -0.00000614    0.00012172    0.00010692
     atom    7 type  3   force =    -0.00001418    0.00003616   -0.00014341
     atom    8 type  3   force =     0.00010365    0.00007992   -0.00007526
     atom    9 type  3   force =     0.00000704   -0.00012226   -0.00010528

     Total force =     0.041719     Total SCF correction =     0.000380

     Computing stress (Cartesian axis) and pressure

          total   stress  (Ry/bohr**3)                   (kbar)     P=      -72.18
  -0.00042529  -0.00000000   0.00000000          -62.56       -0.00        0.00
  -0.00000000  -0.00042529   0.00000000           -0.00      -62.56        0.00
   0.00000000   0.00000000  -0.00062140            0.00        0.00      -91.41

     kinetic stress (kbar)  14519.37      0.00      0.00
                                0.00  14519.37      0.00
                                0.00      0.00  14587.02

     local   stress (kbar) -12175.96     -0.23     -0.44
                               -0.23 -12175.94      0.27
                               -0.44      0.27 -12958.55

     nonloc. stress (kbar)   5216.79      0.00     -0.00
                                0.00   5216.79     -0.00
                               -0.00     -0.00   5218.09

     hartree stress (kbar)   8189.45      0.11      0.17
                                0.11   8189.50     -0.09
                                0.17     -0.09   9085.57

     exc-cor stress (kbar)   2117.81      0.00      0.00
                                0.00   2117.81     -0.00
                                0.00     -0.00   2115.87

     corecor stress (kbar)  -5779.49      0.00      0.00
                                0.00  -5779.49     -0.00
                                0.00     -0.00  -5779.36

     ewald   stress (kbar) -12150.56     -0.02      0.00
                               -0.02 -12150.58     -0.00
                                0.00     -0.00 -12360.05

     hubbard stress (kbar)      0.00      0.00      0.00
                                0.00      0.00      0.00
                                0.00      0.00      0.00

     DFT-D   stress (kbar)      0.00      0.00      0.00
                                0.00      0.00      0.00
                                0.00      0.00      0.00

     XDM     stress (kbar)      0.00      0.00      0.00
                                0.00      0.00      0.00
                                0.00      0.00      0.00

     dft-nl  stress (kbar)      0.00      0.00      0.00
                                0.00      0.00      0.00
                                0.00      0.00      0.00

     TS-vdW  stress (kbar)      0.00      0.00      0.00
                                0.00      0.00      0.00
                                0.00      0.00      0.00

[...]

                                0.00      0.00      0.00

     Writing all to output data dir new_calculations/myprefix.save/

     General routines

     Parallel routines

   This run was terminated on:  18:33:14  20May2023

   JOB DONE.