     Program PWSCF v.7.0 starts on 20May2023 at 17:27:41

     Reading input from espresso_20114.pwi
Warning: card &CELL ignored
Warning: card / ignored

     Current dimensions of program PWSCF are:
     Max number of different atomic species (ntypx) = 10
     Max number of k-points (npk) =  40000
     Max angular momentum in pseudopotentials (lmaxx) =  4
     file K.pbe-spn-kjpaw_psl.1.0.0.UPF: wavefunction(s)  3S renormalized

     gamma-point specific algorithms are used
     Message from routine setup:
     using ibrav=0 with symmetry is DISCOURAGED, use correct ibrav instead

     Subspace diagonalization in iterative solution of the eigenvalue problem:
     a serial algorithm will be used

     Using Slab Decomposition

     bravais-lattice index     =            0
     lattice parameter (alat)  =      14.6314  a.u.
     unit-cell volume          =    2214.8495 (a.u.)^3
     number of atoms/cell      =           10
     number of atomic types    =            4
     number of electrons       =        84.00
     number of Kohn-Sham states=           50
     kinetic-energy cutoff     =      30.0000  Ry
     charge density cutoff     =     240.0000  Ry
     scf convergence threshold =      1.0E-06
     mixing beta               =       0.7000
     number of iterations used =            8  plain     mixing
     Exchange-correlation=  SLA  PW   PBX  PBC
                           (   1   4   3   4   0   0   0)

     celldm(1)=  14.631418  celldm(2)=   0.000000  celldm(3)=   0.000000
     celldm(4)=   0.000000  celldm(5)=   0.000000  celldm(6)=   0.000000

     crystal axes: (cart. coord. in units of alat)
               a(1) = (   1.000000   0.000000   0.000000 )
               a(2) = (   0.500000   0.866025   0.000000 )
               a(3) = (   0.500000   0.288675   0.816497 )

     reciprocal axes: (cart. coord. in units 2 pi/alat)
               b(1) = (  1.000000 -0.577350 -0.408248 )
               b(2) = (  0.000000  1.154701 -0.408248 )
               b(3) = (  0.000000  0.000000  1.224745 )

     PseudoPot. # 1 for K  read from file:
     /home/pragov/projects/rrg-bengioy-ad/pragov/crystal_structure_design/SSSP/K.pbe-spn-kjpaw_psl.1.0.0.UPF
     MD5 check sum: 7d58810084cac21f60fbe77ea2b688fd
     Pseudo is Projector augmented-wave + core cor, Zval =  9.0
     Generated using "atomic" code by A. Dal Corso  v.5.1
     Shape of augmentation charge: PSQ
     Using radial grid of 1165 points,  6 beta functions with:
                l(1) =   0
                l(2) =   0
                l(3) =   1
                l(4) =   1
                l(5) =   2
                l(6) =   2
     Q(r) pseudized with 0 coefficients

     PseudoPot. # 2 for Ag read from file:
     /home/pragov/projects/rrg-bengioy-ad/pragov/crystal_structure_design/SSSP/Ag_ONCV_PBE-1.0.oncvpsp.upf
     MD5 check sum: 94f47bd0669c641108e45594df92fabc
     Pseudo is Norm-conserving, Zval = 19.0
     Generated using ONCVPSP code by D. R. Hamann
     Using radial grid of 1398 points,  6 beta functions with:
                l(1) =   0
                l(2) =   0
                l(3) =   1
                l(4) =   1
                l(5) =   2
                l(6) =   2

     PseudoPot. # 3 for As read from file:
     /home/pragov/projects/rrg-bengioy-ad/pragov/crystal_structure_design/SSSP/As.pbe-n-rrkjus_psl.0.2.UPF
     MD5 check sum: 767315de957beeeb34f87d97bf945c8f
     Pseudo is Ultrasoft + core correction, Zval =  5.0
     Generated using "atomic" code by A. Dal Corso  v.5.0.99 svn rev. 10869
     Using radial grid of 1209 points,  4 beta functions with:
                l(1) =   0
                l(2) =   0
                l(3) =   1
                l(4) =   1
     Q(r) pseudized with 0 coefficients

     PseudoPot. # 4 for Br read from file:
     /home/pragov/projects/rrg-bengioy-ad/pragov/crystal_structure_design/SSSP/br_pbe_v1.4.uspp.F.UPF
     MD5 check sum: d3ffb7b29f6225aa16fe06858fb2a80b
     Pseudo is Ultrasoft + core correction, Zval =  7.0
     Generated by new atomic code, or converted to UPF format
     Using radial grid of  879 points,  6 beta functions with:
                l(1) =   0
                l(2) =   0
                l(3) =   1
                l(4) =   1
                l(5) =   2
                l(6) =   2
     Q(r) pseudized with  8 coefficients,  rinner =    1.100   1.100   1.100
                                                       1.100   1.100

     atomic species   valence    mass     pseudopotential
        K              9.00    39.09830     K ( 1.00)
        Ag            19.00   107.86820     Ag( 1.00)
        As             5.00    74.92159     As( 1.00)
        Br             7.00    79.90400     Br( 1.00)

     12 Sym. Ops., with inversion, found

                                    s                        frac. trans.

      isym =  1     identity

 cryst.   s( 1) = (     1          0          0      )
                  (     0          1          0      )
                  (     0          0          1      )

 cart.    s( 1) = (  1.0000000  0.0000000  0.0000000 )
                  (  0.0000000  1.0000000 -0.0000000 )
                  (  0.0000000  0.0000000  1.0000000 )

      isym =  2     180 deg rotation - cart. axis [1,0,0]

[...]

      isym =  3     120 deg rotation - cryst. axis [0,0,1]

[...]

      isym =  6     180 deg rotation - cryst. axis [1,1,0]

[...]

      isym =  7     inversion

[...]

      isym =  8     inv. 180 deg rotation - cart. axis [1,0,0]

[...]

      isym =  9     inv. 120 deg rotation - cryst. axis [0,0,1]

 cryst.   s( 9) = (     1         -1          0      )
                  (     1          0          0      )
                  (     1          0         -1      )

 cart.    s( 9) = (  0.5000000  0.8660254 -0.0000000 )
                  ( -0.8660254  0.5000000 -0.0000000 )
                  (  0.0000000  0.0000000 -1.0000000 )

[...]

 cryst.   s(10) = (     0          1          0      )
                  (    -1          1          0      )
                  (     0          1         -1      )

 cart.    s(10) = (  0.5000000 -0.8660254  0.0000000 )
                  (  0.8660254  0.5000000 -0.0000000 )
                  (  0.0000000  0.0000000 -1.0000000 )

[...]

      isym = 12     inv. 180 deg rotation - cryst. axis [1,1,0]

 cryst.   s(12) = (     1         -1          0      )
                  (     0         -1          0      )
                  (     0         -1          1      )

 cart.    s(12) = (  0.5000000 -0.8660254  0.0000000 )
                  ( -0.8660254 -0.5000000  0.0000000 )
                  (  0.0000000  0.0000000  1.0000000 )

   Cartesian axes

     site n.     atom                  positions (alat units)
         1           K   tau(   1) = (   1.5000000   0.8660254   0.6123724  )
         2           K   tau(   2) = (   0.5000000   0.2886751   0.2041241  )
         3           Ag  tau(   3) = (   1.0000000   0.5773503   0.4082483  )
         4           As  tau(   4) = (   0.0000000   0.0000000   0.0000000  )
         5           Br  tau(   5) = (   1.0000000   0.2815680   0.1990986  )
         6           Br  tau(   6) = (   0.7438450   0.4294591   0.6173980  )
         7           Br  tau(   7) = (   1.0000000   0.8731326   0.6173980  )
         8           Br  tau(   8) = (   0.7438450   0.7252414   0.1990986  )
         9           Br  tau(   9) = (   1.2561550   0.4294591   0.6173980  )
        10           Br  tau(  10) = (   1.2561550   0.7252414   0.1990986  )

   Crystallographic axes

     site n.     atom                  positions (cryst. coord.)
         1           K   tau(   1) = (  0.7500000  0.7500000  0.7500000  )
         2           K   tau(   2) = (  0.2500000  0.2500000  0.2500000  )
         3           Ag  tau(   3) = (  0.5000000  0.5000000  0.5000000  )
         4           As  tau(   4) = (  0.0000000  0.0000000  0.0000000  )
         5           Br  tau(   5) = (  0.7561550  0.2438450  0.2438450  )
         6           Br  tau(   6) = (  0.2438450  0.2438450  0.7561550  )
         7           Br  tau(   7) = (  0.2438450  0.7561550  0.7561550  )
         8           Br  tau(   8) = (  0.2438450  0.7561550  0.2438450  )
         9           Br  tau(   9) = (  0.7561550  0.2438450  0.7561550  )
        10           Br  tau(  10) = (  0.7561550  0.7561550  0.2438450  )

     number of k points=     1  Methfessel-Paxton smearing, width (Ry)=  0.0010
                       cart. coord. in units 2pi/alat
        k(    1) = (   0.0000000   0.0000000   0.0000000), wk =   2.0000000

                       cryst. coord.
        k(    1) = (   0.0000000   0.0000000   0.0000000), wk =   2.0000000

     Check: negative core charge=   -0.000002

     Initial potential from superposition of free atoms

     starting charge      83.9617, renormalised to      84.0000
     Starting wfcs are   54 randomized atomic wfcs
     Checking if some PAW data can be deallocated...

     Self-consistent Calculation

     iteration #  1     ecut=    30.00 Ry     beta= 0.70
     Davidson diagonalization with overlap

     ethr =  1.00E-02,  avg # of iterations =  3.0

     Threshold (ethr) on eigenvalues was too large:
     Diagonalizing with lowered threshold

     Davidson diagonalization with overlap

[...]

     total energy              =    -812.59932207 Ry
     estimated scf accuracy    <       0.56327584 Ry

[...]

     total energy              =    -812.84955802 Ry
     estimated scf accuracy    <       0.00001002 Ry

     iteration #  7     ecut=    30.00 Ry     beta= 0.70
     Davidson diagonalization with overlap

     ethr =  1.19E-08,  avg # of iterations =  2.0

     End of self-consistent calculation

          k = 0.0000 0.0000 0.0000 (  3092 PWs)   bands (ev):

   -87.9487 -51.0358 -51.0357 -51.0357 -26.6259 -26.6256 -11.3797 -10.5310
   -10.5309 -10.5309 -10.3114 -10.3114 -10.0907 -10.0907 -10.0906 -10.0844
   -10.0844 -10.0844  -7.1590  -1.1235  -1.1235  -1.1235  -0.2490  -0.2490
     0.0709   0.0709   0.0709   0.5609   1.2904   1.2904   1.2904   1.9175
     1.9175   1.9175   2.0021   2.0021   2.0021   2.6134   2.6134   2.6135
     2.9069   2.9070   5.2938   5.2938   5.2938   6.6635   7.8136   8.4664
     8.7265   8.7265

     occupation numbers
     1.0000   1.0000   1.0000   1.0000   1.0000   1.0000   1.0000   1.0000
     1.0000   1.0000   1.0000   1.0000   1.0000   1.0000   1.0000   1.0000
     1.0000   1.0000   1.0000   1.0000   1.0000   1.0000   1.0000   1.0000
     1.0000   1.0000   1.0000   1.0000   1.0000   1.0000   1.0000   1.0000
     1.0000   1.0000   1.0000   1.0000   1.0000   1.0000   1.0000   1.0000
     1.0000   1.0000  -0.0000  -0.0000  -0.0000  -0.0000  -0.0000  -0.0000
    -0.0000  -0.0000

     the Fermi energy is     4.3182 ev

!    total energy              =    -812.84956061 Ry
     estimated scf accuracy    <       0.00000030 Ry
     smearing contrib. (-TS)   =       0.00000000 Ry
     internal energy E=F+TS    =    -812.84956061 Ry

     The total energy is F=E-TS. E is the sum of the following terms:
     one-electron contribution =    -340.14861122 Ry
     hartree contribution      =     196.96379844 Ry
     xc contribution           =    -215.84024116 Ry
     ewald contribution        =    -342.98993989 Ry
     one-center paw contrib.   =    -110.83456679 Ry
      -> PAW hartree energy AE =      75.13731804 Ry
      -> PAW hartree energy PS =     -74.71677492 Ry
      -> PAW xc energy AE      =    -132.40851417 Ry
      -> PAW xc energy PS      =      21.15340426 Ry
      -> total E_H with PAW    =     197.38434157 Ry
      -> total E_XC with PAW   =    -327.09535108 Ry

     convergence has been achieved in   7 iterations

     Forces acting on atoms (cartesian axes, Ry/au):

     atom    1 type  1   force =     0.00000000    0.00000000    0.00001282
     atom    2 type  1   force =     0.00000000    0.00000000   -0.00001282
     atom    3 type  2   force =     0.00000000    0.00000000    0.00000000
     atom    4 type  3   force =     0.00000000    0.00000000    0.00000000
     atom    5 type  4   force =     0.00000000   -0.02848655   -0.02015280
     atom    6 type  4   force =    -0.02467007   -0.01424327    0.02015280
     atom    7 type  4   force =     0.00000000    0.02848655    0.02015280
     atom    8 type  4   force =    -0.02467007    0.01424327   -0.02015280
     atom    9 type  4   force =     0.02467007   -0.01424327    0.02015280
     atom   10 type  4   force =     0.02467007    0.01424327   -0.02015280
     The non-local contrib.  to forces
     atom    1 type  1   force =     0.00000000    0.00000000   -0.00000629
     atom    2 type  1   force =     0.00000000    0.00000000    0.00000629
     atom    3 type  2   force =     0.00000000    0.00000000   -0.00000000
     atom    4 type  3   force =     0.00000000   -0.00000000    0.00000000
     atom    5 type  4   force =     0.00000000    0.02347407    0.01659019
     atom    6 type  4   force =     0.02032914    0.01173704   -0.01659019
     atom    7 type  4   force =     0.00000000   -0.02347407   -0.01659019
     atom    8 type  4   force =     0.02032914   -0.01173704    0.01659019
     atom    9 type  4   force =    -0.02032914    0.01173704   -0.01659019
     atom   10 type  4   force =    -0.02032914   -0.01173704    0.01659019
     The ionic contribution  to forces
     atom    1 type  1   force =    -0.00000000    0.00000000    0.00000000
     atom    2 type  1   force =     0.00000000   -0.00000000   -0.00000000
     atom    3 type  2   force =     0.00000000   -0.00000000   -0.00000000
     atom    4 type  3   force =     0.00000000   -0.00000000    0.00000000
     atom    5 type  4   force =    -0.00000000   -3.69502330   -2.61277603
     atom    6 type  4   force =    -3.19998405   -1.84751165    2.61277603
     atom    7 type  4   force =     0.00000000    3.69502330    2.61277603
     atom    8 type  4   force =    -3.19998405    1.84751165   -2.61277603
     atom    9 type  4   force =     3.19998405   -1.84751165    2.61277603
     atom   10 type  4   force =     3.19998405    1.84751165   -2.61277603
     The local contribution  to forces
     atom    1 type  1   force =    -0.00016731    0.00000269    0.00005509
     atom    2 type  1   force =     0.00019152    0.00002732   -0.00006586
     atom    3 type  2   force =    -0.00011762    0.00008298    0.00002606
     atom    4 type  3   force =     0.00000734   -0.00001443    0.00000009
     atom    5 type  4   force =    -0.00007400    3.63057990    2.56718494
     atom    6 type  4   force =     3.14419342    1.81526097   -2.56722918
     atom    7 type  4   force =     0.00006897   -3.63059842   -2.56719665
     atom    8 type  4   force =     3.14419684   -1.81533344    2.56717320
     atom    9 type  4   force =    -3.14418033    1.81533040   -2.56715416
     atom   10 type  4   force =    -3.14417325   -1.81524776    2.56720508
     The core correction contribution to forces
     atom    1 type  1   force =    -0.00000309    0.00000004    0.00000059
     atom    2 type  1   force =     0.00000329    0.00000075   -0.00000159
     atom    3 type  2   force =     0.00000000    0.00000000    0.00000000
     atom    4 type  3   force =     0.00000042   -0.00000109    0.00000026
     atom    5 type  4   force =    -0.00000387    0.01255778    0.00887735
     atom    6 type  4   force =     0.01087506    0.00627681   -0.00887980
     atom    7 type  4   force =     0.00000201   -0.01255387   -0.00887626
     atom    8 type  4   force =     0.01087481   -0.00628003    0.00887543
     atom    9 type  4   force =    -0.01087656    0.00628021   -0.00887858
     atom   10 type  4   force =    -0.01087634   -0.00627603    0.00888310
     The Hubbard contrib.    to forces
     atom    1 type  1   force =     0.00000000    0.00000000    0.00000000
     atom    2 type  1   force =     0.00000000    0.00000000    0.00000000
     atom    3 type  2   force =     0.00000000    0.00000000    0.00000000
     atom    4 type  3   force =     0.00000000    0.00000000    0.00000000
     atom    5 type  4   force =     0.00000000    0.00000000    0.00000000
     atom    6 type  4   force =     0.00000000    0.00000000    0.00000000
     atom    7 type  4   force =     0.00000000    0.00000000    0.00000000
     atom    8 type  4   force =     0.00000000    0.00000000    0.00000000
     atom    9 type  4   force =     0.00000000    0.00000000    0.00000000
     atom   10 type  4   force =     0.00000000    0.00000000    0.00000000
     The SCF correction term to forces
     atom    1 type  1   force =     0.00011328    0.00000494   -0.00006583
     atom    2 type  1   force =    -0.00013654   -0.00001469    0.00001908
     atom    3 type  2   force =     0.00013525   -0.00009470   -0.00003067
     atom    4 type  3   force =    -0.00000856    0.00001227    0.00000180
     atom    5 type  4   force =     0.00008710   -0.00007866   -0.00002235
     atom    6 type  4   force =    -0.00008157   -0.00000294    0.00007899
     atom    7 type  4   force =    -0.00007237    0.00007183    0.00002907
     atom    8 type  4   force =    -0.00008657    0.00008640   -0.00000214
     atom    9 type  4   force =     0.00008029   -0.00008255    0.00000545
     atom   10 type  4   force =     0.00007602   -0.00001309   -0.00007751

     Total force =     0.085473     Total SCF correction =     0.000379

     Computing stress (Cartesian axis) and pressure

          total   stress  (Ry/bohr**3)                   (kbar)     P=      -59.67
  -0.00040561   0.00000000  -0.00000000          -59.67        0.00       -0.00
   0.00000000  -0.00040561   0.00000000            0.00      -59.67        0.00
   0.00000000   0.00000000  -0.00040561            0.00        0.00      -59.67

     kinetic stress (kbar)   8812.66      0.00      0.00
                                0.00   8812.66     -0.00
                               -0.00     -0.00   8812.66

     local   stress (kbar)  -2523.38     -0.01     -0.01
                               -0.01  -2523.37      0.00
                               -0.01      0.00  -2523.38

     nonloc. stress (kbar)   -991.49     -0.00     -0.00
                               -0.00   -991.49      0.00
                               -0.00      0.00   -991.49

     hartree stress (kbar)   4360.62      0.01      0.01
                                0.01   4360.62     -0.00
                                0.01     -0.00   4360.63

     exc-cor stress (kbar)   6823.67      0.00      0.00
                                0.00   6823.67      0.00
                                0.00      0.00   6823.67

     corecor stress (kbar)  -8948.23     -0.00      0.00
                               -0.00  -8948.23     -0.00
                                0.00     -0.00  -8948.23

     ewald   stress (kbar)  -7593.53     -0.00     -0.00
                               -0.00  -7593.53      0.00
                               -0.00      0.00  -7593.53

     hubbard stress (kbar)      0.00      0.00      0.00
                                0.00      0.00      0.00
                                0.00      0.00      0.00

     DFT-D   stress (kbar)      0.00      0.00      0.00
                                0.00      0.00      0.00
                                0.00      0.00      0.00

     XDM     stress (kbar)      0.00      0.00      0.00
                                0.00      0.00      0.00
                                0.00      0.00      0.00

     dft-nl  stress (kbar)      0.00      0.00      0.00
                                0.00      0.00      0.00
                                0.00      0.00      0.00

     TS-vdW  stress (kbar)      0.00      0.00      0.00
                                0.00      0.00      0.00
                                0.00      0.00      0.00

[...]

                                0.00      0.00      0.00

     Writing all to output data dir new_calculations/myprefix.save/

     General routines

     Parallel routines

     PAW routines

   This run was terminated on:  17:28: 2  20May2023

   JOB DONE.