     Program PWSCF v.7.0 starts on 21May2023 at  9: 3:12

     Reading input from espresso_18032.pwi
Warning: card &CELL ignored
Warning: card / ignored

     Current dimensions of program PWSCF are:
     Max number of different atomic species (ntypx) = 10
     Max number of k-points (npk) =  40000
     Max angular momentum in pseudopotentials (lmaxx) =  4

     gamma-point specific algorithms are used
     Message from routine setup:
     using ibrav=0 with symmetry is DISCOURAGED, use correct ibrav instead

     Subspace diagonalization in iterative solution of the eigenvalue problem:
     a serial algorithm will be used

     Using Slab Decomposition

     bravais-lattice index     =            0
     lattice parameter (alat)  =       7.6495  a.u.
     unit-cell volume          =     655.4556 (a.u.)^3
     number of atoms/cell      =            5
     number of atomic types    =            3
     number of electrons       =        60.00
     number of Kohn-Sham states=           36
     kinetic-energy cutoff     =      30.0000  Ry
     charge density cutoff     =     240.0000  Ry
     scf convergence threshold =      1.0E-06
     mixing beta               =       0.7000
     number of iterations used =            8  plain     mixing
     Exchange-correlation= PBE
                           (   1   4   3   4   0   0   0)

     celldm(1)=   7.649490  celldm(2)=   0.000000  celldm(3)=   0.000000
     celldm(4)=   0.000000  celldm(5)=   0.000000  celldm(6)=   0.000000

     crystal axes: (cart. coord. in units of alat)
               a(1) = (   1.000000   0.000000   0.000000 )
               a(2) = (  -0.500000   0.866025   0.000000 )
               a(3) = (   0.000000   0.000000   1.690890 )

     reciprocal axes: (cart. coord. in units 2 pi/alat)
               b(1) = (  1.000000  0.577350  0.000000 )
               b(2) = (  0.000000  1.154700  0.000000 )
               b(3) = (  0.000000  0.000000  0.591405 )

     PseudoPot. # 1 for Ca read from file:
     /home/pragov/projects/rrg-bengioy-ad/pragov/crystal_structure_design/SSSP/Ca_pbe_v1.uspp.F.UPF
     MD5 check sum: 403a4c14b9e4d4dfdc3024c9a3812218
     Pseudo is Ultrasoft + core correction, Zval = 10.0
     Generated by new atomic code, or converted to UPF format
     Using radial grid of  845 points,  6 beta functions with:
                l(1) =   0
                l(2) =   0
                l(3) =   1
                l(4) =   1
                l(5) =   2
                l(6) =   2
     Q(r) pseudized with  8 coefficients,  rinner =    1.500   1.500   1.500
                                                       1.500   1.500

     PseudoPot. # 2 for Zn read from file:
     /home/pragov/projects/rrg-bengioy-ad/pragov/crystal_structure_design/SSSP/Zn_pbe_v1.uspp.F.UPF
     MD5 check sum: df62231357ef9e81f77b2b3087fa5675
     Pseudo is Ultrasoft, Zval = 20.0
     Generated by new atomic code, or converted to UPF format
     Using radial grid of  943 points,  6 beta functions with:
                l(1) =   0
                l(2) =   0
                l(3) =   1
                l(4) =   1
                l(5) =   2
                l(6) =   2
     Q(r) pseudized with  8 coefficients,  rinner =    1.100   1.100   1.100
                                                       1.100   1.100

     PseudoPot. # 3 for P  read from file:
     /home/pragov/projects/rrg-bengioy-ad/pragov/crystal_structure_design/SSSP/P.pbe-n-rrkjus_psl.1.0.0.UPF
     MD5 check sum: 8b930f418f0a4573dca56cd030ffe088
     Pseudo is Ultrasoft + core correction, Zval =  5.0
     Generated using "atomic" code by A. Dal Corso  v.5.1
     Using radial grid of 1147 points,  6 beta functions with:
                l(1) =   0
                l(2) =   0
                l(3) =   1
                l(4) =   1
                l(5) =   2
                l(6) =   2
     Q(r) pseudized with 0 coefficients

     atomic species   valence    mass     pseudopotential
        Ca            10.00    40.07800     Ca( 1.00)
        Zn            20.00    65.38000     Zn( 1.00)
        P              5.00    30.97376     P ( 1.00)

     12 Sym. Ops., with inversion, found

                                    s                        frac. trans.

      isym =  1     identity

 cryst.   s( 1) = (     1          0          0      )
                  (     0          1          0      )
                  (     0          0          1      )

 cart.    s( 1) = (  1.0000000 -0.0000000  0.0000000 )
                  (  0.0000000  1.0000000  0.0000000 )
                  (  0.0000000  0.0000000  1.0000000 )

      isym =  2     180 deg rotation - cart. axis [1,0,0]

[...]

      isym =  3     120 deg rotation - cryst. axis [0,0,1]

[...]

      isym =  6     180 deg rotation - cryst. axis [1,1,0]

[...]

      isym =  7     inversion

[...]

      isym =  8     inv. 180 deg rotation - cart. axis [1,0,0]

[...]

      isym =  9     inv. 120 deg rotation - cryst. axis [0,0,1]

 cryst.   s( 9) = (     0         -1          0      )
                  (     1          1          0      )
                  (     0          0         -1      )

 cart.    s( 9) = (  0.4999999  0.8660254  0.0000000 )
                  ( -0.8660255  0.5000001  0.0000000 )
                  (  0.0000000  0.0000000 -1.0000000 )

[...]

 cryst.   s(10) = (     1          1          0      )
                  (    -1          0          0      )
                  (     0          0         -1      )

 cart.    s(10) = (  0.5000001 -0.8660254  0.0000000 )
                  (  0.8660255  0.4999999  0.0000000 )
                  (  0.0000000  0.0000000 -1.0000000 )

[...]

      isym = 12     inv. 180 deg rotation - cryst. axis [1,1,0]

 cryst.   s(12) = (     0         -1          0      )
                  (    -1          0          0      )
                  (     0          0          1      )

 cart.    s(12) = (  0.4999999 -0.8660255  0.0000000 )
                  ( -0.8660255 -0.4999999  0.0000000 )
                  (  0.0000000  0.0000000  1.0000000 )

   Cartesian axes

     site n.     atom                  positions (alat units)
         1           Ca  tau(   1) = (   0.0000000   0.0000000   0.0000000  )
         2           Zn  tau(   2) = (  -0.0000004   0.5773506   1.0708217  )
         3           Zn  tau(   3) = (   0.5000005   0.2886749   0.6200678  )
         4           P   tau(   4) = (   0.5000005   0.2886749   1.2480591  )
         5           P   tau(   5) = (  -0.0000004   0.5773506   0.4428304  )

   Crystallographic axes

     site n.     atom                  positions (cryst. coord.)
         1           Ca  tau(   1) = (  0.0000000  0.0000000  0.0000000  )
         2           Zn  tau(   2) = (  0.3333330  0.6666670  0.6332890  )
         3           Zn  tau(   3) = (  0.6666670  0.3333330  0.3667110  )
         4           P   tau(   4) = (  0.6666670  0.3333330  0.7381080  )
         5           P   tau(   5) = (  0.3333330  0.6666670  0.2618920  )

     number of k points=     1  Methfessel-Paxton smearing, width (Ry)=  0.0010
                       cart. coord. in units 2pi/alat
        k(    1) = (   0.0000000   0.0000000   0.0000000), wk =   2.0000000

                       cryst. coord.
        k(    1) = (   0.0000000   0.0000000   0.0000000), wk =   2.0000000

     Initial potential from superposition of free atoms

     starting charge      59.9939, renormalised to      60.0000
     Starting wfcs are   44 randomized atomic wfcs

     Self-consistent Calculation

     iteration #  1     ecut=    30.00 Ry     beta= 0.70
     Davidson diagonalization with overlap

     ethr =  1.00E-02,  avg # of iterations =  3.0

     total energy              =   -1024.55965240 Ry
     estimated scf accuracy    <       1.14047458 Ry

[...]

     total energy              =   -1025.08701815 Ry
     estimated scf accuracy    <       0.00001122 Ry

     iteration # 10     ecut=    30.00 Ry     beta= 0.70
     Davidson diagonalization with overlap

     ethr =  1.87E-08,  avg # of iterations =  1.0

     End of self-consistent calculation

          k = 0.0000 0.0000 0.0000 (   912 PWs)   bands (ev):

  -117.5477-117.5453 -71.7224 -71.7042 -71.6533 -71.6532 -71.6488 -71.6487
   -31.6502 -12.8340 -12.5770 -12.5770  -2.0173  -0.6249   1.2708   1.2708
     1.3026   1.3027   1.5439   1.5439   1.5952   1.7306   1.7307   1.7325
     4.2106   8.3729   8.3729   9.8649   9.8885   9.8886  10.2831  11.2377
    11.6851  11.9851  11.9851  12.8602

     occupation numbers
     1.0000   1.0000   1.0000   1.0000   1.0000   1.0000   1.0000   1.0000
     1.0000   1.0000   1.0000   1.0000   1.0000   1.0000   1.0000   1.0000
     1.0000   1.0000   1.0000   1.0000   1.0000   1.0000   1.0000   1.0000
     1.0000   1.0000   1.0000   1.0000   1.0000   1.0000  -0.0000  -0.0000
    -0.0000  -0.0000  -0.0000  -0.0000

     the Fermi energy is    10.1887 ev

!    total energy              =   -1025.08701882 Ry
     estimated scf accuracy    <       0.00000046 Ry
     smearing contrib. (-TS)   =       0.00000000 Ry
     internal energy E=F+TS    =   -1025.08701882 Ry

     The total energy is F=E-TS. E is the sum of the following terms:
     one-electron contribution =    -979.62483806 Ry
     hartree contribution      =     507.31719214 Ry
     xc contribution           =    -105.56066810 Ry
     ewald contribution        =    -447.21870479 Ry

     convergence has been achieved in  10 iterations

     Forces acting on atoms (cartesian axes, Ry/au):

     atom    1 type  1   force =     0.00000000    0.00000000    0.00000000
     atom    2 type  2   force =     0.00000000   -0.00000000   -0.01472972
     atom    3 type  2   force =     0.00000000    0.00000000    0.01472972
     atom    4 type  3   force =     0.00000000   -0.00000000    0.05265888
     atom    5 type  3   force =     0.00000000   -0.00000000   -0.05265888
     The non-local contrib.  to forces
     atom    1 type  1   force =     0.00000000    0.00000000    0.00000000
     atom    2 type  2   force =    -0.00000000   -0.00000000    0.41737357
     atom    3 type  2   force =     0.00000000    0.00000000   -0.41737357
     atom    4 type  3   force =     0.00000000   -0.00000000   -0.00316964
     atom    5 type  3   force =     0.00000000    0.00000000    0.00316964
     The ionic contribution  to forces
     atom    1 type  1   force =     0.00000000   -0.00000000    0.00000000
     atom    2 type  2   force =     0.00006117   -0.00003532   25.25616492
     atom    3 type  2   force =    -0.00006117    0.00003532  -25.25616492
     atom    4 type  3   force =    -0.00003066    0.00001770   11.15521081
     atom    5 type  3   force =     0.00003066   -0.00001770  -11.15521081
     The local contribution  to forces
     atom    1 type  1   force =    -0.00001157    0.00005120   -0.00018341
     atom    2 type  2   force =    -0.00014524    0.00021899  -25.68708590
     atom    3 type  2   force =     0.00009499   -0.00028059   25.68720933
     atom    4 type  3   force =     0.00002858    0.00013762  -11.09838319
     atom    5 type  3   force =     0.00000243   -0.00018754   11.09798894
     The core correction contribution to forces
     atom    1 type  1   force =    -0.00000064    0.00000104   -0.00000490
     atom    2 type  2   force =     0.00000000    0.00000000    0.00000000
     atom    3 type  2   force =     0.00000000    0.00000000    0.00000000
     atom    4 type  3   force =    -0.00000051    0.00000886   -0.00110070
     atom    5 type  3   force =     0.00000122   -0.00000834    0.00108440
     The Hubbard contrib.    to forces
     atom    1 type  1   force =     0.00000000    0.00000000    0.00000000
     atom    2 type  2   force =     0.00000000    0.00000000    0.00000000
     atom    3 type  2   force =     0.00000000    0.00000000    0.00000000
     atom    4 type  3   force =     0.00000000    0.00000000    0.00000000
     atom    5 type  3   force =     0.00000000    0.00000000    0.00000000
     The SCF correction term to forces
     atom    1 type  1   force =     0.00000550   -0.00002507    0.00017284
     atom    2 type  2   force =     0.00002821   -0.00019178   -0.00142670
     atom    3 type  2   force =    -0.00000103    0.00015161    0.00081450
     atom    4 type  3   force =     0.00000690   -0.00004349   -0.00003935
     atom    5 type  3   force =    -0.00001300    0.00008192    0.00016799

     Total force =     0.077329     Total SCF correction =     0.001682

     Computing stress (Cartesian axis) and pressure

          total   stress  (Ry/bohr**3)                   (kbar)     P=        7.63
   0.00048065  -0.00000000   0.00000000           70.71       -0.00        0.00
  -0.00000000   0.00048065   0.00000000           -0.00       70.71        0.00
   0.00000000  -0.00000000  -0.00080570            0.00       -0.00     -118.52

     kinetic stress (kbar)  17223.49     -0.00      0.00
                               -0.00  17223.48     -0.00
                                0.00     -0.00  16885.25

     local   stress (kbar) -25036.32     -0.12      0.01
                               -0.12 -25036.25     -0.11
                                0.01     -0.11   6773.23

     nonloc. stress (kbar)    352.10     -0.00      0.00
                               -0.00    352.10      0.00
                                0.00      0.00    221.25

     hartree stress (kbar)  43172.16      0.04     -0.01
                                0.04  43172.05      0.07
                               -0.01      0.07  27513.90

     exc-cor stress (kbar)  -6634.69      0.00     -0.00
                                0.00  -6634.69      0.00
                               -0.00      0.00  -6633.12

     corecor stress (kbar)   -842.57     -0.00      0.00
                               -0.00   -842.57     -0.00
                                0.00     -0.00   -835.81

     ewald   stress (kbar) -28163.48      0.07      0.00
                                0.07 -28163.39     -0.00
                                0.00     -0.00 -44043.22

     hubbard stress (kbar)      0.00      0.00      0.00
                                0.00      0.00      0.00
                                0.00      0.00      0.00

     DFT-D   stress (kbar)      0.00      0.00      0.00
                                0.00      0.00      0.00
                                0.00      0.00      0.00

     XDM     stress (kbar)      0.00      0.00      0.00
                                0.00      0.00      0.00
                                0.00      0.00      0.00

     dft-nl  stress (kbar)      0.00      0.00      0.00
                                0.00      0.00      0.00
                                0.00      0.00      0.00

     TS-vdW  stress (kbar)      0.00      0.00      0.00
                                0.00      0.00      0.00
                                0.00      0.00      0.00

[...]

                                0.00      0.00      0.00

     Writing all to output data dir new_calculations/myprefix.save/

     General routines

     Parallel routines

   This run was terminated on:   9: 3:20  21May2023

   JOB DONE.