     Program PWSCF v.7.0 starts on 20May2023 at  4:55:33

     Reading input from espresso_15055.pwi
Warning: card &CELL ignored
Warning: card / ignored

     Current dimensions of program PWSCF are:
     Max number of different atomic species (ntypx) = 10
     Max number of k-points (npk) =  40000
     Max angular momentum in pseudopotentials (lmaxx) =  4
     file O.pbe-n-kjpaw_psl.0.1.UPF: wavefunction(s)  2P renormalized

     gamma-point specific algorithms are used

     Subspace diagonalization in iterative solution of the eigenvalue problem:
     a serial algorithm will be used

     Using Slab Decomposition

     bravais-lattice index     =            0
     lattice parameter (alat)  =      10.2759  a.u.
     unit-cell volume          =    1641.1739 (a.u.)^3
     number of atoms/cell      =           20
     number of atomic types    =            3
     number of electrons       =       184.00
     number of Kohn-Sham states=          110
     kinetic-energy cutoff     =      30.0000  Ry
     charge density cutoff     =     240.0000  Ry
     scf convergence threshold =      1.0E-06
     mixing beta               =       0.7000
     number of iterations used =            8  plain     mixing
     Exchange-correlation= SLA  PW   PBX  PBC
                           (   1   4   3   4   0   0   0)

     celldm(1)=  10.275910  celldm(2)=   0.000000  celldm(3)=   0.000000
     celldm(4)=   0.000000  celldm(5)=   0.000000  celldm(6)=   0.000000

     crystal axes: (cart. coord. in units of alat)
               a(1) = (   1.000000   0.000000   0.000000 )
               a(2) = (  -0.036621   1.476792   0.000000 )
               a(3) = (  -0.000327   0.000909   1.024175 )

     reciprocal axes: (cart. coord. in units 2 pi/alat)
               b(1) = (  1.000000  0.024798  0.000297 )
               b(2) = (  0.000000  0.677143 -0.000601 )
               b(3) = (  0.000000  0.000000  0.976395 )

     PseudoPot. # 1 for La read from file:
     /home/pragov/projects/rrg-bengioy-ad/pragov/crystal_structure_design/SSSP/La.GGA-PBE-paw-v1.0.UPF
     MD5 check sum: 436541e95c1ad8901025bd0b0ed42ae2
     Pseudo is Projector augmented-wave + core cor, Zval = 11.0
     Generated using ATOMPAW code
     Shape of augmentation charge: BESSEL
     Using radial grid of 1101 points,  8 beta functions with:
                l(1) =   0
                l(2) =   0
                l(3) =   1
                l(4) =   1
                l(5) =   2
                l(6) =   2
                l(7) =   3
                l(8) =   3
     Q(r) pseudized with 0 coefficients

     PseudoPot. # 2 for Co read from file:
     /home/pragov/projects/rrg-bengioy-ad/pragov/crystal_structure_design/SSSP/Co_pbe_v1.2.uspp.F.UPF
     MD5 check sum: 5f91765df6ddd3222702df6e7b74a16d
     Pseudo is Ultrasoft + core correction, Zval = 17.0
     Generated by new atomic code, or converted to UPF format
     Using radial grid of  863 points,  6 beta functions with:
                l(1) =   0
                l(2) =   0
                l(3) =   1
                l(4) =   1
                l(5) =   2
                l(6) =   2
     Q(r) pseudized with  8 coefficients,  rinner =    1.200   1.200   1.200
                                                       1.200   1.200

     PseudoPot. # 3 for O  read from file:
     /home/pragov/projects/rrg-bengioy-ad/pragov/crystal_structure_design/SSSP/O.pbe-n-kjpaw_psl.0.1.UPF
     MD5 check sum: 0234752ac141de4415c5fc33072bef88
     Pseudo is Projector augmented-wave + core cor, Zval =  6.0
     Generated using "atomic" code by A. Dal Corso  v.5.0.99 svn rev. 10869
     Shape of augmentation charge: BESSEL
     Using radial grid of 1095 points,  4 beta functions with:
                l(1) =   0
                l(2) =   0
                l(3) =   1
                l(4) =   1
     Q(r) pseudized with 0 coefficients

     atomic species   valence    mass     pseudopotential
        La            11.00   138.90547     La( 1.00)
        Co            17.00    58.93319     Co( 1.00)
        O              6.00    15.99900     O ( 1.00)

     No symmetry found

                                    s                        frac. trans.

      isym =  1     identity

 cryst.   s( 1) = (     1          0          0      )
                  (     0          1          0      )
                  (     0          0          1      )

 cart.    s( 1) = (  1.0000000  0.0000000 -0.0000000 )
                  (  0.0000000  1.0000000  0.0000000 )
                  (  0.0000000  0.0000000  1.0000000 )

   Cartesian axes

     site n.     atom                  positions (alat units)
         1           La  tau(   1) = (   0.2326041   0.7381567   0.7690799  )
         2           La  tau(   2) = (   0.7140456   1.4766751   0.2577255  )
         3           La  tau(   3) = (   0.7308599   0.7389672   0.2543540  )
         4           La  tau(   4) = (   0.2485954   0.0016006   0.7671903  )
         5           Co  tau(   5) = (   0.2224527   1.1078211   0.2560408  )
         6           Co  tau(   6) = (   0.2407641   0.3694251   0.2560408  )
         7           Co  tau(   7) = (   0.7406008   0.3698794   0.7681346  )
         8           Co  tau(   8) = (   0.7222904   1.1082754   0.7681356  )
         9           O   tau(   9) = (   0.7263775   0.7390454   0.8452458  )
        10           O   tau(  10) = (   0.2469416   0.0006633   0.3331929  )
        11           O   tau(  11) = (   0.2345836   0.7381885   0.1788958  )
        12           O   tau(  12) = (   0.7548211   0.0007134   0.6910173  )
        13           O   tau(  13) = (   0.0190645   0.3209043   0.9791946  )
        14           O   tau(  14) = (   0.5137093   1.0556515   0.4886064  )
        15           O   tau(  15) = (   0.9311961   1.1599922   0.0234813  )
        16           O   tau(  16) = (   0.4621340   0.4188546   0.5570674  )
        17           O   tau(  17) = (   0.4312758   1.1654234   1.0018228  )
        18           O   tau(  18) = (   0.9625489   0.4240843   0.4675852  )
        19           O   tau(  19) = (   0.5189763   0.3147675   0.0445025  )
        20           O   tau(  20) = (   0.0133029   1.0511274   0.5344403  )

   Crystallographic axes

     site n.     atom                  positions (cryst. coord.)
         1           La  tau(   1) = (  0.2511370  0.4993760  0.7509260  )
         2           La  tau(   2) = (  0.7507400  0.9997660  0.2516420  )
         3           La  tau(   3) = (  0.7492600  0.5002340  0.2483500  )
         4           La  tau(   4) = (  0.2488630  0.0006230  0.7490810  )
         5           Co  tau(   5) = (  0.2500000  0.7500000  0.2499970  )
         6           Co  tau(   6) = (  0.2500010  0.2500000  0.2499970  )
         7           Co  tau(   7) = (  0.7500010  0.2500000  0.7500030  )
         8           Co  tau(   8) = (  0.7500010  0.7500000  0.7500040  )
         9           O   tau(   9) = (  0.7449550  0.4999320  0.8252940  )
        10           O   tau(  10) = (  0.2470570  0.0002490  0.3253280  )
        11           O   tau(  11) = (  0.2529420  0.4997520  0.1746730  )
        12           O   tau(  12) = (  0.7550440  0.0000680  0.6747060  )
        13           O   tau(  13) = (  0.0273130  0.2167100  0.9560810  )
        14           O   tau(  14) = (  0.5400320  0.7145340  0.4770730  )
        15           O   tau(  15) = (  0.9599680  0.7854670  0.0229270  )
        16           O   tau(  16) = (  0.4726860  0.2832900  0.5439180  )
        17           O   tau(  17) = (  0.4604730  0.7885570  0.9781750  )
        18           O   tau(  18) = (  0.9732040  0.2868850  0.4565480  )
        19           O   tau(  19) = (  0.5267950  0.2131160  0.0434520  )
        20           O   tau(  20) = (  0.0395270  0.7114430  0.5218250  )

     number of k points=     1  Methfessel-Paxton smearing, width (Ry)=  0.0010
                       cart. coord. in units 2pi/alat
        k(    1) = (   0.0000000   0.0000000   0.0000000), wk =   2.0000000

                       cryst. coord.
        k(    1) = (   0.0000000   0.0000000   0.0000000), wk =   2.0000000

     Check: negative core charge=   -0.000017

     Initial potential from superposition of free atoms

     starting charge     179.9658, renormalised to     184.0000
     Starting wfcs are  228 randomized atomic wfcs
     Checking if some PAW data can be deallocated...

     Self-consistent Calculation

     iteration #  1     ecut=    30.00 Ry     beta= 0.70
     Davidson diagonalization with overlap

     ethr =  1.00E-02,  avg # of iterations =  2.0

     total energy              =   -3504.62532262 Ry
     estimated scf accuracy    <      29.26178397 Ry

[...]

     c_bands:  2 eigenvalues not converged
     ethr =  7.29E-06,  avg # of iterations = 20.0

[...]

     c_bands:  2 eigenvalues not converged
     ethr =  1.13E-06,  avg # of iterations = 20.0

[...]

     total energy              =   -3527.07834292 Ry
     estimated scf accuracy    <       0.00001064 Ry

     iteration # 38     ecut=    30.00 Ry     beta= 0.70
     Davidson diagonalization with overlap

     ethr =  9.28E-10,  avg # of iterations =  2.0

     End of self-consistent calculation

          k = 0.0000 0.0000 0.0000 (  2270 PWs)   bands (ev):

   -83.2063 -83.2007 -83.1964 -83.1924 -46.5954 -46.5800 -46.5657 -46.5622
   -46.5037 -46.4988 -46.4974 -46.4949 -46.2071 -46.2045 -46.2035 -46.1931
   -19.1832 -19.1334 -19.0560 -19.0189  -6.8964  -6.3091  -6.2654  -5.9760
    -5.7613  -5.7338  -5.6755  -5.6375  -5.5779  -5.2819  -5.2692  -5.2075
    -3.2066  -2.7470  -2.6872  -2.6750  -2.6735  -2.5466  -2.5321  -2.4650
    -2.4481  -2.3293  -2.0485  -1.8643   5.6903   6.1555   6.7991   6.9137
     7.2312   7.2463   7.4870   7.5029   7.6383   7.8661   7.9438   8.0196
     8.1197   8.1727   8.1831   8.2001   8.3361   8.4275   8.7520   8.8278
     9.0712   9.2107   9.4550   9.7633   9.8712   9.8840   9.9569   9.9792
    10.0165  10.0644  10.4079  10.4369  10.4950  10.6623  10.6876  10.7216
    10.7585  10.9484  10.9867  11.1031  11.3731  11.4634  11.5543  11.6511
    11.7671  11.9641  12.0332  12.2514  12.2660  12.3062  12.3873  12.4927
    13.3259  14.6554  14.9482  15.0579  15.4960  15.6249  15.7545  15.7882
    15.8032  15.8303  15.8325  15.8522  15.8679  15.8916

     occupation numbers
     1.0000   1.0000   1.0000   1.0000   1.0000   1.0000   1.0000   1.0000
     1.0000   1.0000   1.0000   1.0000   1.0000   1.0000   1.0000   1.0000
     1.0000   1.0000   1.0000   1.0000   1.0000   1.0000   1.0000   1.0000
     1.0000   1.0000   1.0000   1.0000   1.0000   1.0000   1.0000   1.0000
     1.0000   1.0000   1.0000   1.0000   1.0000   1.0000   1.0000   1.0000
     1.0000   1.0000   1.0000   1.0000   1.0000   1.0000   1.0000   1.0000
     1.0000   1.0000   1.0000   1.0000   1.0000   1.0000   1.0000   1.0000
     1.0000   1.0000   1.0000   1.0000   1.0000   1.0000   1.0000   1.0000
     1.0000   1.0000   1.0000   1.0000   1.0000   1.0000   1.0000   1.0000
     1.0000   1.0000   1.0000   1.0000   1.0000   1.0000   1.0000   1.0000
     1.0000   1.0000   1.0000   1.0000   1.0000   1.0000   1.0000   1.0000
     1.0000   1.0000   1.0000   0.8891   0.1109  -0.0000  -0.0000  -0.0000
    -0.0000  -0.0000  -0.0000  -0.0000  -0.0000  -0.0000  -0.0000  -0.0000
    -0.0000  -0.0000  -0.0000  -0.0000  -0.0000  -0.0000

     the Fermi energy is    12.2587 ev

!    total energy              =   -3527.07834310 Ry
     estimated scf accuracy    <       0.00000069 Ry
     smearing contrib. (-TS)   =      -0.00018031 Ry
     internal energy E=F+TS    =   -3527.07816279 Ry

     The total energy is F=E-TS. E is the sum of the following terms:
     one-electron contribution =   -1001.16365472 Ry
     hartree contribution      =     621.86345138 Ry
     xc contribution           =    -254.55181203 Ry
     ewald contribution        =   -1186.51172218 Ry
     one-center paw contrib.   =   -1706.71442524 Ry
      -> PAW hartree energy AE =     488.69404483 Ry
      -> PAW hartree energy PS =    -487.65382008 Ry
      -> PAW xc energy AE      =   -1826.49681827 Ry
      -> PAW xc energy PS      =     118.74216829 Ry
      -> total E_H with PAW    =     622.90367612 Ry
      -> total E_XC with PAW   =   -1962.30646202 Ry

     convergence has been achieved in  38 iterations

     Forces acting on atoms (cartesian axes, Ry/au):

     atom    1 type  1   force =    -0.00076761   -0.00075754   -0.01538891
     atom    2 type  1   force =    -0.00005264   -0.00210882   -0.01564157
     atom    3 type  1   force =     0.00008885    0.00209465    0.01576984
     atom    4 type  1   force =     0.00074747    0.00075281    0.01524487
     atom    5 type  2   force =    -0.00001038   -0.00023368    0.00016911
     atom    6 type  2   force =     0.00006154    0.00020154   -0.00010392
     atom    7 type  2   force =    -0.00003822    0.00006135    0.00012517
     atom    8 type  2   force =    -0.00001629   -0.00008390   -0.00017114
     atom    9 type  3   force =     0.00156303    0.00059024    0.03901006
     atom   10 type  3   force =    -0.00533522   -0.00142844    0.03975268
     atom   11 type  3   force =     0.00532895    0.00142928   -0.03976997
     atom   12 type  3   force =    -0.00156533   -0.00058060   -0.03901475
     atom   13 type  3   force =     0.03362557   -0.02749982    0.00203366
     atom   14 type  3   force =    -0.00547647   -0.02908503   -0.03534472
     atom   15 type  3   force =     0.00547464    0.02911181    0.03536126
     atom   16 type  3   force =    -0.03362448    0.02750306   -0.00203085
     atom   17 type  3   force =     0.00564475    0.03042262   -0.03554238
     atom   18 type  3   force =    -0.03230136    0.02793838    0.00222325
     atom   19 type  3   force =     0.03229746   -0.02795207   -0.00221353
     atom   20 type  3   force =    -0.00564426   -0.03037584    0.03553182
     The non-local contrib.  to forces
     atom    1 type  1   force =    -0.00412321    0.00607980    0.02593494
     atom    2 type  1   force =     0.00231709   -0.00183487    0.02554588
     atom    3 type  1   force =    -0.00230600    0.00181982   -0.02553874
     atom    4 type  1   force =     0.00412619   -0.00608932   -0.02596457
     atom    5 type  2   force =     0.00000022   -0.00024307    0.00005479
     atom    6 type  2   force =     0.00006124    0.00019895   -0.00016311
     atom    7 type  2   force =    -0.00002299    0.00008093    0.00017482
     atom    8 type  2   force =    -0.00001605   -0.00011463   -0.00006137
     atom    9 type  3   force =     0.02312411    0.00083860   -0.35363301
     atom   10 type  3   force =     0.01314403    0.00450103   -0.35445770
     atom   11 type  3   force =    -0.01312558   -0.00453347    0.35441099
     atom   12 type  3   force =    -0.02312280   -0.00084057    0.35375433
     atom   13 type  3   force =    -0.21015882    0.12373295    0.10322192
     atom   14 type  3   force =    -0.10217230    0.13770129    0.19185873
     atom   15 type  3   force =     0.10211952   -0.13759894   -0.19183738
     atom   16 type  3   force =     0.21014234   -0.12380825   -0.10318446
     atom   17 type  3   force =     0.08874171   -0.14148987    0.18526474
     atom   18 type  3   force =     0.20126975   -0.13204580    0.09940087
     atom   19 type  3   force =    -0.20130847    0.13199127   -0.09941600
     atom   20 type  3   force =    -0.08879710    0.14163402   -0.18526117
     The ionic contribution  to forces
     atom    1 type  1   force =    -0.31215159    0.26391611   -0.40854694
     atom    2 type  1   force =     0.03362175   -0.04984559   -0.45776891
     atom    3 type  1   force =    -0.03364076    0.04991222    0.45942440
     atom    4 type  1   force =     0.31223938   -0.26377666    0.40703838
     atom    5 type  2   force =    -0.00002915    0.00005908    0.00109824
     atom    6 type  2   force =    -0.00027517    0.00004886    0.00098336
     atom    7 type  2   force =    -0.00027781   -0.00000370   -0.00110020
     atom    8 type  2   force =    -0.00019469   -0.00008573   -0.00125693
     atom    9 type  3   force =     0.01423585    0.02786379    1.76756918
     atom   10 type  3   force =    -0.07216591   -0.12230619    1.79987091
     atom   11 type  3   force =     0.07211788    0.12210202   -1.79903080
     atom   12 type  3   force =    -0.01435974   -0.02788964   -1.76849841
     atom   13 type  3   force =     2.55612584   -1.71287423    0.19406955
     atom   14 type  3   force =    -0.21593180   -1.82394949   -2.42009222
     atom   15 type  3   force =     0.21617465    1.82407737    2.42055128
     atom   16 type  3   force =    -2.55577435    1.71278038   -0.19398552
     atom   17 type  3   force =     0.24846700    2.02781544   -2.53290173
     atom   18 type  3   force =    -2.56651727    1.94131496    0.13005817
     atom   19 type  3   force =     2.56673587   -1.94138811   -0.13008953
     atom   20 type  3   force =    -0.24839996   -2.02777089    2.53260771
     The local contribution  to forces
     atom    1 type  1   force =     0.31546512   -0.27050315    0.36722130
     atom    2 type  1   force =    -0.03593363    0.04925082    0.41669959
     atom    3 type  1   force =     0.03607610   -0.04938896   -0.41814818
     atom    4 type  1   force =    -0.31559409    0.27030503   -0.36595776
     atom    5 type  2   force =    -0.00001004    0.00050945   -0.00121964
     atom    6 type  2   force =     0.00004019   -0.00048794   -0.00039362
     atom    7 type  2   force =     0.00029245   -0.00004571    0.00051990
     atom    8 type  2   force =     0.00022941    0.00025226    0.00141900
     atom    9 type  3   force =    -0.03538185   -0.02806248   -1.38042727
     atom   10 type  3   force =     0.05387313    0.11602383   -1.41127152
     atom   11 type  3   force =    -0.05387187   -0.11577340    1.41046473
     atom   12 type  3   force =     0.03554093    0.02813409    1.38116426
     atom   13 type  3   force =    -2.31498787    1.56346748   -0.29323583
     atom   14 type  3   force =     0.31042206    1.65962268    2.19492506
     atom   15 type  3   force =    -0.31057953   -1.65963640   -2.19538936
     atom   16 type  3   force =     2.31467043   -1.56353365    0.29309666
     atom   17 type  3   force =    -0.33012827   -1.85822795    2.31474350
     atom   18 type  3   force =     2.33554056   -1.78353083   -0.22533231
     atom   19 type  3   force =    -2.33572670    1.78341224    0.22545376
     atom   20 type  3   force =     0.33012322    1.85824991   -2.31442337
     The core correction contribution to forces
     atom    1 type  1   force =    -0.00001228    0.00000246   -0.00004031
     atom    2 type  1   force =    -0.00000135    0.00000347   -0.00003935
     atom    3 type  1   force =     0.00000135   -0.00000348    0.00003935
     atom    4 type  1   force =     0.00001226   -0.00000245    0.00004034
     atom    5 type  2   force =     0.00000034    0.00000565   -0.00000241
     atom    6 type  2   force =    -0.00000001   -0.00000351   -0.00000177
     atom    7 type  2   force =     0.00000010   -0.00000412    0.00000167
     atom    8 type  2   force =    -0.00000038    0.00000387    0.00000226
     atom    9 type  3   force =    -0.00034329   -0.00000355    0.00559547
     atom   10 type  3   force =    -0.00021345   -0.00004786    0.00559262
     atom   11 type  3   force =     0.00021335    0.00005068   -0.00559109
     atom   12 type  3   force =     0.00034356    0.00000404   -0.00559812
     atom   13 type  3   force =     0.00272405   -0.00207553   -0.00197383
     atom   14 type  3   force =     0.00191495   -0.00227149   -0.00245643
     atom   15 type  3   force =    -0.00191446    0.00225784    0.00245613
     atom   16 type  3   force =    -0.00272370    0.00209991    0.00197341
     atom   17 type  3   force =    -0.00174955    0.00234860   -0.00235472
     atom   18 type  3   force =    -0.00262056    0.00221643   -0.00190845
     atom   19 type  3   force =     0.00262150   -0.00221797    0.00190855
     atom   20 type  3   force =     0.00174999   -0.00233397    0.00235454
     The Hubbard contrib.    to forces
     atom    1 type  1   force =     0.00000000    0.00000000    0.00000000
     atom    2 type  1   force =     0.00000000    0.00000000    0.00000000
     atom    3 type  1   force =     0.00000000    0.00000000    0.00000000
     atom    4 type  1   force =     0.00000000    0.00000000    0.00000000
     atom    5 type  2   force =     0.00000000    0.00000000    0.00000000
     atom    6 type  2   force =     0.00000000    0.00000000    0.00000000
     atom    7 type  2   force =     0.00000000    0.00000000    0.00000000
     atom    8 type  2   force =     0.00000000    0.00000000    0.00000000
     atom    9 type  3   force =     0.00000000    0.00000000    0.00000000
     atom   10 type  3   force =     0.00000000    0.00000000    0.00000000
     atom   11 type  3   force =     0.00000000    0.00000000    0.00000000
     atom   12 type  3   force =     0.00000000    0.00000000    0.00000000
     atom   13 type  3   force =     0.00000000    0.00000000    0.00000000
     atom   14 type  3   force =     0.00000000    0.00000000    0.00000000
     atom   15 type  3   force =     0.00000000    0.00000000    0.00000000
     atom   16 type  3   force =     0.00000000    0.00000000    0.00000000
     atom   17 type  3   force =     0.00000000    0.00000000    0.00000000
     atom   18 type  3   force =     0.00000000    0.00000000    0.00000000
     atom   19 type  3   force =     0.00000000    0.00000000    0.00000000
     atom   20 type  3   force =     0.00000000    0.00000000    0.00000000
     The SCF correction term to forces
     atom    1 type  1   force =     0.00005655   -0.00025783    0.00004383
     atom    2 type  1   force =    -0.00005430    0.00031228   -0.00007703
     atom    3 type  1   force =    -0.00003964   -0.00025001   -0.00000526
     atom    4 type  1   force =    -0.00003407    0.00031113    0.00009020
     atom    5 type  2   force =     0.00003045   -0.00056986    0.00023987
     atom    6 type  2   force =     0.00023749    0.00044012   -0.00052705
     atom    7 type  2   force =    -0.00002777    0.00002888    0.00053071
     atom    8 type  2   force =    -0.00003238   -0.00014474   -0.00027236
     atom    9 type  3   force =    -0.00006959   -0.00005120   -0.00009258
     atom   10 type  3   force =     0.00002916    0.00039567    0.00002010
     atom   11 type  3   force =    -0.00000263   -0.00042162   -0.00002208
     atom   12 type  3   force =     0.00003493    0.00000640    0.00016492
     atom   13 type  3   force =    -0.00007545    0.00024444   -0.00004642
     atom   14 type  3   force =     0.00029282   -0.00019310    0.00042187
     atom   15 type  3   force =    -0.00032335    0.00000686   -0.00041769
     atom   16 type  3   force =     0.00006301   -0.00004040    0.00007079
     atom   17 type  3   force =     0.00031605   -0.00002867   -0.00029243
     atom   18 type  3   force =     0.00002836   -0.00002144    0.00000670
     atom   19 type  3   force =    -0.00002254    0.00024543   -0.00006859
     atom   20 type  3   force =    -0.00031821   -0.00015999    0.00025584

     Total force =     0.152897     Total SCF correction =     0.001767

     Computing stress (Cartesian axis) and pressure

          total   stress  (Ry/bohr**3)                   (kbar)     P=     -540.04
  -0.00331263  -0.00004164   0.00000045         -487.30       -6.12        0.07
  -0.00004164  -0.00449263   0.00000401           -6.12     -660.89        0.59
   0.00000045   0.00000401  -0.00320803            0.07        0.59     -471.92

     kinetic stress (kbar)  26886.05    103.11     16.34
                              103.11  26484.91     -1.04
                               16.34     -1.04  26703.06

     local   stress (kbar) -15002.00   1636.89   -115.05
                             1636.89 -11864.71     66.42
                             -115.05     66.42 -17541.59

     nonloc. stress (kbar)  11635.58     79.57      2.15
                               79.57  11546.66      0.38
                                2.15      0.38  11486.13

     hartree stress (kbar)  18666.19   -614.74     16.31
                             -614.74  17448.60    -21.28
                               16.31    -21.28  19625.35

     exc-cor stress (kbar)  -5832.69     -1.98      0.54
                               -1.98  -5834.44     -0.12
                                0.54     -0.12  -5828.50

     corecor stress (kbar)  -1283.77     -1.16     -0.13
                               -1.16  -1281.30      0.00
                               -0.13      0.00  -1281.79

     ewald   stress (kbar) -35556.67  -1207.82     79.91
                            -1207.82 -37160.62    -43.77
                               79.91    -43.77 -33634.57

     hubbard stress (kbar)      0.00      0.00      0.00
                                0.00      0.00      0.00
                                0.00      0.00      0.00

     DFT-D   stress (kbar)      0.00      0.00      0.00
                                0.00      0.00      0.00
                                0.00      0.00      0.00

     XDM     stress (kbar)      0.00      0.00      0.00
                                0.00      0.00      0.00
                                0.00      0.00      0.00

     dft-nl  stress (kbar)      0.00      0.00      0.00
                                0.00      0.00      0.00
                                0.00      0.00      0.00

     TS-vdW  stress (kbar)      0.00      0.00      0.00
                                0.00      0.00      0.00
                                0.00      0.00      0.00

[...]

                                0.00      0.00      0.00

     Writing all to output data dir new_calculations/myprefix.save/

     General routines

     Parallel routines

     PAW routines

   This run was terminated on:   4:58:49  20May2023

   JOB DONE.