     Program PWSCF v.7.0 starts on 20May2023 at 22:58:24

     Reading input from espresso_8863.pwi
Warning: card &CELL ignored
Warning: card / ignored

     Current dimensions of program PWSCF are:
     Max number of different atomic species (ntypx) = 10
     Max number of k-points (npk) =  40000
     Max angular momentum in pseudopotentials (lmaxx) =  4

     gamma-point specific algorithms are used
     Message from routine setup:
     using ibrav=0 with symmetry is DISCOURAGED, use correct ibrav instead

     Subspace diagonalization in iterative solution of the eigenvalue problem:
     a serial algorithm will be used

     Using Slab Decomposition

     bravais-lattice index     =            0
     lattice parameter (alat)  =       7.3219  a.u.
     unit-cell volume          =    2782.0410 (a.u.)^3
     number of atoms/cell      =           20
     number of atomic types    =            3
     number of electrons       =       250.00
     number of Kohn-Sham states=          150
     kinetic-energy cutoff     =      30.0000  Ry
     charge density cutoff     =     240.0000  Ry
     scf convergence threshold =      1.0E-06
     mixing beta               =       0.7000
     number of iterations used =            8  plain     mixing
     Exchange-correlation=  SLA  PW   PBX  PBC
                           (   1   4   3   4   0   0   0)

     celldm(1)=   7.321891  celldm(2)=   0.000000  celldm(3)=   0.000000
     celldm(4)=   0.000000  celldm(5)=   0.000000  celldm(6)=   0.000000

     crystal axes: (cart. coord. in units of alat)
               a(1) = (   1.000000   0.000000   0.000000 )
               a(2) = (  -0.500000   0.866025   0.000000 )
               a(3) = (   0.000000   0.000000   8.183952 )

     reciprocal axes: (cart. coord. in units 2 pi/alat)
               b(1) = (  1.000000  0.577350  0.000000 )
               b(2) = (  0.000000  1.154701  0.000000 )
               b(3) = (  0.000000  0.000000  0.122190 )

     PseudoPot. # 1 for Mn read from file:
     /home/pragov/projects/rrg-bengioy-ad/pragov/crystal_structure_design/SSSP/mn_pbe_v1.5.uspp.F.UPF
     MD5 check sum: 82ef2b46521d7a7d9e736dc3972e4928
     Pseudo is Ultrasoft + core correction, Zval = 15.0
     Generated by new atomic code, or converted to UPF format
     Using radial grid of  859 points,  6 beta functions with:
                l(1) =   0
                l(2) =   0
                l(3) =   1
                l(4) =   1
                l(5) =   2
                l(6) =   2
     Q(r) pseudized with  8 coefficients,  rinner =    0.950   0.950   0.950
                                                       0.950   0.950

     PseudoPot. # 2 for Zn read from file:
     /home/pragov/projects/rrg-bengioy-ad/pragov/crystal_structure_design/SSSP/Zn_pbe_v1.uspp.F.UPF
     MD5 check sum: df62231357ef9e81f77b2b3087fa5675
     Pseudo is Ultrasoft, Zval = 20.0
     Generated by new atomic code, or converted to UPF format
     Using radial grid of  943 points,  6 beta functions with:
                l(1) =   0
                l(2) =   0
                l(3) =   1
                l(4) =   1
                l(5) =   2
                l(6) =   2
     Q(r) pseudized with  8 coefficients,  rinner =    1.100   1.100   1.100
                                                       1.100   1.100

     PseudoPot. # 3 for S  read from file:
     /home/pragov/projects/rrg-bengioy-ad/pragov/crystal_structure_design/SSSP/s_pbe_v1.4.uspp.F.UPF
     MD5 check sum: 88d86576ff6df21479756cfb9bdac1df
     Pseudo is Ultrasoft + core correction, Zval =  6.0
     Generated by new atomic code, or converted to UPF format
     Using radial grid of  907 points,  6 beta functions with:
                l(1) =   0
                l(2) =   0
                l(3) =   1
                l(4) =   1
                l(5) =   2
                l(6) =   2
     Q(r) pseudized with  8 coefficients,  rinner =    1.300   1.300   1.300
                                                       1.300   1.300

     atomic species   valence    mass     pseudopotential
        Mn            15.00    54.93804     Mn( 1.00)
        Zn            20.00    65.38000     Zn( 1.00)
        S              6.00    32.06000     S ( 1.00)

      6 Sym. Ops. (no inversion) found

                                    s                        frac. trans.

      isym =  1     identity

 cryst.   s( 1) = (     1          0          0      )
                  (     0          1          0      )
                  (     0          0          1      )

 cart.    s( 1) = (  1.0000000 -0.0000000  0.0000000 )
                  (  0.0000000  1.0000000  0.0000000 )
                  (  0.0000000  0.0000000  1.0000000 )

      isym =  2     120 deg rotation - cryst. axis [0,0,1]

[...]

      isym =  3     120 deg rotation - cryst. axis [0,0,-1]

[...]

      isym =  4     inv. 180 deg rotation - cart. axis [1,0,0]

[...]

      isym =  5     inv. 180 deg rotation - cryst. axis [0,1,0]

[...]

      isym =  6     inv. 180 deg rotation - cryst. axis [1,1,0]

 cryst.   s( 6) = (     0         -1          0      )
                  (    -1          0          0      )
                  (     0          0          1      )

 cart.    s( 6) = (  0.5000000 -0.8660254  0.0000000 )
                  ( -0.8660254 -0.5000000  0.0000000 )
                  (  0.0000000  0.0000000  1.0000000 )

   Cartesian axes

     site n.     atom                  positions (alat units)
         1           Mn  tau(   1) = (   0.0000000   0.0000000   6.5454019  )
         2           Mn  tau(   2) = (   0.0000000   0.0000000   8.1823396  )
         3           Zn  tau(   3) = (   0.5000005   0.2886748   0.8202529  )
         4           Zn  tau(   4) = (   0.5000005   0.2886748   2.4555784  )
         5           Zn  tau(   5) = (   0.5000005   0.2886748   4.0923524  )
         6           Zn  tau(   6) = (   0.5000005   0.2886748   5.7272032  )
         7           Zn  tau(   7) = (   0.5000005   0.2886748   7.3655158  )
         8           Zn  tau(   8) = (   0.0000000   0.0000000   1.6371996  )
         9           Zn  tau(   9) = (   0.0000000   0.0000000   3.2739572  )
        10           Zn  tau(  10) = (   0.0000000   0.0000000   4.9107312  )
        11           S   tau(  11) = (   0.5000005   0.2886748   0.2147714  )
        12           S   tau(  12) = (   0.5000005   0.2886748   1.8426249  )
        13           S   tau(  13) = (   0.5000005   0.2886748   3.4793990  )
        14           S   tau(  14) = (   0.5000005   0.2886748   5.1156083  )
        15           S   tau(  15) = (   0.5000005   0.2886748   6.7612209  )
        16           S   tau(  16) = (   0.0000000   0.0000000   1.0244671  )
        17           S   tau(  17) = (   0.0000000   0.0000000   2.6609956  )
        18           S   tau(  18) = (   0.0000000   0.0000000   4.2977941  )
        19           S   tau(  19) = (   0.0000000   0.0000000   5.9287575  )
        20           S   tau(  20) = (   0.0000000   0.0000000   7.5657116  )

   Crystallographic axes

     site n.     atom                  positions (cryst. coord.)
         1           Mn  tau(   1) = (  0.0000000  0.0000000  0.7997850  )
         2           Mn  tau(   2) = (  0.0000000  0.0000000  0.9998030  )
         3           Zn  tau(   3) = (  0.6666670  0.3333330  0.1002270  )
         4           Zn  tau(   4) = (  0.6666670  0.3333330  0.3000480  )
         5           Zn  tau(   5) = (  0.6666670  0.3333330  0.5000460  )
         6           Zn  tau(   6) = (  0.6666670  0.3333330  0.6998090  )
         7           Zn  tau(   7) = (  0.6666670  0.3333330  0.8999950  )
         8           Zn  tau(   8) = (  0.0000000  0.0000000  0.2000500  )
         9           Zn  tau(   9) = (  0.0000000  0.0000000  0.4000460  )
        10           Zn  tau(  10) = (  0.0000000  0.0000000  0.6000440  )
        11           S   tau(  11) = (  0.6666670  0.3333330  0.0262430  )
        12           S   tau(  12) = (  0.6666670  0.3333330  0.2251510  )
        13           S   tau(  13) = (  0.6666670  0.3333330  0.4251490  )
        14           S   tau(  14) = (  0.6666670  0.3333330  0.6250780  )
        15           S   tau(  15) = (  0.6666670  0.3333330  0.8261560  )
        16           S   tau(  16) = (  0.0000000  0.0000000  0.1251800  )
        17           S   tau(  17) = (  0.0000000  0.0000000  0.3251480  )
        18           S   tau(  18) = (  0.0000000  0.0000000  0.5251490  )
        19           S   tau(  19) = (  0.0000000  0.0000000  0.7244370  )
        20           S   tau(  20) = (  0.0000000  0.0000000  0.9244570  )

     number of k points=     1  Methfessel-Paxton smearing, width (Ry)=  0.0010
                       cart. coord. in units 2pi/alat
        k(    1) = (   0.0000000   0.0000000   0.0000000), wk =   2.0000000

                       cryst. coord.
        k(    1) = (   0.0000000   0.0000000   0.0000000), wk =   2.0000000

     Check: negative core charge=   -0.000006

     Initial potential from superposition of free atoms

     starting charge     248.9983, renormalised to     250.0000
     Starting wfcs are  170 randomized atomic wfcs

     Self-consistent Calculation

     iteration #  1     ecut=    30.00 Ry     beta= 0.70
     Davidson diagonalization with overlap

     ethr =  1.00E-02,  avg # of iterations =  9.0
     Minimization algorithm failed to find Fermi energy: reverting to bisection
     Possible cause: smearing is larger than the electronic band-gap.

     total energy              =    6700.20669069 Ry
     estimated scf accuracy    <   12283.41900138 Ry

[...]

     c_bands:  2 eigenvalues not converged
     ethr =  1.00E-02,  avg # of iterations = 80.0

[...]

     ethr =  1.00E-02,  avg # of iterations = 51.0

[...]

     negative rho (up, down):  2.304E-03 0.000E+00

[...]

     negative rho (up, down):  1.244E-04 0.000E+00

[...]

     c_bands:  1 eigenvalues not converged
     ethr =  1.51E-04,  avg # of iterations = 20.0

[...]

     total energy              =   -4352.60459253 Ry
     estimated scf accuracy    <       0.00000139 Ry

     iteration # 95     ecut=    30.00 Ry     beta= 0.70
     Davidson diagonalization with overlap

     ethr =  5.19E-10,  avg # of iterations =  1.0

     End of self-consistent calculation

          k = 0.0000 0.0000 0.0000 (  3863 PWs)   bands (ev):

  -119.0435-118.9275-118.6698-118.6686-118.6382-118.6019-118.5744-118.5685
   -73.2272 -73.1315 -73.1315 -73.1210 -73.0121 -73.0121 -72.8422 -72.8209
   -72.8021 -72.7795 -72.7795 -72.7699 -72.7699 -72.7675 -72.7426 -72.7423
   -72.7423 -72.7349 -72.7051 -72.7051 -72.6776 -72.6776 -72.6692 -72.6692
   -70.8106 -70.8084 -39.7943 -39.7943 -39.7663 -39.7663 -39.2048 -39.1739
    -6.6645  -6.5673  -5.6437  -5.5807  -5.4657  -5.3893  -5.2447  -5.0540
    -4.8895  -4.7403  -0.2305  -0.2185  -0.2185  -0.1375  -0.0932  -0.0932
     0.0360   0.0360   0.0906   0.1174   0.1174   0.1183   0.1294   0.1294
     0.1468   0.1559   0.1559   0.1574   0.1574   0.1941   0.1941   0.2194
     0.2194   0.2301   0.2539   0.2539   0.3731   0.4242   0.4242   0.4291
     0.4291   0.4639   0.4639   0.4984   0.4984   0.5182   0.5182   0.5437
     0.5437   0.5830   1.5227   1.9088   2.0648   2.7331   3.3693   3.7043
     3.7043   3.7862   3.7862   4.2320   4.5660   5.1463   5.8804   6.1803
     6.1803   6.2778   6.2778   6.3421   6.3421   6.4669   6.4669   6.6329
     6.6329   6.6356   6.8206   6.8206   7.0067   7.0068   7.1776   7.1776
     7.6800   7.6800   7.7889   7.7889   8.4667   8.4804   8.9374   9.1234
     9.1234   9.2438   9.2438   9.4929   9.6094   9.6870   9.7951   9.8710
    10.0404  10.1085  10.7220  11.0210  12.9624  12.9624  12.9644  13.0175
    13.0175  13.0276  13.0899  13.0899  13.0928  13.1954

     occupation numbers
     1.0000   1.0000   1.0000   1.0000   1.0000   1.0000   1.0000   1.0000
     1.0000   1.0000   1.0000   1.0000   1.0000   1.0000   1.0000   1.0000
     1.0000   1.0000   1.0000   1.0000   1.0000   1.0000   1.0000   1.0000
     1.0000   1.0000   1.0000   1.0000   1.0000   1.0000   1.0000   1.0000
     1.0000   1.0000   1.0000   1.0000   1.0000   1.0000   1.0000   1.0000
     1.0000   1.0000   1.0000   1.0000   1.0000   1.0000   1.0000   1.0000
     1.0000   1.0000   1.0000   1.0000   1.0000   1.0000   1.0000   1.0000
     1.0000   1.0000   1.0000   1.0000   1.0000   1.0000   1.0000   1.0000
     1.0000   1.0000   1.0000   1.0000   1.0000   1.0000   1.0000   1.0000
     1.0000   1.0000   1.0000   1.0000   1.0000   1.0000   1.0000   1.0000
     1.0000   1.0000   1.0000   1.0000   1.0000   1.0000   1.0000   1.0000
     1.0000   1.0000   1.0000   1.0000   1.0000   1.0000   1.0000   1.0000
     1.0000   1.0000   1.0000   1.0000   1.0000   1.0000   1.0000   1.0000
     1.0000   1.0000   1.0000   1.0000   1.0000   1.0000   1.0000   1.0000
     1.0000   1.0000   1.0000   1.0000   1.0000   1.0000   1.0000   1.0000
     1.0000   1.0000   1.0000   1.0000   0.8711   0.1289  -0.0000  -0.0000
    -0.0000  -0.0000  -0.0000  -0.0000  -0.0000  -0.0000  -0.0000  -0.0000
    -0.0000  -0.0000  -0.0000  -0.0000  -0.0000  -0.0000  -0.0000  -0.0000
    -0.0000  -0.0000  -0.0000  -0.0000  -0.0000  -0.0000

     the Fermi energy is     8.4736 ev

!    total energy              =   -4352.60459241 Ry
     estimated scf accuracy    <       0.00000015 Ry
     smearing contrib. (-TS)   =      -0.00021765 Ry
     internal energy E=F+TS    =   -4352.60437476 Ry

     The total energy is F=E-TS. E is the sum of the following terms:
     one-electron contribution =   -4121.76255238 Ry
     hartree contribution      =    2129.13990408 Ry
     xc contribution           =    -476.68572659 Ry
     ewald contribution        =   -1883.29599987 Ry

     convergence has been achieved in  95 iterations

     Forces acting on atoms (cartesian axes, Ry/au):

     atom    1 type  1   force =     0.00000000    0.00000000   -0.00231900
     atom    2 type  1   force =     0.00000000   -0.00000000    0.03926330
     atom    3 type  2   force =     0.00000000   -0.00000000   -0.01930097
     atom    4 type  2   force =     0.00000000    0.00000000   -0.06984113
     atom    5 type  2   force =     0.00000000    0.00000000   -0.07353927
     atom    6 type  2   force =     0.00000000    0.00000000   -0.06320290
     atom    7 type  2   force =     0.00000000    0.00000000   -0.02998102
     atom    8 type  2   force =     0.00000000    0.00000000   -0.06582641
     atom    9 type  2   force =     0.00000000    0.00000000   -0.07198770
     atom   10 type  2   force =     0.00000000    0.00000000   -0.07353123
     atom   11 type  3   force =     0.00000000    0.00000000   -0.11666893
     atom   12 type  3   force =     0.00000000    0.00000000    0.06941498
     atom   13 type  3   force =     0.00000000    0.00000000    0.07350000
     atom   14 type  3   force =     0.00000000    0.00000000    0.07721145
     atom   15 type  3   force =     0.00000000    0.00000000   -0.10562483
     atom   16 type  3   force =     0.00000000    0.00000000    0.05657439
     atom   17 type  3   force =     0.00000000   -0.00000000    0.07186786
     atom   18 type  3   force =     0.00000000    0.00000000    0.07476359
     atom   19 type  3   force =     0.00000000    0.00000000    0.11447825
     atom   20 type  3   force =     0.00000000    0.00000000    0.11474958
     The non-local contrib.  to forces
     atom    1 type  1   force =     0.00000000    0.00000000    0.85083745
     atom    2 type  1   force =     0.00000000    0.00000000    0.77888393
     atom    3 type  2   force =     0.00000000   -0.00000000    0.55198185
     atom    4 type  2   force =     0.00000000   -0.00000000    0.91738714
     atom    5 type  2   force =     0.00000000    0.00000000    0.95889035
     atom    6 type  2   force =     0.00000000    0.00000000    0.86238318
     atom    7 type  2   force =     0.00000000    0.00000000    0.78664889
     atom    8 type  2   force =     0.00000000   -0.00000000    0.86110481
     atom    9 type  2   force =     0.00000000    0.00000000    0.94206110
     atom   10 type  2   force =     0.00000000   -0.00000000    0.94951321
     atom   11 type  3   force =     0.00000000    0.00000000   -0.09973488
     atom   12 type  3   force =     0.00000000    0.00000000   -0.14036813
     atom   13 type  3   force =     0.00000000    0.00000000   -0.11384425
     atom   14 type  3   force =     0.00000000    0.00000000   -0.08791861
     atom   15 type  3   force =     0.00000000   -0.00000000   -0.03371206
     atom   16 type  3   force =     0.00000000    0.00000000   -0.15555586
     atom   17 type  3   force =     0.00000000    0.00000000   -0.12244379
     atom   18 type  3   force =     0.00000000    0.00000000   -0.10667423
     atom   19 type  3   force =     0.00000000   -0.00000000   -0.00704551
     atom   20 type  3   force =     0.00000000    0.00000000   -0.06835517
     The ionic contribution  to forces
     atom    1 type  1   force =     0.00001485   -0.00000857   11.90760577
     atom    2 type  1   force =     0.00001482   -0.00000856  -12.52936241
     atom    3 type  2   force =    -0.00002016    0.00001164  -32.78426503
     atom    4 type  2   force =    -0.00002047    0.00001182  -11.10301240
     atom    5 type  2   force =    -0.00002047    0.00001182   10.55341427
     atom    6 type  2   force =    -0.00002036    0.00001176   32.93759784
     atom    7 type  2   force =    -0.00002006    0.00001158    0.42327789
     atom    8 type  2   force =     0.00002049   -0.00001183  -21.94165615
     atom    9 type  2   force =     0.00002047   -0.00001182   -0.27299142
     atom   10 type  2   force =     0.00002052   -0.00001185   21.43352983
     atom   11 type  3   force =    -0.00001288    0.00000744   -9.01962527
     atom   12 type  3   force =    -0.00001778    0.00001026   -5.48928817
     atom   13 type  3   force =    -0.00001778    0.00001026    1.00827330
     atom   14 type  3   force =    -0.00001782    0.00001029    7.49964909
     atom   15 type  3   force =    -0.00001291    0.00000745    0.74468391
     atom   16 type  3   force =     0.00001786   -0.00001031   -8.88678815
     atom   17 type  3   force =     0.00001778   -0.00001027   -2.24048180
     atom   18 type  3   force =     0.00001778   -0.00001026    4.25628599
     atom   19 type  3   force =     0.00001801   -0.00001040   11.69900020
     atom   20 type  3   force =     0.00001811   -0.00001045    1.80415273
     The local contribution  to forces
     atom    1 type  1   force =    -0.00001305    0.00000754  -12.72597639
     atom    2 type  1   force =    -0.00001297    0.00000714   11.82442414
     atom    3 type  2   force =     0.00002461   -0.00001442   32.21273187
     atom    4 type  2   force =     0.00002543   -0.00001395   10.11540006
     atom    5 type  2   force =     0.00002578   -0.00001482  -11.58664256
     atom    6 type  2   force =     0.00002551   -0.00001427  -33.86303693
     atom    7 type  2   force =     0.00002385   -0.00001398   -1.23784717
     atom    8 type  2   force =    -0.00002602    0.00001482   21.01437703
     atom    9 type  2   force =    -0.00002612    0.00001534   -0.74211954
     atom   10 type  2   force =    -0.00002579    0.00001500  -22.45698649
     atom   11 type  3   force =     0.00001285   -0.00000732    8.99702008
     atom   12 type  3   force =     0.00001807   -0.00001079    5.69137820
     atom   13 type  3   force =     0.00001522   -0.00000779   -0.82740725
     atom   14 type  3   force =     0.00001772   -0.00001071   -7.33918726
     atom   15 type  3   force =     0.00001247   -0.00000675   -0.81866859
     atom   16 type  3   force =    -0.00001744    0.00001045    9.09035031
     atom   17 type  3   force =    -0.00001533    0.00000757    2.42807472
     atom   18 type  3   force =    -0.00001773    0.00001074   -4.08079979
     atom   19 type  3   force =    -0.00001527    0.00000724  -11.57722587
     atom   20 type  3   force =    -0.00001656    0.00000941   -1.62372445
     The core correction contribution to forces
     atom    1 type  1   force =     0.00000008   -0.00000007   -0.03484473
     atom    2 type  1   force =     0.00000007   -0.00000005   -0.03370019
     atom    3 type  2   force =     0.00000000    0.00000000    0.00000000
     atom    4 type  2   force =     0.00000000    0.00000000    0.00000000
     atom    5 type  2   force =     0.00000000    0.00000000    0.00000000
     atom    6 type  2   force =     0.00000000    0.00000000    0.00000000
     atom    7 type  2   force =     0.00000000    0.00000000    0.00000000
     atom    8 type  2   force =     0.00000000    0.00000000    0.00000000
     atom    9 type  2   force =     0.00000000    0.00000000    0.00000000
     atom   10 type  2   force =     0.00000000    0.00000000    0.00000000
     atom   11 type  3   force =     0.00000004   -0.00000003    0.00596928
     atom   12 type  3   force =    -0.00000003   -0.00000004    0.00764234
     atom   13 type  3   force =    -0.00000013    0.00000010    0.00613194
     atom   14 type  3   force =     0.00000000   -0.00000002    0.00463934
     atom   15 type  3   force =     0.00000004   -0.00000001    0.00217509
     atom   16 type  3   force =    -0.00000001    0.00000001    0.00840080
     atom   17 type  3   force =     0.00000008   -0.00000007    0.00661481
     atom   18 type  3   force =    -0.00000001    0.00000001    0.00572558
     atom   19 type  3   force =     0.00000012   -0.00000009   -0.00017040
     atom   20 type  3   force =     0.00000005   -0.00000003    0.00334782
     The Hubbard contrib.    to forces
     atom    1 type  1   force =     0.00000000    0.00000000    0.00000000
     atom    2 type  1   force =     0.00000000    0.00000000    0.00000000
     atom    3 type  2   force =     0.00000000    0.00000000    0.00000000
     atom    4 type  2   force =     0.00000000    0.00000000    0.00000000
     atom    5 type  2   force =     0.00000000    0.00000000    0.00000000
     atom    6 type  2   force =     0.00000000    0.00000000    0.00000000
     atom    7 type  2   force =     0.00000000    0.00000000    0.00000000
     atom    8 type  2   force =     0.00000000    0.00000000    0.00000000
     atom    9 type  2   force =     0.00000000    0.00000000    0.00000000
     atom   10 type  2   force =     0.00000000    0.00000000    0.00000000
     atom   11 type  3   force =     0.00000000    0.00000000    0.00000000
     atom   12 type  3   force =     0.00000000    0.00000000    0.00000000
     atom   13 type  3   force =     0.00000000    0.00000000    0.00000000
     atom   14 type  3   force =     0.00000000    0.00000000    0.00000000
     atom   15 type  3   force =     0.00000000    0.00000000    0.00000000
     atom   16 type  3   force =     0.00000000    0.00000000    0.00000000
     atom   17 type  3   force =     0.00000000    0.00000000    0.00000000
     atom   18 type  3   force =     0.00000000    0.00000000    0.00000000
     atom   19 type  3   force =     0.00000000    0.00000000    0.00000000
     atom   20 type  3   force =     0.00000000    0.00000000    0.00000000
     The SCF correction term to forces
     atom    1 type  1   force =    -0.00000082    0.00000137    0.00008422
     atom    2 type  1   force =    -0.00000045    0.00000048   -0.00095687
     atom    3 type  2   force =    -0.00000015    0.00000017    0.00027565
     atom    4 type  2   force =     0.00000135   -0.00000210    0.00040938
     atom    5 type  2   force =    -0.00000019    0.00000026    0.00082398
     atom    6 type  2   force =     0.00000096   -0.00000141   -0.00012167
     atom    7 type  2   force =     0.00000062   -0.00000022   -0.00203532
     atom    8 type  2   force =     0.00000033   -0.00000010    0.00037322
     atom    9 type  2   force =    -0.00000293    0.00000343    0.00108748
     atom   10 type  2   force =     0.00000076   -0.00000100    0.00043753
     atom   11 type  3   force =     0.00000002   -0.00000005   -0.00027283
     atom   12 type  3   force =    -0.00000038    0.00000032    0.00007606
     atom   13 type  3   force =     0.00000196   -0.00000228    0.00037156
     atom   14 type  3   force =    -0.00000046    0.00000062    0.00005421
     atom   15 type  3   force =     0.00000018   -0.00000038   -0.00007786
     atom   16 type  3   force =     0.00000011   -0.00000020    0.00019261
     atom   17 type  3   force =    -0.00000111    0.00000154    0.00012923
     atom   18 type  3   force =     0.00000050   -0.00000064    0.00025137
     atom   19 type  3   force =    -0.00000094    0.00000124   -0.00005485
     atom   20 type  3   force =    -0.00000028    0.00000020   -0.00064603

     Total force =     0.336451     Total SCF correction =     0.002878

     Computing stress (Cartesian axis) and pressure

          total   stress  (Ry/bohr**3)                   (kbar)     P=      -64.28
  -0.00010887  -0.00000000   0.00000000          -16.02       -0.00        0.00
  -0.00000000  -0.00010887   0.00000000           -0.00      -16.02        0.00
   0.00000000   0.00000000  -0.00109308            0.00        0.00     -160.80

     kinetic stress (kbar)  17457.91      0.00      0.00
                                0.00  17457.91      0.00
                                0.00      0.00  17144.05

     local   stress (kbar) -20631.44      0.06     -0.00
                                0.06 -20631.37      0.00
                               -0.00      0.00  -8478.65

     nonloc. stress (kbar)   2421.88      0.00      0.00
                                0.00   2421.88     -0.00
                                0.00     -0.00   2253.33

     hartree stress (kbar)  39541.18     -0.02      0.00
                               -0.02  39541.16     -0.00
                                0.00     -0.00  33499.50

     exc-cor stress (kbar)  -5092.65     -0.00     -0.00
                               -0.00  -5092.65      0.00
                               -0.00      0.00  -5089.60

     corecor stress (kbar)  -2449.71     -0.00     -0.00
                               -0.00  -2449.71      0.00
                               -0.00      0.00  -2433.40

     ewald   stress (kbar) -31263.18     -0.04      0.00
                               -0.04 -31263.22     -0.00
                                0.00     -0.00 -37056.03

     hubbard stress (kbar)      0.00      0.00      0.00
                                0.00      0.00      0.00
                                0.00      0.00      0.00

     DFT-D   stress (kbar)      0.00      0.00      0.00
                                0.00      0.00      0.00
                                0.00      0.00      0.00

     XDM     stress (kbar)      0.00      0.00      0.00
                                0.00      0.00      0.00
                                0.00      0.00      0.00

     dft-nl  stress (kbar)      0.00      0.00      0.00
                                0.00      0.00      0.00
                                0.00      0.00      0.00

     TS-vdW  stress (kbar)      0.00      0.00      0.00
                                0.00      0.00      0.00
                                0.00      0.00      0.00

[...]

                                0.00      0.00      0.00

     Writing all to output data dir new_calculations/myprefix.save/

     General routines

     Parallel routines

   This run was terminated on:  23: 4: 7  20May2023

   JOB DONE.