     Program PWSCF v.7.0 starts on 21May2023 at  1:59: 4

     Reading input from espresso_11750.pwi
Warning: card &CELL ignored
Warning: card / ignored

     Current dimensions of program PWSCF are:
     Max number of different atomic species (ntypx) = 10
     Max number of k-points (npk) =  40000
     Max angular momentum in pseudopotentials (lmaxx) =  4

     gamma-point specific algorithms are used
     Message from routine setup:
     using ibrav=0 with symmetry is DISCOURAGED, use correct ibrav instead

     Subspace diagonalization in iterative solution of the eigenvalue problem:
     a serial algorithm will be used

     Using Slab Decomposition

     bravais-lattice index     =            0
     lattice parameter (alat)  =      12.6359  a.u.
     unit-cell volume          =    1684.6798 (a.u.)^3
     number of atoms/cell      =           10
     number of atomic types    =            2
     number of electrons       =       148.00
     number of Kohn-Sham states=           89
     kinetic-energy cutoff     =      30.0000  Ry
     charge density cutoff     =     240.0000  Ry
     scf convergence threshold =      1.0E-06
     mixing beta               =       0.7000
     number of iterations used =            8  plain     mixing
     Exchange-correlation= PBE
                           (   1   4   3   4   0   0   0)

     celldm(1)=  12.635906  celldm(2)=   0.000000  celldm(3)=   0.000000
     celldm(4)=   0.000000  celldm(5)=   0.000000  celldm(6)=   0.000000

     crystal axes: (cart. coord. in units of alat)
               a(1) = (   1.000000   0.000000   0.000000 )
               a(2) = (  -0.518517   0.855067   0.000000 )
               a(3) = (   0.000000   0.000000   0.976558 )

     reciprocal axes: (cart. coord. in units 2 pi/alat)
               b(1) = (  1.000000  0.606405  0.000000 )
               b(2) = (  0.000000  1.169499  0.000000 )
               b(3) = (  0.000000  0.000000  1.024005 )

     PseudoPot. # 1 for Sn read from file:
     /home/pragov/projects/rrg-bengioy-ad/pragov/crystal_structure_design/SSSP/Sn_pbe_v1.uspp.F.UPF
     MD5 check sum: 4cf58ce39ec5d5d420df3dd08604eb00
     Pseudo is Ultrasoft + core correction, Zval = 14.0
     Generated by new atomic code, or converted to UPF format
     Using radial grid of  891 points,  6 beta functions with:
                l(1) =   0
                l(2) =   0
                l(3) =   1
                l(4) =   1
                l(5) =   2
                l(6) =   2
     Q(r) pseudized with  6 coefficients,  rinner =    1.200   1.200   1.200
                                                       1.200   1.200

     PseudoPot. # 2 for Pd read from file:
     /home/pragov/projects/rrg-bengioy-ad/pragov/crystal_structure_design/SSSP/Pd_ONCV_PBE-1.0.oncvpsp.upf
     MD5 check sum: eb77f42b51d86fb18e25f68156a31cf1
     Pseudo is Norm-conserving, Zval = 18.0
     Generated using ONCVPSP code by D. R. Hamann
     Using radial grid of 1410 points,  6 beta functions with:
                l(1) =   0
                l(2) =   0
                l(3) =   1
                l(4) =   1
                l(5) =   2
                l(6) =   2

     atomic species   valence    mass     pseudopotential
        Sn            14.00   118.71000     Sn( 1.00)
        Pd            18.00   106.42000     Pd( 1.00)

      4 Sym. Ops., with inversion, found ( 2 have fractional translation)

                                    s                        frac. trans.

      isym =  1     identity

 cryst.   s( 1) = (     1          0          0      )
                  (     0          1          0      )
                  (     0          0          1      )

 cart.    s( 1) = (  1.0000000  0.0000000  0.0000000 )
                  (  0.0000000  1.0000000  0.0000000 )
                  (  0.0000000  0.0000000  1.0000000 )

      isym =  2     180 deg rotation - cart. axis [0,0,1]

 cryst.   s( 2) = (    -1          0          0      )
                  (     0         -1          0      )
                  (     0          0          1      )

 cart.    s( 2) = ( -1.0000000 -0.0000000  0.0000000 )
                  (  0.0000000 -1.0000000  0.0000000 )
                  (  0.0000000  0.0000000  1.0000000 )

      isym =  3     inversion

 cryst.   s( 3) = (    -1          0          0      )    f =( -0.5000000 )
                  (     0         -1          0      )       ( -0.5000000 )
                  (     0          0         -1      )       ( -0.5000000 )

 cart.    s( 3) = ( -1.0000000 -0.0000000  0.0000000 )    f =( -0.2407414 )
                  (  0.0000000 -1.0000000  0.0000000 )       ( -0.4275336 )
                  (  0.0000000  0.0000000 -1.0000000 )       ( -0.4882789 )

      isym =  4     inv. 180 deg rotation - cart. axis [0,0,1]

 cryst.   s( 4) = (     1          0          0      )    f =( -0.5000000 )
                  (     0          1          0      )       ( -0.5000000 )
                  (     0          0         -1      )       ( -0.5000000 )

 cart.    s( 4) = (  1.0000000  0.0000000  0.0000000 )    f =( -0.2407414 )
                  (  0.0000000  1.0000000  0.0000000 )       ( -0.4275336 )
                  (  0.0000000  0.0000000 -1.0000000 )       ( -0.4882789 )

   Cartesian axes

     site n.     atom                  positions (alat units)
         1           Sn  tau(   1) = (  -0.0336799   0.3900295   0.3212182  )
         2           Sn  tau(   2) = (   0.1305178   0.6816288   0.6553396  )
         3           Sn  tau(   3) = (   0.3509651   0.1734384   0.6553396  )
         4           Sn  tau(   4) = (   0.5151627   0.4650377   0.3212182  )
         5           Sn  tau(   5) = (   0.5917065   0.6009720   0.8094971  )
         6           Sn  tau(   6) = (   0.2744213   0.0375041   0.1670607  )
         7           Sn  tau(   7) = (   0.2070615   0.8175631   0.1670607  )
         8           Sn  tau(   8) = (  -0.1102236   0.2540952   0.8094971  )
         9           Pd  tau(   9) = (   0.2407414   0.4275336   0.0000000  )
        10           Pd  tau(  10) = (   0.0000000   0.0000000   0.4882789  )

   Crystallographic axes

     site n.     atom                  positions (cryst. coord.)
         1           Sn  tau(   1) = (  0.2028360  0.4561390  0.3289290  )
         2           Sn  tau(   2) = (  0.5438610  0.7971640  0.6710710  )
         3           Sn  tau(   3) = (  0.4561390  0.2028360  0.6710710  )
         4           Sn  tau(   4) = (  0.7971640  0.5438610  0.3289290  )
         5           Sn  tau(   5) = (  0.9561390  0.7028360  0.8289290  )
         6           Sn  tau(   6) = (  0.2971640  0.0438610  0.1710710  )
         7           Sn  tau(   7) = (  0.7028360  0.9561390  0.1710710  )
         8           Sn  tau(   8) = (  0.0438610  0.2971640  0.8289290  )
         9           Pd  tau(   9) = (  0.5000000  0.5000000  0.0000000  )
        10           Pd  tau(  10) = (  0.0000000  0.0000000  0.5000000  )

     number of k points=     1  Methfessel-Paxton smearing, width (Ry)=  0.0010
                       cart. coord. in units 2pi/alat
        k(    1) = (   0.0000000   0.0000000   0.0000000), wk =   2.0000000

                       cryst. coord.
        k(    1) = (   0.0000000   0.0000000   0.0000000), wk =   2.0000000

     Check: negative core charge=   -0.000001

     Initial potential from superposition of free atoms

     starting charge     139.9989, renormalised to     148.0000
     Starting wfcs are   92 randomized atomic wfcs

     Self-consistent Calculation

     iteration #  1     ecut=    30.00 Ry     beta= 0.70
     Davidson diagonalization with overlap

     ethr =  1.00E-02,  avg # of iterations =  3.0

     total energy              =   -1797.36389572 Ry
     estimated scf accuracy    <      23.57086726 Ry

[...]

     total energy              =   -1812.33698173 Ry
     estimated scf accuracy    <       0.00000227 Ry

     iteration # 20     ecut=    30.00 Ry     beta= 0.70
     Davidson diagonalization with overlap

     ethr =  1.53E-09,  avg # of iterations =  1.0

     End of self-consistent calculation

          k = 0.0000 0.0000 0.0000 (  2333 PWs)   bands (ev):

   -74.1172 -74.1167 -39.7386 -39.7365 -39.4752 -39.4729 -39.3333 -39.3322
    -9.7415  -9.7330  -9.6903  -9.6902  -9.6875  -9.6729  -9.6632  -9.6399
    -9.6343  -9.6311  -9.6193  -9.5961  -9.5788  -9.5772  -9.5748  -9.5740
    -9.5685  -9.5671  -9.5671  -9.5597  -9.5519  -9.5348  -9.5306  -9.5243
    -9.4958  -9.4907  -9.4889  -9.4832  -9.4827  -9.4811  -9.4776  -9.4754
    -9.4742  -9.4650  -9.4305  -9.4274  -9.4263  -9.4126  -9.4072  -9.3998
     1.0286   4.0758   4.5370   4.7076   4.7967   5.0420   5.7199   6.5113
     6.7624   7.2591   7.4022   7.8393   8.0114   8.3798   8.4356   8.4546
     8.8796   9.0232   9.4004   9.5033   9.5952   9.7229   9.9993  10.0380
    11.0602  11.4559  11.4630  11.5346  11.8523  12.1720  12.8192  15.0849
    15.4383  16.3019  16.6164  16.6998  16.7312  17.6684  17.7186  17.8180
    18.0231

     occupation numbers
     1.0000   1.0000   1.0000   1.0000   1.0000   1.0000   1.0000   1.0000
     1.0000   1.0000   1.0000   1.0000   1.0000   1.0000   1.0000   1.0000
     1.0000   1.0000   1.0000   1.0000   1.0000   1.0000   1.0000   1.0000
     1.0000   1.0000   1.0000   1.0000   1.0000   1.0000   1.0000   1.0000
     1.0000   1.0000   1.0000   1.0000   1.0000   1.0000   1.0000   1.0000
     1.0000   1.0000   1.0000   1.0000   1.0000   1.0000   1.0000   1.0000
     1.0000   1.0000   1.0000   1.0000   1.0000   1.0000   1.0000   1.0000
     1.0000   1.0000   1.0000   1.0000   1.0000   1.0000   1.0000   1.0000
     1.0000   1.0000   1.0000   1.0000   1.0000   1.0000   1.0000   1.0000
     1.0000   0.7126   0.2874  -0.0000  -0.0000  -0.0000  -0.0000  -0.0000
    -0.0000  -0.0000  -0.0000  -0.0000  -0.0000  -0.0000  -0.0000  -0.0000
    -0.0000

     the Fermi energy is    11.4595 ev

!    total energy              =   -1812.33698172 Ry
     estimated scf accuracy    <       0.00000009 Ry
     smearing contrib. (-TS)   =      -0.00045539 Ry
     internal energy E=F+TS    =   -1812.33652633 Ry

     The total energy is F=E-TS. E is the sum of the following terms:
     one-electron contribution =    -740.14715452 Ry
     hartree contribution      =     467.64885944 Ry
     xc contribution           =    -430.27733226 Ry
     ewald contribution        =   -1109.56089899 Ry

     convergence has been achieved in  20 iterations

     Forces acting on atoms (cartesian axes, Ry/au):

     atom    1 type  1   force =    -0.00493522   -0.02903004   -0.06590811
     atom    2 type  1   force =     0.02226822    0.01927885    0.06591148
     atom    3 type  1   force =    -0.02226822   -0.01927885    0.06591148
     atom    4 type  1   force =     0.00493522    0.02903004   -0.06590811
     atom    5 type  1   force =    -0.02226822   -0.01927885   -0.06591148
     atom    6 type  1   force =     0.00493522    0.02903004    0.06590811
     atom    7 type  1   force =    -0.00493522   -0.02903004    0.06590811
     atom    8 type  1   force =     0.02226822    0.01927885   -0.06591148
     atom    9 type  2   force =     0.00000000    0.00000000    0.00000051
     atom   10 type  2   force =     0.00000000    0.00000000   -0.00000051
     The non-local contrib.  to forces
     atom    1 type  1   force =     0.05953865   -0.11505747    0.12939531
     atom    2 type  1   force =     0.12926318    0.00875566   -0.12939451
     atom    3 type  1   force =    -0.12926318   -0.00875566   -0.12939451
     atom    4 type  1   force =    -0.05953865    0.11505747    0.12939531
     atom    5 type  1   force =    -0.12926318   -0.00875566    0.12939451
     atom    6 type  1   force =    -0.05953865    0.11505747   -0.12939531
     atom    7 type  1   force =     0.05953865   -0.11505747   -0.12939531
     atom    8 type  1   force =     0.12926318    0.00875566    0.12939451
     atom    9 type  2   force =     0.00000000    0.00000000   -0.00000156
     atom   10 type  2   force =     0.00000000    0.00000000    0.00000156
     The ionic contribution  to forces
     atom    1 type  1   force =    -8.65715074    7.62815240    1.99962733
     atom    2 type  1   force =   -11.01146433    3.44711780   -1.99962733
     atom    3 type  1   force =    11.01146433   -3.44711780   -1.99962733
     atom    4 type  1   force =     8.65715074   -7.62815240    1.99962733
     atom    5 type  1   force =    11.01146433   -3.44711780    1.99962733
     atom    6 type  1   force =     8.65715074   -7.62815240   -1.99962733
     atom    7 type  1   force =    -8.65715074    7.62815239   -1.99962733
     atom    8 type  1   force =   -11.01146433    3.44711780    1.99962733
     atom    9 type  2   force =     0.00000000    0.00000000    0.00000000
     atom   10 type  2   force =    -0.00000000   -0.00000000    0.00000000
     The local contribution  to forces
     atom    1 type  1   force =     8.59397017   -7.54437138   -2.18973447
     atom    2 type  1   force =    10.90710905   -3.43658032    2.18969335
     atom    3 type  1   force =   -10.90706148    3.43657169    2.18971589
     atom    4 type  1   force =    -8.59399773    7.54440905   -2.18971765
     atom    5 type  1   force =   -10.90701192    3.43676351   -2.19011167
     atom    6 type  1   force =    -8.59414103    7.54417848    2.19011527
     atom    7 type  1   force =     8.59416945   -7.54421070    2.19010608
     atom    8 type  1   force =    10.90697766   -3.43675341   -2.19012428
     atom    9 type  2   force =     0.00006733    0.00007197    0.00002047
     atom   10 type  2   force =    -0.00002911   -0.00013173   -0.00001002
     The core correction contribution to forces
     atom    1 type  1   force =    -0.00121002    0.00174542   -0.00512196
     atom    2 type  1   force =    -0.00211957    0.00012822    0.00512047
     atom    3 type  1   force =     0.00212037   -0.00012866    0.00512136
     atom    4 type  1   force =     0.00120928   -0.00174561   -0.00512101
     atom    5 type  1   force =     0.00212014   -0.00012835   -0.00512261
     atom    6 type  1   force =     0.00120902   -0.00174584    0.00512305
     atom    7 type  1   force =    -0.00120829    0.00174582    0.00512232
     atom    8 type  1   force =    -0.00212002    0.00012912   -0.00512380
     atom    9 type  2   force =     0.00000000    0.00000000    0.00000000
     atom   10 type  2   force =     0.00000000    0.00000000    0.00000000
     The Hubbard contrib.    to forces
     atom    1 type  1   force =     0.00000000    0.00000000    0.00000000
     atom    2 type  1   force =     0.00000000    0.00000000    0.00000000
     atom    3 type  1   force =     0.00000000    0.00000000    0.00000000
     atom    4 type  1   force =     0.00000000    0.00000000    0.00000000
     atom    5 type  1   force =     0.00000000    0.00000000    0.00000000
     atom    6 type  1   force =     0.00000000    0.00000000    0.00000000
     atom    7 type  1   force =     0.00000000    0.00000000    0.00000000
     atom    8 type  1   force =     0.00000000    0.00000000    0.00000000
     atom    9 type  2   force =     0.00000000    0.00000000    0.00000000
     atom   10 type  2   force =     0.00000000    0.00000000    0.00000000
     The SCF correction term to forces
     atom    1 type  1   force =    -0.00008788    0.00048665   -0.00007985
     atom    2 type  1   force =    -0.00051087   -0.00013813    0.00011671
     atom    3 type  1   force =     0.00046352    0.00014496    0.00009793
     atom    4 type  1   force =     0.00011083   -0.00052985   -0.00009018
     atom    5 type  1   force =     0.00043139   -0.00003288    0.00030576
     atom    6 type  1   force =     0.00025597   -0.00031721   -0.00030660
     atom    7 type  1   force =    -0.00027965    0.00035335   -0.00030226
     atom    8 type  1   force =    -0.00039673    0.00002631    0.00030904
     atom    9 type  2   force =    -0.00006050   -0.00006096   -0.00001537
     atom   10 type  2   force =     0.00002699    0.00012833    0.00001097

     Total force =     0.204185     Total SCF correction =     0.001485

     Computing stress (Cartesian axis) and pressure

          total   stress  (Ry/bohr**3)                   (kbar)     P=     -207.66
  -0.00153022  -0.00015155   0.00000000         -225.10      -22.29        0.00
  -0.00015155  -0.00171404   0.00000000          -22.29     -252.14        0.00
   0.00000000   0.00000000  -0.00099066            0.00        0.00     -145.73

     kinetic stress (kbar)  19716.90   -127.50      0.00
                             -127.50  19562.27      0.00
                                0.00      0.00  19706.16

     local   stress (kbar)   4501.14  -6318.92     -0.00
                            -6318.92  -3162.53      0.00
                               -0.00      0.00  -5584.99

     nonloc. stress (kbar)   7500.44     17.09      0.00
                               17.09   7521.17      0.00
                                0.00      0.00   7504.64

     hartree stress (kbar)  10959.18   2835.48      0.00
                             2835.48  14398.09     -0.00
                                0.00     -0.00  15477.50

     exc-cor stress (kbar)  12830.39      1.01      0.00
                                1.01  12831.61     -0.00
                                0.00     -0.00  12829.15

     corecor stress (kbar) -20109.56     -0.16     -0.00
                               -0.16 -20109.75      0.00
                               -0.00      0.00 -20108.71

     ewald   stress (kbar) -35623.59   3570.71     -0.00
                             3570.71 -31293.00     -0.00
                               -0.00     -0.00 -29969.49

     hubbard stress (kbar)      0.00      0.00      0.00
                                0.00      0.00      0.00
                                0.00      0.00      0.00

     DFT-D   stress (kbar)      0.00      0.00      0.00
                                0.00      0.00      0.00
                                0.00      0.00      0.00

     XDM     stress (kbar)      0.00      0.00      0.00
                                0.00      0.00      0.00
                                0.00      0.00      0.00

     dft-nl  stress (kbar)      0.00      0.00      0.00
                                0.00      0.00      0.00
                                0.00      0.00      0.00

     TS-vdW  stress (kbar)      0.00      0.00      0.00
                                0.00      0.00      0.00
                                0.00      0.00      0.00

[...]

                                0.00      0.00      0.00

     Writing all to output data dir new_calculations/myprefix.save/

     General routines

     Parallel routines

   This run was terminated on:   2: 0:22  21May2023

   JOB DONE.