     Program PWSCF v.7.0 starts on 21May2023 at  0:18:42

     Reading input from espresso_23231.pwi
Warning: card &CELL ignored
Warning: card / ignored

     Current dimensions of program PWSCF are:
     Max number of different atomic species (ntypx) = 10
     Max number of k-points (npk) =  40000
     Max angular momentum in pseudopotentials (lmaxx) =  4
     file In.pbe-dn-rrkjus_psl.0.2.2.UPF: wavefunction(s)  5S renormalized

     gamma-point specific algorithms are used
     Message from routine setup:
     using ibrav=0 with symmetry is DISCOURAGED, use correct ibrav instead

     Subspace diagonalization in iterative solution of the eigenvalue problem:
     a serial algorithm will be used

     Using Slab Decomposition

     bravais-lattice index     =            0
     lattice parameter (alat)  =       8.3679  a.u.
     unit-cell volume          =    1232.6227 (a.u.)^3
     number of atoms/cell      =            6
     number of atomic types    =            3
     number of electrons       =        66.00
     number of Kohn-Sham states=           40
     kinetic-energy cutoff     =      30.0000  Ry
     charge density cutoff     =     240.0000  Ry
     scf convergence threshold =      1.0E-06
     mixing beta               =       0.7000
     number of iterations used =            8  plain     mixing
     Exchange-correlation= SLA  PW   PBE  PBE
                           (   1   4   3   4   0   0   0)

     celldm(1)=   8.367889  celldm(2)=   0.000000  celldm(3)=   0.000000
     celldm(4)=   0.000000  celldm(5)=   0.000000  celldm(6)=   0.000000

     crystal axes: (cart. coord. in units of alat)
               a(1) = (   1.000000   0.000000   0.000000 )
               a(2) = (  -0.500000   0.866025   0.000000 )
               a(3) = (   0.000000   0.000000   2.429136 )

     reciprocal axes: (cart. coord. in units 2 pi/alat)
               b(1) = (  1.000000  0.577350  0.000000 )
               b(2) = (  0.000000  1.154701  0.000000 )
               b(3) = (  0.000000  0.000000  0.411669 )

     PseudoPot. # 1 for In read from file:
     /home/pragov/projects/rrg-bengioy-ad/pragov/crystal_structure_design/SSSP/In.pbe-dn-rrkjus_psl.0.2.2.UPF
     MD5 check sum: 25e7c42c3b55b68f4bf926be2e7201a4
     Pseudo is Ultrasoft + core correction, Zval = 13.0
     Generated using "atomic" code by A. Dal Corso  v.5.0.99 svn rev. 10869
     Using radial grid of 1241 points,  6 beta functions with:
                l(1) =   0
                l(2) =   0
                l(3) =   1
                l(4) =   1
                l(5) =   2
                l(6) =   2
     Q(r) pseudized with 0 coefficients

     PseudoPot. # 2 for Sb read from file:
     /home/pragov/projects/rrg-bengioy-ad/pragov/crystal_structure_design/SSSP/sb_pbe_v1.4.uspp.F.UPF
     MD5 check sum: 9bc50dfb53373b713f5709b9110fe27f
     Pseudo is Ultrasoft + core correction, Zval = 15.0
     Generated by new atomic code, or converted to UPF format
     Using radial grid of  891 points,  6 beta functions with:
                l(1) =   0
                l(2) =   0
                l(3) =   1
                l(4) =   1
                l(5) =   2
                l(6) =   2
     Q(r) pseudized with  8 coefficients,  rinner =    1.350   1.350   1.350
                                                       1.350   1.350

     PseudoPot. # 3 for Te read from file:
     /home/pragov/projects/rrg-bengioy-ad/pragov/crystal_structure_design/SSSP/Te_pbe_v1.uspp.F.UPF
     MD5 check sum: c319670d6894cc26e93307826a071b75
     Pseudo is Ultrasoft + core correction, Zval =  6.0
     Generated by new atomic code, or converted to UPF format
     Using radial grid of  891 points,  5 beta functions with:
                l(1) =   0
                l(2) =   0
                l(3) =   1
                l(4) =   1
                l(5) =   2
     Q(r) pseudized with  6 coefficients,  rinner =    1.800   1.800   1.800
                                                       1.800   1.800

     atomic species   valence    mass     pseudopotential
        In            13.00   114.81800     In( 1.00)
        Sb            15.00   121.76000     Sb( 1.00)
        Te             6.00   127.60000     Te( 1.00)

     12 Sym. Ops., with inversion, found

                                    s                        frac. trans.

      isym =  1     identity

 cryst.   s( 1) = (     1          0          0      )
                  (     0          1          0      )
                  (     0          0          1      )

 cart.    s( 1) = (  1.0000000  0.0000000  0.0000000 )
                  (  0.0000000  1.0000000  0.0000000 )
                  (  0.0000000  0.0000000  1.0000000 )

      isym =  2     180 deg rotation - cart. axis [1,0,0]

[...]

      isym =  3     120 deg rotation - cryst. axis [0,0,1]

[...]

      isym =  6     180 deg rotation - cryst. axis [1,1,0]

[...]

      isym =  7     inversion

[...]

      isym =  8     inv. 180 deg rotation - cart. axis [1,0,0]

[...]

      isym =  9     inv. 120 deg rotation - cryst. axis [0,0,1]

 cryst.   s( 9) = (     0         -1          0      )
                  (     1          1          0      )
                  (     0          0         -1      )

 cart.    s( 9) = (  0.5000001  0.8660254  0.0000000 )
                  ( -0.8660254  0.4999999  0.0000000 )
                  (  0.0000000  0.0000000 -1.0000000 )

[...]

 cryst.   s(10) = (     1          1          0      )
                  (    -1          0          0      )
                  (     0          0         -1      )

 cart.    s(10) = (  0.4999999 -0.8660254  0.0000000 )
                  (  0.8660254  0.5000001  0.0000000 )
                  (  0.0000000  0.0000000 -1.0000000 )

[...]

      isym = 12     inv. 180 deg rotation - cryst. axis [1,1,0]

 cryst.   s(12) = (     0         -1          0      )
                  (    -1          0          0      )
                  (     0          0          1      )

 cart.    s(12) = (  0.5000001 -0.8660254  0.0000000 )
                  ( -0.8660254 -0.5000001  0.0000000 )
                  (  0.0000000  0.0000000  1.0000000 )

   Cartesian axes

     site n.     atom                  positions (alat units)
         1           In  tau(   1) = (   0.0000000   0.0000000   1.2145679  )
         2           In  tau(   2) = (  -0.0000005   0.5773505   0.3811946  )
         3           In  tau(   3) = (   0.5000005   0.2886748   2.0479412  )
         4           Sb  tau(   4) = (   0.0000000   0.0000000   0.0000000  )
         5           Te  tau(   5) = (  -0.0000005   0.5773505   1.6316165  )
         6           Te  tau(   6) = (   0.5000005   0.2886748   0.7975193  )

   Crystallographic axes

     site n.     atom                  positions (cryst. coord.)
         1           In  tau(   1) = (  0.0000000  0.0000000  0.5000000  )
         2           In  tau(   2) = (  0.3333330  0.6666670  0.1569260  )
         3           In  tau(   3) = (  0.6666670  0.3333330  0.8430740  )
         4           Sb  tau(   4) = (  0.0000000  0.0000000  0.0000000  )
         5           Te  tau(   5) = (  0.3333330  0.6666670  0.6716860  )
         6           Te  tau(   6) = (  0.6666670  0.3333330  0.3283140  )

     number of k points=     1  Methfessel-Paxton smearing, width (Ry)=  0.0010
                       cart. coord. in units 2pi/alat
        k(    1) = (   0.0000000   0.0000000   0.0000000), wk =   2.0000000

                       cryst. coord.
        k(    1) = (   0.0000000   0.0000000   0.0000000), wk =   2.0000000

     Check: negative core charge=   -0.000001

     Initial potential from superposition of free atoms

     starting charge      64.9884, renormalised to      66.0000
     Starting wfcs are   44 randomized atomic wfcs

     Self-consistent Calculation

     iteration #  1     ecut=    30.00 Ry     beta= 0.70
     Davidson diagonalization with overlap

     ethr =  1.00E-02,  avg # of iterations =  3.0

     total energy              =    -664.68915311 Ry
     estimated scf accuracy    <       8.64323757 Ry

[...]

     total energy              =    -671.14050312 Ry
     estimated scf accuracy    <       0.00000118 Ry

     iteration # 17     ecut=    30.00 Ry     beta= 0.70
     Davidson diagonalization with overlap

     ethr =  1.79E-09,  avg # of iterations =  2.0

     End of self-consistent calculation

          k = 0.0000 0.0000 0.0000 (  1719 PWs)   bands (ev):

   -19.3211 -19.2031 -19.2028 -18.9041 -18.9041  -7.1017  -7.0874  -7.0873
    -7.0739  -7.0738  -6.9547  -6.9511  -6.9250  -6.9249  -6.9242  -6.9242
    -6.8763  -6.8763  -6.8725  -6.8725  -3.2361  -2.5483  -1.5392   2.5292
     2.5944   6.4677   7.3737   7.3738   7.4410   7.5044   7.5045   8.3015
     8.3018   9.6112   9.6843  10.7441  10.7442  10.8555  10.8555  10.9899

     occupation numbers
     1.0000   1.0000   1.0000   1.0000   1.0000   1.0000   1.0000   1.0000
     1.0000   1.0000   1.0000   1.0000   1.0000   1.0000   1.0000   1.0000
     1.0000   1.0000   1.0000   1.0000   1.0000   1.0000   1.0000   1.0000
     1.0000   1.0000   1.0000   1.0000   1.0000   1.0000   1.0000   1.0000
     1.0000  -0.0000  -0.0000  -0.0000  -0.0000  -0.0000  -0.0000  -0.0000

     the Fermi energy is     9.2145 ev

!    total energy              =    -671.14050325 Ry
     estimated scf accuracy    <       0.00000011 Ry
     smearing contrib. (-TS)   =       0.00000000 Ry
     internal energy E=F+TS    =    -671.14050325 Ry

     The total energy is F=E-TS. E is the sum of the following terms:
     one-electron contribution =    -302.20949660 Ry
     hartree contribution      =     199.12185722 Ry
     xc contribution           =    -216.39891346 Ry
     ewald contribution        =    -351.65395042 Ry

     convergence has been achieved in  17 iterations

     Forces acting on atoms (cartesian axes, Ry/au):

     atom    1 type  1   force =     0.00000000    0.00000000    0.00000000
     atom    2 type  1   force =     0.00000000    0.00000000    0.00680149
     atom    3 type  1   force =     0.00000000    0.00000000   -0.00680149
     atom    4 type  2   force =     0.00000000    0.00000000    0.00000000
     atom    5 type  3   force =     0.00000000    0.00000000    0.00825267
     atom    6 type  3   force =     0.00000000    0.00000000   -0.00825267
     The non-local contrib.  to forces
     atom    1 type  1   force =    -0.00000000    0.00000000    0.00000000
     atom    2 type  1   force =     0.00000000   -0.00000000    0.00933707
     atom    3 type  1   force =     0.00000000    0.00000000   -0.00933707
     atom    4 type  2   force =     0.00000000    0.00000000    0.00000000
     atom    5 type  3   force =     0.00000000    0.00000000    0.03132278
     atom    6 type  3   force =     0.00000000    0.00000000   -0.03132278
     The ionic contribution  to forces
     atom    1 type  1   force =    -0.00000000    0.00000000    0.00000000
     atom    2 type  1   force =     0.00001729   -0.00000998   15.26601433
     atom    3 type  1   force =    -0.00001729    0.00000998  -15.26601433
     atom    4 type  2   force =    -0.00000000    0.00000000   -0.00000000
     atom    5 type  3   force =     0.00000996   -0.00000575   -4.43676497
     atom    6 type  3   force =    -0.00000996    0.00000575    4.43676497
     The local contribution  to forces
     atom    1 type  1   force =    -0.00000875    0.00001133   -0.00020421
     atom    2 type  1   force =    -0.00007639   -0.00004255  -15.26258163
     atom    3 type  1   force =     0.00010621    0.00000995   15.26291709
     atom    4 type  2   force =     0.00003608    0.00014387    0.00033456
     atom    5 type  3   force =    -0.00000236    0.00001241    4.40923293
     atom    6 type  3   force =    -0.00000410   -0.00001489   -4.40935510
     The core correction contribution to forces
     atom    1 type  1   force =     0.00000018    0.00000070    0.00000112
     atom    2 type  1   force =    -0.00000586   -0.00000352   -0.00560928
     atom    3 type  1   force =     0.00000814    0.00000437    0.00561437
     atom    4 type  2   force =    -0.00000031    0.00000490    0.00000305
     atom    5 type  3   force =    -0.00000153   -0.00000096    0.00404346
     atom    6 type  3   force =     0.00000270    0.00000144   -0.00403928
     The Hubbard contrib.    to forces
     atom    1 type  1   force =     0.00000000    0.00000000    0.00000000
     atom    2 type  1   force =     0.00000000    0.00000000    0.00000000
     atom    3 type  1   force =     0.00000000    0.00000000    0.00000000
     atom    4 type  2   force =     0.00000000    0.00000000    0.00000000
     atom    5 type  3   force =     0.00000000    0.00000000    0.00000000
     atom    6 type  3   force =     0.00000000    0.00000000    0.00000000
     The SCF correction term to forces
     atom    1 type  1   force =     0.00000450   -0.00001105    0.00020210
     atom    2 type  1   force =     0.00013371    0.00008198   -0.00037146
     atom    3 type  1   force =    -0.00019321   -0.00005296    0.00000600
     atom    4 type  2   force =    -0.00003953   -0.00015208   -0.00032923
     atom    5 type  3   force =     0.00001023    0.00000511    0.00039344
     atom    6 type  3   force =    -0.00001327   -0.00000814   -0.00032550

     Total force =     0.015124     Total SCF correction =     0.000799

     Computing stress (Cartesian axis) and pressure

          total   stress  (Ry/bohr**3)                   (kbar)     P=      195.88
   0.00162470   0.00000000   0.00000000          239.00        0.00        0.00
   0.00000000   0.00162470   0.00000000            0.00      239.00        0.00
   0.00000000   0.00000000   0.00074525            0.00        0.00      109.63

     kinetic stress (kbar)  10705.88      0.00      0.00
                                0.00  10705.88      0.00
                                0.00      0.00  10376.78

     local   stress (kbar)  -4033.87      0.01     -0.02
                                0.01  -4033.85     -0.01
                               -0.02     -0.01   9114.06

     nonloc. stress (kbar)   -467.43     -0.00      0.00
                               -0.00   -467.43      0.00
                               -0.00     -0.00   -375.31

     hartree stress (kbar)  10064.11     -0.01      0.01
                               -0.01  10064.10      0.00
                                0.01      0.00   3635.62

     exc-cor stress (kbar)  11608.30      0.00      0.00
                                0.00  11608.30      0.00
                                0.00      0.00  11601.83

     corecor stress (kbar) -15859.16     -0.00     -0.00
                               -0.00 -15859.16      0.00
                               -0.00      0.00 -15833.53

     ewald   stress (kbar) -11778.83     -0.01      0.00
                               -0.01 -11778.84     -0.00
                                0.00     -0.00 -18409.82

     hubbard stress (kbar)      0.00      0.00      0.00
                                0.00      0.00      0.00
                                0.00      0.00      0.00

     DFT-D   stress (kbar)      0.00      0.00      0.00
                                0.00      0.00      0.00
                                0.00      0.00      0.00

     XDM     stress (kbar)      0.00      0.00      0.00
                                0.00      0.00      0.00
                                0.00      0.00      0.00

     dft-nl  stress (kbar)      0.00      0.00      0.00
                                0.00      0.00      0.00
                                0.00      0.00      0.00

     TS-vdW  stress (kbar)      0.00      0.00      0.00
                                0.00      0.00      0.00
                                0.00      0.00      0.00

[...]

                                0.00      0.00      0.00

     Writing all to output data dir new_calculations/myprefix.save/

     General routines

     Parallel routines

   This run was terminated on:   0:19: 7  21May2023

   JOB DONE.