     Program PWSCF v.7.0 starts on 20May2023 at 14:27: 3

     Reading input from espresso_8542.pwi
Warning: card &CELL ignored
Warning: card / ignored

     Current dimensions of program PWSCF are:
     Max number of different atomic species (ntypx) = 10
     Max number of k-points (npk) =  40000
     Max angular momentum in pseudopotentials (lmaxx) =  4
     file O.pbe-n-kjpaw_psl.0.1.UPF: wavefunction(s)  2P renormalized

     gamma-point specific algorithms are used
     Message from routine setup:
     using ibrav=0 with symmetry is DISCOURAGED, use correct ibrav instead

     Subspace diagonalization in iterative solution of the eigenvalue problem:
     a serial algorithm will be used

     Using Slab Decomposition

     bravais-lattice index     =            0
     lattice parameter (alat)  =      11.4973  a.u.
     unit-cell volume          =    1153.2657 (a.u.)^3
     number of atoms/cell      =           12
     number of atomic types    =            3
     number of electrons       =        96.00
     number of Kohn-Sham states=           58
     kinetic-energy cutoff     =      30.0000  Ry
     charge density cutoff     =     240.0000  Ry
     scf convergence threshold =      1.0E-06
     mixing beta               =       0.7000
     number of iterations used =            8  plain     mixing
     Exchange-correlation= SLA  PW   PBX  PBC
                           (   1   4   3   4   0   0   0)

     celldm(1)=  11.497281  celldm(2)=   0.000000  celldm(3)=   0.000000
     celldm(4)=   0.000000  celldm(5)=   0.000000  celldm(6)=   0.000000

     crystal axes: (cart. coord. in units of alat)
               a(1) = (   1.000000   0.000000   0.000000 )
               a(2) = (  -0.458952   0.888461   0.000000 )
               a(3) = (  -0.270524  -0.444231   0.854094 )

     reciprocal axes: (cart. coord. in units 2 pi/alat)
               b(1) = (  1.000000  0.516570  0.585416 )
               b(2) = (  0.000000  1.125542  0.585416 )
               b(3) = (  0.000000  0.000000  1.170832 )

     PseudoPot. # 1 for Ca read from file:
     /home/pragov/projects/rrg-bengioy-ad/pragov/crystal_structure_design/SSSP/Ca_pbe_v1.uspp.F.UPF
     MD5 check sum: 403a4c14b9e4d4dfdc3024c9a3812218
     Pseudo is Ultrasoft + core correction, Zval = 10.0
     Generated by new atomic code, or converted to UPF format
     Using radial grid of  845 points,  6 beta functions with:
                l(1) =   0
                l(2) =   0
                l(3) =   1
                l(4) =   1
                l(5) =   2
                l(6) =   2
     Q(r) pseudized with  8 coefficients,  rinner =    1.500   1.500   1.500
                                                       1.500   1.500

     PseudoPot. # 2 for Cr read from file:
     /home/pragov/projects/rrg-bengioy-ad/pragov/crystal_structure_design/SSSP/cr_pbe_v1.5.uspp.F.UPF
     MD5 check sum: 0d52af634a40206e4dee301ad30da4bf
     Pseudo is Ultrasoft + core correction, Zval = 14.0
     Generated by new atomic code, or converted to UPF format
     Using radial grid of  857 points,  6 beta functions with:
                l(1) =   0
                l(2) =   0
                l(3) =   1
                l(4) =   1
                l(5) =   2
                l(6) =   2
     Q(r) pseudized with  8 coefficients,  rinner =    0.950   0.950   0.950
                                                       0.950   0.950

     PseudoPot. # 3 for O  read from file:
     /home/pragov/projects/rrg-bengioy-ad/pragov/crystal_structure_design/SSSP/O.pbe-n-kjpaw_psl.0.1.UPF
     MD5 check sum: 0234752ac141de4415c5fc33072bef88
     Pseudo is Projector augmented-wave + core cor, Zval =  6.0
     Generated using "atomic" code by A. Dal Corso  v.5.0.99 svn rev. 10869
     Shape of augmentation charge: BESSEL
     Using radial grid of 1095 points,  4 beta functions with:
                l(1) =   0
                l(2) =   0
                l(3) =   1
                l(4) =   1
     Q(r) pseudized with 0 coefficients

     atomic species   valence    mass     pseudopotential
        Ca            10.00    40.07800     Ca( 1.00)
        Cr            14.00    51.99610     Cr( 1.00)
        O              6.00    15.99900     O ( 1.00)

      4 Sym. Ops., with inversion, found ( 2 have fractional translation)

                                    s                        frac. trans.

      isym =  1     identity

 cryst.   s( 1) = (     1          0          0      )
                  (     0          1          0      )
                  (     0          0          1      )

 cart.    s( 1) = (  1.0000000  0.0000000 -0.0000000 )
                  (  0.0000000  1.0000000 -0.0000000 )
                  (  0.0000000  0.0000000  1.0000000 )

      isym =  2     180 deg rotation - cart. axis [0,0,1]

 cryst.   s( 2) = (    -1          0          0      )
                  (     0         -1          0      )
                  (     1          1          1      )

 cart.    s( 2) = ( -1.0000000 -0.0000000  0.0000000 )
                  (  0.0000000 -1.0000000  0.0000000 )
                  (  0.0000000  0.0000000  1.0000000 )

      isym =  3     inversion

 cryst.   s( 3) = (    -1          0          0      )    f =( -0.2500000 )
                  (     0         -1          0      )       (  0.2500000 )
                  (     0          0         -1      )       (  0.5000000 )

 cart.    s( 3) = ( -1.0000000 -0.0000000  0.0000000 )    f =( -0.5000000 )
                  (  0.0000000 -1.0000000  0.0000000 )       (  0.0000000 )
                  (  0.0000000  0.0000000 -1.0000000 )       (  0.4270468 )

      isym =  4     inv. 180 deg rotation - cart. axis [0,0,1]

 cryst.   s( 4) = (     1          0          0      )    f =( -0.2500000 )
                  (     0          1          0      )       (  0.2500000 )
                  (    -1         -1         -1      )       (  0.5000000 )

 cart.    s( 4) = (  1.0000000  0.0000000 -0.0000000 )    f =( -0.5000000 )
                  (  0.0000000  1.0000000 -0.0000000 )       (  0.0000000 )
                  (  0.0000000  0.0000000 -1.0000000 )       (  0.4270468 )

   Cartesian axes

     site n.     atom                  positions (alat units)
         1           Ca  tau(   1) = (  -0.2294760   0.4442305   0.4270468  )
         2           Ca  tau(   2) = (   0.0000000   0.0000000   0.0000000  )
         3           Cr  tau(   3) = (   0.2705240   0.4442305   0.0000000  )
         4           Cr  tau(   4) = (   0.5000000   0.0000000   0.4270468  )
         5           O   tau(   5) = (   0.7178980   0.0629701   0.2736935  )
         6           O   tau(   6) = (   0.4884221   0.5072007   0.1533534  )
         7           O   tau(   7) = (  -0.0440582   0.2224942   0.7007403  )
         8           O   tau(   8) = (   0.4559418   0.2224942   0.5804002  )
         9           O   tau(   9) = (   0.2821020  -0.0629701   0.2736935  )
        10           O   tau(  10) = (   0.0526260   0.3812604   0.1533534  )
        11           O   tau(  11) = (   0.0440582  -0.2224942   0.7007403  )
        12           O   tau(  12) = (   0.5440582  -0.2224942   0.5804002  )

   Crystallographic axes

     site n.     atom                  positions (cryst. coord.)
         1           Ca  tau(   1) = (  0.2500000  0.7500000  0.5000000  )
         2           Ca  tau(   2) = (  0.0000000  0.0000000  0.0000000  )
         3           Cr  tau(   3) = (  0.5000000  0.5000000  0.0000000  )
         4           Cr  tau(   4) = (  0.7500000  0.2500000  0.5000000  )
         5           O   tau(   5) = (  0.9106510  0.2311000  0.3204490  )
         6           O   tau(   6) = (  0.8402020  0.6606510  0.1795510  )
         7           O   tau(   7) = (  0.4811000  0.6606510  0.8204490  )
         8           O   tau(   8) = (  0.9106510  0.5902020  0.6795510  )
         9           O   tau(   9) = (  0.4097980  0.0893490  0.3204490  )
        10           O   tau(  10) = (  0.3393490  0.5189000  0.1795510  )
        11           O   tau(  11) = (  0.3393490  0.1597980  0.8204490  )
        12           O   tau(  12) = (  0.7689000  0.0893490  0.6795510  )

     number of k points=     1  Methfessel-Paxton smearing, width (Ry)=  0.0010
                       cart. coord. in units 2pi/alat
        k(    1) = (   0.0000000   0.0000000   0.0000000), wk =   2.0000000

                       cryst. coord.
        k(    1) = (   0.0000000   0.0000000   0.0000000), wk =   2.0000000

     Check: negative core charge=   -0.000016

     Initial potential from superposition of free atoms

     starting charge      93.9890, renormalised to      96.0000

     negative rho (up, down):  3.450E-03 0.000E+00
     Starting wfcs are   72 randomized atomic wfcs
     Checking if some PAW data can be deallocated...

     Self-consistent Calculation

     iteration #  1     ecut=    30.00 Ry     beta= 0.70
     Davidson diagonalization with overlap

     ethr =  1.00E-02,  avg # of iterations =  2.0

     negative rho (up, down):  5.969E-03 0.000E+00

     total energy              =    -831.33427810 Ry
     estimated scf accuracy    <       4.80977946 Ry

[...]

     total energy              =    -834.53016485 Ry
     estimated scf accuracy    <       0.00001067 Ry

     iteration # 11     ecut=    30.00 Ry     beta= 0.70
     Davidson diagonalization with overlap

     ethr =  1.11E-08,  avg # of iterations =  2.0

[...]

     End of self-consistent calculation

          k = 0.0000 0.0000 0.0000 (  1590 PWs)   bands (ev):

   -67.9130 -67.9121 -39.3574 -39.3552 -39.2648 -39.2648 -39.2638 -39.2638
   -33.6526 -33.6419 -14.8905 -14.8904 -14.8680 -14.7622 -14.6776 -14.6775
   -12.7827 -12.2869 -11.9314 -11.9313 -11.8703 -11.7942 -11.7860 -11.7858
     0.0919   0.3679   0.4361   0.4362   0.5925   0.8407   0.9479   0.9745
     0.9746   1.1208   1.6352   1.6899   1.6899   1.7757   2.0703   2.8596
     2.9482   2.9483   3.6552   3.6553   3.8088   4.0017   4.0018   4.1941
     6.3308   6.6783   7.1430   7.2375   7.8180   8.6315   8.6349   8.6349
     8.9502   8.9502

     occupation numbers
     1.0000   1.0000   1.0000   1.0000   1.0000   1.0000   1.0000   1.0000
     1.0000   1.0000   1.0000   1.0000   1.0000   1.0000   1.0000   1.0000
     1.0000   1.0000   1.0000   1.0000   1.0000   1.0000   1.0000   1.0000
     1.0000   1.0000   1.0000   1.0000   1.0000   1.0000   1.0000   1.0000
     1.0000   1.0000   1.0000   1.0000   1.0000   1.0000   1.0000   1.0000
     1.0000   1.0000   1.0000   1.0000   1.0000   1.0000   1.0000   1.0000
    -0.0000  -0.0000  -0.0000  -0.0000  -0.0000  -0.0000  -0.0000  -0.0000
    -0.0000  -0.0000

     the Fermi energy is     4.2653 ev

!    total energy              =    -834.53016632 Ry
     estimated scf accuracy    <       0.00000041 Ry
     smearing contrib. (-TS)   =       0.00000000 Ry
     internal energy E=F+TS    =    -834.53016632 Ry

     The total energy is F=E-TS. E is the sum of the following terms:
     one-electron contribution =    -452.59393180 Ry
     hartree contribution      =     261.57567452 Ry
     xc contribution           =    -127.49466736 Ry
     ewald contribution        =    -439.78154662 Ry
     one-center paw contrib.   =     -76.23569506 Ry
      -> PAW hartree energy AE =     235.02769244 Ry
      -> PAW hartree energy PS =    -234.23181218 Ry
      -> PAW xc energy AE      =    -137.07529434 Ry
      -> PAW xc energy PS      =      60.04371903 Ry
      -> total E_H with PAW    =     262.37155478 Ry
      -> total E_XC with PAW   =    -204.52624268 Ry

     convergence has been achieved in  11 iterations

     negative rho (up, down):  4.612E-03 0.000E+00

     Forces acting on atoms (cartesian axes, Ry/au):

     atom    1 type  1   force =     0.00000000    0.00000000    0.00000523
     atom    2 type  1   force =     0.00000000    0.00000000   -0.00000523
     atom    3 type  2   force =     0.00000000    0.00000000    0.00000147
     atom    4 type  2   force =     0.00000000    0.00000000   -0.00000147
     atom    5 type  3   force =    -0.02525450   -0.00439600    0.01928186
     atom    6 type  3   force =    -0.02525450   -0.00439600   -0.01928186
     atom    7 type  3   force =     0.00768022   -0.02445367    0.01927988
     atom    8 type  3   force =     0.00768022   -0.02445367   -0.01927988
     atom    9 type  3   force =     0.02525450    0.00439600    0.01928186
     atom   10 type  3   force =     0.02525450    0.00439600   -0.01928186
     atom   11 type  3   force =    -0.00768022    0.02445367    0.01927988
     atom   12 type  3   force =    -0.00768022    0.02445367   -0.01927988
     The non-local contrib.  to forces
     atom    1 type  1   force =     0.00000000    0.00000000    0.00001361
     atom    2 type  1   force =     0.00000000    0.00000000   -0.00001361
     atom    3 type  2   force =     0.00000000    0.00000000    0.00000308
     atom    4 type  2   force =     0.00000000    0.00000000   -0.00000308
     atom    5 type  3   force =    -0.68120328   -0.15409456    0.50166313
     atom    6 type  3   force =    -0.68120328   -0.15409456   -0.50166313
     atom    7 type  3   force =     0.17572111   -0.67594608    0.50165598
     atom    8 type  3   force =     0.17572111   -0.67594608   -0.50165598
     atom    9 type  3   force =     0.68120328    0.15409456    0.50166313
     atom   10 type  3   force =     0.68120328    0.15409456   -0.50166313
     atom   11 type  3   force =    -0.17572111    0.67594608    0.50165598
     atom   12 type  3   force =    -0.17572111    0.67594608   -0.50165598
     The ionic contribution  to forces
     atom    1 type  1   force =    -0.00000000   -0.00000000   -0.00000000
     atom    2 type  1   force =    -0.00000000   -0.00000000    0.00000000
     atom    3 type  2   force =     0.00000000    0.00000000    0.00000000
     atom    4 type  2   force =     0.00000000    0.00000000   -0.00000000
     atom    5 type  3   force =    10.07250581    2.19657826   -7.46038078
     atom    6 type  3   force =    10.07250581    2.19657826    7.46038078
     atom    7 type  3   force =    -2.67122207    9.95715331   -7.46038078
     atom    8 type  3   force =    -2.67122207    9.95715331    7.46038078
     atom    9 type  3   force =   -10.07250581   -2.19657826   -7.46038078
     atom   10 type  3   force =   -10.07250581   -2.19657826    7.46038078
     atom   11 type  3   force =     2.67122207   -9.95715331   -7.46038078
     atom   12 type  3   force =     2.67122207   -9.95715331    7.46038078
     The local contribution  to forces
     atom    1 type  1   force =    -0.00044701    0.00040727    0.00002682
     atom    2 type  1   force =     0.00051719   -0.00003077   -0.00005293
     atom    3 type  2   force =     0.00085294   -0.00104714   -0.00036501
     atom    4 type  2   force =    -0.00024388    0.00012692   -0.00013458
     atom    5 type  3   force =    -9.42185784   -2.04814757    6.98193510
     atom    6 type  3   force =    -9.42166835   -2.04822835   -6.98175304
     atom    7 type  3   force =     2.50449071   -9.31103589    6.98182485
     atom    8 type  3   force =     2.50443758   -9.31090407   -6.98184606
     atom    9 type  3   force =     9.42184670    2.04822367    6.98186520
     atom   10 type  3   force =     9.42193730    2.04809561   -6.98187999
     atom   11 type  3   force =    -2.50437964    9.31072779    6.98171834
     atom   12 type  3   force =    -2.50446883    9.31107514   -6.98190167
     The core correction contribution to forces
     atom    1 type  1   force =    -0.00000364    0.00000445   -0.00000072
     atom    2 type  1   force =     0.00000493    0.00000000    0.00000007
     atom    3 type  2   force =     0.00000913   -0.00001137   -0.00000370
     atom    4 type  2   force =    -0.00000139    0.00000106   -0.00000228
     atom    5 type  3   force =     0.00524388    0.00130692   -0.00379854
     atom    6 type  3   force =     0.00524281    0.00130638    0.00379772
     atom    7 type  3   force =    -0.00124474    0.00525866   -0.00379874
     atom    8 type  3   force =    -0.00124555    0.00525796    0.00379847
     atom    9 type  3   force =    -0.00524234   -0.00130601   -0.00379829
     atom   10 type  3   force =    -0.00524297   -0.00130749    0.00379859
     atom   11 type  3   force =     0.00124511   -0.00525716   -0.00379727
     atom   12 type  3   force =     0.00124524   -0.00525794    0.00379847
     The Hubbard contrib.    to forces
     atom    1 type  1   force =     0.00000000    0.00000000    0.00000000
     atom    2 type  1   force =     0.00000000    0.00000000    0.00000000
     atom    3 type  2   force =     0.00000000    0.00000000    0.00000000
     atom    4 type  2   force =     0.00000000    0.00000000    0.00000000
     atom    5 type  3   force =     0.00000000    0.00000000    0.00000000
     atom    6 type  3   force =     0.00000000    0.00000000    0.00000000
     atom    7 type  3   force =     0.00000000    0.00000000    0.00000000
     atom    8 type  3   force =     0.00000000    0.00000000    0.00000000
     atom    9 type  3   force =     0.00000000    0.00000000    0.00000000
     atom   10 type  3   force =     0.00000000    0.00000000    0.00000000
     atom   11 type  3   force =     0.00000000    0.00000000    0.00000000
     atom   12 type  3   force =     0.00000000    0.00000000    0.00000000
     The SCF correction term to forces
     atom    1 type  1   force =     0.00044090   -0.00041212   -0.00003914
     atom    2 type  1   force =    -0.00054295    0.00003338    0.00005659
     atom    3 type  2   force =    -0.00074015    0.00093550    0.00035023
     atom    4 type  2   force =     0.00017146   -0.00009952    0.00012161
     atom    5 type  3   force =     0.00011335   -0.00001788   -0.00015612
     atom    6 type  3   force =    -0.00014364    0.00003352   -0.00007374
     atom    7 type  3   force =    -0.00003293    0.00011026   -0.00000325
     atom    8 type  3   force =    -0.00002697   -0.00001708    0.00006291
     atom    9 type  3   force =    -0.00004604   -0.00001326   -0.00008689
     atom   10 type  3   force =    -0.00009433    0.00007930    0.00007289
     atom   11 type  3   force =    -0.00002514    0.00019364    0.00008761
     atom   12 type  3   force =     0.00003663   -0.00016801    0.00010070

     Total force =     0.090721     Total SCF correction =     0.001570

     Computing stress (Cartesian axis) and pressure

     negative rho (up, down):  4.612E-03 0.000E+00
          total   stress  (Ry/bohr**3)                   (kbar)     P=     -396.16
  -0.00270322   0.00007277   0.00000000         -397.66       10.70        0.00
   0.00007277  -0.00262815   0.00000000           10.70     -386.61        0.00
   0.00000000   0.00000000  -0.00274765            0.00        0.00     -404.19

     kinetic stress (kbar)  21802.42    -89.40     -0.00
                              -89.40  21710.05     -0.00
                               -0.00     -0.00  21856.85

     local   stress (kbar) -13691.98  -7322.88     -0.02
                            -7322.88 -21257.58     -0.14
                               -0.02     -0.14  -9232.56

     nonloc. stress (kbar)   5195.87      5.58     -0.00
                                5.58   5201.63     -0.00
                               -0.00     -0.00   5192.47

     hartree stress (kbar)  10718.38   2852.99      0.03
                             2852.99  13665.96      0.15
                                0.03      0.15   8981.00

     exc-cor stress (kbar)  -3560.99      3.78     -0.00
                                3.78  -3557.09     -0.00
                               -0.00     -0.00  -3563.29

     corecor stress (kbar)  -1517.74      0.10      0.00
                                0.10  -1517.64      0.00
                                0.00      0.00  -1517.80

     ewald   stress (kbar) -19343.62   4560.54      0.00
                             4560.54 -14631.95     -0.00
                                0.00     -0.00 -22120.86

     hubbard stress (kbar)      0.00      0.00      0.00
                                0.00      0.00      0.00
                                0.00      0.00      0.00

     DFT-D   stress (kbar)      0.00      0.00      0.00
                                0.00      0.00      0.00
                                0.00      0.00      0.00

     XDM     stress (kbar)      0.00      0.00      0.00
                                0.00      0.00      0.00
                                0.00      0.00      0.00

     dft-nl  stress (kbar)      0.00      0.00      0.00
                                0.00      0.00      0.00
                                0.00      0.00      0.00

     TS-vdW  stress (kbar)      0.00      0.00      0.00
                                0.00      0.00      0.00
                                0.00      0.00      0.00

[...]

                                0.00      0.00      0.00

     Writing all to output data dir new_calculations/myprefix.save/

     General routines

     Parallel routines

     PAW routines

   This run was terminated on:  14:27:18  20May2023

   JOB DONE.