     Program PWSCF v.7.0 starts on 21May2023 at  3:21:44

     Reading input from espresso_22435.pwi
Warning: card &CELL ignored
Warning: card / ignored

     Current dimensions of program PWSCF are:
     Max number of different atomic species (ntypx) = 10
     Max number of k-points (npk) =  40000
     Max angular momentum in pseudopotentials (lmaxx) =  4

     gamma-point specific algorithms are used
     Message from routine setup:
     using ibrav=0 with symmetry is DISCOURAGED, use correct ibrav instead

     Subspace diagonalization in iterative solution of the eigenvalue problem:
     a serial algorithm will be used

     Using Slab Decomposition

     bravais-lattice index     =            0
     lattice parameter (alat)  =      17.9602  a.u.
     unit-cell volume          =    2135.3379 (a.u.)^3
     number of atoms/cell      =           16
     number of atomic types    =            3
     number of electrons       =       272.00
     number of Kohn-Sham states=          163
     kinetic-energy cutoff     =      30.0000  Ry
     charge density cutoff     =     240.0000  Ry
     scf convergence threshold =      1.0E-06
     mixing beta               =       0.7000
     number of iterations used =            8  plain     mixing
     Exchange-correlation=  SLA  PW   PBX  PBC
                           (   1   4   3   4   0   0   0)

     celldm(1)=  17.960225  celldm(2)=   0.000000  celldm(3)=   0.000000
     celldm(4)=   0.000000  celldm(5)=   0.000000  celldm(6)=   0.000000

     crystal axes: (cart. coord. in units of alat)
               a(1) = (   1.000000   0.000000   0.000000 )
               a(2) = (   0.452986   0.891518   0.000000 )
               a(3) = (  -0.558990  -0.718753   0.413429 )

     reciprocal axes: (cart. coord. in units 2 pi/alat)
               b(1) = (  1.000000 -0.508107  0.468731 )
               b(2) = (  0.000000  1.121683  1.950062 )
               b(3) = (  0.000000  0.000000  2.418792 )

     PseudoPot. # 1 for Yb read from file:
     /home/pragov/projects/rrg-bengioy-ad/pragov/crystal_structure_design/SSSP/Yb.GGA-PBE-paw-v1.0.UPF
     MD5 check sum: 43b6465ad8021f06e3edb42ae292e187
     Pseudo is Projector augmented-wave + core cor, Zval = 24.0
     Generated using ATOMPAW code
     Shape of augmentation charge: BESSEL
     Using radial grid of 1117 points,  8 beta functions with:
                l(1) =   0
                l(2) =   0
                l(3) =   1
                l(4) =   1
                l(5) =   2
                l(6) =   2
                l(7) =   3
                l(8) =   3
     Q(r) pseudized with 0 coefficients

     PseudoPot. # 2 for Ge read from file:
     /home/pragov/projects/rrg-bengioy-ad/pragov/crystal_structure_design/SSSP/ge_pbe_v1.4.uspp.F.UPF
     MD5 check sum: 9c9eaa91e581c3f09632fb3098b2c6b2
     Pseudo is Ultrasoft + core correction, Zval = 14.0
     Generated by new atomic code, or converted to UPF format
     Using radial grid of  873 points,  6 beta functions with:
                l(1) =   0
                l(2) =   0
                l(3) =   1
                l(4) =   1
                l(5) =   2
                l(6) =   2
     Q(r) pseudized with  8 coefficients,  rinner =    1.400   1.400   1.400
                                                       1.400   1.400

     PseudoPot. # 3 for Pt read from file:
     /home/pragov/projects/rrg-bengioy-ad/pragov/crystal_structure_design/SSSP/pt_pbe_v1.4.uspp.F.UPF
     MD5 check sum: f09d6de1a584b5a045c4fc126da2d0c4
     Pseudo is Ultrasoft + core correction, Zval = 16.0
     Generated by new atomic code, or converted to UPF format
     Using radial grid of  985 points,  6 beta functions with:
                l(1) =   0
                l(2) =   0
                l(3) =   1
                l(4) =   1
                l(5) =   2
                l(6) =   2
     Q(r) pseudized with  8 coefficients,  rinner =    1.300   1.300   1.300
                                                       1.300   1.300

     atomic species   valence    mass     pseudopotential
        Yb            24.00   173.05400     Yb( 1.00)
        Ge            14.00    72.63000     Ge( 1.00)
        Pt            16.00   195.08400     Pt( 1.00)

      2 Sym. Ops., with inversion, found

                                    s                        frac. trans.

      isym =  1     identity

 cryst.   s( 1) = (     1          0          0      )
                  (     0          1          0      )
                  (     0          0          1      )

 cart.    s( 1) = (  1.0000000 -0.0000000 -0.0000000 )
                  (  0.0000000  1.0000000 -0.0000000 )
                  (  0.0000000  0.0000000  1.0000000 )

      isym =  2     inversion

 cryst.   s( 2) = (    -1          0          0      )
                  (     0         -1          0      )
                  (     0          0         -1      )

 cart.    s( 2) = ( -1.0000000  0.0000000  0.0000000 )
                  (  0.0000000 -1.0000000  0.0000000 )
                  (  0.0000000  0.0000000 -1.0000000 )

   Cartesian axes

     site n.     atom                  positions (alat units)
         1           Yb  tau(   1) = (   0.1142744  -0.1862433   0.1071278  )
         2           Yb  tau(   2) = (   0.3267352  -0.5325097   0.3063016  )
         3           Yb  tau(   3) = (   0.3785421   0.3511674   0.2067147  )
         4           Yb  tau(   4) = (   0.5154537  -0.1784029   0.2067147  )
         5           Ge  tau(   5) = (   0.8347634   0.0175179   0.2067147  )
         6           Ge  tau(   6) = (   0.0592324   0.1552467   0.2067147  )
         7           Ge  tau(   7) = (   0.6179957   0.3791874   0.0000000  )
         8           Ge  tau(   8) = (   0.8349905   0.5123302   0.0000000  )
         9           Ge  tau(   9) = (  -0.3347180  -0.4347889   0.3522700  )
        10           Ge  tau(  10) = (   1.2287138   0.6075534   0.0611594  )
        11           Ge  tau(  11) = (   0.3547513   0.0713110   0.0611594  )
        12           Ge  tau(  12) = (   0.5392445   0.1014536   0.3522700  )
        13           Pt  tau(  13) = (  -0.1561581  -0.2258187   0.3107286  )
        14           Pt  tau(  14) = (   1.0501539   0.3985832   0.1027008  )
        15           Pt  tau(  15) = (   0.6219375   0.1358406   0.1027008  )
        16           Pt  tau(  16) = (   0.2720583   0.0369240   0.3107286  )

   Crystallographic axes

     site n.     atom                  positions (cryst. coord.)
         1           Yb  tau(   1) = (  0.2591200 -0.0000000  0.2591200  )
         2           Yb  tau(   2) = (  0.7408800 -0.0000000  0.7408800  )
         3           Yb  tau(   3) = (  0.2970050  0.7970050  0.5000000  )
         4           Yb  tau(   4) = (  0.7029950  0.2029950  0.5000000  )
         5           Ge  tau(   5) = (  0.9227560  0.4227560  0.5000000  )
         6           Ge  tau(   6) = (  0.0772440  0.5772440  0.5000000  )
         7           Ge  tau(   7) = (  0.4253280  0.4253280  0.0000000  )
         8           Ge  tau(   8) = (  0.5746720  0.5746720  0.0000000  )
         9           Ge  tau(   9) = (  0.0513210  0.1992530  0.8520680  )
        10           Ge  tau(  10) = (  0.9486790  0.8007470  0.1479320  )
        11           Ge  tau(  11) = (  0.3471850  0.1992530  0.1479320  )
        12           Ge  tau(  12) = (  0.6528150  0.8007470  0.8520680  )
        13           Pt  tau(  13) = (  0.1042300  0.3526430  0.7515880  )
        14           Pt  tau(  14) = (  0.8957700  0.6473570  0.2484120  )
        15           Pt  tau(  15) = (  0.6010550  0.3526430  0.2484120  )
        16           Pt  tau(  16) = (  0.3989450  0.6473570  0.7515880  )

     number of k points=     1  Methfessel-Paxton smearing, width (Ry)=  0.0010
                       cart. coord. in units 2pi/alat
        k(    1) = (   0.0000000   0.0000000   0.0000000), wk =   2.0000000

                       cryst. coord.
        k(    1) = (   0.0000000   0.0000000   0.0000000), wk =   2.0000000

     Initial potential from superposition of free atoms

     starting charge     269.9769, renormalised to     272.0000

     negative rho (up, down):  7.391E-01 0.000E+00
     Starting wfcs are  248 randomized atomic wfcs
     Checking if some PAW data can be deallocated...

     Self-consistent Calculation

     iteration #  1     ecut=    30.00 Ry     beta= 0.70
     Davidson diagonalization with overlap

     ethr =  1.00E-02,  avg # of iterations =  2.0

     negative rho (up, down):  6.704E-01 0.000E+00

     total energy              =   -6591.52162874 Ry
     estimated scf accuracy    <       6.43905265 Ry

[...]

     total energy              =   -6596.20116596 Ry
     estimated scf accuracy    <       0.00000666 Ry

     iteration # 25     ecut=    30.00 Ry     beta= 0.70
     Davidson diagonalization with overlap

     ethr =  4.15E-10,  avg # of iterations =  2.0

[...]

     End of self-consistent calculation

          k = 0.0000 0.0000 0.0000 (  2982 PWs)   bands (ev):

   -38.9181 -38.9126 -38.7316 -38.7289 -38.7281 -38.7270 -38.6941 -38.6831
   -38.4497 -38.4481 -38.4474 -38.4412 -36.6377 -36.6368 -36.5885 -36.5882
   -10.2490 -10.2488 -10.1958 -10.1909 -10.1796 -10.1636 -10.1468 -10.1395
   -10.1364 -10.1268 -10.1170 -10.1141 -10.1137 -10.1022 -10.0822 -10.0743
   -10.0176  -9.9951  -9.9565  -9.8588  -9.7843  -9.6933  -9.6576  -9.6536
    -9.6406  -9.6105  -9.6057  -9.5851  -9.5794  -9.5414  -9.5261  -9.5028
    -9.4647  -9.4593  -9.4486  -9.4351  -9.4298  -9.4027  -9.3983  -9.2611
    -9.1268  -9.0888  -9.0501  -9.0265  -8.9954  -8.9413  -8.9191  -8.9142
    -8.8842  -8.8503  -8.8077  -8.8031   2.9200   4.3844   4.7906   4.7909
     5.4785   6.2103   6.3118   7.3675   8.9176   9.0077   9.2570   9.4475
     9.6402   9.7815   9.8060   9.9389   9.9823  10.2422  10.4030  10.5653
    10.7104  10.8442  10.8511  10.9561  11.1307  11.2046  11.3516  11.3675
    12.1525  12.5372  12.6768  12.7908  12.8557  13.0690  13.1858  13.7995
    13.9999  14.2235  14.2553  14.2649  14.7415  14.8221  14.8269  14.8566
    14.8595  14.8621  14.8822  14.8863  14.8906  14.9070  14.9192  14.9249
    14.9335  14.9514  14.9598  14.9693  14.9853  14.9934  14.9944  15.0297
    15.0341  15.0522  15.0651  15.1023  15.1414  15.1492  15.1520  15.2249
    15.5526  15.7340  15.8307  15.9935  16.0394  16.0496  16.3844  16.4792
    17.0590  17.7149  17.7250  17.7906  17.9562  18.1574  18.2964  18.3356
    18.3530  18.6338  18.8066  18.9794  19.0574  19.3062  19.3769  19.3845
    19.8326  19.9560  20.0503

     occupation numbers
     1.0000   1.0000   1.0000   1.0000   1.0000   1.0000   1.0000   1.0000
     1.0000   1.0000   1.0000   1.0000   1.0000   1.0000   1.0000   1.0000
     1.0000   1.0000   1.0000   1.0000   1.0000   1.0000   1.0000   1.0000
     1.0000   1.0000   1.0000   1.0000   1.0000   1.0000   1.0000   1.0000
     1.0000   1.0000   1.0000   1.0000   1.0000   1.0000   1.0000   1.0000
     1.0000   1.0000   1.0000   1.0000   1.0000   1.0000   1.0000   1.0000
     1.0000   1.0000   1.0000   1.0000   1.0000   1.0000   1.0000   1.0000
     1.0000   1.0000   1.0000   1.0000   1.0000   1.0000   1.0000   1.0000
     1.0000   1.0000   1.0000   1.0000   1.0000   1.0000   1.0000   1.0000
     1.0000   1.0000   1.0000   1.0000   1.0000   1.0000   1.0000   1.0000
     1.0000   1.0000   1.0000   1.0000   1.0000   1.0000   1.0000   1.0000
     1.0000   1.0000   1.0000   1.0000   1.0000   1.0000   1.0000   1.0000
     1.0000   1.0000   1.0000   1.0000   1.0000   1.0000   1.0000   1.0000
     1.0000   1.0000   1.0000   1.0000   1.0000   1.0000   1.0000   1.0000
     1.0000   1.0000   1.0000   1.0000   1.0000   1.0000   1.0000   1.0000
     1.0000   1.0000   1.0000   1.0000   1.0000   1.0000   1.0000   1.0000
     1.0000   1.0000   1.0000   1.0000   1.0000   1.0000   1.0000   1.0000
    -0.0000  -0.0000  -0.0000  -0.0000  -0.0000  -0.0000  -0.0000  -0.0000
    -0.0000  -0.0000  -0.0000  -0.0000  -0.0000  -0.0000  -0.0000  -0.0000
    -0.0000  -0.0000  -0.0000  -0.0000  -0.0000  -0.0000  -0.0000  -0.0000
    -0.0000  -0.0000  -0.0000

     the Fermi energy is    15.3268 ev

!    total energy              =   -6596.20116625 Ry
     estimated scf accuracy    <       0.00000023 Ry
     smearing contrib. (-TS)   =       0.00000000 Ry
     internal energy E=F+TS    =   -6596.20116625 Ry

     The total energy is F=E-TS. E is the sum of the following terms:
     one-electron contribution =   -2518.72271318 Ry
     hartree contribution      =    1346.38351874 Ry
     xc contribution           =    -847.23960946 Ry
     ewald contribution        =   -2639.40070631 Ry
     one-center paw contrib.   =   -1937.22165604 Ry
      -> PAW hartree energy AE =    1805.22333132 Ry
      -> PAW hartree energy PS =   -1551.91273097 Ry
      -> PAW xc energy AE      =   -2339.51765378 Ry
      -> PAW xc energy PS      =     148.98539738 Ry
      -> total E_H with PAW    =    1599.69411910 Ry
      -> total E_XC with PAW   =   -3037.77186585 Ry

     convergence has been achieved in  25 iterations

     negative rho (up, down):  6.957E-01 0.000E+00

     Forces acting on atoms (cartesian axes, Ry/au):

     atom    1 type  1   force =    -0.00104833    0.00242405   -0.00332773
     atom    2 type  1   force =     0.00104833   -0.00242405    0.00332773
     atom    3 type  1   force =    -0.04911855   -0.02939483   -0.00071062
     atom    4 type  1   force =     0.04911855    0.02939483    0.00071062
     atom    5 type  2   force =     0.05763325    0.03522924    0.00034928
     atom    6 type  2   force =    -0.05763325   -0.03522924   -0.00034928
     atom    7 type  2   force =     0.00530868    0.00295273    0.00043228
     atom    8 type  2   force =    -0.00530868   -0.00295273   -0.00043228
     atom    9 type  2   force =     0.06838157    0.02862152   -0.00366508
     atom   10 type  2   force =    -0.06838157   -0.02862152    0.00366508
     atom   11 type  2   force =     0.05679729    0.04789662    0.00393635
     atom   12 type  2   force =    -0.05679729   -0.04789662   -0.00393635
     atom   13 type  3   force =     0.00280547   -0.02128570    0.00929341
     atom   14 type  3   force =    -0.00280547    0.02128570   -0.00929341
     atom   15 type  3   force =    -0.01647920    0.01287759   -0.01721644
     atom   16 type  3   force =     0.01647920   -0.01287759    0.01721644
     The non-local contrib.  to forces
     atom    1 type  1   force =    -0.02213381    0.03500407   -0.02325037
     atom    2 type  1   force =     0.02213381   -0.03500407    0.02325037
     atom    3 type  1   force =    -0.20136647   -0.12226241   -0.00194382
     atom    4 type  1   force =     0.20136647    0.12226241    0.00194382
     atom    5 type  2   force =    -0.20799058   -0.12749329    0.00010955
     atom    6 type  2   force =     0.20799058    0.12749329   -0.00010955
     atom    7 type  2   force =    -0.10759296   -0.06569301   -0.00023637
     atom    8 type  2   force =     0.10759296    0.06569301    0.00023637
     atom    9 type  2   force =    -0.45977405    0.21023335   -0.21320056
     atom   10 type  2   force =     0.45977405   -0.21023335    0.21320056
     atom   11 type  2   force =    -0.02646245   -0.50758035    0.21464956
     atom   12 type  2   force =     0.02646245    0.50758035   -0.21464956
     atom   13 type  3   force =    -0.06078210    0.06378064   -0.04187051
     atom   14 type  3   force =     0.06078210   -0.06378064    0.04187051
     atom   15 type  3   force =     0.02964648   -0.08276612    0.04086881
     atom   16 type  3   force =    -0.02964648    0.08276612   -0.04086881
     The ionic contribution  to forces
     atom    1 type  1   force =    -3.89753649    6.35204374   -3.65372030
     atom    2 type  1   force =     3.89753648   -6.35204374    3.65372030
     atom    3 type  1   force =     7.99759702    4.90701584    0.00007318
     atom    4 type  1   force =    -7.99759702   -4.90701584   -0.00007318
     atom    5 type  2   force =     9.65459533    5.92382327   -0.00000827
     atom    6 type  2   force =    -9.65459533   -5.92382327    0.00000827
     atom    7 type  2   force =     8.11708174    4.98055345   -0.00005497
     atom    8 type  2   force =    -8.11708174   -4.98055345    0.00005497
     atom    9 type  2   force =    -7.15299099   -9.28761994    2.04702098
     atom   10 type  2   force =     7.15299099    9.28761994   -2.04702097
     atom   11 type  2   force =   -11.52012049   -2.16991866   -2.04701660
     atom   12 type  2   force =    11.52012049    2.16991865    2.04701661
     atom   13 type  3   force =    10.35707977    8.65005084   -0.95918206
     atom   14 type  3   force =   -10.35707977   -8.65005084    0.95918206
     atom   15 type  3   force =    12.40314776    5.31490113    0.95919321
     atom   16 type  3   force =   -12.40314776   -5.31490113   -0.95919321
     The local contribution  to forces
     atom    1 type  1   force =     3.91888126   -6.38370725    3.67333096
     atom    2 type  1   force =    -3.91806031    6.38454432   -3.67342401
     atom    3 type  1   force =    -7.84489247   -4.81394516    0.00121189
     atom    4 type  1   force =     7.84393560    4.81378272   -0.00138971
     atom    5 type  2   force =    -9.39379200   -5.76450048    0.00041899
     atom    6 type  2   force =     9.39431614    5.76365930    0.00006547
     atom    7 type  2   force =    -8.00887840   -4.91428348    0.00049636
     atom    8 type  2   force =     8.00835909    4.91508430   -0.00096665
     atom    9 type  2   force =     7.67370144    9.10937681   -1.84121838
     atom   10 type  2   force =    -7.67309740   -9.10932673    1.84135150
     atom   11 type  2   force =    11.60190230    2.71620938    1.84025111
     atom   12 type  2   force =   -11.60219761   -2.71644351   -1.84023029
     atom   13 type  3   force =   -10.29143819   -8.72023596    1.00473662
     atom   14 type  3   force =    10.29203859    8.72058887   -1.00473224
     atom   15 type  3   force =   -12.43571320   -5.22484949   -1.01133726
     atom   16 type  3   force =    12.43498576    5.22442621    1.01132510
     The core correction contribution to forces
     atom    1 type  1   force =     0.00000050   -0.00000078    0.00000043
     atom    2 type  1   force =    -0.00000049    0.00000078   -0.00000043
     atom    3 type  1   force =     0.00000071    0.00000045   -0.00000001
     atom    4 type  1   force =    -0.00000072   -0.00000045    0.00000001
     atom    5 type  2   force =     0.00511354    0.00309024    0.00003130
     atom    6 type  2   force =    -0.00511382   -0.00309127   -0.00003093
     atom    7 type  2   force =     0.00415681    0.00252440    0.00002336
     atom    8 type  2   force =    -0.00415613   -0.00252465   -0.00002309
     atom    9 type  2   force =     0.00766855   -0.00336226    0.00378414
     atom   10 type  2   force =    -0.00766796    0.00336336   -0.00378448
     atom   11 type  2   force =     0.00139803    0.00889870   -0.00385269
     atom   12 type  2   force =    -0.00139822   -0.00889919    0.00385278
     atom   13 type  3   force =    -0.00184157   -0.01468068    0.00557851
     atom   14 type  3   force =     0.00183984    0.01468241   -0.00557964
     atom   15 type  3   force =    -0.01401834    0.00523050   -0.00591401
     atom   16 type  3   force =     0.01401786   -0.00523168    0.00591430
     The Hubbard contrib.    to forces
     atom    1 type  1   force =     0.00000000    0.00000000    0.00000000
     atom    2 type  1   force =     0.00000000    0.00000000    0.00000000
     atom    3 type  1   force =     0.00000000    0.00000000    0.00000000
     atom    4 type  1   force =     0.00000000    0.00000000    0.00000000
     atom    5 type  2   force =     0.00000000    0.00000000    0.00000000
     atom    6 type  2   force =     0.00000000    0.00000000    0.00000000
     atom    7 type  2   force =     0.00000000    0.00000000    0.00000000
     atom    8 type  2   force =     0.00000000    0.00000000    0.00000000
     atom    9 type  2   force =     0.00000000    0.00000000    0.00000000
     atom   10 type  2   force =     0.00000000    0.00000000    0.00000000
     atom   11 type  2   force =     0.00000000    0.00000000    0.00000000
     atom   12 type  2   force =     0.00000000    0.00000000    0.00000000
     atom   13 type  3   force =     0.00000000    0.00000000    0.00000000
     atom   14 type  3   force =     0.00000000    0.00000000    0.00000000
     atom   15 type  3   force =     0.00000000    0.00000000    0.00000000
     atom   16 type  3   force =     0.00000000    0.00000000    0.00000000
     The SCF correction term to forces
     atom    1 type  1   force =    -0.00029924   -0.00091967    0.00029988
     atom    2 type  1   force =    -0.00060060    0.00007471   -0.00023017
     atom    3 type  1   force =    -0.00047894   -0.00022876   -0.00004642
     atom    4 type  1   force =     0.00139264    0.00034077    0.00023512
     atom    5 type  2   force =    -0.00029637    0.00032713   -0.00021003
     atom    6 type  2   force =    -0.00023415    0.00055032   -0.00029028
     atom    7 type  2   force =     0.00055578   -0.00016930    0.00021739
     atom    8 type  2   force =    -0.00000858   -0.00067262    0.00027961
     atom    9 type  2   force =    -0.00023468   -0.00000797   -0.00005316
     atom   10 type  2   force =    -0.00039255   -0.00004628   -0.00008342
     atom   11 type  2   force =     0.00007447    0.00028597   -0.00009611
     atom   12 type  2   force =     0.00021016   -0.00005450    0.00007304
     atom   13 type  3   force =    -0.00020393   -0.00019912    0.00003261
     atom   14 type  3   force =    -0.00037771   -0.00015267   -0.00003234
     atom   15 type  3   force =     0.00045250    0.00036115   -0.00002861
     atom   16 type  3   force =     0.00026422    0.00006250    0.00003763

     Total force =     0.201099     Total SCF correction =     0.002543

     Computing stress (Cartesian axis) and pressure

     negative rho (up, down):  6.957E-01 0.000E+00
          total   stress  (Ry/bohr**3)                   (kbar)     P=     -102.93
  -0.00059407   0.00003349   0.00014323          -87.39        4.93       21.07
   0.00003349  -0.00060671  -0.00005214            4.93      -89.25       -7.67
   0.00014323  -0.00005214  -0.00089826           21.07       -7.67     -132.14

     kinetic stress (kbar)  20056.86    101.24      1.17
                              101.24  19960.25      9.35
                                1.17      9.35  19903.37

     local   stress (kbar)  16638.33   3541.26    -63.14
                             3541.26  13035.88    107.48
                              -63.14    107.48  11062.65

     nonloc. stress (kbar)   7992.41     35.57     13.56
                               35.57   7955.09     -9.20
                               13.56     -9.20   7899.69

     hartree stress (kbar)  29481.61  -1571.95    -51.11
                            -1571.95  31080.89     80.97
                              -51.11     80.97  32190.90

     exc-cor stress (kbar)  15641.64      0.37      0.51
                                0.37  15641.32     -0.90
                                0.51     -0.90  15639.43

     corecor stress (kbar) -27554.30     -1.79      0.39
                               -1.79 -27552.59     -0.28
                                0.39     -0.28 -27551.86

     ewald   stress (kbar) -62343.93  -2099.79    119.69
                            -2099.79 -60210.08   -195.09
                              119.69   -195.09 -59276.34

     hubbard stress (kbar)      0.00      0.00      0.00
                                0.00      0.00      0.00
                                0.00      0.00      0.00

     DFT-D   stress (kbar)      0.00      0.00      0.00
                                0.00      0.00      0.00
                                0.00      0.00      0.00

     XDM     stress (kbar)      0.00      0.00      0.00
                                0.00      0.00      0.00
                                0.00      0.00      0.00

     dft-nl  stress (kbar)      0.00      0.00      0.00
                                0.00      0.00      0.00
                                0.00      0.00      0.00

     TS-vdW  stress (kbar)      0.00      0.00      0.00
                                0.00      0.00      0.00
                                0.00      0.00      0.00

[...]

                                0.00      0.00      0.00

     Writing all to output data dir new_calculations/myprefix.save/

     General routines

     Parallel routines

     PAW routines

   This run was terminated on:   3:23:23  21May2023

   JOB DONE.