     Program PWSCF v.7.0 starts on 20May2023 at 21:24:35

     Reading input from espresso_1733.pwi
Warning: card &CELL ignored
Warning: card / ignored

     Current dimensions of program PWSCF are:
     Max number of different atomic species (ntypx) = 10
     Max number of k-points (npk) =  40000
     Max angular momentum in pseudopotentials (lmaxx) =  4
     file Al.pbe-n-kjpaw_psl.1.0.0.UPF: wavefunction(s)  3S 3P renormalized

     gamma-point specific algorithms are used
     Message from routine setup:
     using ibrav=0 with symmetry is DISCOURAGED, use correct ibrav instead

     Subspace diagonalization in iterative solution of the eigenvalue problem:
     a serial algorithm will be used

     Using Slab Decomposition

     bravais-lattice index     =            0
     lattice parameter (alat)  =      14.3280  a.u.
     unit-cell volume          =    4509.6746 (a.u.)^3
     number of atoms/cell      =           16
     number of atomic types    =            2
     number of electrons       =        96.00
     number of Kohn-Sham states=           58
     kinetic-energy cutoff     =      30.0000  Ry
     charge density cutoff     =     240.0000  Ry
     scf convergence threshold =      1.0E-06
     mixing beta               =       0.7000
     number of iterations used =            8  plain     mixing
     Exchange-correlation=  SLA  PW   PBX  PBC
                           (   1   4   3   4   0   0   0)

     celldm(1)=  14.328004  celldm(2)=   0.000000  celldm(3)=   0.000000
     celldm(4)=   0.000000  celldm(5)=   0.000000  celldm(6)=   0.000000

     crystal axes: (cart. coord. in units of alat)
               a(1) = (   1.000000   0.000000   0.000000 )
               a(2) = (   0.000000   1.042981   0.000000 )
               a(3) = (   0.000000   0.208262   1.469981 )

     reciprocal axes: (cart. coord. in units 2 pi/alat)
               b(1) = (  1.000000  0.000000  0.000000 )
               b(2) = (  0.000000  0.958790 -0.135838 )
               b(3) = (  0.000000  0.000000  0.680281 )

     PseudoPot. # 1 for Al read from file:
     /home/pragov/projects/rrg-bengioy-ad/pragov/crystal_structure_design/SSSP/Al.pbe-n-kjpaw_psl.1.0.0.UPF
     MD5 check sum: cfc449ca30b5f3223ec38ddd88ac046d
     Pseudo is Projector augmented-wave + core cor, Zval =  3.0
     Generated using "atomic" code by A. Dal Corso  v.5.1
     Shape of augmentation charge: PSQ
     Using radial grid of 1135 points,  6 beta functions with:
                l(1) =   0
                l(2) =   0
                l(3) =   1
                l(4) =   1
                l(5) =   2
                l(6) =   2
     Q(r) pseudized with 0 coefficients

     PseudoPot. # 2 for Br read from file:
     /home/pragov/projects/rrg-bengioy-ad/pragov/crystal_structure_design/SSSP/br_pbe_v1.4.uspp.F.UPF
     MD5 check sum: d3ffb7b29f6225aa16fe06858fb2a80b
     Pseudo is Ultrasoft + core correction, Zval =  7.0
     Generated by new atomic code, or converted to UPF format
     Using radial grid of  879 points,  6 beta functions with:
                l(1) =   0
                l(2) =   0
                l(3) =   1
                l(4) =   1
                l(5) =   2
                l(6) =   2
     Q(r) pseudized with  8 coefficients,  rinner =    1.100   1.100   1.100
                                                       1.100   1.100

     atomic species   valence    mass     pseudopotential
        Al             3.00    26.98154     Al( 1.00)
        Br             7.00    79.90400     Br( 1.00)

      4 Sym. Ops., with inversion, found ( 2 have fractional translation)

                                    s                        frac. trans.

      isym =  1     identity

 cryst.   s( 1) = (     1          0          0      )
                  (     0          1          0      )
                  (     0          0          1      )

 cart.    s( 1) = (  1.0000000  0.0000000  0.0000000 )
                  (  0.0000000  1.0000000 -0.0000000 )
                  (  0.0000000  0.0000000  1.0000000 )

      isym =  2     180 deg rotation - cart. axis [1,0,0]

 cryst.   s( 2) = (     1          0          0      )    f =( -0.5000000 )
                  (     0         -1          0      )       ( -0.0000000 )
                  (     0          0         -1      )       (  0.5000000 )

 cart.    s( 2) = (  1.0000000  0.0000000  0.0000000 )    f =( -0.5000000 )
                  (  0.0000000 -1.0000000  0.0000000 )       (  0.1041312 )
                  (  0.0000000  0.0000000 -1.0000000 )       (  0.7349903 )

      isym =  3     inversion

 cryst.   s( 3) = (    -1          0          0      )
                  (     0         -1          0      )
                  (     0          0         -1      )

 cart.    s( 3) = ( -1.0000000  0.0000000  0.0000000 )
                  (  0.0000000 -1.0000000  0.0000000 )
                  (  0.0000000  0.0000000 -1.0000000 )

      isym =  4     inv. 180 deg rotation - cart. axis [1,0,0]

 cryst.   s( 4) = (    -1          0          0      )    f =(  0.5000000 )
                  (     0          1          0      )       (  0.0000000 )
                  (     0          0          1      )       (  0.5000000 )

 cart.    s( 4) = ( -1.0000000  0.0000000  0.0000000 )    f =(  0.5000000 )
                  (  0.0000000  1.0000000 -0.0000000 )       (  0.1041312 )
                  (  0.0000000  0.0000000  1.0000000 )       (  0.7349903 )

   Cartesian axes

     site n.     atom                  positions (alat units)
         1           Al  tau(   1) = (   0.0886120   0.2933825   0.6603667  )
         2           Al  tau(   2) = (   0.5886120   0.8537300   0.0746236  )
         3           Al  tau(   3) = (   0.9113880   0.9578612   0.8096139  )
         4           Al  tau(   4) = (   0.4113880   0.3975136   1.3953571  )
         5           Br  tau(   5) = (   0.9210630   0.4775446   0.4968329  )
         6           Br  tau(   6) = (   0.4210630   0.6695679   0.2381574  )
         7           Br  tau(   7) = (   0.0789370   0.7736990   0.9731478  )
         8           Br  tau(   8) = (   0.5789370   0.5816758   1.2318232  )
         9           Br  tau(   9) = (   0.3737990   0.3580318   0.7159261  )
        10           Br  tau(  10) = (   0.8737990   0.7890807   0.0190642  )
        11           Br  tau(  11) = (   0.6262010   0.8932119   0.7540545  )
        12           Br  tau(  12) = (   0.1262010   0.4621629   1.4509164  )
        13           Br  tau(  13) = (   0.0645490   1.0379164   0.5364959  )
        14           Br  tau(  14) = (   0.5645490   0.1091961   0.1984944  )
        15           Br  tau(  15) = (   0.9354510   0.2133273   0.9334847  )
        16           Br  tau(  16) = (   0.4354510   1.1420475   1.2714862  )

   Crystallographic axes

     site n.     atom                  positions (cryst. coord.)
         1           Al  tau(   1) = (  0.0886120  0.1915890  0.4492350  )
         2           Al  tau(   2) = (  0.5886120  0.8084110  0.0507650  )
         3           Al  tau(   3) = (  0.9113880  0.8084110  0.5507650  )
         4           Al  tau(   4) = (  0.4113880  0.1915890  0.9492350  )
         5           Br  tau(   5) = (  0.9210630  0.3903760  0.3379860  )
         6           Br  tau(   6) = (  0.4210630  0.6096240  0.1620140  )
         7           Br  tau(   7) = (  0.0789370  0.6096240  0.6620140  )
         8           Br  tau(   8) = (  0.5789370  0.3903760  0.8379860  )
         9           Br  tau(   9) = (  0.3737990  0.2460270  0.4870310  )
        10           Br  tau(  10) = (  0.8737990  0.7539730  0.0129690  )
        11           Br  tau(  11) = (  0.6262010  0.7539730  0.5129690  )
        12           Br  tau(  12) = (  0.1262010  0.2460270  0.9870310  )
        13           Br  tau(  13) = (  0.0645490  0.9222670  0.3649680  )
        14           Br  tau(  14) = (  0.5645490  0.0777330  0.1350320  )
        15           Br  tau(  15) = (  0.9354510  0.0777330  0.6350320  )
        16           Br  tau(  16) = (  0.4354510  0.9222670  0.8649680  )

     number of k points=     1  Methfessel-Paxton smearing, width (Ry)=  0.0010
                       cart. coord. in units 2pi/alat
        k(    1) = (   0.0000000   0.0000000   0.0000000), wk =   2.0000000

                       cryst. coord.
        k(    1) = (   0.0000000   0.0000000   0.0000000), wk =   2.0000000

     Check: negative core charge=   -0.000001

     Initial potential from superposition of free atoms

     starting charge      95.9906, renormalised to      96.0000
     Starting wfcs are   64 randomized atomic wfcs
     Checking if some PAW data can be deallocated...

     Self-consistent Calculation

     iteration #  1     ecut=    30.00 Ry     beta= 0.70
     Davidson diagonalization with overlap

     ethr =  1.00E-02,  avg # of iterations =  3.0

     Threshold (ethr) on eigenvalues was too large:
     Diagonalizing with lowered threshold

     Davidson diagonalization with overlap

[...]

     total energy              =    -721.34665175 Ry
     estimated scf accuracy    <       0.39157482 Ry

[...]

     c_bands:  2 eigenvalues not converged
     ethr =  1.53E-05,  avg # of iterations = 20.0

[...]

     total energy              =    -721.45012107 Ry
     estimated scf accuracy    <       0.00000144 Ry

     iteration #  7     ecut=    30.00 Ry     beta= 0.70
     Davidson diagonalization with overlap

     ethr =  1.50E-09,  avg # of iterations =  2.0

     End of self-consistent calculation

          k = 0.0000 0.0000 0.0000 (  6253 PWs)   bands (ev):

   -15.3553 -15.3312 -14.9395 -14.9199 -13.9414 -13.9355 -13.9192 -13.9090
   -13.7437 -13.7388 -13.7308 -13.7284  -5.5965  -5.5545  -5.5531  -5.5471
    -4.0483  -3.9837  -3.6804  -3.5713  -3.5097  -3.4463  -3.0254  -2.9088
    -2.9034  -2.8946  -2.8236  -2.8207  -2.5403  -2.3506  -2.1486  -2.1150
    -1.7744  -1.7511  -1.6432  -1.6306  -1.4289  -1.4147  -1.3582  -1.3483
    -1.3459  -1.2714  -1.2330  -1.1862  -1.1167  -1.0747  -1.0245  -0.9174
     3.1618   3.7157   3.8121   3.9969   4.5424   4.5869   5.3123   5.4445
     5.5316   5.7826

     occupation numbers
     1.0000   1.0000   1.0000   1.0000   1.0000   1.0000   1.0000   1.0000
     1.0000   1.0000   1.0000   1.0000   1.0000   1.0000   1.0000   1.0000
     1.0000   1.0000   1.0000   1.0000   1.0000   1.0000   1.0000   1.0000
     1.0000   1.0000   1.0000   1.0000   1.0000   1.0000   1.0000   1.0000
     1.0000   1.0000   1.0000   1.0000   1.0000   1.0000   1.0000   1.0000
     1.0000   1.0000   1.0000   1.0000   1.0000   1.0000   1.0000   1.0000
    -0.0000  -0.0000  -0.0000  -0.0000  -0.0000  -0.0000  -0.0000  -0.0000
    -0.0000  -0.0000

     the Fermi energy is     0.5662 ev

!    total energy              =    -721.45012143 Ry
     estimated scf accuracy    <       0.00000014 Ry
     smearing contrib. (-TS)   =       0.00000000 Ry
     internal energy E=F+TS    =    -721.45012143 Ry

     The total energy is F=E-TS. E is the sum of the following terms:
     one-electron contribution =    -101.86618163 Ry
     hartree contribution      =      82.80906341 Ry
     xc contribution           =    -323.85074158 Ry
     ewald contribution        =    -239.89646507 Ry
     one-center paw contrib.   =    -138.64579657 Ry
      -> PAW hartree energy AE =       5.64793916 Ry
      -> PAW hartree energy PS =      -5.63258701 Ry
      -> PAW xc energy AE      =    -146.32504213 Ry
      -> PAW xc energy PS      =       7.66389341 Ry
      -> total E_H with PAW    =      82.82441556 Ry
      -> total E_XC with PAW   =    -462.51189029 Ry

     convergence has been achieved in   7 iterations

     Forces acting on atoms (cartesian axes, Ry/au):

     atom    1 type  1   force =    -0.00000056   -0.00199599   -0.00095334
     atom    2 type  1   force =    -0.00000056    0.00199599    0.00095334
     atom    3 type  1   force =     0.00000056    0.00199599    0.00095334
     atom    4 type  1   force =     0.00000056   -0.00199599   -0.00095334
     atom    5 type  2   force =    -0.00332878   -0.00144515   -0.00246034
     atom    6 type  2   force =    -0.00332878    0.00144515    0.00246034
     atom    7 type  2   force =     0.00332878    0.00144515    0.00246034
     atom    8 type  2   force =     0.00332878   -0.00144515   -0.00246034
     atom    9 type  2   force =    -0.00420279   -0.00125396    0.00091197
     atom   10 type  2   force =    -0.00420279    0.00125396   -0.00091197
     atom   11 type  2   force =     0.00420279    0.00125396   -0.00091197
     atom   12 type  2   force =     0.00420279   -0.00125396    0.00091197
     atom   13 type  2   force =     0.00358111    0.00309568    0.00201247
     atom   14 type  2   force =     0.00358111   -0.00309568   -0.00201247
     atom   15 type  2   force =    -0.00358111   -0.00309568   -0.00201247
     atom   16 type  2   force =    -0.00358111    0.00309568    0.00201247
     The non-local contrib.  to forces
     atom    1 type  1   force =    -0.03436914   -0.07014879    0.02827860
     atom    2 type  1   force =    -0.03436914    0.07014879   -0.02827860
     atom    3 type  1   force =     0.03436914    0.07014879   -0.02827860
     atom    4 type  1   force =     0.03436914   -0.07014879    0.02827860
     atom    5 type  2   force =     0.00159732   -0.00424226    0.00123782
     atom    6 type  2   force =     0.00159732    0.00424226   -0.00123782
     atom    7 type  2   force =    -0.00159732    0.00424226   -0.00123782
     atom    8 type  2   force =    -0.00159732   -0.00424226    0.00123782
     atom    9 type  2   force =    -0.00748984   -0.00130853   -0.00050489
     atom   10 type  2   force =    -0.00748984    0.00130853    0.00050489
     atom   11 type  2   force =     0.00748984    0.00130853    0.00050489
     atom   12 type  2   force =     0.00748984   -0.00130853   -0.00050489
     atom   13 type  2   force =     0.00226234   -0.00086721   -0.00021024
     atom   14 type  2   force =     0.00226234    0.00086721    0.00021024
     atom   15 type  2   force =    -0.00226234    0.00086721    0.00021024
     atom   16 type  2   force =    -0.00226234   -0.00086721   -0.00021024
     The ionic contribution  to forces
     atom    1 type  1   force =     0.23152792    0.43545287   -0.19397254
     atom    2 type  1   force =     0.23152792   -0.43545287    0.19397254
     atom    3 type  1   force =    -0.23152792   -0.43545287    0.19397254
     atom    4 type  1   force =    -0.23152792    0.43545287   -0.19397254
     atom    5 type  2   force =    -1.49759193    1.63028005   -1.85940970
     atom    6 type  2   force =    -1.49759193   -1.63028004    1.85940970
     atom    7 type  2   force =     1.49759193   -1.63028005    1.85940970
     atom    8 type  2   force =     1.49759193    1.63028005   -1.85940970
     atom    9 type  2   force =     2.84401863    1.00166680    0.35659413
     atom   10 type  2   force =     2.84401863   -1.00166680   -0.35659413
     atom   11 type  2   force =    -2.84401862   -1.00166680   -0.35659413
     atom   12 type  2   force =    -2.84401862    1.00166680    0.35659413
     atom   13 type  2   force =     1.08437003   -1.70763619   -3.06315768
     atom   14 type  2   force =     1.08437003    1.70763619    3.06315768
     atom   15 type  2   force =    -1.08437003    1.70763619    3.06315768
     atom   16 type  2   force =    -1.08437003   -1.70763619   -3.06315768
     The local contribution  to forces
     atom    1 type  1   force =    -0.20130169   -0.37580999    0.16824265
     atom    2 type  1   force =    -0.20128385    0.37576197   -0.16823409
     atom    3 type  1   force =     0.20129519    0.37582521   -0.16820669
     atom    4 type  1   force =     0.20128130   -0.37577567    0.16819990
     atom    5 type  2   force =     1.50824079   -1.64382987    1.87146404
     atom    6 type  2   force =     1.50826647    1.64372586   -1.87146453
     atom    7 type  2   force =    -1.50822940    1.64381490   -1.87137111
     atom    8 type  2   force =    -1.50824637   -1.64373314    1.87137356
     atom    9 type  2   force =    -2.86620054   -1.00829173   -0.36014342
     atom   10 type  2   force =    -2.86616302    1.00822665    0.36013667
     atom   11 type  2   force =     2.86620272    1.00831089    0.36029009
     atom   12 type  2   force =     2.86615876   -1.00823518   -0.36028014
     atom   13 type  2   force =    -1.09158317    1.72481111    3.08873025
     atom   14 type  2   force =    -1.09151962   -1.72470779   -3.08859616
     atom   15 type  2   force =     1.09155758   -1.72479765   -3.08861019
     atom   16 type  2   force =     1.09150954    1.72470320    3.08845849
     The core correction contribution to forces
     atom    1 type  1   force =     0.00413341    0.00847365   -0.00349633
     atom    2 type  1   force =     0.00413350   -0.00847506    0.00349693
     atom    3 type  1   force =    -0.00413359   -0.00847315    0.00349495
     atom    4 type  1   force =    -0.00413376    0.00847471   -0.00349522
     atom    5 type  2   force =    -0.01567674    0.01632331   -0.01581089
     atom    6 type  2   force =    -0.01567333   -0.01632775    0.01580923
     atom    7 type  2   force =     0.01567641   -0.01632417    0.01581071
     atom    8 type  2   force =     0.01567502    0.01632846   -0.01580862
     atom    9 type  2   force =     0.02562800    0.00659792    0.00505722
     atom   10 type  2   force =     0.02562876   -0.00659786   -0.00505636
     atom   11 type  2   force =    -0.02562905   -0.00659512   -0.00505788
     atom   12 type  2   force =    -0.02562913    0.00659773    0.00505740
     atom   13 type  2   force =     0.00850557   -0.01303646   -0.02323171
     atom   14 type  2   force =     0.00850884    0.01304105    0.02323700
     atom   15 type  2   force =    -0.00850598    0.01303646    0.02323307
     atom   16 type  2   force =    -0.00850883   -0.01304060   -0.02323812
     The Hubbard contrib.    to forces
     atom    1 type  1   force =     0.00000000    0.00000000    0.00000000
     atom    2 type  1   force =     0.00000000    0.00000000    0.00000000
     atom    3 type  1   force =     0.00000000    0.00000000    0.00000000
     atom    4 type  1   force =     0.00000000    0.00000000    0.00000000
     atom    5 type  2   force =     0.00000000    0.00000000    0.00000000
     atom    6 type  2   force =     0.00000000    0.00000000    0.00000000
     atom    7 type  2   force =     0.00000000    0.00000000    0.00000000
     atom    8 type  2   force =     0.00000000    0.00000000    0.00000000
     atom    9 type  2   force =     0.00000000    0.00000000    0.00000000
     atom   10 type  2   force =     0.00000000    0.00000000    0.00000000
     atom   11 type  2   force =     0.00000000    0.00000000    0.00000000
     atom   12 type  2   force =     0.00000000    0.00000000    0.00000000
     atom   13 type  2   force =     0.00000000    0.00000000    0.00000000
     atom   14 type  2   force =     0.00000000    0.00000000    0.00000000
     atom   15 type  2   force =     0.00000000    0.00000000    0.00000000
     atom   16 type  2   force =     0.00000000    0.00000000    0.00000000
     The SCF correction term to forces
     atom    1 type  1   force =     0.00000904    0.00003308   -0.00001880
     atom    2 type  1   force =    -0.00001019    0.00000688    0.00001441
     atom    3 type  1   force =    -0.00000344   -0.00004506   -0.00004509
     atom    4 type  1   force =     0.00001187    0.00000471    0.00005065
     atom    5 type  2   force =     0.00011545    0.00004443    0.00006231
     atom    6 type  2   force =     0.00005557    0.00010073   -0.00004697
     atom    7 type  2   force =    -0.00012207   -0.00002100   -0.00016228
     atom    8 type  2   force =    -0.00008869   -0.00009640    0.00014082
     atom    9 type  2   force =    -0.00015425    0.00008104   -0.00009800
     atom   10 type  2   force =    -0.00019808   -0.00000751    0.00009709
     atom   11 type  2   force =     0.00016082   -0.00012189   -0.00005558
     atom   12 type  2   force =     0.00020301    0.00001646    0.00005186
     atom   13 type  2   force =     0.00004317   -0.00019738   -0.00014939
     atom   14 type  2   force =    -0.00005531    0.00004773   -0.00003333
     atom   15 type  2   force =    -0.00001078    0.00017746    0.00001170
     atom   16 type  2   force =     0.00006299   -0.00004628    0.00019411

     Total force =     0.016810     Total SCF correction =     0.000666

     Computing stress (Cartesian axis) and pressure

          total   stress  (Ry/bohr**3)                   (kbar)     P=        2.11
  -0.00000428   0.00000000   0.00000000           -0.63        0.00        0.00
   0.00000000   0.00003652  -0.00000655            0.00        5.37       -0.96
   0.00000000  -0.00000655   0.00001078            0.00       -0.96        1.59

     kinetic stress (kbar)   2406.56      0.00      0.00
                                0.00   2442.24     25.94
                                0.00     25.94   2454.55

     local   stress (kbar)   1730.48     -0.00     -0.00
                               -0.00   1250.48    266.62
                               -0.00    266.62   2018.52

     nonloc. stress (kbar)  -1306.93      0.00      0.00
                                0.00  -1321.19     -8.46
                                0.00     -8.46  -1323.11

     hartree stress (kbar)    836.24      0.00      0.00
                                0.00   1070.37    -68.87
                                0.00    -68.87    794.61

     exc-cor stress (kbar)   7098.09     -0.00     -0.00
                               -0.00   7097.17     -0.82
                               -0.00     -0.82   7096.16

     corecor stress (kbar)  -8171.99      0.00     -0.00
                                0.00  -8170.60      0.28
                               -0.00      0.28  -8169.93

     ewald   stress (kbar)  -2593.08      0.00      0.00
                                0.00  -2363.10   -215.66
                                0.00   -215.66  -2869.22

     hubbard stress (kbar)      0.00      0.00      0.00
                                0.00      0.00      0.00
                                0.00      0.00      0.00

     DFT-D   stress (kbar)      0.00      0.00      0.00
                                0.00      0.00      0.00
                                0.00      0.00      0.00

     XDM     stress (kbar)      0.00      0.00      0.00
                                0.00      0.00      0.00
                                0.00      0.00      0.00

     dft-nl  stress (kbar)      0.00      0.00      0.00
                                0.00      0.00      0.00
                                0.00      0.00      0.00

     TS-vdW  stress (kbar)      0.00      0.00      0.00
                                0.00      0.00      0.00
                                0.00      0.00      0.00

[...]

                                0.00      0.00      0.00

     Writing all to output data dir new_calculations/myprefix.save/

     General routines

     Parallel routines

     PAW routines

   This run was terminated on:  21:25:30  20May2023

   JOB DONE.