     Program PWSCF v.7.0 starts on 20May2023 at 11:12:13

     Reading input from espresso_13335.pwi
Warning: card &CELL ignored
Warning: card / ignored

     Current dimensions of program PWSCF are:
     Max number of different atomic species (ntypx) = 10
     Max number of k-points (npk) =  40000
     Max angular momentum in pseudopotentials (lmaxx) =  4
     file O.pbe-n-kjpaw_psl.0.1.UPF: wavefunction(s)  2P renormalized

     gamma-point specific algorithms are used
     Message from routine setup:
     using ibrav=0 with symmetry is DISCOURAGED, use correct ibrav instead

     Subspace diagonalization in iterative solution of the eigenvalue problem:
     a serial algorithm will be used

     Using Slab Decomposition

     bravais-lattice index     =            0
     lattice parameter (alat)  =      11.4368  a.u.
     unit-cell volume          =    2202.9325 (a.u.)^3
     number of atoms/cell      =           20
     number of atomic types    =            4
     number of electrons       =       164.00
     number of Kohn-Sham states=           98
     kinetic-energy cutoff     =      30.0000  Ry
     charge density cutoff     =     240.0000  Ry
     scf convergence threshold =      1.0E-06
     mixing beta               =       0.7000
     number of iterations used =            8  plain     mixing
     Exchange-correlation= SLA  PW   PBX  PBC
                           (   1   4   3   4   0   0   0)

     celldm(1)=  11.436811  celldm(2)=   0.000000  celldm(3)=   0.000000
     celldm(4)=   0.000000  celldm(5)=   0.000000  celldm(6)=   0.000000

     crystal axes: (cart. coord. in units of alat)
               a(1) = (   1.000000   0.000000   0.000000 )
               a(2) = (   0.000020   1.027524   0.000000 )
               a(3) = (   0.007733   0.000009   1.433159 )

     reciprocal axes: (cart. coord. in units 2 pi/alat)
               b(1) = (  1.000000 -0.000019 -0.005396 )
               b(2) = (  0.000000  0.973213 -0.000006 )
               b(3) = (  0.000000  0.000000  0.697759 )

     PseudoPot. # 1 for Sr read from file:
     /home/pragov/projects/rrg-bengioy-ad/pragov/crystal_structure_design/SSSP/Sr_pbe_v1.uspp.F.UPF
     MD5 check sum: 6b418c05fbe9db5448babca5e47b7a5b
     Pseudo is Ultrasoft + core correction, Zval = 10.0
     Generated by new atomic code, or converted to UPF format
     Using radial grid of  883 points,  6 beta functions with:
                l(1) =   0
                l(2) =   0
                l(3) =   1
                l(4) =   1
                l(5) =   2
                l(6) =   2
     Q(r) pseudized with  6 coefficients,  rinner =    1.400   1.400   1.400
                                                       1.400   1.400

     PseudoPot. # 2 for La read from file:
     /home/pragov/projects/rrg-bengioy-ad/pragov/crystal_structure_design/SSSP/La.GGA-PBE-paw-v1.0.UPF
     MD5 check sum: 436541e95c1ad8901025bd0b0ed42ae2
     Pseudo is Projector augmented-wave + core cor, Zval = 11.0
     Generated using ATOMPAW code
     Shape of augmentation charge: BESSEL
     Using radial grid of 1101 points,  8 beta functions with:
                l(1) =   0
                l(2) =   0
                l(3) =   1
                l(4) =   1
                l(5) =   2
                l(6) =   2
                l(7) =   3
                l(8) =   3
     Q(r) pseudized with 0 coefficients

     PseudoPot. # 3 for Bi read from file:
     /home/pragov/projects/rrg-bengioy-ad/pragov/crystal_structure_design/SSSP/Bi_pbe_v1.uspp.F.UPF
     MD5 check sum: cceb9f28ec65b6d7ff33140f5b0b1758
     Pseudo is Ultrasoft + core correction, Zval = 15.0
     Generated by new atomic code, or converted to UPF format
     Using radial grid of  899 points,  6 beta functions with:
                l(1) =   0
                l(2) =   0
                l(3) =   1
                l(4) =   1
                l(5) =   2
                l(6) =   2
     Q(r) pseudized with  6 coefficients,  rinner =    1.000   1.000   1.000
                                                       1.000   1.000

     PseudoPot. # 4 for O  read from file:
     /home/pragov/projects/rrg-bengioy-ad/pragov/crystal_structure_design/SSSP/O.pbe-n-kjpaw_psl.0.1.UPF
     MD5 check sum: 0234752ac141de4415c5fc33072bef88
     Pseudo is Projector augmented-wave + core cor, Zval =  6.0
     Generated using "atomic" code by A. Dal Corso  v.5.0.99 svn rev. 10869
     Shape of augmentation charge: BESSEL
     Using radial grid of 1095 points,  4 beta functions with:
                l(1) =   0
                l(2) =   0
                l(3) =   1
                l(4) =   1
     Q(r) pseudized with 0 coefficients

     atomic species   valence    mass     pseudopotential
        Sr            10.00    87.62000     Sr( 1.00)
        La            11.00   138.90547     La( 1.00)
        Bi            15.00   208.98040     Bi( 1.00)
        O              6.00    15.99900     O ( 1.00)

      2 Sym. Ops., with inversion, found

                                    s                        frac. trans.

      isym =  1     identity

 cryst.   s( 1) = (     1          0          0      )
                  (     0          1          0      )
                  (     0          0          1      )

 cart.    s( 1) = (  1.0000000  0.0000000  0.0000000 )
                  (  0.0000000  1.0000000  0.0000000 )
                  (  0.0000000  0.0000000  1.0000000 )

      isym =  2     inversion

 cryst.   s( 2) = (    -1          0          0      )
                  (     0         -1          0      )
                  (     0          0         -1      )

 cart.    s( 2) = ( -1.0000000 -0.0000000 -0.0000000 )
                  (  0.0000000 -1.0000000 -0.0000000 )
                  (  0.0000000  0.0000000 -1.0000000 )

   Cartesian axes

     site n.     atom                  positions (alat units)
         1           Sr  tau(   1) = (   0.5145831   0.5632849   0.3590751  )
         2           Sr  tau(   2) = (   0.9892658   0.0495207   0.3574508  )
         3           Sr  tau(   3) = (   0.4931696   0.4642485   1.0740839  )
         4           Sr  tau(   4) = (   0.0184869   0.9780127   1.0757082  )
         5           La  tau(   5) = (   0.5000000   0.0000000   0.0000000  )
         6           La  tau(   6) = (   1.0038764   0.5137667   0.7165795  )
         7           Bi  tau(   7) = (   0.0000100   0.5137620   0.0000000  )
         8           Bi  tau(   8) = (   0.5038664   0.0000047   0.7165795  )
         9           O   tau(   9) = (   0.1897226   0.2191196   1.3497945  )
        10           O   tau(  10) = (   0.3219036   0.7328337   0.7999664  )
        11           O   tau(  11) = (   0.8180301   0.8084138   0.0833645  )
        12           O   tau(  12) = (   0.6858491   0.2946998   0.6331926  )
        13           O   tau(  13) = (   0.2941977   0.7081596   1.3561323  )
        14           O   tau(  14) = (   0.2173774   0.1943835   0.7936349  )
        15           O   tau(  15) = (   0.7135550   0.3193739   0.0770267  )
        16           O   tau(  16) = (   0.7903753   0.8331499   0.6395241  )
        17           O   tau(  17) = (   0.3966454   0.9821203   0.3792470  )
        18           O   tau(  18) = (   0.1071995   0.4683417   0.3373627  )
        19           O   tau(  19) = (   0.6111073   0.0454131   1.0539120  )
        20           O   tau(  20) = (   0.9005532   0.5591917   1.0957963  )

   Crystallographic axes

     site n.     atom                  positions (cryst. coord.)
         1           Sr  tau(   1) = (  0.5126348  0.5481941  0.2505480  )
         2           Sr  tau(   2) = (  0.9873362  0.0481919  0.2494146  )
         3           Sr  tau(   3) = (  0.4873652  0.4518059  0.7494520  )
         4           Sr  tau(   4) = (  0.0126638  0.9518081  0.7505854  )
         5           La  tau(   5) = (  0.5000000  0.0000000  0.0000000  )
         6           La  tau(   6) = (  1.0000000  0.5000000  0.5000000  )
         7           Bi  tau(   7) = (  0.0000000  0.5000000  0.0000000  )
         8           Bi  tau(   8) = (  0.5000000 -0.0000000  0.5000000  )
         9           O   tau(   9) = (  0.1824354  0.2132415  0.9418316  )
        10           O   tau(  10) = (  0.3175731  0.7131983  0.5581840  )
        11           O   tau(  11) = (  0.8175646  0.7867585  0.0581684  )
        12           O   tau(  12) = (  0.6824269  0.2868017  0.4418160  )
        13           O   tau(  13) = (  0.2868668  0.6891816  0.9462539  )
        14           O   tau(  14) = (  0.2130915  0.1891715  0.5537661  )
        15           O   tau(  15) = (  0.7131332  0.3108184  0.0537461  )
        16           O   tau(  16) = (  0.7869085  0.8108285  0.4462339  )
        17           O   tau(  17) = (  0.3945801  0.9558102  0.2646231  )
        18           O   tau(  18) = (  0.1053701  0.4557942  0.2353980  )
        19           O   tau(  19) = (  0.6054199  0.0441899  0.7353769  )
        20           O   tau(  20) = (  0.8946299  0.5442058  0.7646020  )

     number of k points=     1  Methfessel-Paxton smearing, width (Ry)=  0.0010
                       cart. coord. in units 2pi/alat
        k(    1) = (   0.0000000   0.0000000   0.0000000), wk =   2.0000000

                       cryst. coord.
        k(    1) = (   0.0000000   0.0000000   0.0000000), wk =   2.0000000

     Check: negative core charge=   -0.000011

     Initial potential from superposition of free atoms

     starting charge     161.8482, renormalised to     164.0000

     negative rho (up, down):  3.435E-01 0.000E+00
     Starting wfcs are  182 randomized atomic wfcs
     Checking if some PAW data can be deallocated...

     Self-consistent Calculation

     iteration #  1     ecut=    30.00 Ry     beta= 0.70
     Davidson diagonalization with overlap

     ethr =  1.00E-02,  avg # of iterations =  2.0

     negative rho (up, down):  3.426E-01 0.000E+00

     total energy              =   -2066.05692244 Ry
     estimated scf accuracy    <       4.79964524 Ry

[...]

     total energy              =   -2068.51722912 Ry
     estimated scf accuracy    <       0.00000269 Ry

     iteration # 12     ecut=    30.00 Ry     beta= 0.70
     Davidson diagonalization with overlap

     ethr =  1.64E-09,  avg # of iterations =  4.0

[...]

     End of self-consistent calculation

          k = 0.0000 0.0000 0.0000 (  3061 PWs)   bands (ev):

   -24.5395 -24.5331 -24.5249 -24.5205 -21.3541 -21.3516 -13.7019 -13.7009
   -13.6584 -13.6551 -13.3464 -13.3452 -13.3370 -13.3365 -13.3195 -13.3191
    -9.2278  -8.9870  -8.9307  -8.9299  -8.7059  -8.5701  -8.5313  -8.4649
    -7.8205  -7.8076  -7.5917  -7.4703  -6.6490  -6.5973  -6.5913  -6.5454
    -6.5306  -6.5019  -6.4422  -6.2623  -6.2365  -6.1811  -6.0102  -5.9831
    -4.6356  -4.6171  -4.5903  -4.5896  -4.5389  -4.5273  -0.3116  -0.1898
     4.9253   5.0241   5.1817   5.1926   5.2860   5.3169   5.3530   5.9309
     5.9827   6.1002   6.2740   6.3023   6.4162   6.4787   6.8496   6.8766
     6.9230   7.0367   7.1454   7.1461   7.1691   7.2251   7.2458   7.2520
     7.3453   7.4373   7.4635   7.4961   7.5202   7.5370   7.5373   7.5735
     7.7391   7.7850   9.7153  10.0867  13.5199  13.5435  13.6549  13.6591
    13.6744  13.7095  13.7186  13.7630  13.7702  13.7810  13.7828  13.8205
    13.8512  13.8591

     occupation numbers
     1.0000   1.0000   1.0000   1.0000   1.0000   1.0000   1.0000   1.0000
     1.0000   1.0000   1.0000   1.0000   1.0000   1.0000   1.0000   1.0000
     1.0000   1.0000   1.0000   1.0000   1.0000   1.0000   1.0000   1.0000
     1.0000   1.0000   1.0000   1.0000   1.0000   1.0000   1.0000   1.0000
     1.0000   1.0000   1.0000   1.0000   1.0000   1.0000   1.0000   1.0000
     1.0000   1.0000   1.0000   1.0000   1.0000   1.0000   1.0000   1.0000
     1.0000   1.0000   1.0000   1.0000   1.0000   1.0000   1.0000   1.0000
     1.0000   1.0000   1.0000   1.0000   1.0000   1.0000   1.0000   1.0000
     1.0000   1.0000   1.0000   1.0000   1.0000   1.0000   1.0000   1.0000
     1.0000   1.0000   1.0000   1.0000   1.0000   1.0000   1.0000   1.0000
     1.0000   1.0000  -0.0000  -0.0000  -0.0000  -0.0000  -0.0000  -0.0000
    -0.0000  -0.0000  -0.0000  -0.0000  -0.0000  -0.0000  -0.0000  -0.0000
    -0.0000  -0.0000

     the Fermi energy is     9.1613 ev

!    total energy              =   -2068.51722937 Ry
     estimated scf accuracy    <       0.00000052 Ry
     smearing contrib. (-TS)   =       0.00000000 Ry
     internal energy E=F+TS    =   -2068.51722937 Ry

     The total energy is F=E-TS. E is the sum of the following terms:
     one-electron contribution =    -268.67042440 Ry
     hartree contribution      =     238.08610513 Ry
     xc contribution           =    -310.09280432 Ry
     ewald contribution        =    -817.26917002 Ry
     one-center paw contrib.   =    -910.57093576 Ry
      -> PAW hartree energy AE =     420.23410646 Ry
      -> PAW hartree energy PS =    -419.13349647 Ry
      -> PAW xc energy AE      =   -1015.95592881 Ry
      -> PAW xc energy PS      =     104.28438305 Ry
      -> total E_H with PAW    =     239.18671512 Ry
      -> total E_XC with PAW   =   -1221.76435007 Ry

     convergence has been achieved in  12 iterations

     negative rho (up, down):  3.578E-01 0.000E+00

     Forces acting on atoms (cartesian axes, Ry/au):

     atom    1 type  1   force =     0.00321042    0.00887519   -0.00261400
     atom    2 type  1   force =    -0.00321976    0.00892969    0.00269614
     atom    3 type  1   force =    -0.00321042   -0.00887519    0.00261400
     atom    4 type  1   force =     0.00321976   -0.00892969   -0.00269614
     atom    5 type  2   force =     0.00000000    0.00000000    0.00000000
     atom    6 type  2   force =     0.00000000    0.00000000    0.00000000
     atom    7 type  3   force =     0.00000000    0.00000000    0.00000000
     atom    8 type  3   force =     0.00000000    0.00000000    0.00000000
     atom    9 type  4   force =    -0.00551639    0.00426052   -0.00611927
     atom   10 type  4   force =     0.00559469    0.00432781    0.00613751
     atom   11 type  4   force =     0.00551639   -0.00426052    0.00611927
     atom   12 type  4   force =    -0.00559469   -0.00432781   -0.00613751
     atom   13 type  4   force =     0.00535224   -0.01208903   -0.00779732
     atom   14 type  4   force =    -0.00522681   -0.01219037    0.00779241
     atom   15 type  4   force =    -0.00535224    0.01208903    0.00779732
     atom   16 type  4   force =     0.00522681    0.01219037   -0.00779241
     atom   17 type  4   force =    -0.00790772   -0.00974361    0.01320694
     atom   18 type  4   force =     0.00792462   -0.00971270   -0.01337506
     atom   19 type  4   force =     0.00790772    0.00974361   -0.01320694
     atom   20 type  4   force =    -0.00792462    0.00971270    0.01337506
     The non-local contrib.  to forces
     atom    1 type  1   force =     0.00263067    0.00503599    0.00061621
     atom    2 type  1   force =    -0.00259336    0.00501109   -0.00052065
     atom    3 type  1   force =    -0.00263067   -0.00503599   -0.00061621
     atom    4 type  1   force =     0.00259336   -0.00501109    0.00052065
     atom    5 type  2   force =     0.00000000    0.00000000    0.00000000
     atom    6 type  2   force =     0.00000000    0.00000000    0.00000000
     atom    7 type  3   force =     0.00000000    0.00000000    0.00000000
     atom    8 type  3   force =     0.00000000    0.00000000    0.00000000
     atom    9 type  4   force =    -0.26803277    0.47081963    0.08111817
     atom   10 type  4   force =     0.26801608    0.47066947   -0.08105573
     atom   11 type  4   force =     0.26803277   -0.47081963   -0.08111817
     atom   12 type  4   force =    -0.26801608   -0.47066947    0.08105573
     atom   13 type  4   force =    -0.49911825   -0.29400025    0.08716517
     atom   14 type  4   force =     0.49948733   -0.29405832   -0.08713861
     atom   15 type  4   force =     0.49911825    0.29400025   -0.08716517
     atom   16 type  4   force =    -0.49948733    0.29405832    0.08713861
     atom   17 type  4   force =     0.17935353    0.05553711    0.49013725
     atom   18 type  4   force =    -0.17897676    0.05562812   -0.49037794
     atom   19 type  4   force =    -0.17935353   -0.05553711   -0.49013725
     atom   20 type  4   force =     0.17897676   -0.05562812    0.49037794
     The ionic contribution  to forces
     atom    1 type  1   force =    -0.73121022   -1.13922691   -0.02871401
     atom    2 type  1   force =     0.73087096   -1.14005251    0.03264278
     atom    3 type  1   force =     0.73121022    1.13922691    0.02871401
     atom    4 type  1   force =    -0.73087096    1.14005251   -0.03264278
     atom    5 type  2   force =    -0.00000000   -0.00000000   -0.00000000
     atom    6 type  2   force =    -0.00000000    0.00000000    0.00000000
     atom    7 type  3   force =    -0.00000000    0.00000000    0.00000000
     atom    8 type  3   force =    -0.00000000   -0.00000000    0.00000000
     atom    9 type  4   force =     1.74262920   -3.92494888   -1.16462276
     atom   10 type  4   force =    -1.73945505   -3.92234395    1.16326438
     atom   11 type  4   force =    -1.74262920    3.92494888    1.16462276
     atom   12 type  4   force =     1.73945506    3.92234395   -1.16326438
     atom   13 type  4   force =     4.34449985    2.40756544   -0.93078026
     atom   14 type  4   force =    -4.34186171    2.40529702    0.93039226
     atom   15 type  4   force =    -4.34449985   -2.40756544    0.93078026
     atom   16 type  4   force =     4.34186171   -2.40529702   -0.93039226
     atom   17 type  4   force =    -2.23326852   -0.06140952   -4.30042849
     atom   18 type  4   force =     2.23350529   -0.06130921    4.30104916
     atom   19 type  4   force =     2.23326852    0.06140952    4.30042849
     atom   20 type  4   force =    -2.23350529    0.06130921   -4.30104916
     The local contribution  to forces
     atom    1 type  1   force =     0.73166135    1.14311248    0.02582579
     atom    2 type  1   force =    -0.73127317    1.14399524   -0.02906833
     atom    3 type  1   force =    -0.73154126   -1.14305453   -0.02582545
     atom    4 type  1   force =     0.73121272   -1.14410744    0.02898634
     atom    5 type  2   force =     0.00009729    0.00000084    0.00009902
     atom    6 type  2   force =     0.00004917    0.00004448    0.00001905
     atom    7 type  3   force =    -0.00016435    0.00005391   -0.00001433
     atom    8 type  3   force =    -0.00007617   -0.00004981   -0.00002587
     atom    9 type  4   force =    -1.48350083    3.46407926    1.07807420
     atom   10 type  4   force =     1.48055880    3.46169963   -1.07690296
     atom   11 type  4   force =     1.48356287   -3.46411669   -1.07805819
     atom   12 type  4   force =    -1.48053854   -3.46168654    1.07686354
     atom   13 type  4   force =    -3.84589034   -2.12934747    0.83664631
     atom   14 type  4   force =     3.84314258   -2.12709682   -0.83640208
     atom   15 type  4   force =     3.84593160    2.12936511   -0.83663640
     atom   16 type  4   force =    -3.84311458    2.12706257    0.83637003
     atom   17 type  4   force =     2.04789253   -0.00321669    3.82970242
     atom   18 type  4   force =    -2.04843551   -0.00336099   -3.82978763
     atom   19 type  4   force =    -2.04788847    0.00320459   -3.82968385
     atom   20 type  4   force =     2.04846374    0.00334220    3.82981205
     The core correction contribution to forces
     atom    1 type  1   force =     0.00014585   -0.00001599    0.00001233
     atom    2 type  1   force =    -0.00014882   -0.00001263   -0.00000874
     atom    3 type  1   force =    -0.00014477    0.00001583   -0.00001237
     atom    4 type  1   force =     0.00014796    0.00001100    0.00000642
     atom    5 type  2   force =     0.00000001   -0.00000000    0.00000003
     atom    6 type  2   force =     0.00000002    0.00000001   -0.00000001
     atom    7 type  3   force =     0.00000393   -0.00000152    0.00000146
     atom    8 type  3   force =     0.00000247    0.00000129   -0.00000010
     atom    9 type  4   force =     0.00339481   -0.00562508   -0.00072695
     atom   10 type  4   force =    -0.00339402   -0.00562483    0.00074682
     atom   11 type  4   force =    -0.00339381    0.00562510    0.00072680
     atom   12 type  4   force =     0.00339427    0.00562451   -0.00074667
     atom   13 type  4   force =     0.00586269    0.00360543   -0.00087688
     atom   14 type  4   force =    -0.00586780    0.00360849    0.00086035
     atom   15 type  4   force =    -0.00586204   -0.00360550    0.00087690
     atom   16 type  4   force =     0.00586799   -0.00360845   -0.00086028
     atom   17 type  4   force =    -0.00188576   -0.00066922   -0.00586461
     atom   18 type  4   force =     0.00188133   -0.00067034    0.00587181
     atom   19 type  4   force =     0.00188534    0.00066905    0.00586484
     atom   20 type  4   force =    -0.00188051    0.00066991   -0.00587174
     The Hubbard contrib.    to forces
     atom    1 type  1   force =     0.00000000    0.00000000    0.00000000
     atom    2 type  1   force =     0.00000000    0.00000000    0.00000000
     atom    3 type  1   force =     0.00000000    0.00000000    0.00000000
     atom    4 type  1   force =     0.00000000    0.00000000    0.00000000
     atom    5 type  2   force =     0.00000000    0.00000000    0.00000000
     atom    6 type  2   force =     0.00000000    0.00000000    0.00000000
     atom    7 type  3   force =     0.00000000    0.00000000    0.00000000
     atom    8 type  3   force =     0.00000000    0.00000000    0.00000000
     atom    9 type  4   force =     0.00000000    0.00000000    0.00000000
     atom   10 type  4   force =     0.00000000    0.00000000    0.00000000
     atom   11 type  4   force =     0.00000000    0.00000000    0.00000000
     atom   12 type  4   force =     0.00000000    0.00000000    0.00000000
     atom   13 type  4   force =     0.00000000    0.00000000    0.00000000
     atom   14 type  4   force =     0.00000000    0.00000000    0.00000000
     atom   15 type  4   force =     0.00000000    0.00000000    0.00000000
     atom   16 type  4   force =     0.00000000    0.00000000    0.00000000
     atom   17 type  4   force =     0.00000000    0.00000000    0.00000000
     atom   18 type  4   force =     0.00000000    0.00000000    0.00000000
     atom   19 type  4   force =     0.00000000    0.00000000    0.00000000
     atom   20 type  4   force =     0.00000000    0.00000000    0.00000000
     The SCF correction term to forces
     atom    1 type  1   force =    -0.00000178   -0.00002399   -0.00035456
     atom    2 type  1   force =    -0.00008597   -0.00002307   -0.00036688
     atom    3 type  1   force =    -0.00008850   -0.00002102    0.00035376
     atom    4 type  1   force =     0.00012607    0.00011378    0.00041528
     atom    5 type  2   force =    -0.00009070   -0.00000789   -0.00008599
     atom    6 type  2   force =    -0.00003278   -0.00004164   -0.00000735
     atom    7 type  3   force =     0.00021506   -0.00008836    0.00002444
     atom    8 type  3   force =     0.00012067    0.00006391    0.00003622
     atom    9 type  4   force =     0.00002709   -0.00007506    0.00003674
     atom   10 type  4   force =    -0.00012201   -0.00007807    0.00009711
     atom   11 type  4   force =    -0.00002234    0.00009117   -0.00005525
     atom   12 type  4   force =     0.00011973    0.00005418   -0.00003364
     atom   13 type  4   force =     0.00002007    0.00008744    0.00004148
     atom   14 type  4   force =    -0.00012751    0.00006345    0.00008920
     atom   15 type  4   force =    -0.00001843   -0.00010579   -0.00006512
     atom   16 type  4   force =     0.00009873   -0.00002086   -0.00003980
     atom   17 type  4   force =    -0.00000462    0.00001431   -0.00033888
     atom   18 type  4   force =    -0.00002957   -0.00001136   -0.00014131
     atom   19 type  4   force =    -0.00000925   -0.00000285    0.00032157
     atom   20 type  4   force =     0.00004083    0.00000840    0.00009511

     Total force =     0.054903     Total SCF correction =     0.001040

     Computing stress (Cartesian axis) and pressure

     negative rho (up, down):  3.578E-01 0.000E+00
          total   stress  (Ry/bohr**3)                   (kbar)     P=     -253.98
  -0.00174639  -0.00000031   0.00000844         -256.90       -0.04        1.24
  -0.00000031  -0.00164798   0.00000002           -0.04     -242.43        0.00
   0.00000844   0.00000002  -0.00178514            1.24        0.00     -262.60

     kinetic stress (kbar)  15702.59      0.01      2.76
                                0.01  15742.09     -0.00
                                2.76     -0.00  15668.72

     local   stress (kbar)  -8209.84      0.12    467.24
                                0.12  -8264.95      0.68
                              467.24      0.68  -7878.29

     nonloc. stress (kbar)   9700.49      0.00      4.22
                                0.00   9700.15      0.00
                                4.22      0.00   9706.82

     hartree stress (kbar)   5284.12     -0.01   -215.01
                               -0.01   5333.13     -0.26
                             -215.01     -0.26   5281.41

     exc-cor stress (kbar)   4753.53     -0.00     -0.05
                               -0.00   4753.65     -0.00
                               -0.05     -0.00   4752.02

     corecor stress (kbar)  -9404.35      0.00     -0.03
                                0.00  -9404.44     -0.00
                               -0.03     -0.00  -9404.07

     ewald   stress (kbar) -18083.44     -0.17   -257.89
                               -0.17 -18102.06     -0.42
                             -257.89     -0.42 -18389.23

     hubbard stress (kbar)      0.00      0.00      0.00
                                0.00      0.00      0.00
                                0.00      0.00      0.00

     DFT-D   stress (kbar)      0.00      0.00      0.00
                                0.00      0.00      0.00
                                0.00      0.00      0.00

     XDM     stress (kbar)      0.00      0.00      0.00
                                0.00      0.00      0.00
                                0.00      0.00      0.00

     dft-nl  stress (kbar)      0.00      0.00      0.00
                                0.00      0.00      0.00
                                0.00      0.00      0.00

     TS-vdW  stress (kbar)      0.00      0.00      0.00
                                0.00      0.00      0.00
                                0.00      0.00      0.00

[...]

                                0.00      0.00      0.00

     Writing all to output data dir new_calculations/myprefix.save/

     General routines

     Parallel routines

     PAW routines

   This run was terminated on:  11:13: 2  20May2023

   JOB DONE.