     Program PWSCF v.7.0 starts on 20May2023 at 21:40:25

     Reading input from espresso_2743.pwi
Warning: card &CELL ignored
Warning: card / ignored

     Current dimensions of program PWSCF are:
     Max number of different atomic species (ntypx) = 10
     Max number of k-points (npk) =  40000
     Max angular momentum in pseudopotentials (lmaxx) =  4

     gamma-point specific algorithms are used
     Message from routine setup:
     using ibrav=0 with symmetry is DISCOURAGED, use correct ibrav instead

     Subspace diagonalization in iterative solution of the eigenvalue problem:
     a serial algorithm will be used

     Using Slab Decomposition

     bravais-lattice index     =            0
     lattice parameter (alat)  =      12.2655  a.u.
     unit-cell volume          =    1304.7951 (a.u.)^3
     number of atoms/cell      =           10
     number of atomic types    =            3
     number of electrons       =        86.00
     number of Kohn-Sham states=           52
     kinetic-energy cutoff     =      30.0000  Ry
     charge density cutoff     =     240.0000  Ry
     scf convergence threshold =      1.0E-06
     mixing beta               =       0.7000
     number of iterations used =            8  plain     mixing
     Exchange-correlation=  SLA  PW   PBX  PBC
                           (   1   4   3   4   0   0   0)

     celldm(1)=  12.265514  celldm(2)=   0.000000  celldm(3)=   0.000000
     celldm(4)=   0.000000  celldm(5)=   0.000000  celldm(6)=   0.000000

     crystal axes: (cart. coord. in units of alat)
               a(1) = (   1.000000   0.000000   0.000000 )
               a(2) = (   0.500000   0.866025   0.000000 )
               a(3) = (   0.500000   0.288675   0.816497 )

     reciprocal axes: (cart. coord. in units 2 pi/alat)
               b(1) = (  1.000000 -0.577350 -0.408248 )
               b(2) = (  0.000000  1.154701 -0.408248 )
               b(3) = (  0.000000  0.000000  1.224745 )

     PseudoPot. # 1 for Rb read from file:
     /home/pragov/projects/rrg-bengioy-ad/pragov/crystal_structure_design/SSSP/Rb_ONCV_PBE-1.0.oncvpsp.upf
     MD5 check sum: 55a5172d6bfbce6759a58e35d43f6aa9
     Pseudo is Norm-conserving, Zval =  9.0
     Generated using ONCVPSP code by D. R. Hamann
     Using radial grid of 2308 points,  6 beta functions with:
                l(1) =   0
                l(2) =   0
                l(3) =   1
                l(4) =   1
                l(5) =   2
                l(6) =   2

     PseudoPot. # 2 for Co read from file:
     /home/pragov/projects/rrg-bengioy-ad/pragov/crystal_structure_design/SSSP/Co_pbe_v1.2.uspp.F.UPF
     MD5 check sum: 5f91765df6ddd3222702df6e7b74a16d
     Pseudo is Ultrasoft + core correction, Zval = 17.0
     Generated by new atomic code, or converted to UPF format
     Using radial grid of  863 points,  6 beta functions with:
                l(1) =   0
                l(2) =   0
                l(3) =   1
                l(4) =   1
                l(5) =   2
                l(6) =   2
     Q(r) pseudized with  8 coefficients,  rinner =    1.200   1.200   1.200
                                                       1.200   1.200

     PseudoPot. # 3 for F  read from file:
     /home/pragov/projects/rrg-bengioy-ad/pragov/crystal_structure_design/SSSP/f_pbe_v1.4.uspp.F.UPF
     MD5 check sum: 4c38b6a325caf53ec0e86aed9459de46
     Pseudo is Ultrasoft, Zval =  7.0
     Generated by new atomic code, or converted to UPF format
     Using radial grid of  799 points,  4 beta functions with:
                l(1) =   0
                l(2) =   0
                l(3) =   1
                l(4) =   1
     Q(r) pseudized with  8 coefficients,  rinner =    0.950   0.950   0.950

     atomic species   valence    mass     pseudopotential
        Rb             9.00    85.46780     Rb( 1.00)
        Co            17.00    58.93319     Co( 1.00)
        F              7.00    18.99840     F ( 1.00)

     12 Sym. Ops., with inversion, found

                                    s                        frac. trans.

      isym =  1     identity

 cryst.   s( 1) = (     1          0          0      )
                  (     0          1          0      )
                  (     0          0          1      )

 cart.    s( 1) = (  1.0000000  0.0000000  0.0000000 )
                  (  0.0000000  1.0000000  0.0000000 )
                  (  0.0000000  0.0000000  1.0000000 )

      isym =  2     180 deg rotation - cart. axis [1,0,0]

[...]

      isym =  3     120 deg rotation - cryst. axis [0,0,1]

[...]

      isym =  6     180 deg rotation - cryst. axis [1,1,0]

[...]

      isym =  7     inversion

[...]

      isym =  8     inv. 180 deg rotation - cart. axis [1,0,0]

[...]

      isym =  9     inv. 120 deg rotation - cryst. axis [0,0,1]

 cryst.   s( 9) = (     1         -1          0      )
                  (     1          0          0      )
                  (     1          0         -1      )

 cart.    s( 9) = (  0.5000000  0.8660254  0.0000000 )
                  ( -0.8660254  0.5000000  0.0000000 )
                  (  0.0000000  0.0000000 -1.0000000 )

[...]

 cryst.   s(10) = (     0          1          0      )
                  (    -1          1          0      )
                  (     0          1         -1      )

 cart.    s(10) = (  0.5000000 -0.8660254  0.0000000 )
                  (  0.8660254  0.5000000  0.0000000 )
                  (  0.0000000  0.0000000 -1.0000000 )

[...]

      isym = 12     inv. 180 deg rotation - cryst. axis [1,1,0]

 cryst.   s(12) = (     1         -1          0      )
                  (     0         -1          0      )
                  (     0         -1          1      )

 cart.    s(12) = (  0.5000000 -0.8660254  0.0000000 )
                  ( -0.8660254 -0.5000000 -0.0000000 )
                  (  0.0000000  0.0000000  1.0000000 )

   Cartesian axes

     site n.     atom                  positions (alat units)
         1           Rb  tau(   1) = (   0.5000000   0.2886751   0.2041241  )
         2           Rb  tau(   2) = (   1.5000000   0.8660254   0.6123724  )
         3           Rb  tau(   3) = (   1.0000000   0.5773503   0.4082483  )
         4           Co  tau(   4) = (   0.0000000   0.0000000   0.0000000  )
         5           F   tau(   5) = (   1.0000000   0.2439455   0.1724955  )
         6           F   tau(   6) = (   1.0000000   0.9107550   0.6440011  )
         7           F   tau(   7) = (   0.7112630   0.7440527   0.1724955  )
         8           F   tau(   8) = (   1.2887370   0.4106479   0.6440011  )
         9           F   tau(   9) = (   0.7112630   0.4106479   0.6440011  )
        10           F   tau(  10) = (   1.2887370   0.7440527   0.1724955  )

   Crystallographic axes

     site n.     atom                  positions (cryst. coord.)
         1           Rb  tau(   1) = (  0.2500000  0.2500000  0.2500000  )
         2           Rb  tau(   2) = (  0.7500000  0.7500000  0.7500000  )
         3           Rb  tau(   3) = (  0.5000000  0.5000000  0.5000000  )
         4           Co  tau(   4) = (  0.0000000  0.0000000  0.0000000  )
         5           F   tau(   5) = (  0.7887370  0.2112630  0.2112630  )
         6           F   tau(   6) = (  0.2112630  0.7887370  0.7887370  )
         7           F   tau(   7) = (  0.2112630  0.7887370  0.2112630  )
         8           F   tau(   8) = (  0.7887370  0.2112630  0.7887370  )
         9           F   tau(   9) = (  0.2112630  0.2112630  0.7887370  )
        10           F   tau(  10) = (  0.7887370  0.7887370  0.2112630  )

     number of k points=     1  Methfessel-Paxton smearing, width (Ry)=  0.0010
                       cart. coord. in units 2pi/alat
        k(    1) = (   0.0000000   0.0000000   0.0000000), wk =   2.0000000

                       cryst. coord.
        k(    1) = (   0.0000000   0.0000000   0.0000000), wk =   2.0000000

     Check: negative core charge=   -0.000005

     Initial potential from superposition of free atoms

     starting charge      84.9257, renormalised to      86.0000
     Starting wfcs are   52 randomized atomic wfcs

     Self-consistent Calculation

     iteration #  1     ecut=    30.00 Ry     beta= 0.70
     Davidson diagonalization with overlap

     ethr =  1.00E-02,  avg # of iterations =  5.0

     total energy              =    -736.60877238 Ry
     estimated scf accuracy    <       1.81694456 Ry

[...]

     total energy              =    -737.58927004 Ry
     estimated scf accuracy    <       0.00000501 Ry

     iteration #  9     ecut=    30.00 Ry     beta= 0.70
     Davidson diagonalization with overlap

     ethr =  5.83E-09,  avg # of iterations =  2.0

     End of self-consistent calculation

          k = 0.0000 0.0000 0.0000 (  1848 PWs)   bands (ev):

   -91.5135 -54.7240 -54.7240 -54.7238 -21.9525 -21.9285 -21.2053 -18.1965
   -17.8846 -17.8837 -17.8832 -17.8041 -17.8032  -6.1173  -6.1173  -6.1173
    -6.0535  -6.0535  -6.0535  -5.3884  -5.3884  -5.3884  -1.3925  -0.8446
    -0.8440  -0.2017  -0.2015  -0.2012   0.0123   0.0127   0.0129   1.0721
     1.0724   1.0729   1.1518   1.1518   1.1518   1.5425   1.5427   1.5431
     3.3912   3.3913   3.3914   4.9289   4.9292   7.5889  10.2368  10.2369
    11.0548  11.0548  11.0549  11.2961

     occupation numbers
     1.0000   1.0000   1.0000   1.0000   1.0000   1.0000   1.0000   1.0000
     1.0000   1.0000   1.0000   1.0000   1.0000   1.0000   1.0000   1.0000
     1.0000   1.0000   1.0000   1.0000   1.0000   1.0000   1.0000   1.0000
     1.0000   1.0000   1.0000   1.0000   1.0000   1.0000   1.0000   1.0000
     1.0000   1.0000   1.0000   1.0000   1.0000   1.0000   1.0000   1.0000
     1.0000   1.0000   1.0000  -0.0000  -0.0000  -0.0000  -0.0000  -0.0000
    -0.0000  -0.0000  -0.0000  -0.0000

     the Fermi energy is     4.1843 ev

!    total energy              =    -737.58927073 Ry
     estimated scf accuracy    <       0.00000043 Ry
     smearing contrib. (-TS)   =       0.00000000 Ry
     internal energy E=F+TS    =    -737.58927073 Ry

     The total energy is F=E-TS. E is the sum of the following terms:
     one-electron contribution =    -586.81149624 Ry
     hartree contribution      =     330.55435961 Ry
     xc contribution           =    -111.33928628 Ry
     ewald contribution        =    -369.99284782 Ry

     convergence has been achieved in   9 iterations

     Forces acting on atoms (cartesian axes, Ry/au):

     atom    1 type  1   force =    -0.00000000    0.00000000   -0.00000693
     atom    2 type  1   force =     0.00000000    0.00000000    0.00000693
     atom    3 type  1   force =     0.00000000    0.00000000    0.00000000
     atom    4 type  2   force =     0.00000000    0.00000000    0.00000000
     atom    5 type  3   force =     0.00000000   -0.03346014   -0.02366588
     atom    6 type  3   force =     0.00000000    0.03346014    0.02366588
     atom    7 type  3   force =    -0.02897733    0.01673007   -0.02366588
     atom    8 type  3   force =     0.02897733   -0.01673007    0.02366588
     atom    9 type  3   force =    -0.02897733   -0.01673007    0.02366588
     atom   10 type  3   force =     0.02897733    0.01673007   -0.02366588
     The non-local contrib.  to forces
     atom    1 type  1   force =     0.00000000    0.00000000    0.00000076
     atom    2 type  1   force =     0.00000000    0.00000000   -0.00000076
     atom    3 type  1   force =     0.00000000    0.00000000    0.00000000
     atom    4 type  2   force =     0.00000000    0.00000000    0.00000000
     atom    5 type  3   force =     0.00000000   -0.52832156   -0.37358020
     atom    6 type  3   force =     0.00000000    0.52832156    0.37358020
     atom    7 type  3   force =    -0.45753989    0.26416078   -0.37358020
     atom    8 type  3   force =     0.45753989   -0.26416078    0.37358020
     atom    9 type  3   force =    -0.45753989   -0.26416078    0.37358020
     atom   10 type  3   force =     0.45753989    0.26416078   -0.37358020
     The ionic contribution  to forces
     atom    1 type  1   force =    -0.00000000   -0.00000000   -0.00000000
     atom    2 type  1   force =    -0.00000000   -0.00000000    0.00000000
     atom    3 type  1   force =    -0.00000000   -0.00000000   -0.00000000
     atom    4 type  2   force =    -0.00000000   -0.00000000    0.00000000
     atom    5 type  3   force =    -0.00000000   13.55993578    9.58832254
     atom    6 type  3   force =    -0.00000000  -13.55993578   -9.58832254
     atom    7 type  3   force =    11.74324886   -6.77996789    9.58832254
     atom    8 type  3   force =   -11.74324886    6.77996789   -9.58832254
     atom    9 type  3   force =    11.74324886    6.77996789   -9.58832254
     atom   10 type  3   force =   -11.74324886   -6.77996789    9.58832254
     The local contribution  to forces
     atom    1 type  1   force =     0.00000194    0.00000907    0.00000813
     atom    2 type  1   force =     0.00000755    0.00001643   -0.00001333
     atom    3 type  1   force =     0.00000855    0.00022202   -0.00000589
     atom    4 type  2   force =    -0.00006799   -0.00100273    0.00006832
     atom    5 type  3   force =    -0.00000491  -13.06520766   -9.23845001
     atom    6 type  3   force =    -0.00000140   13.06521191    9.23853197
     atom    7 type  3   force =   -11.31485390    6.53257012   -9.23851503
     atom    8 type  3   force =    11.31480082   -6.53264784    9.23848020
     atom    9 type  3   force =   -11.31479296   -6.53264157    9.23847274
     atom   10 type  3   force =    11.31485352    6.53257950   -9.23852012
     The core correction contribution to forces
     atom    1 type  1   force =     0.00000000    0.00000000    0.00000000
     atom    2 type  1   force =     0.00000000    0.00000000    0.00000000
     atom    3 type  1   force =     0.00000000    0.00000000    0.00000000
     atom    4 type  2   force =    -0.00000024   -0.00000598    0.00000028
     atom    5 type  3   force =     0.00000000    0.00000000    0.00000000
     atom    6 type  3   force =     0.00000000    0.00000000    0.00000000
     atom    7 type  3   force =     0.00000000    0.00000000    0.00000000
     atom    8 type  3   force =     0.00000000    0.00000000    0.00000000
     atom    9 type  3   force =     0.00000000    0.00000000    0.00000000
     atom   10 type  3   force =     0.00000000    0.00000000    0.00000000
     The Hubbard contrib.    to forces
     atom    1 type  1   force =     0.00000000    0.00000000    0.00000000
     atom    2 type  1   force =     0.00000000    0.00000000    0.00000000
     atom    3 type  1   force =     0.00000000    0.00000000    0.00000000
     atom    4 type  2   force =     0.00000000    0.00000000    0.00000000
     atom    5 type  3   force =     0.00000000    0.00000000    0.00000000
     atom    6 type  3   force =     0.00000000    0.00000000    0.00000000
     atom    7 type  3   force =     0.00000000    0.00000000    0.00000000
     atom    8 type  3   force =     0.00000000    0.00000000    0.00000000
     atom    9 type  3   force =     0.00000000    0.00000000    0.00000000
     atom   10 type  3   force =     0.00000000    0.00000000    0.00000000
     The SCF correction term to forces
     atom    1 type  1   force =    -0.00000784   -0.00000288   -0.00001375
     atom    2 type  1   force =    -0.00001566   -0.00001669    0.00002309
     atom    3 type  1   force =    -0.00001135   -0.00023849   -0.00000204
     atom    4 type  2   force =     0.00009115    0.00113329   -0.00007716
     atom    5 type  3   force =     0.00000844    0.00015936    0.00004968
     atom    6 type  3   force =     0.00000432   -0.00007742   -0.00009948
     atom    7 type  3   force =     0.00017137   -0.00001140    0.00009524
     atom    8 type  3   force =    -0.00013114    0.00013941   -0.00008779
     atom    9 type  3   force =     0.00012980    0.00013351   -0.00008514
     atom   10 type  3   force =    -0.00015684   -0.00001673    0.00010340

     Total force =     0.100389     Total SCF correction =     0.001249

     Computing stress (Cartesian axis) and pressure

          total   stress  (Ry/bohr**3)                   (kbar)     P=     -107.29
  -0.00072932   0.00000000  -0.00000000         -107.29        0.00       -0.00
  -0.00000000  -0.00072932  -0.00000000           -0.00     -107.29       -0.00
  -0.00000000  -0.00000000  -0.00072933           -0.00       -0.00     -107.29

     kinetic stress (kbar)  14432.94     -0.00     -0.00
                               -0.00  14432.94     -0.00
                               -0.00     -0.00  14432.95

     local   stress (kbar) -11443.40     -0.01      0.03
                               -0.01 -11443.56     -0.06
                                0.03     -0.06 -11443.53

     nonloc. stress (kbar)   2339.47     -0.00     -0.00
                               -0.00   2339.47      0.00
                               -0.00      0.00   2339.49

     hartree stress (kbar)  12422.38      0.01     -0.02
                                0.01  12422.49      0.07
                               -0.02      0.07  12422.46

     exc-cor stress (kbar)  -3700.47     -0.00      0.00
                               -0.00  -3700.47     -0.00
                                0.00     -0.00  -3700.47

     corecor stress (kbar)   -253.63      0.00      0.00
                                0.00   -253.63      0.00
                                0.00      0.00   -253.63

     ewald   stress (kbar) -13904.57     -0.00     -0.00
                               -0.00 -13904.57     -0.00
                               -0.00     -0.00 -13904.57

     hubbard stress (kbar)      0.00      0.00      0.00
                                0.00      0.00      0.00
                                0.00      0.00      0.00

     DFT-D   stress (kbar)      0.00      0.00      0.00
                                0.00      0.00      0.00
                                0.00      0.00      0.00

     XDM     stress (kbar)      0.00      0.00      0.00
                                0.00      0.00      0.00
                                0.00      0.00      0.00

     dft-nl  stress (kbar)      0.00      0.00      0.00
                                0.00      0.00      0.00
                                0.00      0.00      0.00

     TS-vdW  stress (kbar)      0.00      0.00      0.00
                                0.00      0.00      0.00
                                0.00      0.00      0.00

[...]

                                0.00      0.00      0.00

     Writing all to output data dir new_calculations/myprefix.save/

     General routines

     Parallel routines

   This run was terminated on:  21:40:53  20May2023

   JOB DONE.