     Program PWSCF v.7.0 starts on 21May2023 at  2:33:49

     Reading input from espresso_11761.pwi
Warning: card &CELL ignored
Warning: card / ignored

     Current dimensions of program PWSCF are:
     Max number of different atomic species (ntypx) = 10
     Max number of k-points (npk) =  40000
     Max angular momentum in pseudopotentials (lmaxx) =  4
     file C.pbe-n-kjpaw_psl.1.0.0.UPF: wavefunction(s)  2S 2P renormalized

     gamma-point specific algorithms are used
     Message from routine setup:
     using ibrav=0 with symmetry is DISCOURAGED, use correct ibrav instead

     Subspace diagonalization in iterative solution of the eigenvalue problem:
     a serial algorithm will be used

     Using Slab Decomposition

     bravais-lattice index     =            0
     lattice parameter (alat)  =      10.1150  a.u.
     unit-cell volume          =     693.5598 (a.u.)^3
     number of atoms/cell      =           10
     number of atomic types    =            3
     number of electrons       =        50.00
     number of Kohn-Sham states=           30
     kinetic-energy cutoff     =      30.0000  Ry
     charge density cutoff     =     240.0000  Ry
     scf convergence threshold =      1.0E-06
     mixing beta               =       0.7000
     number of iterations used =            8  plain     mixing
     Exchange-correlation= SLA  PW   PBX  PBC
                           (   1   4   3   4   0   0   0)

     celldm(1)=  10.115007  celldm(2)=   0.000000  celldm(3)=   0.000000
     celldm(4)=   0.000000  celldm(5)=   0.000000  celldm(6)=   0.000000

     crystal axes: (cart. coord. in units of alat)
               a(1) = (   1.000000   0.000000   0.000000 )
               a(2) = (   0.000000   1.000000   0.000000 )
               a(3) = (   0.000000   0.000000   0.670171 )

     reciprocal axes: (cart. coord. in units 2 pi/alat)
               b(1) = (  1.000000  0.000000  0.000000 )
               b(2) = (  0.000000  1.000000  0.000000 )
               b(3) = (  0.000000  0.000000  1.492157 )

     PseudoPot. # 1 for Y  read from file:
     /home/pragov/projects/rrg-bengioy-ad/pragov/crystal_structure_design/SSSP/Y_pbe_v1.uspp.F.UPF
     MD5 check sum: 2cf71db95cafeb975fc457bd7f14888e
     Pseudo is Ultrasoft + core correction, Zval = 11.0
     Generated by new atomic code, or converted to UPF format
     Using radial grid of  885 points,  6 beta functions with:
                l(1) =   0
                l(2) =   0
                l(3) =   1
                l(4) =   1
                l(5) =   2
                l(6) =   2
     Q(r) pseudized with  6 coefficients,  rinner =    1.200   1.200   1.200
                                                       1.200   1.200

     PseudoPot. # 2 for B  read from file:
     /home/pragov/projects/rrg-bengioy-ad/pragov/crystal_structure_design/SSSP/b_pbe_v1.4.uspp.F.UPF
     MD5 check sum: cc6de2960df11db49a60e589f9ebb39b
     Pseudo is Ultrasoft + core correction, Zval =  3.0
     Generated by new atomic code, or converted to UPF format
     Using radial grid of  781 points,  4 beta functions with:
                l(1) =   0
                l(2) =   0
                l(3) =   1
                l(4) =   1
     Q(r) pseudized with  8 coefficients,  rinner =    1.100   1.100   1.100

     PseudoPot. # 3 for C  read from file:
     /home/pragov/projects/rrg-bengioy-ad/pragov/crystal_structure_design/SSSP/C.pbe-n-kjpaw_psl.1.0.0.UPF
     MD5 check sum: 5d2aebdfa2cae82b50a7e79e9516da0f
     Pseudo is Projector augmented-wave + core cor, Zval =  4.0
     Generated using "atomic" code by A. Dal Corso  v.5.1
     Shape of augmentation charge: PSQ
     Using radial grid of 1073 points,  4 beta functions with:
                l(1) =   0
                l(2) =   0
                l(3) =   1
                l(4) =   1
     Q(r) pseudized with 0 coefficients

     atomic species   valence    mass     pseudopotential
        Y             11.00    88.90584     Y ( 1.00)
        B              3.00    10.81000     B ( 1.00)
        C              4.00    12.01100     C ( 1.00)

     16 Sym. Ops., with inversion, found ( 8 have fractional translation)

                                    s                        frac. trans.

      isym =  1     identity

 cryst.   s( 1) = (     1          0          0      )
                  (     0          1          0      )
                  (     0          0          1      )

 cart.    s( 1) = (  1.0000000  0.0000000  0.0000000 )
                  (  0.0000000  1.0000000  0.0000000 )
                  (  0.0000000  0.0000000  1.0000000 )

      isym =  2     180 deg rotation - cart. axis [0,0,1]

[...]

 cryst.   s( 3) = (    -1          0          0      )    f =(  0.5000000 )
                  (     0          1          0      )       (  0.5000000 )
                  (     0          0         -1      )       (  0.0000000 )

 cart.    s( 3) = ( -1.0000000  0.0000000  0.0000000 )    f =(  0.5000000 )
                  (  0.0000000  1.0000000  0.0000000 )       (  0.5000000 )
                  (  0.0000000  0.0000000 -1.0000000 )       (  0.0000000 )

[...]

 cryst.   s( 6) = (     0         -1          0      )    f =(  0.5000000 )
                  (    -1          0          0      )       (  0.5000000 )
                  (     0          0         -1      )       (  0.0000000 )

 cart.    s( 6) = (  0.0000000 -1.0000000  0.0000000 )    f =(  0.5000000 )
                  ( -1.0000000  0.0000000  0.0000000 )       (  0.5000000 )
                  (  0.0000000  0.0000000 -1.0000000 )       (  0.0000000 )

[...]

      isym =  8      90 deg rotation - cart. axis [0,0,1]

[...]

      isym =  9     inversion

 cryst.   s( 9) = (    -1          0          0      )
                  (     0         -1          0      )
                  (     0          0         -1      )

 cart.    s( 9) = ( -1.0000000  0.0000000  0.0000000 )
                  (  0.0000000 -1.0000000  0.0000000 )
                  (  0.0000000  0.0000000 -1.0000000 )

      isym = 10     inv. 180 deg rotation - cart. axis [0,0,1]

 cryst.   s(10) = (     1          0          0      )
                  (     0          1          0      )
                  (     0          0         -1      )

 cart.    s(10) = (  1.0000000  0.0000000  0.0000000 )
                  (  0.0000000  1.0000000  0.0000000 )
                  (  0.0000000  0.0000000 -1.0000000 )

[...]

 cryst.   s(11) = (     1          0          0      )    f =(  0.5000000 )
                  (     0         -1          0      )       (  0.5000000 )
                  (     0          0          1      )       (  0.0000000 )

 cart.    s(11) = (  1.0000000  0.0000000  0.0000000 )    f =(  0.5000000 )
                  (  0.0000000 -1.0000000  0.0000000 )       (  0.5000000 )
                  (  0.0000000  0.0000000  1.0000000 )       (  0.0000000 )

[...]

 cryst.   s(14) = (     0          1          0      )    f =(  0.5000000 )
                  (     1          0          0      )       (  0.5000000 )
                  (     0          0          1      )       (  0.0000000 )

 cart.    s(14) = (  0.0000000  1.0000000  0.0000000 )    f =(  0.5000000 )
                  (  1.0000000  0.0000000  0.0000000 )       (  0.5000000 )
                  (  0.0000000  0.0000000  1.0000000 )       (  0.0000000 )

[...]

      isym = 16     inv.  90 deg rotation - cart. axis [0,0,1]

 cryst.   s(16) = (     0         -1          0      )
                  (     1          0          0      )
                  (     0          0         -1      )

 cart.    s(16) = (  0.0000000  1.0000000  0.0000000 )
                  ( -1.0000000  0.0000000  0.0000000 )
                  (  0.0000000  0.0000000 -1.0000000 )

   Cartesian axes

     site n.     atom                  positions (alat units)
         1           Y   tau(   1) = (   0.5000000   0.5000000   0.0000000  )
         2           Y   tau(   2) = (   0.0000000   0.0000000   0.0000000  )
         3           B   tau(   3) = (   0.8633560   0.3633560   0.3350853  )
         4           B   tau(   4) = (   0.1366440   0.6366440   0.3350853  )
         5           B   tau(   5) = (   0.3633560   0.1366440   0.3350853  )
         6           B   tau(   6) = (   0.6366440   0.8633560   0.3350853  )
         7           C   tau(   7) = (   0.6618990   0.1618990   0.3350853  )
         8           C   tau(   8) = (   0.3381010   0.8381010   0.3350853  )
         9           C   tau(   9) = (   0.1618990   0.3381010   0.3350853  )
        10           C   tau(  10) = (   0.8381010   0.6618990   0.3350853  )

   Crystallographic axes

     site n.     atom                  positions (cryst. coord.)
         1           Y   tau(   1) = (  0.5000000  0.5000000  0.0000000  )
         2           Y   tau(   2) = (  0.0000000  0.0000000  0.0000000  )
         3           B   tau(   3) = (  0.8633560  0.3633560  0.5000000  )
         4           B   tau(   4) = (  0.1366440  0.6366440  0.5000000  )
         5           B   tau(   5) = (  0.3633560  0.1366440  0.5000000  )
         6           B   tau(   6) = (  0.6366440  0.8633560  0.5000000  )
         7           C   tau(   7) = (  0.6618990  0.1618990  0.5000000  )
         8           C   tau(   8) = (  0.3381010  0.8381010  0.5000000  )
         9           C   tau(   9) = (  0.1618990  0.3381010  0.5000000  )
        10           C   tau(  10) = (  0.8381010  0.6618990  0.5000000  )

     number of k points=     1  Methfessel-Paxton smearing, width (Ry)=  0.0010
                       cart. coord. in units 2pi/alat
        k(    1) = (   0.0000000   0.0000000   0.0000000), wk =   2.0000000

                       cryst. coord.
        k(    1) = (   0.0000000   0.0000000   0.0000000), wk =   2.0000000

     Check: negative core charge=   -0.000019

     Initial potential from superposition of free atoms

     starting charge      49.9898, renormalised to      50.0000

     negative rho (up, down):  8.628E-02 0.000E+00
     Starting wfcs are   58 randomized atomic wfcs
     Checking if some PAW data can be deallocated...

     Self-consistent Calculation

     iteration #  1     ecut=    30.00 Ry     beta= 0.70
     Davidson diagonalization with overlap

     ethr =  1.00E-02,  avg # of iterations =  2.0

     negative rho (up, down):  8.526E-02 0.000E+00

     total energy              =    -273.43604111 Ry
     estimated scf accuracy    <       1.65717648 Ry

[...]

     total energy              =    -274.04483679 Ry
     estimated scf accuracy    <       0.00000141 Ry

     iteration # 10     ecut=    30.00 Ry     beta= 0.70
     Davidson diagonalization with overlap

     ethr =  2.82E-09,  avg # of iterations =  2.0

[...]

     End of self-consistent calculation

          k = 0.0000 0.0000 0.0000 (   966 PWs)   bands (ev):

   -30.4175 -30.3904 -10.7983 -10.7983 -10.5456 -10.5456 -10.2035 -10.1321
    -3.5927  -1.4255   0.0907   0.0908   2.6750   4.1217   4.3727   5.2363
     5.2363   7.3969   9.0567   9.0568   9.8634  10.4435  10.4436  10.4754
    11.3663  13.1273  13.7556  13.8968  13.8969  14.4103

     occupation numbers
     1.0000   1.0000   1.0000   1.0000   1.0000   1.0000   1.0000   1.0000
     1.0000   1.0000   1.0000   1.0000   1.0000   1.0000   1.0000   1.0000
     1.0000   1.0000   1.0000   1.0000   1.0000   1.0000   1.0000   1.0000
     1.0000  -0.0000  -0.0000  -0.0000  -0.0000  -0.0000

     the Fermi energy is    11.7277 ev

!    total energy              =    -274.04483659 Ry
     estimated scf accuracy    <       0.00000041 Ry
     smearing contrib. (-TS)   =       0.00000000 Ry
     internal energy E=F+TS    =    -274.04483659 Ry

     The total energy is F=E-TS. E is the sum of the following terms:
     one-electron contribution =      -5.33727065 Ry
     hartree contribution      =      30.52319739 Ry
     xc contribution           =     -74.92164961 Ry
     ewald contribution        =    -199.66213527 Ry
     one-center paw contrib.   =     -24.64697845 Ry
      -> PAW hartree energy AE =      34.61974989 Ry
      -> PAW hartree energy PS =     -34.58703379 Ry
      -> PAW xc energy AE      =     -41.87536465 Ry
      -> PAW xc energy PS      =      17.19567011 Ry
      -> total E_H with PAW    =      30.55591349 Ry
      -> total E_XC with PAW   =     -99.60134415 Ry

     convergence has been achieved in  10 iterations

     negative rho (up, down):  8.484E-02 0.000E+00

     Forces acting on atoms (cartesian axes, Ry/au):

     atom    1 type  1   force =     0.00000000    0.00000000    0.00000000
     atom    2 type  1   force =     0.00000000    0.00000000    0.00000000
     atom    3 type  2   force =     0.08226308    0.08226308    0.00000000
     atom    4 type  2   force =    -0.08226308   -0.08226308    0.00000000
     atom    5 type  2   force =     0.08226308   -0.08226308    0.00000000
     atom    6 type  2   force =    -0.08226308    0.08226308   -0.00000000
     atom    7 type  3   force =    -0.11370313   -0.11370313    0.00000000
     atom    8 type  3   force =     0.11370313    0.11370313   -0.00000000
     atom    9 type  3   force =    -0.11370313    0.11370313   -0.00000000
     atom   10 type  3   force =     0.11370313   -0.11370313    0.00000000
     The non-local contrib.  to forces
     atom    1 type  1   force =     0.00000000    0.00000000   -0.00000000
     atom    2 type  1   force =     0.00000000    0.00000000    0.00000000
     atom    3 type  2   force =     0.03235071    0.03235071    0.00000000
     atom    4 type  2   force =    -0.03235071   -0.03235071   -0.00000000
     atom    5 type  2   force =     0.03235071   -0.03235071   -0.00000000
     atom    6 type  2   force =    -0.03235071    0.03235071    0.00000000
     atom    7 type  3   force =     0.03081681    0.03081681   -0.00000000
     atom    8 type  3   force =    -0.03081681   -0.03081681   -0.00000000
     atom    9 type  3   force =     0.03081681   -0.03081681    0.00000000
     atom   10 type  3   force =    -0.03081681    0.03081681    0.00000000
     The ionic contribution  to forces
     atom    1 type  1   force =     0.00000000   -0.00000000   -0.00000000
     atom    2 type  1   force =     0.00000000    0.00000000   -0.00000000
     atom    3 type  2   force =     0.08458763    0.08458763   -0.00000000
     atom    4 type  2   force =    -0.08458763   -0.08458763   -0.00000000
     atom    5 type  2   force =     0.08458763   -0.08458763   -0.00000000
     atom    6 type  2   force =    -0.08458763    0.08458763   -0.00000000
     atom    7 type  3   force =    -0.05542486   -0.05542486   -0.00000000
     atom    8 type  3   force =     0.05542486    0.05542486   -0.00000000
     atom    9 type  3   force =    -0.05542486    0.05542486   -0.00000000
     atom   10 type  3   force =     0.05542486   -0.05542486   -0.00000000
     The local contribution  to forces
     atom    1 type  1   force =    -0.00014684   -0.00004149    0.00000325
     atom    2 type  1   force =     0.00017028    0.00006619   -0.00000776
     atom    3 type  2   force =    -0.03361652   -0.03349175   -0.00000033
     atom    4 type  2   force =     0.03368629    0.03350025   -0.00000028
     atom    5 type  2   force =    -0.03342878    0.03354224    0.00000092
     atom    6 type  2   force =     0.03334155   -0.03353349    0.00000178
     atom    7 type  3   force =    -0.08891859   -0.08863417    0.00000113
     atom    8 type  3   force =     0.08883195    0.08865546    0.00000082
     atom    9 type  3   force =    -0.08830492    0.08855409   -0.00000177
     atom   10 type  3   force =     0.08840303   -0.08858124   -0.00000052
     The core correction contribution to forces
     atom    1 type  1   force =    -0.00000297    0.00000162   -0.00000021
     atom    2 type  1   force =     0.00000262   -0.00000150   -0.00000039
     atom    3 type  2   force =    -0.00112896   -0.00112878   -0.00000006
     atom    4 type  2   force =     0.00112879    0.00112904   -0.00000017
     atom    5 type  2   force =    -0.00112809    0.00112820    0.00000002
     atom    6 type  2   force =     0.00112838   -0.00112781    0.00000007
     atom    7 type  3   force =    -0.00051966   -0.00052006   -0.00000002
     atom    8 type  3   force =     0.00051926    0.00051958    0.00000003
     atom    9 type  3   force =    -0.00051966    0.00051971   -0.00000003
     atom   10 type  3   force =     0.00052053   -0.00051911   -0.00000003
     The Hubbard contrib.    to forces
     atom    1 type  1   force =     0.00000000    0.00000000    0.00000000
     atom    2 type  1   force =     0.00000000    0.00000000    0.00000000
     atom    3 type  2   force =     0.00000000    0.00000000    0.00000000
     atom    4 type  2   force =     0.00000000    0.00000000    0.00000000
     atom    5 type  2   force =     0.00000000    0.00000000    0.00000000
     atom    6 type  2   force =     0.00000000    0.00000000    0.00000000
     atom    7 type  3   force =     0.00000000    0.00000000    0.00000000
     atom    8 type  3   force =     0.00000000    0.00000000    0.00000000
     atom    9 type  3   force =     0.00000000    0.00000000    0.00000000
     atom   10 type  3   force =     0.00000000    0.00000000    0.00000000
     The SCF correction term to forces
     atom    1 type  1   force =     0.00014911    0.00001742    0.00000006
     atom    2 type  1   force =    -0.00017289   -0.00003952    0.00000381
     atom    3 type  2   force =     0.00005422   -0.00005320   -0.00000054
     atom    4 type  2   force =    -0.00012692    0.00005595   -0.00000034
     atom    5 type  2   force =    -0.00010635    0.00000289   -0.00000010
     atom    6 type  2   force =     0.00019049   -0.00000546   -0.00000065
     atom    7 type  3   force =     0.00032939    0.00003741   -0.00000127
     atom    8 type  3   force =    -0.00024798   -0.00006407    0.00000017
     atom    9 type  3   force =    -0.00025634   -0.00000157    0.00000075
     atom   10 type  3   force =     0.00017886    0.00003515   -0.00000088

     Total force =     0.396944     Total SCF correction =     0.000633

     Computing stress (Cartesian axis) and pressure

     negative rho (up, down):  8.484E-02 0.000E+00
          total   stress  (Ry/bohr**3)                   (kbar)     P=       19.44
  -0.00138792   0.00000000   0.00000000         -204.17        0.00        0.00
   0.00000000  -0.00138792   0.00000000            0.00     -204.17        0.00
   0.00000000   0.00000000   0.00317221            0.00        0.00      466.65

     kinetic stress (kbar)  12334.21      0.00      0.00
                                0.00  12334.21      0.00
                                0.00      0.00  13514.59

     local   stress (kbar)  -6101.38     -0.03     -0.00
                               -0.03  -6101.38      0.00
                               -0.00      0.00   -400.34

     nonloc. stress (kbar)   7148.43      0.00      0.00
                                0.00   7148.43      0.00
                                0.00      0.00   7184.78

     hartree stress (kbar)   2555.17      0.02      0.00
                                0.02   2555.17     -0.00
                                0.00     -0.00   1363.67

     exc-cor stress (kbar)   3120.79      0.00      0.00
                                0.00   3120.79      0.00
                                0.00      0.00   3085.61

     corecor stress (kbar)  -6826.19      0.00     -0.00
                                0.00  -6826.19      0.00
                               -0.00      0.00  -6803.43

     ewald   stress (kbar) -12435.21      0.00     -0.00
                                0.00 -12435.21     -0.00
                               -0.00     -0.00 -17478.23

     hubbard stress (kbar)      0.00      0.00      0.00
                                0.00      0.00      0.00
                                0.00      0.00      0.00

     DFT-D   stress (kbar)      0.00      0.00      0.00
                                0.00      0.00      0.00
                                0.00      0.00      0.00

     XDM     stress (kbar)      0.00      0.00      0.00
                                0.00      0.00      0.00
                                0.00      0.00      0.00

     dft-nl  stress (kbar)      0.00      0.00      0.00
                                0.00      0.00      0.00
                                0.00      0.00      0.00

     TS-vdW  stress (kbar)      0.00      0.00      0.00
                                0.00      0.00      0.00
                                0.00      0.00      0.00

[...]

                                0.00      0.00      0.00

     Writing all to output data dir new_calculations/myprefix.save/

     General routines

     Parallel routines

     PAW routines

   This run was terminated on:   2:34:20  21May2023

   JOB DONE.