     Program PWSCF v.7.0 starts on 21May2023 at  9:55:51

     Reading input from espresso_22679.pwi
Warning: card &CELL ignored
Warning: card / ignored

     Current dimensions of program PWSCF are:
     Max number of different atomic species (ntypx) = 10
     Max number of k-points (npk) =  40000
     Max angular momentum in pseudopotentials (lmaxx) =  4

     gamma-point specific algorithms are used
     Message from routine setup:
     using ibrav=0 with symmetry is DISCOURAGED, use correct ibrav instead

     Subspace diagonalization in iterative solution of the eigenvalue problem:
     a serial algorithm will be used

     Using Slab Decomposition

     bravais-lattice index     =            0
     lattice parameter (alat)  =       6.6663  a.u.
     unit-cell volume          =    1206.7772 (a.u.)^3
     number of atoms/cell      =            3
     number of atomic types    =            2
     number of electrons       =        31.00
     number of Kohn-Sham states=           20
     kinetic-energy cutoff     =      30.0000  Ry
     charge density cutoff     =     240.0000  Ry
     scf convergence threshold =      1.0E-06
     mixing beta               =       0.7000
     number of iterations used =            8  plain     mixing
     Exchange-correlation=  SLA  PW   PBX  PBC
                           (   1   4   3   4   0   0   0)

     celldm(1)=   6.666344  celldm(2)=   0.000000  celldm(3)=   0.000000
     celldm(4)=   0.000000  celldm(5)=   0.000000  celldm(6)=   0.000000

     crystal axes: (cart. coord. in units of alat)
               a(1) = (   1.000000   0.000000   0.000000 )
               a(2) = (  -0.500000   0.866026   0.000000 )
               a(3) = (   0.000000   0.000000   4.703631 )

     reciprocal axes: (cart. coord. in units 2 pi/alat)
               b(1) = (  1.000000  0.577350  0.000000 )
               b(2) = (  0.000000  1.154700  0.000000 )
               b(3) = (  0.000000  0.000000  0.212602 )

     PseudoPot. # 1 for Co read from file:
     /home/pragov/projects/rrg-bengioy-ad/pragov/crystal_structure_design/SSSP/Co_pbe_v1.2.uspp.F.UPF
     MD5 check sum: 5f91765df6ddd3222702df6e7b74a16d
     Pseudo is Ultrasoft + core correction, Zval = 17.0
     Generated by new atomic code, or converted to UPF format
     Using radial grid of  863 points,  6 beta functions with:
                l(1) =   0
                l(2) =   0
                l(3) =   1
                l(4) =   1
                l(5) =   2
                l(6) =   2
     Q(r) pseudized with  8 coefficients,  rinner =    1.200   1.200   1.200
                                                       1.200   1.200

     PseudoPot. # 2 for Cl read from file:
     /home/pragov/projects/rrg-bengioy-ad/pragov/crystal_structure_design/SSSP/cl_pbe_v1.4.uspp.F.UPF
     MD5 check sum: fc6f6913ecf08c9257cb748ef0700058
     Pseudo is Ultrasoft + core correction, Zval =  7.0
     Generated by new atomic code, or converted to UPF format
     Using radial grid of  909 points,  6 beta functions with:
                l(1) =   0
                l(2) =   0
                l(3) =   1
                l(4) =   1
                l(5) =   2
                l(6) =   2
     Q(r) pseudized with  8 coefficients,  rinner =    1.300   1.300   1.300
                                                       1.300   1.300

     atomic species   valence    mass     pseudopotential
        Co            17.00    58.93319     Co( 1.00)
        Cl             7.00    35.45000     Cl( 1.00)

     12 Sym. Ops., with inversion, found

                                    s                        frac. trans.

      isym =  1     identity

 cryst.   s( 1) = (     1          0          0      )
                  (     0          1          0      )
                  (     0          0          1      )

 cart.    s( 1) = (  1.0000000 -0.0000000  0.0000000 )
                  (  0.0000000  1.0000000  0.0000000 )
                  (  0.0000000  0.0000000  1.0000000 )

      isym =  2     180 deg rotation - cart. axis [1,0,0]

[...]

      isym =  3     120 deg rotation - cryst. axis [0,0,1]

[...]

      isym =  6     180 deg rotation - cryst. axis [1,1,0]

[...]

      isym =  7     inversion

[...]

      isym =  8     inv. 180 deg rotation - cart. axis [1,0,0]

[...]

      isym =  9     inv. 120 deg rotation - cryst. axis [0,0,1]

 cryst.   s( 9) = (     0         -1          0      )
                  (     1          1          0      )
                  (     0          0         -1      )

 cart.    s( 9) = (  0.4999998  0.8660253  0.0000000 )
                  ( -0.8660255  0.5000002  0.0000000 )
                  (  0.0000000  0.0000000 -1.0000000 )

[...]

 cryst.   s(10) = (     1          1          0      )
                  (    -1          0          0      )
                  (     0          0         -1      )

 cart.    s(10) = (  0.5000002 -0.8660253  0.0000000 )
                  (  0.8660255  0.4999998  0.0000000 )
                  (  0.0000000  0.0000000 -1.0000000 )

[...]

      isym = 12     inv. 180 deg rotation - cryst. axis [1,1,0]

 cryst.   s(12) = (     0         -1          0      )
                  (    -1          0          0      )
                  (     0          0          1      )

 cart.    s(12) = (  0.4999998 -0.8660255  0.0000000 )
                  ( -0.8660255 -0.4999998  0.0000000 )
                  (  0.0000000  0.0000000  1.0000000 )

   Cartesian axes

     site n.     atom                  positions (alat units)
         1           Co  tau(   1) = (   0.0000000   0.0000000   0.0000000  )
         2           Cl  tau(   2) = (   0.5000006   0.2886749   4.3248336  )
         3           Cl  tau(   3) = (  -0.0000004   0.5773506   0.3787975  )

   Crystallographic axes

     site n.     atom                  positions (cryst. coord.)
         1           Co  tau(   1) = (  0.0000000  0.0000000  0.0000000  )
         2           Cl  tau(   2) = (  0.6666670  0.3333330  0.9194670  )
         3           Cl  tau(   3) = (  0.3333330  0.6666670  0.0805330  )

     number of k points=     1  Methfessel-Paxton smearing, width (Ry)=  0.0010
                       cart. coord. in units 2pi/alat
        k(    1) = (   0.0000000   0.0000000   0.0000000), wk =   2.0000000

                       cryst. coord.
        k(    1) = (   0.0000000   0.0000000   0.0000000), wk =   2.0000000

     Check: negative core charge=   -0.000004

     Initial potential from superposition of free atoms

     starting charge      30.0000, renormalised to      31.0000

     negative rho (up, down):  3.140E-02 0.000E+00
     Starting wfcs are   21 randomized atomic wfcs

     Self-consistent Calculation

     iteration #  1     ecut=    30.00 Ry     beta= 0.70
     Davidson diagonalization with overlap

     ethr =  1.00E-02,  avg # of iterations =  9.0

     negative rho (up, down):  3.137E-02 0.000E+00

     total energy              =    -359.63042404 Ry
     estimated scf accuracy    <       6.60700932 Ry

[...]

     total energy              =    -364.68910766 Ry
     estimated scf accuracy    <       0.00000208 Ry

     iteration # 17     ecut=    30.00 Ry     beta= 0.70
     Davidson diagonalization with overlap

     ethr =  6.72E-09,  avg # of iterations =  2.0

[...]

     End of self-consistent calculation

          k = 0.0000 0.0000 0.0000 (  1675 PWs)   bands (ev):

   -96.1579 -59.6720 -59.6720 -58.9781 -17.7675 -16.9374  -7.0638  -5.5045
    -5.5044  -4.4078  -3.9236  -3.9236  -2.6031  -2.6031  -2.0059  -1.0165
    -1.0165   2.3946   3.4960   3.7939

     occupation numbers
     1.0000   1.0000   1.0000   1.0000   1.0000   1.0000   1.0000   1.0000
     1.0000   1.0000   1.0000   1.0000   1.0000   1.0000   1.0000   0.2502
     0.2498  -0.0000  -0.0000  -0.0000

     the Fermi energy is    -1.0208 ev

!    total energy              =    -364.68910777 Ry
     estimated scf accuracy    <       0.00000002 Ry
     smearing contrib. (-TS)   =      -0.00041261 Ry
     internal energy E=F+TS    =    -364.68869516 Ry

     The total energy is F=E-TS. E is the sum of the following terms:
     one-electron contribution =   -1260.68065258 Ry
     hartree contribution      =     632.80022080 Ry
     xc contribution           =     -51.61022026 Ry
     ewald contribution        =     314.80195687 Ry

     convergence has been achieved in  17 iterations

     negative rho (up, down):  2.846E-02 0.000E+00

     Forces acting on atoms (cartesian axes, Ry/au):

     atom    1 type  1   force =     0.00000000    0.00000000    0.00000000
     atom    2 type  2   force =     0.00000000    0.00000000    0.01942211
     atom    3 type  2   force =     0.00000000    0.00000000   -0.01942211
     The non-local contrib.  to forces
     atom    1 type  1   force =     0.00000000    0.00000000    0.00000000
     atom    2 type  2   force =     0.00000000   -0.00000000    0.13538405
     atom    3 type  2   force =     0.00000000    0.00000000   -0.13538405
     The ionic contribution  to forces
     atom    1 type  1   force =    -0.00000000   -0.00000000    0.00000000
     atom    2 type  2   force =    -0.00001238    0.00000715  -37.20826038
     atom    3 type  2   force =     0.00001238   -0.00000715   37.20826038
     The local contribution  to forces
     atom    1 type  1   force =    -0.00000988    0.00000880   -0.00003365
     atom    2 type  2   force =     0.00002100    0.00003861   37.09519670
     atom    3 type  2   force =    -0.00002574   -0.00003395  -37.09523710
     The core correction contribution to forces
     atom    1 type  1   force =     0.00000005    0.00000040   -0.00000011
     atom    2 type  2   force =    -0.00000012    0.00000049   -0.00290214
     atom    3 type  2   force =    -0.00000024   -0.00000063    0.00290101
     The Hubbard contrib.    to forces
     atom    1 type  1   force =     0.00000000    0.00000000    0.00000000
     atom    2 type  2   force =     0.00000000    0.00000000    0.00000000
     atom    3 type  2   force =     0.00000000    0.00000000    0.00000000
     The SCF correction term to forces
     atom    1 type  1   force =     0.00002861   -0.00001984    0.00004052
     atom    2 type  2   force =     0.00000046    0.00000235   -0.00000586
     atom    3 type  2   force =    -0.00000062   -0.00000263    0.00002791

     Total force =     0.027467     Total SCF correction =     0.000061

     Computing stress (Cartesian axis) and pressure

     negative rho (up, down):  2.846E-02 0.000E+00
          total   stress  (Ry/bohr**3)                   (kbar)     P=       -9.68
   0.00010666  -0.00000000   0.00000000           15.69       -0.00        0.00
  -0.00000000   0.00010666  -0.00000000           -0.00       15.69       -0.00
   0.00000000   0.00000000  -0.00041078            0.00        0.00      -60.43

     kinetic stress (kbar)   5360.36     -0.00      0.00
                               -0.00   5360.36      0.00
                                0.00     -0.00   5429.35

     local   stress (kbar)-129790.34     -0.01      0.03
                               -0.01-129790.00      0.24
                                0.03      0.24 122767.02

     nonloc. stress (kbar)   3500.06     -0.00      0.00
                               -0.00   3500.06      0.00
                                0.00     -0.00   3536.76

     hartree stress (kbar)  66801.26      0.00     -0.01
                                0.00  66801.16     -0.09
                               -0.01     -0.09 -56464.63

     exc-cor stress (kbar)   -614.32      0.00     -0.00
                                0.00   -614.32     -0.00
                               -0.00     -0.00   -612.48

     corecor stress (kbar)  -1191.87     -0.00      0.00
                               -0.00  -1191.87      0.00
                                0.00      0.00  -1189.68

     ewald   stress (kbar)  55950.43     -0.01      0.01
                               -0.01  55950.42     -0.00
                                0.01     -0.00 -73526.76

     hubbard stress (kbar)      0.00      0.00      0.00
                                0.00      0.00      0.00
                                0.00      0.00      0.00

     DFT-D   stress (kbar)      0.00      0.00      0.00
                                0.00      0.00      0.00
                                0.00      0.00      0.00

     XDM     stress (kbar)      0.00      0.00      0.00
                                0.00      0.00      0.00
                                0.00      0.00      0.00

     dft-nl  stress (kbar)      0.00      0.00      0.00
                                0.00      0.00      0.00
                                0.00      0.00      0.00

     TS-vdW  stress (kbar)      0.00      0.00      0.00
                                0.00      0.00      0.00
                                0.00      0.00      0.00

[...]

                                0.00      0.00      0.00

     Writing all to output data dir new_calculations/myprefix.save/

     General routines

     Parallel routines

   This run was terminated on:   9:56:12  21May2023

   JOB DONE.