     Program PWSCF v.7.0 starts on 21May2023 at 17:33:29

     Reading input from espresso_22902.pwi
Warning: card &CELL ignored
Warning: card / ignored

     Current dimensions of program PWSCF are:
     Max number of different atomic species (ntypx) = 10
     Max number of k-points (npk) =  40000
     Max angular momentum in pseudopotentials (lmaxx) =  4

     gamma-point specific algorithms are used
     Message from routine setup:
     using ibrav=0 with symmetry is DISCOURAGED, use correct ibrav instead

     Subspace diagonalization in iterative solution of the eigenvalue problem:
     a serial algorithm will be used

     Using Slab Decomposition

     bravais-lattice index     =            0
     lattice parameter (alat)  =       7.2172  a.u.
     unit-cell volume          =    2502.0556 (a.u.)^3
     number of atoms/cell      =           16
     number of atomic types    =            3
     number of electrons       =       148.00
     number of Kohn-Sham states=           89
     kinetic-energy cutoff     =      30.0000  Ry
     charge density cutoff     =     240.0000  Ry
     scf convergence threshold =      1.0E-06
     mixing beta               =       0.7000
     number of iterations used =            8  plain     mixing
     Exchange-correlation= SLA  PW   PBE  PBE
                           (   1   4   3   4   0   0   0)

     celldm(1)=   7.217170  celldm(2)=   0.000000  celldm(3)=   0.000000
     celldm(4)=   0.000000  celldm(5)=   0.000000  celldm(6)=   0.000000

     crystal axes: (cart. coord. in units of alat)
               a(1) = (   1.000000   0.000000   0.000000 )
               a(2) = (   0.000000   2.035437   0.000000 )
               a(3) = (   0.000000   0.692282   3.269931 )

     reciprocal axes: (cart. coord. in units 2 pi/alat)
               b(1) = (  1.000000  0.000000  0.000000 )
               b(2) = (  0.000000  0.491295 -0.104013 )
               b(3) = (  0.000000  0.000000  0.305817 )

     PseudoPot. # 1 for Sn read from file:
     /home/pragov/projects/rrg-bengioy-ad/pragov/crystal_structure_design/SSSP/Sn_pbe_v1.uspp.F.UPF
     MD5 check sum: 4cf58ce39ec5d5d420df3dd08604eb00
     Pseudo is Ultrasoft + core correction, Zval = 14.0
     Generated by new atomic code, or converted to UPF format
     Using radial grid of  891 points,  6 beta functions with:
                l(1) =   0
                l(2) =   0
                l(3) =   1
                l(4) =   1
                l(5) =   2
                l(6) =   2
     Q(r) pseudized with  6 coefficients,  rinner =    1.200   1.200   1.200
                                                       1.200   1.200

     PseudoPot. # 2 for Ir read from file:
     /home/pragov/projects/rrg-bengioy-ad/pragov/crystal_structure_design/SSSP/Ir_pbe_v1.2.uspp.F.UPF
     MD5 check sum: 8836f839c3459d2b385c504ce6d91f2c
     Pseudo is Ultrasoft + core correction, Zval = 15.0
     Generated by new atomic code, or converted to UPF format
     Using radial grid of  983 points,  7 beta functions with:
                l(1) =   0
                l(2) =   0
                l(3) =   1
                l(4) =   1
                l(5) =   1
                l(6) =   2
                l(7) =   2
     Q(r) pseudized with  8 coefficients,  rinner =    1.400   1.400   1.400
                                                       1.400   1.400

     PseudoPot. # 3 for Se read from file:
     /home/pragov/projects/rrg-bengioy-ad/pragov/crystal_structure_design/SSSP/Se_pbe_v1.uspp.F.UPF
     MD5 check sum: 1b3568f3a8ae88f9a2a0ad0698632c85
     Pseudo is Ultrasoft + core correction, Zval =  6.0
     Generated by new atomic code, or converted to UPF format
     Using radial grid of  877 points,  6 beta functions with:
                l(1) =   0
                l(2) =   0
                l(3) =   1
                l(4) =   1
                l(5) =   2
                l(6) =   2
     Q(r) pseudized with  8 coefficients,  rinner =    1.300   1.300   1.300
                                                       1.300   1.300

     atomic species   valence    mass     pseudopotential
        Sn            14.00   118.71000     Sn( 1.00)
        Ir            15.00   192.21700     Ir( 1.00)
        Se             6.00    78.97100     Se( 1.00)

      4 Sym. Ops., with inversion, found

                                    s                        frac. trans.

      isym =  1     identity

 cryst.   s( 1) = (     1          0          0      )
                  (     0          1          0      )
                  (     0          0          1      )

 cart.    s( 1) = (  1.0000000  0.0000000  0.0000000 )
                  (  0.0000000  1.0000000 -0.0000000 )
                  (  0.0000000  0.0000000  1.0000000 )

      isym =  2     180 deg rotation - cart. axis [1,0,0]

[...]

      isym =  3     inversion

[...]

      isym =  4     inv. 180 deg rotation - cart. axis [1,0,0]

 cryst.   s( 4) = (    -1          0          0      )
                  (     0          1          0      )
                  (     0          0          1      )

 cart.    s( 4) = ( -1.0000000  0.0000000  0.0000000 )
                  (  0.0000000  1.0000000 -0.0000000 )
                  (  0.0000000  0.0000000  1.0000000 )

   Cartesian axes

     site n.     atom                  positions (alat units)
         1           Sn  tau(   1) = (   0.5000000   0.7947672   2.1560713  )
         2           Sn  tau(   2) = (   0.5000000   1.9329518   1.1138594  )
         3           Ir  tau(   3) = (   0.0000000   0.6217652   0.4944887  )
         4           Ir  tau(   4) = (   0.0000000   2.1059538   2.7754420  )
         5           Ir  tau(   5) = (   0.5000000   1.6301783   0.4864839  )
         6           Ir  tau(   6) = (   0.5000000   1.0975407   2.7834467  )
         7           Se  tau(   7) = (   0.0000000   2.0178654   0.3463838  )
         8           Se  tau(   8) = (   0.0000000   0.7098536   2.9235469  )
         9           Se  tau(   9) = (   0.0000000   1.4779775   2.5502516  )
        10           Se  tau(  10) = (   0.0000000   1.2497416   0.7196790  )
        11           Se  tau(  11) = (   0.5000000   2.0305062   3.1796414  )
        12           Se  tau(  12) = (   0.5000000   0.6972129   0.0902893  )
        13           Se  tau(  13) = (   0.5000000   0.5820546   0.9313417  )
        14           Se  tau(  14) = (   0.5000000   2.1456645   2.3385890  )
        15           Se  tau(  15) = (   0.0000000   0.8676790   1.7162624  )
        16           Se  tau(  16) = (   0.0000000   1.8600401   1.5536683  )

   Crystallographic axes

     site n.     atom                  positions (cryst. coord.)
         1           Sn  tau(   1) = (  0.5000000  0.1662060  0.6593630  )
         2           Sn  tau(   2) = (  0.5000000  0.8337940  0.3406370  )
         3           Ir  tau(   3) = (  0.0000000  0.2540370  0.1512230  )
         4           Ir  tau(   4) = (  0.0000000  0.7459630  0.8487770  )
         5           Ir  tau(   5) = (  0.5000000  0.7502980  0.1487750  )
         6           Ir  tau(   6) = (  0.5000000  0.2497020  0.8512250  )
         7           Se  tau(   7) = (  0.0000000  0.9553390  0.1059300  )
         8           Se  tau(   8) = (  0.0000000  0.0446610  0.8940700  )
         9           Se  tau(   9) = (  0.0000000  0.4608640  0.7799100  )
        10           Se  tau(  10) = (  0.0000000  0.5391360  0.2200900  )
        11           Se  tau(  11) = (  0.5000000  0.6668540  0.9723880  )
        12           Se  tau(  12) = (  0.5000000  0.3331460  0.0276120  )
        13           Se  tau(  13) = (  0.5000000  0.1890890  0.2848200  )
        14           Se  tau(  14) = (  0.5000000  0.8109110  0.7151800  )
        15           Se  tau(  15) = (  0.0000000  0.2477730  0.5248620  )
        16           Se  tau(  16) = (  0.0000000  0.7522270  0.4751380  )

     number of k points=     1  Methfessel-Paxton smearing, width (Ry)=  0.0010
                       cart. coord. in units 2pi/alat
        k(    1) = (   0.0000000   0.0000000   0.0000000), wk =   2.0000000

                       cryst. coord.
        k(    1) = (   0.0000000   0.0000000   0.0000000), wk =   2.0000000

     Initial potential from superposition of free atoms

     starting charge     143.9991, renormalised to     148.0000

     negative rho (up, down):  1.480E+00 0.000E+00
     Starting wfcs are  106 randomized atomic wfcs

     Self-consistent Calculation

     iteration #  1     ecut=    30.00 Ry     beta= 0.70
     Davidson diagonalization with overlap

     ethr =  1.00E-02,  avg # of iterations =  5.0

     negative rho (up, down):  1.056E+00 0.000E+00

     total energy              =   -1458.31305714 Ry
     estimated scf accuracy    <      39.99812604 Ry

[...]

     total energy              =   -1489.20125900 Ry
     estimated scf accuracy    <       0.00000269 Ry

     iteration # 17     ecut=    30.00 Ry     beta= 0.70
     Davidson diagonalization with overlap

     ethr =  1.82E-09,  avg # of iterations =  4.0

[...]

     End of self-consistent calculation

          k = 0.0000 0.0000 0.0000 (  3466 PWs)   bands (ev):

   -40.4218 -40.4207 -40.2227 -40.2226 -40.0273 -40.0262 -39.9613 -39.9611
   -39.9359 -39.9348 -39.9262 -39.9259 -12.5302 -12.5297 -12.4980 -12.4975
   -12.4862 -12.4857 -12.4559 -12.4553 -12.4268 -12.4263  -6.5803  -5.5409
    -5.1989  -4.7118  -4.3820  -3.8847  -3.7881  -3.6173  -3.5216  -3.4193
     1.3608   1.8702   2.3089   2.5579   2.6143   2.8583   2.9588   3.5728
     3.7758   3.9191   4.0444   4.5545   4.6929   5.1492   5.3320   5.8332
     5.9255   5.9437   5.9731   6.0773   6.1614   6.2826   6.4955   6.5072
     6.5710   6.5850   6.7534   6.8714   7.2086   7.3746   7.3938   7.4394
     7.4792   7.5508   7.5618   7.7901   7.8032   7.9755   8.0739   8.3567
     8.5108   8.7711   9.7891  10.4293  10.5497  10.6212  10.8291  11.0134
    11.2386  11.6166  11.6897  12.0358  12.2870  12.7021  13.3684  13.5086
    13.6118

     occupation numbers
     1.0000   1.0000   1.0000   1.0000   1.0000   1.0000   1.0000   1.0000
     1.0000   1.0000   1.0000   1.0000   1.0000   1.0000   1.0000   1.0000
     1.0000   1.0000   1.0000   1.0000   1.0000   1.0000   1.0000   1.0000
     1.0000   1.0000   1.0000   1.0000   1.0000   1.0000   1.0000   1.0000
     1.0000   1.0000   1.0000   1.0000   1.0000   1.0000   1.0000   1.0000
     1.0000   1.0000   1.0000   1.0000   1.0000   1.0000   1.0000   1.0000
     1.0000   1.0000   1.0000   1.0000   1.0000   1.0000   1.0000   1.0000
     1.0000   1.0000   1.0000   1.0000   1.0000   1.0000   1.0000   1.0000
     1.0000   1.0000   1.0000   1.0000   1.0000   1.0000   1.0000   1.0000
     1.0000   1.0000  -0.0000  -0.0000  -0.0000  -0.0000  -0.0000  -0.0000
    -0.0000  -0.0000  -0.0000  -0.0000  -0.0000  -0.0000  -0.0000  -0.0000
    -0.0000

     the Fermi energy is     9.5053 ev

!    total energy              =   -1489.20125887 Ry
     estimated scf accuracy    <       0.00000099 Ry
     smearing contrib. (-TS)   =       0.00000000 Ry
     internal energy E=F+TS    =   -1489.20125887 Ry

     The total energy is F=E-TS. E is the sum of the following terms:
     one-electron contribution =    -648.08822786 Ry
     hartree contribution      =     403.60959384 Ry
     xc contribution           =    -594.31671352 Ry
     ewald contribution        =    -650.40591133 Ry

     convergence has been achieved in  17 iterations

     negative rho (up, down):  1.259E+00 0.000E+00

     Forces acting on atoms (cartesian axes, Ry/au):

     atom    1 type  1   force =     0.00000000   -0.00152732    0.01230957
     atom    2 type  1   force =     0.00000000    0.00152732   -0.01230957
     atom    3 type  2   force =     0.00000000   -0.02532761    0.01160950
     atom    4 type  2   force =     0.00000000    0.02532761   -0.01160950
     atom    5 type  2   force =     0.00000000   -0.02446390    0.01557241
     atom    6 type  2   force =     0.00000000    0.02446390   -0.01557241
     atom    7 type  3   force =    -0.00000000    0.02718915   -0.03436779
     atom    8 type  3   force =    -0.00000000   -0.02718915    0.03436779
     atom    9 type  3   force =     0.00000000    0.00796208   -0.00894883
     atom   10 type  3   force =     0.00000000   -0.00796208    0.00894883
     atom   11 type  3   force =     0.00000000    0.00467720    0.01475254
     atom   12 type  3   force =     0.00000000   -0.00467720   -0.01475254
     atom   13 type  3   force =     0.00000000    0.00071246   -0.00303484
     atom   14 type  3   force =     0.00000000   -0.00071246    0.00303484
     atom   15 type  3   force =     0.00000000    0.00673460   -0.02958764
     atom   16 type  3   force =     0.00000000   -0.00673460    0.02958764
     The non-local contrib.  to forces
     atom    1 type  1   force =     0.00000000   -0.07978196   -0.28862973
     atom    2 type  1   force =     0.00000000    0.07978196    0.28862973
     atom    3 type  2   force =    -0.00000000   -0.01847081   -0.02616900
     atom    4 type  2   force =    -0.00000000    0.01847081    0.02616900
     atom    5 type  2   force =     0.00000000    0.03252726   -0.04118670
     atom    6 type  2   force =     0.00000000   -0.03252726    0.04118670
     atom    7 type  3   force =     0.00000000    0.10418330    0.02533864
     atom    8 type  3   force =     0.00000000   -0.10418330   -0.02533864
     atom    9 type  3   force =     0.00000000   -0.07394643    0.57305816
     atom   10 type  3   force =     0.00000000    0.07394643   -0.57305816
     atom   11 type  3   force =     0.00000000   -0.04951267    0.00231916
     atom   12 type  3   force =     0.00000000    0.04951267   -0.00231916
     atom   13 type  3   force =     0.00000000   -0.22150484   -0.22668909
     atom   14 type  3   force =     0.00000000    0.22150484    0.22668909
     atom   15 type  3   force =     0.00000000   -0.00200480    0.31135536
     atom   16 type  3   force =     0.00000000    0.00200480   -0.31135536
     The ionic contribution  to forces
     atom    1 type  1   force =     0.00000000   -0.25058295  -27.91958867
     atom    2 type  1   force =     0.00000000    0.25058295   27.91958867
     atom    3 type  2   force =     0.00000000    3.26995225   17.15518106
     atom    4 type  2   force =    -0.00000000   -3.26995225  -17.15518106
     atom    5 type  2   force =     0.00000000   -5.07327639   11.72936373
     atom    6 type  2   force =     0.00000000    5.07327639  -11.72936373
     atom    7 type  3   force =    -0.00000000    1.31098266    1.57967475
     atom    8 type  3   force =     0.00000000   -1.31098266   -1.57967475
     atom    9 type  3   force =    -0.00000000    2.60797034  -13.40583190
     atom   10 type  3   force =     0.00000000   -2.60797034   13.40583190
     atom   11 type  3   force =    -0.00000000   -2.22910724    0.00936530
     atom   12 type  3   force =     0.00000000    2.22910725   -0.00936530
     atom   13 type  3   force =    -0.00000000    3.85723922   15.10091159
     atom   14 type  3   force =    -0.00000000   -3.85723922  -15.10091159
     atom   15 type  3   force =    -0.00000000    2.03072725   -8.08894230
     atom   16 type  3   force =     0.00000000   -2.03072725    8.08894230
     The local contribution  to forces
     atom    1 type  1   force =    -0.00000434    0.32655100   28.21068086
     atom    2 type  1   force =     0.00001039   -0.32634735  -28.21164746
     atom    3 type  2   force =     0.00000318   -3.27280205  -17.11707076
     atom    4 type  2   force =    -0.00000359    3.27269575   17.11845884
     atom    5 type  2   force =    -0.00000211    5.01637239  -11.67330161
     atom    6 type  2   force =     0.00000577   -5.01628437   11.67451924
     atom    7 type  3   force =     0.00000012   -1.37427198   -1.63565979
     atom    8 type  3   force =    -0.00000257    1.37458187    1.63612777
     atom    9 type  3   force =    -0.00000130   -2.53419672   12.89337195
     atom   10 type  3   force =     0.00000208    2.53392162  -12.89328310
     atom   11 type  3   force =     0.00000010    2.27652689    0.00395738
     atom   12 type  3   force =    -0.00000191   -2.27663332   -0.00319335
     atom   13 type  3   force =    -0.00000056   -3.66007081  -14.90327574
     atom   14 type  3   force =     0.00000023    3.66007286   14.90295871
     atom   15 type  3   force =     0.00001200   -2.02118891    7.78147439
     atom   16 type  3   force =    -0.00000463    2.02119746   -7.78221775
     The core correction contribution to forces
     atom    1 type  1   force =    -0.00000034    0.00242539    0.00905872
     atom    2 type  1   force =     0.00000026   -0.00242886   -0.00905754
     atom    3 type  2   force =     0.00000034   -0.00248882    0.00263507
     atom    4 type  2   force =     0.00000040    0.00248498   -0.00261971
     atom    5 type  2   force =    -0.00000007   -0.00160645    0.00307538
     atom    6 type  2   force =     0.00000151    0.00160639   -0.00306751
     atom    7 type  3   force =    -0.00000007   -0.01358383   -0.00290286
     atom    8 type  3   force =    -0.00000031    0.01358768    0.00289210
     atom    9 type  3   force =    -0.00000015    0.00843184   -0.06987435
     atom   10 type  3   force =     0.00000023   -0.00843199    0.06987200
     atom   11 type  3   force =    -0.00000020    0.00633998   -0.00073852
     atom   12 type  3   force =    -0.00000030   -0.00633788    0.00073688
     atom   13 type  3   force =    -0.00000012    0.02551887    0.02599433
     atom   14 type  3   force =     0.00000008   -0.02552272   -0.02599626
     atom   15 type  3   force =     0.00000135   -0.00077039   -0.03416069
     atom   16 type  3   force =    -0.00000066    0.00077032    0.03415412
     The Hubbard contrib.    to forces
     atom    1 type  1   force =     0.00000000    0.00000000    0.00000000
     atom    2 type  1   force =     0.00000000    0.00000000    0.00000000
     atom    3 type  2   force =     0.00000000    0.00000000    0.00000000
     atom    4 type  2   force =     0.00000000    0.00000000    0.00000000
     atom    5 type  2   force =     0.00000000    0.00000000    0.00000000
     atom    6 type  2   force =     0.00000000    0.00000000    0.00000000
     atom    7 type  3   force =     0.00000000    0.00000000    0.00000000
     atom    8 type  3   force =     0.00000000    0.00000000    0.00000000
     atom    9 type  3   force =     0.00000000    0.00000000    0.00000000
     atom   10 type  3   force =     0.00000000    0.00000000    0.00000000
     atom   11 type  3   force =     0.00000000    0.00000000    0.00000000
     atom   12 type  3   force =     0.00000000    0.00000000    0.00000000
     atom   13 type  3   force =     0.00000000    0.00000000    0.00000000
     atom   14 type  3   force =     0.00000000    0.00000000    0.00000000
     atom   15 type  3   force =     0.00000000    0.00000000    0.00000000
     atom   16 type  3   force =     0.00000000    0.00000000    0.00000000
     The SCF correction term to forces
     atom    1 type  1   force =     0.00000271   -0.00015465    0.00078664
     atom    2 type  1   force =    -0.00001300   -0.00007722    0.00017529
     atom    3 type  2   force =    -0.00000234   -0.00151399   -0.00296392
     atom    4 type  2   force =     0.00000304    0.00163254    0.00156639
     atom    5 type  2   force =     0.00000023    0.00151752   -0.00237307
     atom    6 type  2   force =    -0.00000301   -0.00160904    0.00115819
     atom    7 type  3   force =    -0.00000005   -0.00011549   -0.00087412
     atom    8 type  3   force =     0.00000109   -0.00018723    0.00030573
     atom    9 type  3   force =     0.00000071   -0.00029603    0.00030884
     atom   10 type  3   force =    -0.00000025    0.00057313   -0.00043228
     atom   11 type  3   force =    -0.00000045    0.00043937   -0.00017353
     atom   12 type  3   force =     0.00000049   -0.00031680   -0.00063437
     atom   13 type  3   force =     0.00000027   -0.00048189    0.00002128
     atom   14 type  3   force =     0.00000013    0.00045988    0.00029211
     atom   15 type  3   force =    -0.00000449   -0.00002781    0.00066330
     atom   16 type  3   force =     0.00000161    0.00002081    0.00004202

     Total force =     0.100050     Total SCF correction =     0.005661

     Computing stress (Cartesian axis) and pressure

     negative rho (up, down):  1.259E+00 0.000E+00
          total   stress  (Ry/bohr**3)                   (kbar)     P=       57.18
   0.00055395   0.00000000   0.00000000           81.49        0.00        0.00
   0.00000000   0.00015595  -0.00018232            0.00       22.94      -26.82
   0.00000000  -0.00018232   0.00045617            0.00      -26.82       67.11

     kinetic stress (kbar)  11419.79      0.00      0.00
                                0.00  11552.86    -13.94
                                0.00    -13.94  11517.70

     local   stress (kbar) -21854.70      0.00     -0.00
                                0.00 -12414.80  -2529.32
                               -0.00  -2529.32  12534.58

     nonloc. stress (kbar)   5113.18      0.00      0.00
                                0.00   5160.23    -19.54
                                0.00    -19.54   5185.06

     hartree stress (kbar)  14498.73     -0.00      0.00
                               -0.00  10714.62   1069.53
                                0.00   1069.53  -1483.65

     exc-cor stress (kbar)  21667.63     -0.00     -0.00
                               -0.00  21667.39      0.37
                               -0.00      0.37  21667.32

     corecor stress (kbar) -26185.49      0.00     -0.00
                                0.00 -26178.28     -1.91
                               -0.00     -1.91 -26170.88

     ewald   stress (kbar)  -4577.65      0.00      0.00
                                0.00 -10479.09   1467.99
                                0.00   1467.99 -23183.03

     hubbard stress (kbar)      0.00      0.00      0.00
                                0.00      0.00      0.00
                                0.00      0.00      0.00

     DFT-D   stress (kbar)      0.00      0.00      0.00
                                0.00      0.00      0.00
                                0.00      0.00      0.00

     XDM     stress (kbar)      0.00      0.00      0.00
                                0.00      0.00      0.00
                                0.00      0.00      0.00

     dft-nl  stress (kbar)      0.00      0.00      0.00
                                0.00      0.00      0.00
                                0.00      0.00      0.00

     TS-vdW  stress (kbar)      0.00      0.00      0.00
                                0.00      0.00      0.00
                                0.00      0.00      0.00

[...]

                                0.00      0.00      0.00

     Writing all to output data dir new_calculations/myprefix.save/

     General routines

     Parallel routines

   This run was terminated on:  17:34:14  21May2023

   JOB DONE.