     Program PWSCF v.7.0 starts on 20May2023 at 18:23: 1

     Reading input from espresso_25014.pwi
Warning: card &CELL ignored
Warning: card / ignored

     Current dimensions of program PWSCF are:
     Max number of different atomic species (ntypx) = 10
     Max number of k-points (npk) =  40000
     Max angular momentum in pseudopotentials (lmaxx) =  4
     file O.pbe-n-kjpaw_psl.0.1.UPF: wavefunction(s)  2P renormalized

     gamma-point specific algorithms are used
     Message from routine setup:
     using ibrav=0 with symmetry is DISCOURAGED, use correct ibrav instead

     Subspace diagonalization in iterative solution of the eigenvalue problem:
     a serial algorithm will be used

     Using Slab Decomposition

     bravais-lattice index     =            0
     lattice parameter (alat)  =      12.8378  a.u.
     unit-cell volume          =     645.5351 (a.u.)^3
     number of atoms/cell      =            5
     number of atomic types    =            3
     number of electrons       =        48.00
     number of Kohn-Sham states=           29
     kinetic-energy cutoff     =      30.0000  Ry
     charge density cutoff     =     240.0000  Ry
     scf convergence threshold =      1.0E-06
     mixing beta               =       0.7000
     number of iterations used =            8  plain     mixing
     Exchange-correlation= SLA  PW   PBX  PBC
                           (   1   4   3   4   0   0   0)

     celldm(1)=  12.837779  celldm(2)=   0.000000  celldm(3)=   0.000000
     celldm(4)=   0.000000  celldm(5)=   0.000000  celldm(6)=   0.000000

     crystal axes: (cart. coord. in units of alat)
               a(1) = (   1.000000   0.000000   0.000000 )
               a(2) = (   0.665674   0.746243   0.000000 )
               a(3) = (  -0.832837  -0.373121   0.408856 )

     reciprocal axes: (cart. coord. in units 2 pi/alat)
               b(1) = (  1.000000 -0.892034  1.222925 )
               b(2) = (  0.000000  1.340047  1.222925 )
               b(3) = (  0.000000  0.000000  2.445850 )

     PseudoPot. # 1 for Bi read from file:
     /home/pragov/projects/rrg-bengioy-ad/pragov/crystal_structure_design/SSSP/Bi_pbe_v1.uspp.F.UPF
     MD5 check sum: cceb9f28ec65b6d7ff33140f5b0b1758
     Pseudo is Ultrasoft + core correction, Zval = 15.0
     Generated by new atomic code, or converted to UPF format
     Using radial grid of  899 points,  6 beta functions with:
                l(1) =   0
                l(2) =   0
                l(3) =   1
                l(4) =   1
                l(5) =   2
                l(6) =   2
     Q(r) pseudized with  6 coefficients,  rinner =    1.000   1.000   1.000
                                                       1.000   1.000

     PseudoPot. # 2 for Se read from file:
     /home/pragov/projects/rrg-bengioy-ad/pragov/crystal_structure_design/SSSP/Se_pbe_v1.uspp.F.UPF
     MD5 check sum: 1b3568f3a8ae88f9a2a0ad0698632c85
     Pseudo is Ultrasoft + core correction, Zval =  6.0
     Generated by new atomic code, or converted to UPF format
     Using radial grid of  877 points,  6 beta functions with:
                l(1) =   0
                l(2) =   0
                l(3) =   1
                l(4) =   1
                l(5) =   2
                l(6) =   2
     Q(r) pseudized with  8 coefficients,  rinner =    1.300   1.300   1.300
                                                       1.300   1.300

     PseudoPot. # 3 for O  read from file:
     /home/pragov/projects/rrg-bengioy-ad/pragov/crystal_structure_design/SSSP/O.pbe-n-kjpaw_psl.0.1.UPF
     MD5 check sum: 0234752ac141de4415c5fc33072bef88
     Pseudo is Projector augmented-wave + core cor, Zval =  6.0
     Generated using "atomic" code by A. Dal Corso  v.5.0.99 svn rev. 10869
     Shape of augmentation charge: BESSEL
     Using radial grid of 1095 points,  4 beta functions with:
                l(1) =   0
                l(2) =   0
                l(3) =   1
                l(4) =   1
     Q(r) pseudized with 0 coefficients

     atomic species   valence    mass     pseudopotential
        Bi            15.00   208.98040     Bi( 1.00)
        Se             6.00    78.97100     Se( 1.00)
        O              6.00    15.99900     O ( 1.00)

      4 Sym. Ops., with inversion, found

                                    s                        frac. trans.

      isym =  1     identity

 cryst.   s( 1) = (     1          0          0      )
                  (     0          1          0      )
                  (     0          0          1      )

 cart.    s( 1) = (  1.0000000  0.0000000 -0.0000000 )
                  (  0.0000000  1.0000000  0.0000000 )
                  (  0.0000000  0.0000000  1.0000000 )

      isym =  2     180 deg rotation - cart. axis [0,0,1]

[...]

      isym =  3     inversion

[...]

      isym =  4     inv. 180 deg rotation - cart. axis [0,0,1]

 cryst.   s( 4) = (     1          0          0      )
                  (     0          1          0      )
                  (    -1         -1         -1      )

 cart.    s( 4) = (  1.0000000  0.0000000 -0.0000000 )
                  (  0.0000000  1.0000000 -0.0000000 )
                  (  0.0000000  0.0000000 -1.0000000 )

   Cartesian axes

     site n.     atom                  positions (alat units)
         1           Bi  tau(   1) = (   0.5876947   0.2632946   0.0000000  )
         2           Bi  tau(   2) = (   1.0779792   0.4829481   0.0000000  )
         3           Se  tau(   3) = (   0.0000000   0.0000000   0.0000000  )
         4           O   tau(   4) = (   0.3328370   0.3731214   0.2044279  )
         5           O   tau(   5) = (   0.5000000   0.0000000   0.2044279  )

   Crystallographic axes

     site n.     atom                  positions (cryst. coord.)
         1           Bi  tau(   1) = (  0.3528270  0.3528270  0.0000000  )
         2           Bi  tau(   2) = (  0.6471730  0.6471730  0.0000000  )
         3           Se  tau(   3) = (  0.0000000  0.0000000  0.0000000  )
         4           O   tau(   4) = (  0.2500000  0.7500000  0.5000000  )
         5           O   tau(   5) = (  0.7500000  0.2500000  0.5000000  )

     number of k points=     1  Methfessel-Paxton smearing, width (Ry)=  0.0010
                       cart. coord. in units 2pi/alat
        k(    1) = (   0.0000000   0.0000000   0.0000000), wk =   2.0000000

                       cryst. coord.
        k(    1) = (   0.0000000   0.0000000   0.0000000), wk =   2.0000000

     Check: negative core charge=   -0.000006

     Initial potential from superposition of free atoms

     starting charge      45.9998, renormalised to      48.0000

     negative rho (up, down):  8.732E-02 0.000E+00
     Starting wfcs are   30 randomized atomic wfcs
     Checking if some PAW data can be deallocated...

     Self-consistent Calculation

     iteration #  1     ecut=    30.00 Ry     beta= 0.70
     Davidson diagonalization with overlap

     ethr =  1.00E-02,  avg # of iterations =  3.0

     negative rho (up, down):  7.742E-02 0.000E+00

     total energy              =    -496.29075453 Ry
     estimated scf accuracy    <       1.57731467 Ry

[...]

     total energy              =    -497.02140781 Ry
     estimated scf accuracy    <       0.00000175 Ry

     iteration # 10     ecut=    30.00 Ry     beta= 0.70
     Davidson diagonalization with overlap

     ethr =  3.64E-09,  avg # of iterations =  3.0

[...]

     End of self-consistent calculation

          k = 0.0000 0.0000 0.0000 (   893 PWs)   bands (ev):

   -13.0173 -12.9288 -12.9280 -12.9069 -12.9015 -12.8834 -12.8519 -12.8404
   -12.7626 -12.7385  -8.4104  -6.3037  -2.4214  -0.6795   2.1054   5.5919
     5.6236   8.1605   8.1913   8.4978   8.5569   9.0326   9.0382   9.3224
    10.4115  14.1553  14.6162  14.6227  15.0661

     occupation numbers
     1.0000   1.0000   1.0000   1.0000   1.0000   1.0000   1.0000   1.0000
     1.0000   1.0000   1.0000   1.0000   1.0000   1.0000   1.0000   1.0000
     1.0000   1.0000   1.0000   1.0000   1.0000   1.0000   1.0000   1.0000
    -0.0000  -0.0000  -0.0000  -0.0000  -0.0000

     the Fermi energy is     9.8855 ev

!    total energy              =    -497.02140810 Ry
     estimated scf accuracy    <       0.00000029 Ry
     smearing contrib. (-TS)   =       0.00000000 Ry
     internal energy E=F+TS    =    -497.02140810 Ry

     The total energy is F=E-TS. E is the sum of the following terms:
     one-electron contribution =    -135.79067509 Ry
     hartree contribution      =     101.40276303 Ry
     xc contribution           =    -174.09727525 Ry
     ewald contribution        =    -269.49085569 Ry
     one-center paw contrib.   =     -19.04536511 Ry
      -> PAW hartree energy AE =      60.12801628 Ry
      -> PAW hartree energy PS =     -59.92806535 Ry
      -> PAW xc energy AE      =     -34.45318462 Ry
      -> PAW xc energy PS      =      15.20786858 Ry
      -> total E_H with PAW    =     101.60271397 Ry
      -> total E_XC with PAW   =    -193.34259129 Ry

     convergence has been achieved in  10 iterations

     negative rho (up, down):  8.238E-02 0.000E+00

     Forces acting on atoms (cartesian axes, Ry/au):

     atom    1 type  1   force =    -0.11594978   -0.05019377    0.00000000
     atom    2 type  1   force =     0.11594978    0.05019377   -0.00000000
     atom    3 type  2   force =     0.00000000    0.00000000    0.00000000
     atom    4 type  3   force =     0.00000000    0.00000000    0.00001630
     atom    5 type  3   force =     0.00000000    0.00000000   -0.00001630
     The non-local contrib.  to forces
     atom    1 type  1   force =    -0.13562084   -0.05645322    0.00000000
     atom    2 type  1   force =     0.13562084    0.05645322   -0.00000000
     atom    3 type  2   force =     0.00000000    0.00000000    0.00000000
     atom    4 type  3   force =     0.00000000    0.00000000   -0.00067193
     atom    5 type  3   force =     0.00000000    0.00000000    0.00067193
     The ionic contribution  to forces
     atom    1 type  1   force =    16.57863962    7.42743724   -0.00000000
     atom    2 type  1   force =   -16.57863962   -7.42743724    0.00000000
     atom    3 type  2   force =     0.00000000   -0.00000000    0.00000000
     atom    4 type  3   force =    -0.00000000    0.00000000   -0.00000000
     atom    5 type  3   force =     0.00000000   -0.00000000    0.00000000
     The local contribution  to forces
     atom    1 type  1   force =   -16.56594654   -7.42397243   -0.00233117
     atom    2 type  1   force =    16.56568881    7.42381763    0.00234660
     atom    3 type  2   force =    -0.00000749   -0.00001851   -0.00000475
     atom    4 type  3   force =    -0.00066809    0.00191575    0.00068448
     atom    5 type  3   force =     0.00097139   -0.00179798   -0.00066977
     The core correction contribution to forces
     atom    1 type  1   force =     0.00676686    0.00270940   -0.00020125
     atom    2 type  1   force =    -0.00677857   -0.00271550    0.00020233
     atom    3 type  2   force =     0.00000452   -0.00000002    0.00000006
     atom    4 type  3   force =    -0.00000474    0.00001301   -0.00000379
     atom    5 type  3   force =     0.00000535   -0.00001282    0.00000385
     The Hubbard contrib.    to forces
     atom    1 type  1   force =     0.00000000    0.00000000    0.00000000
     atom    2 type  1   force =     0.00000000    0.00000000    0.00000000
     atom    3 type  2   force =     0.00000000    0.00000000    0.00000000
     atom    4 type  3   force =     0.00000000    0.00000000    0.00000000
     atom    5 type  3   force =     0.00000000    0.00000000    0.00000000
     The SCF correction term to forces
     atom    1 type  1   force =     0.00017661    0.00007630   -0.00006758
     atom    2 type  1   force =     0.00002380    0.00006674    0.00003721
     atom    3 type  2   force =     0.00004560    0.00002404    0.00000294
     atom    4 type  3   force =    -0.00018515   -0.00003368    0.00000980
     atom    5 type  3   force =    -0.00009758   -0.00008228   -0.00002004

     Total force =     0.178683     Total SCF correction =     0.000321

     Computing stress (Cartesian axis) and pressure

     negative rho (up, down):  8.238E-02 0.000E+00
          total   stress  (Ry/bohr**3)                   (kbar)     P=        1.05
  -0.00170691  -0.00106895   0.00000000         -251.10     -157.25        0.00
  -0.00106895   0.00062892   0.00000000         -157.25       92.52        0.00
   0.00000000   0.00000000   0.00109947            0.00        0.00      161.74

     kinetic stress (kbar)  10480.17    -79.42     -0.00
                              -79.42  10639.48     -0.00
                               -0.00     -0.00  10684.26

     local   stress (kbar)   5021.59   8096.27     -9.44
                             8096.27  -9375.53     -2.78
                               -9.44     -2.78 -13015.22

     nonloc. stress (kbar)  13897.34    -68.94     -0.00
                              -68.94  14022.68     -0.00
                               -0.00     -0.00  14056.57

     hartree stress (kbar)   2512.36  -3879.60      0.99
                            -3879.60   9428.10      0.26
                                0.99      0.26  11167.29

     exc-cor stress (kbar)  21663.62     -1.42     -0.02
                               -1.42  21666.00     -0.01
                               -0.02     -0.01  21666.75

     corecor stress (kbar) -27696.29      3.25     -0.27
                                3.25 -27700.28     -0.10
                               -0.27     -0.10 -27703.92

     ewald   stress (kbar) -26129.88  -4227.40     -0.00
                            -4227.40 -18587.92      0.00
                               -0.00      0.00 -16693.99

     hubbard stress (kbar)      0.00      0.00      0.00
                                0.00      0.00      0.00
                                0.00      0.00      0.00

     DFT-D   stress (kbar)      0.00      0.00      0.00
                                0.00      0.00      0.00
                                0.00      0.00      0.00

     XDM     stress (kbar)      0.00      0.00      0.00
                                0.00      0.00      0.00
                                0.00      0.00      0.00

     dft-nl  stress (kbar)      0.00      0.00      0.00
                                0.00      0.00      0.00
                                0.00      0.00      0.00

     TS-vdW  stress (kbar)      0.00      0.00      0.00
                                0.00      0.00      0.00
                                0.00      0.00      0.00

[...]

                                0.00      0.00      0.00

     Writing all to output data dir new_calculations/myprefix.save/

     General routines

     Parallel routines

     PAW routines

   This run was terminated on:  18:23:30  20May2023

   JOB DONE.