     Program PWSCF v.7.0 starts on 20May2023 at 21: 6:55

     Reading input from espresso_3757.pwi
Warning: card &CELL ignored
Warning: card / ignored

     Current dimensions of program PWSCF are:
     Max number of different atomic species (ntypx) = 10
     Max number of k-points (npk) =  40000
     Max angular momentum in pseudopotentials (lmaxx) =  4

     gamma-point specific algorithms are used
     Message from routine setup:
     using ibrav=0 with symmetry is DISCOURAGED, use correct ibrav instead

     Subspace diagonalization in iterative solution of the eigenvalue problem:
     a serial algorithm will be used

     Using Slab Decomposition

     bravais-lattice index     =            0
     lattice parameter (alat)  =       9.2227  a.u.
     unit-cell volume          =     784.4755 (a.u.)^3
     number of atoms/cell      =            4
     number of atomic types    =            2
     number of electrons       =        52.00
     number of Kohn-Sham states=           31
     kinetic-energy cutoff     =      30.0000  Ry
     charge density cutoff     =     240.0000  Ry
     scf convergence threshold =      1.0E-06
     mixing beta               =       0.7000
     number of iterations used =            8  plain     mixing
     Exchange-correlation= SLA  PW   PBE  PBE
                           (   1   4   3   4   0   0   0)

     celldm(1)=   9.222737  celldm(2)=   0.000000  celldm(3)=   0.000000
     celldm(4)=   0.000000  celldm(5)=   0.000000  celldm(6)=   0.000000

     crystal axes: (cart. coord. in units of alat)
               a(1) = (   1.000000   0.000000   0.000000 )
               a(2) = (   0.000000   1.000000   0.000000 )
               a(3) = (   0.000000   0.000000   1.000000 )

     reciprocal axes: (cart. coord. in units 2 pi/alat)
               b(1) = (  1.000000  0.000000  0.000000 )
               b(2) = (  0.000000  1.000000  0.000000 )
               b(3) = (  0.000000  0.000000  1.000000 )

     PseudoPot. # 1 for Sr read from file:
     /home/pragov/projects/rrg-bengioy-ad/pragov/crystal_structure_design/SSSP/Sr_pbe_v1.uspp.F.UPF
     MD5 check sum: 6b418c05fbe9db5448babca5e47b7a5b
     Pseudo is Ultrasoft + core correction, Zval = 10.0
     Generated by new atomic code, or converted to UPF format
     Using radial grid of  883 points,  6 beta functions with:
                l(1) =   0
                l(2) =   0
                l(3) =   1
                l(4) =   1
                l(5) =   2
                l(6) =   2
     Q(r) pseudized with  6 coefficients,  rinner =    1.400   1.400   1.400
                                                       1.400   1.400

     PseudoPot. # 2 for Sn read from file:
     /home/pragov/projects/rrg-bengioy-ad/pragov/crystal_structure_design/SSSP/Sn_pbe_v1.uspp.F.UPF
     MD5 check sum: 4cf58ce39ec5d5d420df3dd08604eb00
     Pseudo is Ultrasoft + core correction, Zval = 14.0
     Generated by new atomic code, or converted to UPF format
     Using radial grid of  891 points,  6 beta functions with:
                l(1) =   0
                l(2) =   0
                l(3) =   1
                l(4) =   1
                l(5) =   2
                l(6) =   2
     Q(r) pseudized with  6 coefficients,  rinner =    1.200   1.200   1.200
                                                       1.200   1.200

     atomic species   valence    mass     pseudopotential
        Sr            10.00    87.62000     Sr( 1.00)
        Sn            14.00   118.71000     Sn( 1.00)

     48 Sym. Ops., with inversion, found

                                    s                        frac. trans.

      isym =  1     identity

 cryst.   s( 1) = (     1          0          0      )
                  (     0          1          0      )
                  (     0          0          1      )

 cart.    s( 1) = (  1.0000000  0.0000000  0.0000000 )
                  (  0.0000000  1.0000000  0.0000000 )
                  (  0.0000000  0.0000000  1.0000000 )

      isym =  2     180 deg rotation - cart. axis [0,0,1]

[...]

 cryst.   s( 9) = (     0          0          1      )
                  (     0         -1          0      )
                  (     1          0          0      )

 cart.    s( 9) = (  0.0000000  0.0000000  1.0000000 )
                  (  0.0000000 -1.0000000  0.0000000 )
                  (  1.0000000  0.0000000  0.0000000 )

[...]

 cryst.   s(10) = (     0          0         -1      )
                  (     0         -1          0      )
                  (    -1          0          0      )

 cart.    s(10) = (  0.0000000  0.0000000 -1.0000000 )
                  (  0.0000000 -1.0000000  0.0000000 )
                  ( -1.0000000  0.0000000  0.0000000 )

[...]

      isym = 24     120 deg rotation - cart. axis [-1,-1,1]

[...]

      isym = 25     inversion

[...]

      isym = 26     inv. 180 deg rotation - cart. axis [0,0,1]

[...]

      isym = 48     inv. 120 deg rotation - cart. axis [-1,-1,1]

 cryst.   s(48) = (     0         -1          0      )
                  (     0          0          1      )
                  (     1          0          0      )

 cart.    s(48) = (  0.0000000  0.0000000  1.0000000 )
                  ( -1.0000000  0.0000000  0.0000000 )
                  (  0.0000000  1.0000000  0.0000000 )

   Cartesian axes

     site n.     atom                  positions (alat units)
         1           Sr  tau(   1) = (   0.0000000   0.0000000   0.0000000  )
         2           Sn  tau(   2) = (   0.0000000   0.5000000   0.5000000  )
         3           Sn  tau(   3) = (   0.5000000   0.0000000   0.5000000  )
         4           Sn  tau(   4) = (   0.5000000   0.5000000   0.0000000  )

   Crystallographic axes

     site n.     atom                  positions (cryst. coord.)
         1           Sr  tau(   1) = (  0.0000000  0.0000000  0.0000000  )
         2           Sn  tau(   2) = (  0.0000000  0.5000000  0.5000000  )
         3           Sn  tau(   3) = (  0.5000000  0.0000000  0.5000000  )
         4           Sn  tau(   4) = (  0.5000000  0.5000000  0.0000000  )

     number of k points=     1  Methfessel-Paxton smearing, width (Ry)=  0.0010
                       cart. coord. in units 2pi/alat
        k(    1) = (   0.0000000   0.0000000   0.0000000), wk =   2.0000000

                       cryst. coord.
        k(    1) = (   0.0000000   0.0000000   0.0000000), wk =   2.0000000

     Check: negative core charge=   -0.000002

     Initial potential from superposition of free atoms

     starting charge      48.9662, renormalised to      52.0000

     negative rho (up, down):  6.428E-02 0.000E+00
     Starting wfcs are   40 randomized atomic wfcs

     Self-consistent Calculation

     iteration #  1     ecut=    30.00 Ry     beta= 0.70
     Davidson diagonalization with overlap

     ethr =  1.00E-02,  avg # of iterations =  3.0

     negative rho (up, down):  6.047E-02 0.000E+00

     total energy              =    -558.77797448 Ry
     estimated scf accuracy    <       2.31303035 Ry

[...]

     total energy              =    -559.54109873 Ry
     estimated scf accuracy    <       0.00001125 Ry

     iteration # 21     ecut=    30.00 Ry     beta= 0.70
     Davidson diagonalization with overlap

     ethr =  1.22E-08,  avg # of iterations =  1.0

[...]

     End of self-consistent calculation

          k = 0.0000 0.0000 0.0000 (  1055 PWs)   bands (ev):

   -26.5784 -10.6971 -10.6718 -10.6718 -10.6718 -10.5889 -10.5889 -10.5606
   -10.5605 -10.5434 -10.5434 -10.5433 -10.4843 -10.4843 -10.4843 -10.4542
    -8.5737  -8.5737  -8.5737   0.5337   5.3373   5.3373   7.9287   7.9287
     7.9287  12.1987  12.1987  12.1987  12.3463  12.6159  12.6161

     occupation numbers
     1.0000   1.0000   1.0000   1.0000   1.0000   1.0000   1.0000   1.0000
     1.0000   1.0000   1.0000   1.0000   1.0000   1.0000   1.0000   1.0000
     1.0000   1.0000   1.0000   1.0000   1.0000   1.0000   1.0000   1.0000
     1.0000   0.3342   0.3330   0.3328  -0.0000  -0.0000  -0.0000

     the Fermi energy is    12.1960 ev

!    total energy              =    -559.54109873 Ry
     estimated scf accuracy    <       0.00000015 Ry
     smearing contrib. (-TS)   =      -0.00074672 Ry
     internal energy E=F+TS    =    -559.54035202 Ry

     The total energy is F=E-TS. E is the sum of the following terms:
     one-electron contribution =    -187.41542468 Ry
     hartree contribution      =     127.95447444 Ry
     xc contribution           =    -161.08846785 Ry
     ewald contribution        =    -338.99093393 Ry

     convergence has been achieved in  21 iterations

     negative rho (up, down):  6.434E-02 0.000E+00

     Forces acting on atoms (cartesian axes, Ry/au):

     atom    1 type  1   force =     0.00000000    0.00000000    0.00000000
     atom    2 type  2   force =     0.00000000    0.00000000    0.00000000
     atom    3 type  2   force =     0.00000000    0.00000000    0.00000000
     atom    4 type  2   force =     0.00000000    0.00000000    0.00000000
     The non-local contrib.  to forces
     atom    1 type  1   force =     0.00000000    0.00000000    0.00000000
     atom    2 type  2   force =     0.00000000    0.00000000    0.00000000
     atom    3 type  2   force =     0.00000000    0.00000000    0.00000000
     atom    4 type  2   force =     0.00000000    0.00000000    0.00000000
     The ionic contribution  to forces
     atom    1 type  1   force =     0.00000000    0.00000000    0.00000000
     atom    2 type  2   force =     0.00000000    0.00000000    0.00000000
     atom    3 type  2   force =     0.00000000    0.00000000    0.00000000
     atom    4 type  2   force =     0.00000000    0.00000000    0.00000000
     The local contribution  to forces
     atom    1 type  1   force =    -0.00002408   -0.00001347   -0.00000662
     atom    2 type  2   force =     0.00000415    0.00003291    0.00005818
     atom    3 type  2   force =    -0.00008290   -0.00000311    0.00008061
     atom    4 type  2   force =    -0.00005348   -0.00017278    0.00000138
     The core correction contribution to forces
     atom    1 type  1   force =     0.00000040    0.00000046    0.00000051
     atom    2 type  2   force =     0.00000054    0.00000008    0.00000214
     atom    3 type  2   force =    -0.00000296    0.00000035    0.00000282
     atom    4 type  2   force =    -0.00000243   -0.00000520    0.00000005
     The Hubbard contrib.    to forces
     atom    1 type  1   force =     0.00000000    0.00000000    0.00000000
     atom    2 type  2   force =     0.00000000    0.00000000    0.00000000
     atom    3 type  2   force =     0.00000000    0.00000000    0.00000000
     atom    4 type  2   force =     0.00000000    0.00000000    0.00000000
     The SCF correction term to forces
     atom    1 type  1   force =    -0.00000441    0.00000027    0.00000275
     atom    2 type  2   force =     0.00000060   -0.00000064   -0.00002009
     atom    3 type  2   force =    -0.00000713   -0.00000495   -0.00000851
     atom    4 type  2   force =     0.00000838   -0.00004430    0.00001755

     Total force =     0.000000     Total SCF correction =     0.000054

     Computing stress (Cartesian axis) and pressure

     negative rho (up, down):  6.434E-02 0.000E+00
          total   stress  (Ry/bohr**3)                   (kbar)     P=       92.27
   0.00062721   0.00000000   0.00000000           92.27        0.00        0.00
   0.00000000   0.00062721   0.00000000            0.00       92.27        0.00
   0.00000000   0.00000000   0.00062721            0.00        0.00       92.27

     kinetic stress (kbar)  10566.45      0.00      0.00
                                0.00  10566.45      0.00
                                0.00      0.00  10566.45

     local   stress (kbar)   1136.46      0.02     -0.02
                                0.02   1134.83      0.02
                               -0.02      0.02   1136.32

     nonloc. stress (kbar)   7113.91      0.00      0.00
                                0.00   7113.91      0.00
                                0.00      0.00   7113.91

     hartree stress (kbar)   7997.75     -0.00      0.00
                               -0.00   7998.49     -0.00
                                0.00     -0.00   7997.82

     exc-cor stress (kbar)  12537.42     -0.00      0.00
                               -0.00  12537.43     -0.00
                                0.00     -0.00  12537.42

     corecor stress (kbar) -18070.17      0.00     -0.00
                                0.00 -18070.20      0.00
                               -0.00      0.00 -18070.18

     ewald   stress (kbar) -21189.23     -0.00     -0.00
                               -0.00 -21189.23      0.00
                               -0.00      0.00 -21189.23

     hubbard stress (kbar)      0.00      0.00      0.00
                                0.00      0.00      0.00
                                0.00      0.00      0.00

     DFT-D   stress (kbar)      0.00      0.00      0.00
                                0.00      0.00      0.00
                                0.00      0.00      0.00

     XDM     stress (kbar)      0.00      0.00      0.00
                                0.00      0.00      0.00
                                0.00      0.00      0.00

     dft-nl  stress (kbar)      0.00      0.00      0.00
                                0.00      0.00      0.00
                                0.00      0.00      0.00

     TS-vdW  stress (kbar)      0.00      0.00      0.00
                                0.00      0.00      0.00
                                0.00      0.00      0.00

[...]

                                0.00      0.00      0.00

     Writing all to output data dir new_calculations/myprefix.save/

     General routines

     Parallel routines

   This run was terminated on:  21: 7:11  20May2023

   JOB DONE.