     Program PWSCF v.7.0 starts on 20May2023 at  6:32: 1

     Reading input from espresso_16117.pwi
Warning: card &CELL ignored
Warning: card / ignored

     Current dimensions of program PWSCF are:
     Max number of different atomic species (ntypx) = 10
     Max number of k-points (npk) =  40000
     Max angular momentum in pseudopotentials (lmaxx) =  4
     file Al.pbe-n-kjpaw_psl.1.0.0.UPF: wavefunction(s)  3S 3P renormalized

     gamma-point specific algorithms are used
     Message from routine setup:
     using ibrav=0 with symmetry is DISCOURAGED, use correct ibrav instead

     Subspace diagonalization in iterative solution of the eigenvalue problem:
     a serial algorithm will be used

     Using Slab Decomposition

     bravais-lattice index     =            0
     lattice parameter (alat)  =       6.5467  a.u.
     unit-cell volume          =    1793.9900 (a.u.)^3
     number of atoms/cell      =           18
     number of atomic types    =            3
     number of electrons       =       240.00
     number of Kohn-Sham states=          144
     kinetic-energy cutoff     =      30.0000  Ry
     charge density cutoff     =     240.0000  Ry
     scf convergence threshold =      1.0E-06
     mixing beta               =       0.7000
     number of iterations used =            8  plain     mixing
     Exchange-correlation= PBE
                           (   1   4   3   4   0   0   0)

     celldm(1)=   6.546728  celldm(2)=   0.000000  celldm(3)=   0.000000
     celldm(4)=   0.000000  celldm(5)=   0.000000  celldm(6)=   0.000000

     crystal axes: (cart. coord. in units of alat)
               a(1) = (   1.000000   0.000000   0.000000 )
               a(2) = (   0.000000   1.922671   0.000000 )
               a(3) = (   0.000000   0.006007   3.325388 )

     reciprocal axes: (cart. coord. in units 2 pi/alat)
               b(1) = (  1.000000  0.000000  0.000000 )
               b(2) = (  0.000000  0.520110 -0.000939 )
               b(3) = (  0.000000  0.000000  0.300717 )

     PseudoPot. # 1 for Al read from file:
     /home/pragov/projects/rrg-bengioy-ad/pragov/crystal_structure_design/SSSP/Al.pbe-n-kjpaw_psl.1.0.0.UPF
     MD5 check sum: cfc449ca30b5f3223ec38ddd88ac046d
     Pseudo is Projector augmented-wave + core cor, Zval =  3.0
     Generated using "atomic" code by A. Dal Corso  v.5.1
     Shape of augmentation charge: PSQ
     Using radial grid of 1135 points,  6 beta functions with:
                l(1) =   0
                l(2) =   0
                l(3) =   1
                l(4) =   1
                l(5) =   2
                l(6) =   2
     Q(r) pseudized with 0 coefficients

     PseudoPot. # 2 for P  read from file:
     /home/pragov/projects/rrg-bengioy-ad/pragov/crystal_structure_design/SSSP/P.pbe-n-rrkjus_psl.1.0.0.UPF
     MD5 check sum: 8b930f418f0a4573dca56cd030ffe088
     Pseudo is Ultrasoft + core correction, Zval =  5.0
     Generated using "atomic" code by A. Dal Corso  v.5.1
     Using radial grid of 1147 points,  6 beta functions with:
                l(1) =   0
                l(2) =   0
                l(3) =   1
                l(4) =   1
                l(5) =   2
                l(6) =   2
     Q(r) pseudized with 0 coefficients

     PseudoPot. # 3 for Pd read from file:
     /home/pragov/projects/rrg-bengioy-ad/pragov/crystal_structure_design/SSSP/Pd_ONCV_PBE-1.0.oncvpsp.upf
     MD5 check sum: eb77f42b51d86fb18e25f68156a31cf1
     Pseudo is Norm-conserving, Zval = 18.0
     Generated using ONCVPSP code by D. R. Hamann
     Using radial grid of 1410 points,  6 beta functions with:
                l(1) =   0
                l(2) =   0
                l(3) =   1
                l(4) =   1
                l(5) =   2
                l(6) =   2

     atomic species   valence    mass     pseudopotential
        Al             3.00    26.98154     Al( 1.00)
        P              5.00    30.97376     P ( 1.00)
        Pd            18.00   106.42000     Pd( 1.00)

      2 Sym. Ops. (no inversion) found

                                    s                        frac. trans.

      isym =  1     identity

 cryst.   s( 1) = (     1          0          0      )
                  (     0          1          0      )
                  (     0          0          1      )

 cart.    s( 1) = (  1.0000000  0.0000000  0.0000000 )
                  (  0.0000000  1.0000000  0.0000000 )
                  (  0.0000000  0.0000000  1.0000000 )

      isym =  2     inv. 180 deg rotation - cart. axis [1,0,0]

 cryst.   s( 2) = (    -1          0          0      )
                  (     0          1          0      )
                  (     0          0          1      )

 cart.    s( 2) = ( -1.0000000  0.0000000  0.0000000 )
                  (  0.0000000  1.0000000  0.0000000 )
                  (  0.0000000  0.0000000  1.0000000 )

   Cartesian axes

     site n.     atom                  positions (alat units)
         1           Al  tau(   1) = (   0.0000000   0.9665265   0.5534576  )
         2           Al  tau(   2) = (   0.0000000   0.9632013   2.7744476  )
         3           Al  tau(   3) = (   0.0000000   0.0047175   1.1044777  )
         4           P   tau(   4) = (   0.5000000   0.0031547   0.0019221  )
         5           P   tau(   5) = (   0.5000000   0.9590350   1.6621752  )
         6           P   tau(   6) = (   0.0000000   1.9209345   2.2182964  )
         7           Pd  tau(   7) = (   0.0000000   1.4361900   3.3205927  )
         8           Pd  tau(   8) = (   0.0000000   0.4572856   1.6815689  )
         9           Pd  tau(   9) = (   0.0000000   1.2277403   2.0967868  )
        10           Pd  tau(  10) = (   0.0000000   0.2516283   0.4229794  )
        11           Pd  tau(  11) = (   0.0000000   0.2430191   2.8725499  )
        12           Pd  tau(  12) = (   0.0000000   1.2137928   1.2417597  )
        13           Pd  tau(  13) = (   0.5000000   1.7317267   1.6798230  )
        14           Pd  tau(  14) = (   0.5000000   0.7591386   3.3204730  )
        15           Pd  tau(  15) = (   0.5000000   1.5567731   2.6547835  )
        16           Pd  tau(  16) = (   0.5000000   0.5843791   1.0126139  )
        17           Pd  tau(  17) = (   0.5000000   0.5774068   2.3108553  )
        18           Pd  tau(  18) = (   0.5000000   1.5434961   0.6616258  )

   Crystallographic axes

     site n.     atom                  positions (cryst. coord.)
         1           Al  tau(   1) = (  0.0000000  0.5021800  0.1664340  )
         2           Al  tau(   2) = (  0.0000000  0.4983640  0.8343230  )
         3           Al  tau(   3) = (  0.0000000  0.0014160  0.3321350  )
         4           P   tau(   4) = (  0.5000000  0.0016390  0.0005780  )
         5           P   tau(   5) = (  0.5000000  0.4972420  0.4998440  )
         6           P   tau(   6) = (  0.0000000  0.9970130  0.6670790  )
         7           Pd  tau(   7) = (  0.0000000  0.7438570  0.9985580  )
         8           Pd  tau(   8) = (  0.0000000  0.2362590  0.5056760  )
         9           Pd  tau(   9) = (  0.0000000  0.6365900  0.6305390  )
        10           Pd  tau(  10) = (  0.0000000  0.1304770  0.1271970  )
        11           Pd  tau(  11) = (  0.0000000  0.1236980  0.8638240  )
        12           Pd  tau(  12) = (  0.0000000  0.6301390  0.3734180  )
        13           Pd  tau(  13) = (  0.5000000  0.8991100  0.5051510  )
        14           Pd  tau(  14) = (  0.5000000  0.3917160  0.9985220  )
        15           Pd  tau(  15) = (  0.5000000  0.8071990  0.7983380  )
        16           Pd  tau(  16) = (  0.5000000  0.3029900  0.3045100  )
        17           Pd  tau(  17) = (  0.5000000  0.2981440  0.6949130  )
        18           Pd  tau(  18) = (  0.5000000  0.8021660  0.1989620  )

     number of k points=     1  Methfessel-Paxton smearing, width (Ry)=  0.0010
                       cart. coord. in units 2pi/alat
        k(    1) = (   0.0000000   0.0000000   0.0000000), wk =   2.0000000

                       cryst. coord.
        k(    1) = (   0.0000000   0.0000000   0.0000000), wk =   2.0000000

     Initial potential from superposition of free atoms

     starting charge     239.9884, renormalised to     240.0000
     Starting wfcs are  144 randomized atomic wfcs
     Checking if some PAW data can be deallocated...

     Self-consistent Calculation

     iteration #  1     ecut=    30.00 Ry     beta= 0.70
     Davidson diagonalization with overlap

     ethr =  1.00E-02,  avg # of iterations =  7.0

     Threshold (ethr) on eigenvalues was too large:
     Diagonalizing with lowered threshold

     Davidson diagonalization with overlap

[...]

     total energy              =   -3197.25676903 Ry
     estimated scf accuracy    <       1.86813146 Ry

[...]

     total energy              =   -3198.21803481 Ry
     estimated scf accuracy    <       0.00000135 Ry

     iteration # 22     ecut=    30.00 Ry     beta= 0.70
     Davidson diagonalization with overlap

     ethr =  4.91E-10,  avg # of iterations =  2.0

     End of self-consistent calculation

          k = 0.0000 0.0000 0.0000 (  2495 PWs)   bands (ev):

   -68.8122 -68.7475 -68.7035 -68.6952 -68.6212 -68.5799 -68.2973 -68.2916
   -68.1707 -68.0559 -67.9438 -67.7855 -34.3922 -34.3195 -34.2907 -34.2496
   -34.1788 -34.1752 -34.1724 -34.1667 -34.1578 -34.1230 -34.0750 -34.0714
   -34.0554 -34.0199 -34.0180 -33.9654 -33.9625 -33.8390 -33.8297 -33.8158
   -33.7253 -33.6809 -33.6579 -33.6113 -33.5958 -33.5692 -33.5589 -33.5383
   -33.4576 -33.4411 -33.3759 -33.3699 -33.3106 -33.2505 -33.2447 -33.0650
     4.1211   4.4933   4.8208   9.0079   9.5161  10.2671  10.4077  10.6798
    10.7585  10.8408  10.9300  11.2564  11.2594  11.5269  11.9154  12.0145
    12.1635  12.2475  12.3465  12.4624  12.5458  12.6160  12.8300  12.9537
    13.0309  13.0649  13.3573  13.3890  13.3938  13.4480  13.4604  13.4829
    13.5859  13.6852  13.7139  13.8005  13.8157  13.8433  13.9235  13.9661
    14.0739  14.1218  14.1584  14.4716  14.5016  14.5270  14.5399  14.5920
    14.6114  14.7202  14.7590  14.9171  14.9840  15.0307  15.0575  15.1176
    15.1214  15.3145  15.3443  15.4003  15.4068  15.4703  15.6271  15.7423
    15.7593  15.8350  15.8410  15.9779  15.9942  16.0155  16.0511  16.4528
    16.5216  17.4347  18.1324  18.3533  18.5042  19.1374  19.3756  20.2759
    20.9065  20.9817  21.4069  22.1824  22.2926  22.7038  22.8702  23.0198
    23.1119  23.7034  23.8224  24.2306  24.5479  24.6347  24.9511  25.1103

     occupation numbers
     1.0000   1.0000   1.0000   1.0000   1.0000   1.0000   1.0000   1.0000
     1.0000   1.0000   1.0000   1.0000   1.0000   1.0000   1.0000   1.0000
     1.0000   1.0000   1.0000   1.0000   1.0000   1.0000   1.0000   1.0000
     1.0000   1.0000   1.0000   1.0000   1.0000   1.0000   1.0000   1.0000
     1.0000   1.0000   1.0000   1.0000   1.0000   1.0000   1.0000   1.0000
     1.0000   1.0000   1.0000   1.0000   1.0000   1.0000   1.0000   1.0000
     1.0000   1.0000   1.0000   1.0000   1.0000   1.0000   1.0000   1.0000
     1.0000   1.0000   1.0000   1.0000   1.0000   1.0000   1.0000   1.0000
     1.0000   1.0000   1.0000   1.0000   1.0000   1.0000   1.0000   1.0000
     1.0000   1.0000   1.0000   1.0000   1.0000   1.0000   1.0000   1.0000
     1.0000   1.0000   1.0000   1.0000   1.0000   1.0000   1.0000   1.0000
     1.0000   1.0000   1.0000   1.0000   1.0000   1.0000   1.0000   1.0000
     1.0000   1.0000   1.0000   1.0000   1.0000   1.0000   1.0000   1.0000
     1.0000   1.0000   1.0000   1.0000   1.0000   1.0000   1.0000   1.0000
     1.0000   1.0000   1.0000   1.0000   1.0000   1.0000   1.0000   1.0010
    -0.0010  -0.0000  -0.0000  -0.0000  -0.0000  -0.0000  -0.0000  -0.0000
    -0.0000  -0.0000  -0.0000  -0.0000  -0.0000  -0.0000  -0.0000  -0.0000
    -0.0000  -0.0000  -0.0000  -0.0000  -0.0000  -0.0000  -0.0000  -0.0000

     the Fermi energy is    16.4872 ev

!    total energy              =   -3198.21803444 Ry
     estimated scf accuracy    <       0.00000064 Ry
     smearing contrib. (-TS)   =       0.00001113 Ry
     internal energy E=F+TS    =   -3198.21804556 Ry

     The total energy is F=E-TS. E is the sum of the following terms:
     one-electron contribution =   -1285.59022898 Ry
     hartree contribution      =     768.41463320 Ry
     xc contribution           =    -319.22038392 Ry
     ewald contribution        =   -2257.81639580 Ry
     one-center paw contrib.   =    -104.00567007 Ry
      -> PAW hartree energy AE =       4.11028327 Ry
      -> PAW hartree energy PS =      -4.09792340 Ry
      -> PAW xc energy AE      =    -109.68370487 Ry
      -> PAW xc energy PS      =       5.66567492 Ry
      -> total E_H with PAW    =     768.42699307 Ry
      -> total E_XC with PAW   =    -423.23841386 Ry

     convergence has been achieved in  22 iterations

     Forces acting on atoms (cartesian axes, Ry/au):

     atom    1 type  1   force =     0.00000000   -0.01040885   -0.01120386
     atom    2 type  1   force =     0.00000000   -0.00956945    0.01079517
     atom    3 type  1   force =     0.00000000    0.00707144    0.00774496
     atom    4 type  2   force =     0.00000000   -0.01700094    0.00304266
     atom    5 type  2   force =     0.00000000   -0.01925739   -0.00277925
     atom    6 type  2   force =     0.00000000    0.01057718   -0.01287086
     atom    7 type  3   force =     0.00000000    0.06131640   -0.01137485
     atom    8 type  3   force =     0.00000000    0.03991071   -0.01729102
     atom    9 type  3   force =     0.00000000   -0.03040792   -0.02290198
     atom   10 type  3   force =     0.00000000   -0.01999319   -0.04358140
     atom   11 type  3   force =     0.00000000    0.00393482    0.05353420
     atom   12 type  3   force =     0.00000000   -0.00708295    0.05781940
     atom   13 type  3   force =     0.00000000   -0.01935231    0.00717960
     atom   14 type  3   force =     0.00000000   -0.00817054    0.00354165
     atom   15 type  3   force =     0.00000000    0.02114226   -0.01644473
     atom   16 type  3   force =     0.00000000   -0.00368030   -0.00078677
     atom   17 type  3   force =     0.00000000    0.00016879    0.00165308
     atom   18 type  3   force =     0.00000000    0.00080225   -0.00607601
     The non-local contrib.  to forces
     atom    1 type  1   force =     0.00000000    0.01603049   -0.01090554
     atom    2 type  1   force =     0.00000000    0.01853960   -0.00056232
     atom    3 type  1   force =     0.00000000    0.00647359    0.01202602
     atom    4 type  2   force =     0.00000000    0.01137417   -0.00763120
     atom    5 type  2   force =     0.00000000    0.01108305    0.03255236
     atom    6 type  2   force =     0.00000000    0.02601081   -0.01728516
     atom    7 type  3   force =     0.00000000    0.12895481   -0.00872888
     atom    8 type  3   force =     0.00000000    0.22412302    0.00153351
     atom    9 type  3   force =     0.00000000   -0.19356532   -0.25100619
     atom   10 type  3   force =     0.00000000   -0.18966083   -0.24882212
     atom   11 type  3   force =     0.00000000   -0.16191271    0.22153538
     atom   12 type  3   force =     0.00000000   -0.14162573    0.23715644
     atom   13 type  3   force =     0.00000000    0.14954300    0.18495685
     atom   14 type  3   force =     0.00000000    0.13087968   -0.01909366
     atom   15 type  3   force =     0.00000000   -0.02898150   -0.28856845
     atom   16 type  3   force =     0.00000000   -0.07672210   -0.16858827
     atom   17 type  3   force =     0.00000000   -0.22285290    0.07321055
     atom   18 type  3   force =     0.00000000   -0.12037268    0.20980573
     The ionic contribution  to forces
     atom    1 type  1   force =     0.00000000   -0.05936201    0.00046663
     atom    2 type  1   force =    -0.00000000    0.02501801    0.80972039
     atom    3 type  1   force =    -0.00000000    0.01502195   -0.74644383
     atom    4 type  2   force =    -0.00000000   -0.07242706    1.29261292
     atom    5 type  2   force =    -0.00000000    0.14906990   -1.36791654
     atom    6 type  2   force =    -0.00000000    0.16480819   -0.08417843
     atom    7 type  3   force =     0.00000000  -12.51543476    4.65092002
     atom    8 type  3   force =     0.00000000   -5.68551960   -9.31951924
     atom    9 type  3   force =     0.00000000   -1.30388981    7.18429541
     atom   10 type  3   force =    -0.00000000    5.87595186   11.00658120
     atom   11 type  3   force =     0.00000000    8.64124766    1.26203713
     atom   12 type  3   force =     0.00000000    4.65205985  -14.23720150
     atom   13 type  3   force =     0.00000000    4.90099076  -10.57280565
     atom   14 type  3   force =     0.00000000    9.68378611    3.42013947
     atom   15 type  3   force =     0.00000000   -9.44245318    2.00656216
     atom   16 type  3   force =    -0.00000000   -3.90902231  -11.06899329
     atom   17 type  3   force =     0.00000000    3.30829532    9.86545816
     atom   18 type  3   force =     0.00000000   -4.42814086    5.89826499
     The local contribution  to forces
     atom    1 type  1   force =    -0.00000008    0.03448793   -0.00146214
     atom    2 type  1   force =    -0.00000007   -0.05140218   -0.79882751
     atom    3 type  1   force =     0.00000005   -0.01356404    0.74381031
     atom    4 type  2   force =     0.00000004    0.04492339   -1.28267193
     atom    5 type  2   force =    -0.00000010   -0.17896338    1.33434389
     atom    6 type  2   force =     0.00000007   -0.17855783    0.08742391
     atom    7 type  3   force =     0.00000032   12.44798014   -4.65263607
     atom    8 type  3   force =     0.00000003    5.50096908    9.29963341
     atom    9 type  3   force =    -0.00000029    1.46632419   -6.95729302
     atom   10 type  3   force =     0.00000043   -5.70636628  -10.80010644
     atom   11 type  3   force =     0.00000031   -8.47419148   -1.43052809
     atom   12 type  3   force =    -0.00000064   -4.51777906   14.05735126
     atom   13 type  3   force =     0.00000106   -5.06894394   10.39364126
     atom   14 type  3   force =    -0.00000023   -9.82337688   -3.39783175
     atom   15 type  3   force =     0.00000009    9.49313105   -1.73465273
     atom   16 type  3   force =     0.00000117    3.98165196   11.23783267
     atom   17 type  3   force =    -0.00000027   -3.08572156   -9.93713620
     atom   18 type  3   force =     0.00000006    4.54929312   -6.11271140
     The core correction contribution to forces
     atom    1 type  1   force =    -0.00000001   -0.00161338    0.00096483
     atom    2 type  1   force =    -0.00000001   -0.00193971    0.00040527
     atom    3 type  1   force =     0.00000001   -0.00072323   -0.00155112
     atom    4 type  2   force =     0.00000001   -0.00074229    0.00074155
     atom    5 type  2   force =    -0.00000000   -0.00067485   -0.00209789
     atom    6 type  2   force =     0.00000000   -0.00132469    0.00094212
     atom    7 type  3   force =     0.00000000    0.00000000    0.00000000
     atom    8 type  3   force =     0.00000000    0.00000000    0.00000000
     atom    9 type  3   force =     0.00000000    0.00000000    0.00000000
     atom   10 type  3   force =     0.00000000    0.00000000    0.00000000
     atom   11 type  3   force =     0.00000000    0.00000000    0.00000000
     atom   12 type  3   force =     0.00000000    0.00000000    0.00000000
     atom   13 type  3   force =     0.00000000    0.00000000    0.00000000
     atom   14 type  3   force =     0.00000000    0.00000000    0.00000000
     atom   15 type  3   force =     0.00000000    0.00000000    0.00000000
     atom   16 type  3   force =     0.00000000    0.00000000    0.00000000
     atom   17 type  3   force =     0.00000000    0.00000000    0.00000000
     atom   18 type  3   force =     0.00000000    0.00000000    0.00000000
     The Hubbard contrib.    to forces
     atom    1 type  1   force =     0.00000000    0.00000000    0.00000000
     atom    2 type  1   force =     0.00000000    0.00000000    0.00000000
     atom    3 type  1   force =     0.00000000    0.00000000    0.00000000
     atom    4 type  2   force =     0.00000000    0.00000000    0.00000000
     atom    5 type  2   force =     0.00000000    0.00000000    0.00000000
     atom    6 type  2   force =     0.00000000    0.00000000    0.00000000
     atom    7 type  3   force =     0.00000000    0.00000000    0.00000000
     atom    8 type  3   force =     0.00000000    0.00000000    0.00000000
     atom    9 type  3   force =     0.00000000    0.00000000    0.00000000
     atom   10 type  3   force =     0.00000000    0.00000000    0.00000000
     atom   11 type  3   force =     0.00000000    0.00000000    0.00000000
     atom   12 type  3   force =     0.00000000    0.00000000    0.00000000
     atom   13 type  3   force =     0.00000000    0.00000000    0.00000000
     atom   14 type  3   force =     0.00000000    0.00000000    0.00000000
     atom   15 type  3   force =     0.00000000    0.00000000    0.00000000
     atom   16 type  3   force =     0.00000000    0.00000000    0.00000000
     atom   17 type  3   force =     0.00000000    0.00000000    0.00000000
     atom   18 type  3   force =     0.00000000    0.00000000    0.00000000
     The SCF correction term to forces
     atom    1 type  1   force =     0.00000002    0.00005016   -0.00026984
     atom    2 type  1   force =     0.00000002    0.00021686    0.00005713
     atom    3 type  1   force =     0.00000001   -0.00013479   -0.00009862
     atom    4 type  2   force =     0.00000006   -0.00012712   -0.00001087
     atom    5 type  2   force =     0.00000003    0.00022993    0.00033672
     atom    6 type  2   force =     0.00000000   -0.00035727    0.00022450
     atom    7 type  3   force =    -0.00000016   -0.00018176   -0.00093211
     atom    8 type  3   force =     0.00000020    0.00034023    0.00105909
     atom    9 type  3   force =     0.00000004    0.00072506    0.00109962
     atom   10 type  3   force =    -0.00000050    0.00008409   -0.00123624
     atom   11 type  3   force =    -0.00000013   -0.00120663    0.00048758
     atom   12 type  3   force =     0.00000074    0.00026403    0.00051100
     atom   13 type  3   force =    -0.00000121   -0.00094010    0.00138494
     atom   14 type  3   force =    -0.00000018    0.00054258    0.00032539
     atom   15 type  3   force =     0.00000022   -0.00055207    0.00021210
     atom   16 type  3   force =    -0.00000126    0.00041419   -0.00104008
     atom   17 type  3   force =    -0.00000032    0.00044996    0.00011837
     atom   18 type  3   force =    -0.00000063    0.00002471   -0.00143753

     Total force =     0.136336     Total SCF correction =     0.003878

     Computing stress (Cartesian axis) and pressure

          total   stress  (Ry/bohr**3)                   (kbar)     P=    -1223.26
  -0.00993180   0.00000000   0.00000000        -1461.02        0.00        0.00
   0.00000000  -0.00739986   0.00004718            0.00    -1088.56        6.94
   0.00000000   0.00004718  -0.00761499            0.00        6.94    -1120.20

     kinetic stress (kbar)  56559.11      0.00      0.00
                                0.00  57005.61     -0.20
                                0.00     -0.20  56647.18

     local   stress (kbar) -23582.34      0.00     -0.00
                                0.00 -16371.23    124.24
                               -0.00    124.24 -15226.14

     nonloc. stress (kbar)   9336.72      0.00      0.00
                                0.00   9256.40      4.47
                                0.00      4.47   9336.53

     hartree stress (kbar)  23727.08     -0.00      0.00
                               -0.00  19893.64    -54.42
                                0.00    -54.42  19388.39

     exc-cor stress (kbar)  -7683.48     -0.00      0.00
                               -0.00  -7679.03     -0.11
                                0.00     -0.11  -7681.53

     corecor stress (kbar)   -483.94     -0.00     -0.00
                               -0.00   -487.11     -0.02
                               -0.00     -0.02   -487.33

     ewald   stress (kbar) -59334.17     -0.00     -0.00
                               -0.00 -62706.84    -67.02
                               -0.00    -67.02 -63097.30

     hubbard stress (kbar)      0.00      0.00      0.00
                                0.00      0.00      0.00
                                0.00      0.00      0.00

     DFT-D   stress (kbar)      0.00      0.00      0.00
                                0.00      0.00      0.00
                                0.00      0.00      0.00

     XDM     stress (kbar)      0.00      0.00      0.00
                                0.00      0.00      0.00
                                0.00      0.00      0.00

     dft-nl  stress (kbar)      0.00      0.00      0.00
                                0.00      0.00      0.00
                                0.00      0.00      0.00

     TS-vdW  stress (kbar)      0.00      0.00      0.00
                                0.00      0.00      0.00
                                0.00      0.00      0.00

[...]

                                0.00      0.00      0.00

     Writing all to output data dir new_calculations/myprefix.save/

     General routines

     Parallel routines

     PAW routines

   This run was terminated on:   6:33:11  20May2023

   JOB DONE.