     Program PWSCF v.7.0 starts on 20May2023 at 23:55:44

     Reading input from espresso_18666.pwi
Warning: card &CELL ignored
Warning: card / ignored

     Current dimensions of program PWSCF are:
     Max number of different atomic species (ntypx) = 10
     Max number of k-points (npk) =  40000
     Max angular momentum in pseudopotentials (lmaxx) =  4
     file O.pbe-n-kjpaw_psl.0.1.UPF: wavefunction(s)  2P renormalized

     gamma-point specific algorithms are used
     Message from routine setup:
     using ibrav=0 with symmetry is DISCOURAGED, use correct ibrav instead

     Subspace diagonalization in iterative solution of the eigenvalue problem:
     a serial algorithm will be used

     Using Slab Decomposition

     bravais-lattice index     =            0
     lattice parameter (alat)  =       7.6457  a.u.
     unit-cell volume          =     764.1759 (a.u.)^3
     number of atoms/cell      =            6
     number of atomic types    =            4
     number of electrons       =        55.00
     number of Kohn-Sham states=           34
     kinetic-energy cutoff     =      30.0000  Ry
     charge density cutoff     =     240.0000  Ry
     scf convergence threshold =      1.0E-06
     mixing beta               =       0.7000
     number of iterations used =            8  plain     mixing
     Exchange-correlation= SLA  PW   PBX  PBC
                           (   1   4   3   4   0   0   0)

     celldm(1)=   7.645711  celldm(2)=   0.000000  celldm(3)=   0.000000
     celldm(4)=   0.000000  celldm(5)=   0.000000  celldm(6)=   0.000000

     crystal axes: (cart. coord. in units of alat)
               a(1) = (   1.000000   0.000000   0.000000 )
               a(2) = (   0.000000   1.000000   0.000000 )
               a(3) = (   0.000000   0.000000   1.709778 )

     reciprocal axes: (cart. coord. in units 2 pi/alat)
               b(1) = (  1.000000  0.000000  0.000000 )
               b(2) = (  0.000000  1.000000  0.000000 )
               b(3) = (  0.000000  0.000000  0.584871 )

     PseudoPot. # 1 for La read from file:
     /home/pragov/projects/rrg-bengioy-ad/pragov/crystal_structure_design/SSSP/La.GGA-PBE-paw-v1.0.UPF
     MD5 check sum: 436541e95c1ad8901025bd0b0ed42ae2
     Pseudo is Projector augmented-wave + core cor, Zval = 11.0
     Generated using ATOMPAW code
     Shape of augmentation charge: BESSEL
     Using radial grid of 1101 points,  8 beta functions with:
                l(1) =   0
                l(2) =   0
                l(3) =   1
                l(4) =   1
                l(5) =   2
                l(6) =   2
                l(7) =   3
                l(8) =   3
     Q(r) pseudized with 0 coefficients

     PseudoPot. # 2 for Gd read from file:
     /home/pragov/projects/rrg-bengioy-ad/pragov/crystal_structure_design/SSSP/Gd.GGA-PBE-paw-v1.0.UPF
     MD5 check sum: 3e8e0d208da550914ae52eaf991d13de
     Pseudo is Projector augmented-wave + core cor, Zval = 18.0
     Generated using ATOMPAW code
     Shape of augmentation charge: BESSEL
     Using radial grid of 1110 points,  8 beta functions with:
                l(1) =   0
                l(2) =   0
                l(3) =   1
                l(4) =   1
                l(5) =   2
                l(6) =   2
                l(7) =   3
                l(8) =   3
     Q(r) pseudized with 0 coefficients

     PseudoPot. # 3 for Cl read from file:
     /home/pragov/projects/rrg-bengioy-ad/pragov/crystal_structure_design/SSSP/cl_pbe_v1.4.uspp.F.UPF
     MD5 check sum: fc6f6913ecf08c9257cb748ef0700058
     Pseudo is Ultrasoft + core correction, Zval =  7.0
     Generated by new atomic code, or converted to UPF format
     Using radial grid of  909 points,  6 beta functions with:
                l(1) =   0
                l(2) =   0
                l(3) =   1
                l(4) =   1
                l(5) =   2
                l(6) =   2
     Q(r) pseudized with  8 coefficients,  rinner =    1.300   1.300   1.300
                                                       1.300   1.300

     PseudoPot. # 4 for O  read from file:
     /home/pragov/projects/rrg-bengioy-ad/pragov/crystal_structure_design/SSSP/O.pbe-n-kjpaw_psl.0.1.UPF
     MD5 check sum: 0234752ac141de4415c5fc33072bef88
     Pseudo is Projector augmented-wave + core cor, Zval =  6.0
     Generated using "atomic" code by A. Dal Corso  v.5.0.99 svn rev. 10869
     Shape of augmentation charge: BESSEL
     Using radial grid of 1095 points,  4 beta functions with:
                l(1) =   0
                l(2) =   0
                l(3) =   1
                l(4) =   1
     Q(r) pseudized with 0 coefficients

     atomic species   valence    mass     pseudopotential
        La            11.00   138.90547     La( 1.00)
        Gd            18.00   157.25000     Gd( 1.00)
        Cl             7.00    35.45000     Cl( 1.00)
        O              6.00    15.99900     O ( 1.00)

      8 Sym. Ops. (no inversion) found

                                    s                        frac. trans.

      isym =  1     identity

 cryst.   s( 1) = (     1          0          0      )
                  (     0          1          0      )
                  (     0          0          1      )

 cart.    s( 1) = (  1.0000000  0.0000000  0.0000000 )
                  (  0.0000000  1.0000000  0.0000000 )
                  (  0.0000000  0.0000000  1.0000000 )

      isym =  2     180 deg rotation - cart. axis [0,0,1]

[...]

      isym =  4      90 deg rotation - cart. axis [0,0,1]

[...]

      isym =  5     inv. 180 deg rotation - cart. axis [0,1,0]

[...]

      isym =  8     inv. 180 deg rotation - cart. axis [1,-1,0]

 cryst.   s( 8) = (     0          1          0      )
                  (     1          0          0      )
                  (     0          0          1      )

 cart.    s( 8) = (  0.0000000  1.0000000  0.0000000 )
                  (  1.0000000  0.0000000  0.0000000 )
                  (  0.0000000  0.0000000  1.0000000 )

   Cartesian axes

     site n.     atom                  positions (alat units)
         1           La  tau(   1) = (   0.0000000   0.0000000   0.2986999  )
         2           Gd  tau(   2) = (   0.5000000   0.5000000   1.4236346  )
         3           Cl  tau(   3) = (   0.0000000   0.0000000   1.0807968  )
         4           Cl  tau(   4) = (   0.5000000   0.5000000   0.6343755  )
         5           O   tau(   5) = (   0.5000000   0.0000000   1.6996047  )
         6           O   tau(   6) = (   0.0000000   0.5000000   1.6996047  )

   Crystallographic axes

     site n.     atom                  positions (cryst. coord.)
         1           La  tau(   1) = (  0.0000000  0.0000000  0.1747010  )
         2           Gd  tau(   2) = (  0.5000000  0.5000000  0.8326430  )
         3           Cl  tau(   3) = (  0.0000000  0.0000000  0.6321270  )
         4           Cl  tau(   4) = (  0.5000000  0.5000000  0.3710280  )
         5           O   tau(   5) = (  0.5000000  0.0000000  0.9940500  )
         6           O   tau(   6) = (  0.0000000  0.5000000  0.9940500  )

     number of k points=     1  Methfessel-Paxton smearing, width (Ry)=  0.0010
                       cart. coord. in units 2pi/alat
        k(    1) = (   0.0000000   0.0000000   0.0000000), wk =   2.0000000

                       cryst. coord.
        k(    1) = (   0.0000000   0.0000000   0.0000000), wk =   2.0000000

     Check: negative core charge=   -0.000006

     Initial potential from superposition of free atoms

     starting charge      54.9863, renormalised to      55.0000

     negative rho (up, down):  2.959E-02 0.000E+00
     Starting wfcs are   80 randomized atomic wfcs
     Checking if some PAW data can be deallocated...

     Self-consistent Calculation

     iteration #  1     ecut=    30.00 Ry     beta= 0.70
     Davidson diagonalization with overlap

     ethr =  1.00E-02,  avg # of iterations =  2.0
     Minimization algorithm failed to find Fermi energy: reverting to bisection
     Possible cause: smearing is larger than the electronic band-gap.

     negative rho (up, down):  3.052E-02 0.000E+00

     total energy              =   -1291.49782619 Ry
     estimated scf accuracy    <       1.29128242 Ry

[...]

     ethr =  2.35E-03,  avg # of iterations =  5.0

[...]

     total energy              =   -1292.38589931 Ry
     estimated scf accuracy    <       0.00000196 Ry

     iteration # 30     ecut=    30.00 Ry     beta= 0.70
     Davidson diagonalization with overlap

     ethr =  3.57E-09,  avg # of iterations =  2.0

[...]

     End of self-consistent calculation

          k = 0.0000 0.0000 0.0000 (  1064 PWs)   bands (ev):

   -32.7911 -22.0179 -11.2133 -10.6406 -10.6401  -8.4948  -8.2593  -5.7174
    -5.7173  -5.5630  -4.3169  -4.1890   4.8907   5.4388   5.4682   5.4683
     6.1883   6.5865   6.5867   6.7923   6.7925   7.8699   8.1906   8.1906
     8.6035   8.9897   8.9900   9.0717   9.1069   9.1070   9.2986  12.2187
    12.8030  12.9261

     occupation numbers
     1.0000   1.0000   1.0000   1.0000   1.0000   1.0000   1.0000   1.0000
     1.0000   1.0000   1.0000   1.0000   1.0000   1.0000   1.0000   1.0000
     1.0000   1.0000   1.0000   1.0000   1.0000   1.0000   1.0000   1.0000
     1.0000   1.0000   1.0000   0.5015  -0.0008  -0.0008  -0.0000  -0.0000
    -0.0000  -0.0000

     the Fermi energy is     9.0717 ev

!    total energy              =   -1292.38589851 Ry
     estimated scf accuracy    <       0.00000047 Ry
     smearing contrib. (-TS)   =      -0.00027354 Ry
     internal energy E=F+TS    =   -1292.38562497 Ry

     The total energy is F=E-TS. E is the sum of the following terms:
     one-electron contribution =    -179.47135401 Ry
     hartree contribution      =     125.36136512 Ry
     xc contribution           =     -65.45922660 Ry
     ewald contribution        =    -289.79740756 Ry
     one-center paw contrib.   =    -883.01900193 Ry
      -> PAW hartree energy AE =     276.13957421 Ry
      -> PAW hartree energy PS =    -266.47636018 Ry
      -> PAW xc energy AE      =    -936.25822850 Ry
      -> PAW xc energy PS      =      43.57601254 Ry
      -> total E_H with PAW    =     135.02457915 Ry
      -> total E_XC with PAW   =    -958.14144256 Ry

     convergence has been achieved in  30 iterations

     negative rho (up, down):  2.924E-02 0.000E+00

     Forces acting on atoms (cartesian axes, Ry/au):

     atom    1 type  1   force =     0.00000000    0.00000000   -0.04874552
     atom    2 type  2   force =     0.00000000    0.00000000    0.01381825
     atom    3 type  3   force =     0.00000000    0.00000000   -0.02401346
     atom    4 type  3   force =     0.00000000    0.00000000    0.02482567
     atom    5 type  4   force =     0.00000000    0.00000000    0.01705753
     atom    6 type  4   force =     0.00000000    0.00000000    0.01705753
     The non-local contrib.  to forces
     atom    1 type  1   force =     0.00000000    0.00000000    0.08483399
     atom    2 type  2   force =     0.00000000    0.00000000   -0.13447089
     atom    3 type  3   force =     0.00000000    0.00000000    0.06590335
     atom    4 type  3   force =     0.00000000    0.00000000   -0.04157345
     atom    5 type  4   force =     0.00000000    0.00000000   -0.00077800
     atom    6 type  4   force =     0.00000000    0.00000000   -0.00077800
     The ionic contribution  to forces
     atom    1 type  1   force =    -0.00000000   -0.00000000   16.33582837
     atom    2 type  2   force =    -0.00000000   -0.00000000  -20.13671102
     atom    3 type  3   force =     0.00000000    0.00000000   -8.43119722
     atom    4 type  3   force =     0.00000000    0.00000000    3.68508564
     atom    5 type  4   force =     0.00000000   -0.00000000    4.27349712
     atom    6 type  4   force =    -0.00000000    0.00000000    4.27349712
     The local contribution  to forces
     atom    1 type  1   force =    -0.00002034    0.00002459  -16.46966428
     atom    2 type  2   force =     0.00007627   -0.00009075   20.28522718
     atom    3 type  3   force =    -0.00000214    0.00000379    8.34323950
     atom    4 type  3   force =     0.00001476   -0.00002259   -3.61947801
     atom    5 type  4   force =     0.00002917   -0.00005798   -4.25585638
     atom    6 type  4   force =    -0.00001753   -0.00001220   -4.25608543
     The core correction contribution to forces
     atom    1 type  1   force =    -0.00000002    0.00000002   -0.00005141
     atom    2 type  2   force =     0.00000000   -0.00000000    0.00002552
     atom    3 type  3   force =    -0.00000005   -0.00000006   -0.00188505
     atom    4 type  3   force =    -0.00000048   -0.00000068    0.00064887
     atom    5 type  4   force =     0.00000006   -0.00000101    0.00022996
     atom    6 type  4   force =    -0.00000026   -0.00000009    0.00022988
     The Hubbard contrib.    to forces
     atom    1 type  1   force =     0.00000000    0.00000000    0.00000000
     atom    2 type  2   force =     0.00000000    0.00000000    0.00000000
     atom    3 type  3   force =     0.00000000    0.00000000    0.00000000
     atom    4 type  3   force =     0.00000000    0.00000000    0.00000000
     atom    5 type  4   force =     0.00000000    0.00000000    0.00000000
     atom    6 type  4   force =     0.00000000    0.00000000    0.00000000
     The SCF correction term to forces
     atom    1 type  1   force =     0.00000446   -0.00000718    0.00026588
     atom    2 type  2   force =    -0.00007205    0.00014802   -0.00029448
     atom    3 type  3   force =     0.00000020   -0.00001424   -0.00011597
     atom    4 type  3   force =    -0.00000258    0.00000447    0.00010069
     atom    5 type  4   force =    -0.00001419    0.00000312   -0.00009049
     atom    6 type  4   force =    -0.00000363   -0.00000299    0.00016542

     Total force =     0.065893     Total SCF correction =     0.000494

     Computing stress (Cartesian axis) and pressure

     negative rho (up, down):  2.924E-02 0.000E+00
          total   stress  (Ry/bohr**3)                   (kbar)     P=     -102.45
  -0.00061935   0.00000000   0.00000000          -91.11        0.00        0.00
   0.00000000  -0.00061935   0.00000000            0.00      -91.11        0.00
   0.00000000   0.00000000  -0.00085065            0.00        0.00     -125.14

     kinetic stress (kbar)  12546.91      0.00      0.00
                                0.00  12546.91      0.00
                                0.00      0.00  12348.09

     local   stress (kbar) -17728.17      0.17     -0.01
                                0.17 -17726.99      0.01
                               -0.01      0.01  13251.19

     nonloc. stress (kbar)   9078.82      0.00      0.00
                                0.00   9078.82      0.00
                                0.00      0.00   9012.83

     hartree stress (kbar)  12759.52     -0.05      0.00
                               -0.05  12759.13     -0.00
                                0.00     -0.00  -1386.39

     exc-cor stress (kbar)  -2061.71     -0.00      0.00
                               -0.00  -2061.71      0.00
                                0.00      0.00  -2065.72

     corecor stress (kbar)  -1625.48     -0.00     -0.00
                               -0.00  -1625.48      0.00
                               -0.00      0.00  -1621.46

     ewald   stress (kbar) -13061.39      0.00      0.00
                                0.00 -13061.39      0.00
                                0.00      0.00 -29663.68

     hubbard stress (kbar)      0.00      0.00      0.00
                                0.00      0.00      0.00
                                0.00      0.00      0.00

     DFT-D   stress (kbar)      0.00      0.00      0.00
                                0.00      0.00      0.00
                                0.00      0.00      0.00

     XDM     stress (kbar)      0.00      0.00      0.00
                                0.00      0.00      0.00
                                0.00      0.00      0.00

     dft-nl  stress (kbar)      0.00      0.00      0.00
                                0.00      0.00      0.00
                                0.00      0.00      0.00

     TS-vdW  stress (kbar)      0.00      0.00      0.00
                                0.00      0.00      0.00
                                0.00      0.00      0.00

[...]

                                0.00      0.00      0.00

     Writing all to output data dir new_calculations/myprefix.save/

     General routines

     Parallel routines

     PAW routines

   This run was terminated on:  23:56:27  20May2023

   JOB DONE.