     Program PWSCF v.7.0 starts on 21May2023 at  2:49:20

     Reading input from espresso_3984.pwi
Warning: card &CELL ignored
Warning: card / ignored

     Current dimensions of program PWSCF are:
     Max number of different atomic species (ntypx) = 10
     Max number of k-points (npk) =  40000
     Max angular momentum in pseudopotentials (lmaxx) =  4

     gamma-point specific algorithms are used
     Message from routine setup:
     using ibrav=0 with symmetry is DISCOURAGED, use correct ibrav instead

     Subspace diagonalization in iterative solution of the eigenvalue problem:
     a serial algorithm will be used

     Using Slab Decomposition

     bravais-lattice index     =            0
     lattice parameter (alat)  =      14.6371  a.u.
     unit-cell volume          =    2217.4526 (a.u.)^3
     number of atoms/cell      =           10
     number of atomic types    =            4
     number of electrons       =        93.00
     number of Kohn-Sham states=           56
     kinetic-energy cutoff     =      30.0000  Ry
     charge density cutoff     =     240.0000  Ry
     scf convergence threshold =      1.0E-06
     mixing beta               =       0.7000
     number of iterations used =            8  plain     mixing
     Exchange-correlation=  SLA  PW   PBX  PBC
                           (   1   4   3   4   0   0   0)

     celldm(1)=  14.637147  celldm(2)=   0.000000  celldm(3)=   0.000000
     celldm(4)=   0.000000  celldm(5)=   0.000000  celldm(6)=   0.000000

     crystal axes: (cart. coord. in units of alat)
               a(1) = (   1.000000   0.000000   0.000000 )
               a(2) = (   0.500000   0.866025   0.000000 )
               a(3) = (   0.500000   0.288675   0.816497 )

     reciprocal axes: (cart. coord. in units 2 pi/alat)
               b(1) = (  1.000000 -0.577350 -0.408248 )
               b(2) = (  0.000000  1.154701 -0.408248 )
               b(3) = (  0.000000  0.000000  1.224745 )

     PseudoPot. # 1 for Rb read from file:
     /home/pragov/projects/rrg-bengioy-ad/pragov/crystal_structure_design/SSSP/Rb_ONCV_PBE-1.0.oncvpsp.upf
     MD5 check sum: 55a5172d6bfbce6759a58e35d43f6aa9
     Pseudo is Norm-conserving, Zval =  9.0
     Generated using ONCVPSP code by D. R. Hamann
     Using radial grid of 2308 points,  6 beta functions with:
                l(1) =   0
                l(2) =   0
                l(3) =   1
                l(4) =   1
                l(5) =   2
                l(6) =   2

     PseudoPot. # 2 for Nd read from file:
     /home/pragov/projects/rrg-bengioy-ad/pragov/crystal_structure_design/SSSP/Nd.GGA-PBE-paw-v1.0.UPF
     MD5 check sum: 1d1e94942b6eb1cde76049b71bb7dcb0
     Pseudo is Projector augmented-wave + core cor, Zval = 14.0
     Generated using ATOMPAW code
     Shape of augmentation charge: BESSEL
     Using radial grid of 1105 points,  8 beta functions with:
                l(1) =   0
                l(2) =   0
                l(3) =   1
                l(4) =   1
                l(5) =   2
                l(6) =   2
                l(7) =   3
                l(8) =   3
     Q(r) pseudized with 0 coefficients

     PseudoPot. # 3 for Ag read from file:
     /home/pragov/projects/rrg-bengioy-ad/pragov/crystal_structure_design/SSSP/Ag_ONCV_PBE-1.0.oncvpsp.upf
     MD5 check sum: 94f47bd0669c641108e45594df92fabc
     Pseudo is Norm-conserving, Zval = 19.0
     Generated using ONCVPSP code by D. R. Hamann
     Using radial grid of 1398 points,  6 beta functions with:
                l(1) =   0
                l(2) =   0
                l(3) =   1
                l(4) =   1
                l(5) =   2
                l(6) =   2

     PseudoPot. # 4 for Cl read from file:
     /home/pragov/projects/rrg-bengioy-ad/pragov/crystal_structure_design/SSSP/cl_pbe_v1.4.uspp.F.UPF
     MD5 check sum: fc6f6913ecf08c9257cb748ef0700058
     Pseudo is Ultrasoft + core correction, Zval =  7.0
     Generated by new atomic code, or converted to UPF format
     Using radial grid of  909 points,  6 beta functions with:
                l(1) =   0
                l(2) =   0
                l(3) =   1
                l(4) =   1
                l(5) =   2
                l(6) =   2
     Q(r) pseudized with  8 coefficients,  rinner =    1.300   1.300   1.300
                                                       1.300   1.300

     atomic species   valence    mass     pseudopotential
        Rb             9.00    85.46780     Rb( 1.00)
        Nd            14.00   144.24200     Nd( 1.00)
        Ag            19.00   107.86820     Ag( 1.00)
        Cl             7.00    35.45000     Cl( 1.00)

     12 Sym. Ops., with inversion, found

                                    s                        frac. trans.

      isym =  1     identity

 cryst.   s( 1) = (     1          0          0      )
                  (     0          1          0      )
                  (     0          0          1      )

 cart.    s( 1) = (  1.0000000  0.0000000  0.0000000 )
                  (  0.0000000  1.0000000  0.0000000 )
                  (  0.0000000  0.0000000  1.0000000 )

      isym =  2     180 deg rotation - cart. axis [1,0,0]

[...]

      isym =  3     120 deg rotation - cryst. axis [0,0,1]

[...]

      isym =  6     180 deg rotation - cryst. axis [1,1,0]

[...]

      isym =  7     inversion

[...]

      isym =  8     inv. 180 deg rotation - cart. axis [1,0,0]

[...]

      isym =  9     inv. 120 deg rotation - cryst. axis [0,0,1]

 cryst.   s( 9) = (     1         -1          0      )
                  (     1          0          0      )
                  (     1          0         -1      )

 cart.    s( 9) = (  0.5000000  0.8660254  0.0000000 )
                  ( -0.8660254  0.5000000  0.0000000 )
                  (  0.0000000  0.0000000 -1.0000000 )

[...]

 cryst.   s(10) = (     0          1          0      )
                  (    -1          1          0      )
                  (     0          1         -1      )

 cart.    s(10) = (  0.5000000 -0.8660254  0.0000000 )
                  (  0.8660254  0.5000000  0.0000000 )
                  (  0.0000000  0.0000000 -1.0000000 )

[...]

      isym = 12     inv. 180 deg rotation - cryst. axis [1,1,0]

 cryst.   s(12) = (     1         -1          0      )
                  (     0         -1          0      )
                  (     0         -1          1      )

 cart.    s(12) = (  0.5000000 -0.8660254 -0.0000000 )
                  ( -0.8660254 -0.5000000 -0.0000000 )
                  (  0.0000000  0.0000000  1.0000000 )

   Cartesian axes

     site n.     atom                  positions (alat units)
         1           Rb  tau(   1) = (   1.5000000   0.8660254   0.6123724  )
         2           Rb  tau(   2) = (   0.5000000   0.2886751   0.2041241  )
         3           Nd  tau(   3) = (   1.0000000   0.5773503   0.4082483  )
         4           Ag  tau(   4) = (   0.0000000   0.0000000   0.0000000  )
         5           Cl  tau(   5) = (   1.0000000   0.2897987   0.2049186  )
         6           Cl  tau(   6) = (   0.7509730   0.4335745   0.6115780  )
         7           Cl  tau(   7) = (   1.0000000   0.8649019   0.6115780  )
         8           Cl  tau(   8) = (   0.7509730   0.7211261   0.2049186  )
         9           Cl  tau(   9) = (   1.2490270   0.4335745   0.6115780  )
        10           Cl  tau(  10) = (   1.2490270   0.7211261   0.2049186  )

   Crystallographic axes

     site n.     atom                  positions (cryst. coord.)
         1           Rb  tau(   1) = (  0.7500000  0.7500000  0.7500000  )
         2           Rb  tau(   2) = (  0.2500000  0.2500000  0.2500000  )
         3           Nd  tau(   3) = (  0.5000000  0.5000000  0.5000000  )
         4           Ag  tau(   4) = (  0.0000000  0.0000000  0.0000000  )
         5           Cl  tau(   5) = (  0.7490270  0.2509730  0.2509730  )
         6           Cl  tau(   6) = (  0.2509730  0.2509730  0.7490270  )
         7           Cl  tau(   7) = (  0.2509730  0.7490270  0.7490270  )
         8           Cl  tau(   8) = (  0.2509730  0.7490270  0.2509730  )
         9           Cl  tau(   9) = (  0.7490270  0.2509730  0.7490270  )
        10           Cl  tau(  10) = (  0.7490270  0.7490270  0.2509730  )

     number of k points=     1  Methfessel-Paxton smearing, width (Ry)=  0.0010
                       cart. coord. in units 2pi/alat
        k(    1) = (   0.0000000   0.0000000   0.0000000), wk =   2.0000000

                       cryst. coord.
        k(    1) = (   0.0000000   0.0000000   0.0000000), wk =   2.0000000

     Initial potential from superposition of free atoms

     starting charge      92.9439, renormalised to      93.0000

     negative rho (up, down):  8.905E-02 0.000E+00
     Starting wfcs are   76 randomized atomic wfcs
     Checking if some PAW data can be deallocated...

     Self-consistent Calculation

     iteration #  1     ecut=    30.00 Ry     beta= 0.70
     Davidson diagonalization with overlap

     ethr =  1.00E-02,  avg # of iterations =  2.0
     Minimization algorithm failed to find Fermi energy: reverting to bisection
     Possible cause: smearing is larger than the electronic band-gap.

     Threshold (ethr) on eigenvalues was too large:
     Diagonalizing with lowered threshold

     Davidson diagonalization with overlap

     ethr =  4.64E-04,  avg # of iterations =  2.0

     negative rho (up, down):  9.183E-02 0.000E+00

     total energy              =   -1122.97925597 Ry
     estimated scf accuracy    <       0.39992014 Ry

[...]

     total energy              =   -1123.12653637 Ry
     estimated scf accuracy    <       0.00000197 Ry

     iteration # 50     ecut=    30.00 Ry     beta= 0.70
     Davidson diagonalization with overlap

     ethr =  2.12E-09,  avg # of iterations =  1.0

[...]

     End of self-consistent calculation

          k = 0.0000 0.0000 0.0000 (  3092 PWs)   bands (ev):

   -87.6148 -50.6731 -50.6731 -50.6729 -32.5799 -22.8566 -22.8554 -14.1065
   -14.1065 -14.0835 -10.6929 -10.4200 -10.4200 -10.1549 -10.1548 -10.1528
    -6.9351  -6.9351  -6.9351  -6.9153  -6.9153  -6.9153  -0.7052  -0.2907
    -0.2907   0.2788   0.2788   0.2806   0.6625   0.6625   0.6625   1.5166
     1.5166   1.5176   1.5447   1.5447   1.5448   1.6935   1.6957   1.6957
     2.0558   2.0581   2.0581   2.3938   2.3938   4.7044   4.7044   4.7048
     4.8752   4.9409   4.9409   4.9707   6.5343   7.5844   7.5844   7.5972

     occupation numbers
     1.0000   1.0000   1.0000   1.0000   1.0000   1.0000   1.0000   1.0000
     1.0000   1.0000   1.0000   1.0000   1.0000   1.0000   1.0000   1.0000
     1.0000   1.0000   1.0000   1.0000   1.0000   1.0000   1.0000   1.0000
     1.0000   1.0000   1.0000   1.0000   1.0000   1.0000   1.0000   1.0000
     1.0000   1.0000   1.0000   1.0000   1.0000   1.0000   1.0000   1.0000
     1.0000   1.0000   1.0000   1.0000   1.0000   0.5080   0.5072   0.4848
    -0.0000  -0.0000  -0.0000  -0.0000  -0.0000  -0.0000  -0.0000  -0.0000

     the Fermi energy is     4.7045 ev

!    total energy              =   -1123.12653575 Ry
     estimated scf accuracy    <       0.00000036 Ry
     smearing contrib. (-TS)   =      -0.00084587 Ry
     internal energy E=F+TS    =   -1123.12568987 Ry

     The total energy is F=E-TS. E is the sum of the following terms:
     one-electron contribution =    -401.58942856 Ry
     hartree contribution      =     232.50917183 Ry
     xc contribution           =    -112.85358473 Ry
     ewald contribution        =    -411.12705625 Ry
     one-center paw contrib.   =    -430.06479215 Ry
      -> PAW hartree energy AE =      80.91854713 Ry
      -> PAW hartree energy PS =     -80.49704774 Ry
      -> PAW xc energy AE      =    -443.00654600 Ry
      -> PAW xc energy PS      =      12.52025445 Ry
      -> total E_H with PAW    =     232.93067122 Ry
      -> total E_XC with PAW   =    -543.33987628 Ry

     convergence has been achieved in  50 iterations

     negative rho (up, down):  8.829E-02 0.000E+00

     Forces acting on atoms (cartesian axes, Ry/au):

     atom    1 type  1   force =     0.00000000    0.00000000   -0.00004488
     atom    2 type  1   force =     0.00000000    0.00000000    0.00004488
     atom    3 type  2   force =     0.00000000    0.00000000    0.00000000
     atom    4 type  3   force =     0.00000000    0.00000000    0.00000000
     atom    5 type  4   force =     0.00000000    0.00516827    0.00327537
     atom    6 type  4   force =     0.00447585    0.00258413   -0.00327537
     atom    7 type  4   force =     0.00000000   -0.00516827   -0.00327537
     atom    8 type  4   force =     0.00447585   -0.00258413    0.00327537
     atom    9 type  4   force =    -0.00447585    0.00258413   -0.00327537
     atom   10 type  4   force =    -0.00447585   -0.00258413    0.00327537
     The non-local contrib.  to forces
     atom    1 type  1   force =     0.00000000    0.00000000   -0.00000206
     atom    2 type  1   force =     0.00000000    0.00000000    0.00000206
     atom    3 type  2   force =    -0.00000000   -0.00000000    0.00000000
     atom    4 type  3   force =     0.00000000    0.00000000   -0.00000000
     atom    5 type  4   force =     0.00000000   -0.02344563   -0.01803908
     atom    6 type  4   force =    -0.02030451   -0.01172282    0.01803908
     atom    7 type  4   force =     0.00000000    0.02344563    0.01803908
     atom    8 type  4   force =    -0.02030451    0.01172282   -0.01803908
     atom    9 type  4   force =     0.02030451   -0.01172282    0.01803908
     atom   10 type  4   force =     0.02030451    0.01172282   -0.01803908
     The ionic contribution  to forces
     atom    1 type  1   force =     0.00000000    0.00000000    0.00000000
     atom    2 type  1   force =     0.00000000   -0.00000000   -0.00000000
     atom    3 type  2   force =     0.00000000   -0.00000000   -0.00000000
     atom    4 type  3   force =    -0.00000000    0.00000000    0.00000000
     atom    5 type  4   force =    -0.00000000    1.47190357    1.04079300
     atom    6 type  4   force =     1.27470589    0.73595179   -1.04079300
     atom    7 type  4   force =     0.00000000   -1.47190357   -1.04079300
     atom    8 type  4   force =     1.27470589   -0.73595179    1.04079300
     atom    9 type  4   force =    -1.27470589    0.73595179   -1.04079300
     atom   10 type  4   force =    -1.27470589   -0.73595179    1.04079300
     The local contribution  to forces
     atom    1 type  1   force =     0.00000146    0.00000979   -0.00006931
     atom    2 type  1   force =    -0.00000141   -0.00000979    0.00006932
     atom    3 type  2   force =    -0.00000058    0.00000038    0.00000024
     atom    4 type  3   force =    -0.00000023    0.00000026    0.00000002
     atom    5 type  4   force =     0.00000489   -1.44524252   -1.02083676
     atom    6 type  4   force =    -1.25161882   -0.72264088    1.02087160
     atom    7 type  4   force =    -0.00000505    1.44524239    1.02083669
     atom    8 type  4   force =    -1.25160318    0.72263582   -1.02085351
     atom    9 type  4   force =     1.25160329   -0.72263584    1.02085352
     atom   10 type  4   force =     1.25161872    0.72264109   -1.02087153
     The core correction contribution to forces
     atom    1 type  1   force =     0.00000000    0.00000000    0.00000000
     atom    2 type  1   force =     0.00000000    0.00000000    0.00000000
     atom    3 type  2   force =    -0.00000000    0.00000000    0.00000000
     atom    4 type  3   force =     0.00000000    0.00000000    0.00000000
     atom    5 type  4   force =     0.00000010    0.00191001    0.00140034
     atom    6 type  4   force =     0.00165433    0.00095507   -0.00140045
     atom    7 type  4   force =    -0.00000010   -0.00191001   -0.00140034
     atom    8 type  4   force =     0.00165421   -0.00095502    0.00140041
     atom    9 type  4   force =    -0.00165421    0.00095503   -0.00140042
     atom   10 type  4   force =    -0.00165434   -0.00095507    0.00140047
     The Hubbard contrib.    to forces
     atom    1 type  1   force =     0.00000000    0.00000000    0.00000000
     atom    2 type  1   force =     0.00000000    0.00000000    0.00000000
     atom    3 type  2   force =     0.00000000    0.00000000    0.00000000
     atom    4 type  3   force =     0.00000000    0.00000000    0.00000000
     atom    5 type  4   force =     0.00000000    0.00000000    0.00000000
     atom    6 type  4   force =     0.00000000    0.00000000    0.00000000
     atom    7 type  4   force =     0.00000000    0.00000000    0.00000000
     atom    8 type  4   force =     0.00000000    0.00000000    0.00000000
     atom    9 type  4   force =     0.00000000    0.00000000    0.00000000
     atom   10 type  4   force =     0.00000000    0.00000000    0.00000000
     The SCF correction term to forces
     atom    1 type  1   force =    -0.00000062   -0.00000938    0.00002649
     atom    2 type  1   force =     0.00000056    0.00000938   -0.00002650
     atom    3 type  2   force =     0.00000042   -0.00000041   -0.00000005
     atom    4 type  3   force =     0.00000030   -0.00000024   -0.00000001
     atom    5 type  4   force =    -0.00000234    0.00004014   -0.00004438
     atom    6 type  4   force =     0.00004177    0.00004242    0.00000565
     atom    7 type  4   force =     0.00000242   -0.00004006    0.00004444
     atom    8 type  4   force =     0.00002377   -0.00003436   -0.00002509
     atom    9 type  4   force =    -0.00002392    0.00003436    0.00002494
     atom   10 type  4   force =    -0.00004175   -0.00004260   -0.00000560

     Total force =     0.014988     Total SCF correction =     0.000144

     Computing stress (Cartesian axis) and pressure

     negative rho (up, down):  8.829E-02 0.000E+00
          total   stress  (Ry/bohr**3)                   (kbar)     P=      -84.64
  -0.00057853  -0.00000000   0.00000000          -85.10       -0.00        0.00
  -0.00000000  -0.00057853  -0.00000000           -0.00      -85.10       -0.00
  -0.00000000   0.00000000  -0.00056915           -0.00        0.00      -83.73

     kinetic stress (kbar)   9396.99      0.00     -0.00
                                0.00   9396.99      0.00
                               -0.00      0.00   9403.81

     local   stress (kbar)  -6787.70      0.07     -0.05
                                0.07  -6788.00      0.02
                               -0.05      0.02  -6795.30

     nonloc. stress (kbar)   3339.03     -0.00     -0.00
                               -0.00   3339.03      0.00
                               -0.00      0.00   3340.10

     hartree stress (kbar)   5141.15     -0.02      0.02
                               -0.02   5141.22      0.01
                                0.02      0.01   5142.20

     exc-cor stress (kbar)   -586.20      0.00      0.00
                                0.00   -586.20      0.00
                                0.00      0.00   -586.17

     corecor stress (kbar)  -1496.91     -0.00     -0.00
                               -0.00  -1496.92      0.00
                               -0.00      0.00  -1497.01

     ewald   stress (kbar)  -9091.34     -0.00     -0.00
                               -0.00  -9091.34     -0.00
                               -0.00     -0.00  -9091.34

     hubbard stress (kbar)      0.00      0.00      0.00
                                0.00      0.00      0.00
                                0.00      0.00      0.00

     DFT-D   stress (kbar)      0.00      0.00      0.00
                                0.00      0.00      0.00
                                0.00      0.00      0.00

     XDM     stress (kbar)      0.00      0.00      0.00
                                0.00      0.00      0.00
                                0.00      0.00      0.00

     dft-nl  stress (kbar)      0.00      0.00      0.00
                                0.00      0.00      0.00
                                0.00      0.00      0.00

     TS-vdW  stress (kbar)      0.00      0.00      0.00
                                0.00      0.00      0.00
                                0.00      0.00      0.00

[...]

                                0.00      0.00      0.00

     Writing all to output data dir new_calculations/myprefix.save/

     General routines

     Parallel routines

     PAW routines

   This run was terminated on:   2:50:49  21May2023

   JOB DONE.