     Program PWSCF v.7.0 starts on 20May2023 at  5:31:57

     Reading input from espresso_1163.pwi
Warning: card &CELL ignored
Warning: card / ignored

     Current dimensions of program PWSCF are:
     Max number of different atomic species (ntypx) = 10
     Max number of k-points (npk) =  40000
     Max angular momentum in pseudopotentials (lmaxx) =  4
     file Al.pbe-n-kjpaw_psl.1.0.0.UPF: wavefunction(s)  3S 3P renormalized
     file O.pbe-n-kjpaw_psl.0.1.UPF: wavefunction(s)  2P renormalized

     gamma-point specific algorithms are used
     Message from routine setup:
     using ibrav=0 with symmetry is DISCOURAGED, use correct ibrav instead

     Subspace diagonalization in iterative solution of the eigenvalue problem:
     a serial algorithm will be used

     Using Slab Decomposition

     bravais-lattice index     =            0
     lattice parameter (alat)  =      12.8984  a.u.
     unit-cell volume          =     592.8208 (a.u.)^3
     number of atoms/cell      =            7
     number of atomic types    =            4
     number of electrons       =        54.00
     number of Kohn-Sham states=           32
     kinetic-energy cutoff     =      30.0000  Ry
     charge density cutoff     =     240.0000  Ry
     scf convergence threshold =      1.0E-06
     mixing beta               =       0.7000
     number of iterations used =            8  plain     mixing
     Exchange-correlation= SLA  PW   PBX  PBC
                           (   1   4   3   4   0   0   0)

     celldm(1)=  12.898393  celldm(2)=   0.000000  celldm(3)=   0.000000
     celldm(4)=   0.000000  celldm(5)=   0.000000  celldm(6)=   0.000000

     crystal axes: (cart. coord. in units of alat)
               a(1) = (   1.000000   0.000000   0.000000 )
               a(2) = (   0.700389   0.713761   0.000000 )
               a(3) = (  -0.850195  -0.356881   0.387047 )

     reciprocal axes: (cart. coord. in units 2 pi/alat)
               b(1) = (  1.000000 -0.981265  1.291833 )
               b(2) = (  0.000000  1.401029  1.291833 )
               b(3) = (  0.000000  0.000000  2.583665 )

     PseudoPot. # 1 for Nd read from file:
     /home/pragov/projects/rrg-bengioy-ad/pragov/crystal_structure_design/SSSP/Nd.GGA-PBE-paw-v1.0.UPF
     MD5 check sum: 1d1e94942b6eb1cde76049b71bb7dcb0
     Pseudo is Projector augmented-wave + core cor, Zval = 14.0
     Generated using ATOMPAW code
     Shape of augmentation charge: BESSEL
     Using radial grid of 1105 points,  8 beta functions with:
                l(1) =   0
                l(2) =   0
                l(3) =   1
                l(4) =   1
                l(5) =   2
                l(6) =   2
                l(7) =   3
                l(8) =   3
     Q(r) pseudized with 0 coefficients

     PseudoPot. # 2 for Al read from file:
     /home/pragov/projects/rrg-bengioy-ad/pragov/crystal_structure_design/SSSP/Al.pbe-n-kjpaw_psl.1.0.0.UPF
     MD5 check sum: cfc449ca30b5f3223ec38ddd88ac046d
     Pseudo is Projector augmented-wave + core cor, Zval =  3.0
     Generated using "atomic" code by A. Dal Corso  v.5.1
     Shape of augmentation charge: PSQ
     Using radial grid of 1135 points,  6 beta functions with:
                l(1) =   0
                l(2) =   0
                l(3) =   1
                l(4) =   1
                l(5) =   2
                l(6) =   2
     Q(r) pseudized with 0 coefficients

     PseudoPot. # 3 for N  read from file:
     /home/pragov/projects/rrg-bengioy-ad/pragov/crystal_structure_design/SSSP/N.pbe-n-radius_5.UPF
     MD5 check sum: 16739722b17309cd8fe442a2ace49922
     Pseudo is Ultrasoft + core correction, Zval =  5.0
     Generated using "atomic" code by A. Dal Corso  v.5.1
     Using radial grid of 1085 points,  4 beta functions with:
                l(1) =   0
                l(2) =   0
                l(3) =   1
                l(4) =   1
     Q(r) pseudized with 0 coefficients

     PseudoPot. # 4 for O  read from file:
     /home/pragov/projects/rrg-bengioy-ad/pragov/crystal_structure_design/SSSP/O.pbe-n-kjpaw_psl.0.1.UPF
     MD5 check sum: 0234752ac141de4415c5fc33072bef88
     Pseudo is Projector augmented-wave + core cor, Zval =  6.0
     Generated using "atomic" code by A. Dal Corso  v.5.0.99 svn rev. 10869
     Shape of augmentation charge: BESSEL
     Using radial grid of 1095 points,  4 beta functions with:
                l(1) =   0
                l(2) =   0
                l(3) =   1
                l(4) =   1
     Q(r) pseudized with 0 coefficients

     atomic species   valence    mass     pseudopotential
        Nd            14.00   144.24200     Nd( 1.00)
        Al             3.00    26.98154     Al( 1.00)
        N              5.00    14.00700     N ( 1.00)
        O              6.00    15.99900     O ( 1.00)

      2 Sym. Ops. (no inversion) found

                                    s                        frac. trans.

      isym =  1     identity

 cryst.   s( 1) = (     1          0          0      )
                  (     0          1          0      )
                  (     0          0          1      )

 cart.    s( 1) = (  1.0000000 -0.0000000  0.0000000 )
                  (  0.0000000  1.0000000  0.0000000 )
                  (  0.0000000  0.0000000  1.0000000 )

      isym =  2     inv. 180 deg rotation - cart. axis [0,0,1]

 cryst.   s( 2) = (     1          0          0      )
                  (     0          1          0      )
                  (    -1         -1         -1      )

 cart.    s( 2) = (  1.0000000 -0.0000000  0.0000000 )
                  (  0.0000000  1.0000000  0.0000000 )
                  (  0.0000000  0.0000000 -1.0000000 )

   Cartesian axes

     site n.     atom                  positions (alat units)
         1           Nd  tau(   1) = (   1.0855063   0.4556558   0.0000000  )
         2           Nd  tau(   2) = (   0.5944340   0.2495216   0.0000000  )
         3           Al  tau(   3) = (   1.6792006   0.7048670   0.0000000  )
         4           N   tau(   4) = (   1.4058563   0.5901270   0.0000000  )
         5           O   tau(   5) = (   0.2720793   0.1142089   0.0000000  )
         6           O   tau(   6) = (  -0.0745694   0.1785802   0.1935235  )
         7           O   tau(   7) = (   0.0752360  -0.1783004   0.1935235  )

   Crystallographic axes

     site n.     atom                  positions (cryst. coord.)
         1           Nd  tau(   1) = (  0.6383870  0.6383870  0.0000000  )
         2           Nd  tau(   2) = (  0.3495870  0.3495870  0.0000000  )
         3           Al  tau(   3) = (  0.9875390  0.9875390  0.0000000  )
         4           N   tau(   4) = (  0.8267850  0.8267850  0.0000000  )
         5           O   tau(   5) = (  0.1600100  0.1600100  0.0000000  )
         6           O   tau(   6) = (  0.0001960  0.5001960  0.5000000  )
         7           O   tau(   7) = (  0.5001960  0.0001960  0.5000000  )

     number of k points=     1  Methfessel-Paxton smearing, width (Ry)=  0.0010
                       cart. coord. in units 2pi/alat
        k(    1) = (   0.0000000   0.0000000   0.0000000), wk =   2.0000000

                       cryst. coord.
        k(    1) = (   0.0000000   0.0000000   0.0000000), wk =   2.0000000

     Check: negative core charge=   -0.000007

     Initial potential from superposition of free atoms

     starting charge      53.9853, renormalised to      54.0000
     Starting wfcs are   84 randomized atomic wfcs
     Checking if some PAW data can be deallocated...

     Self-consistent Calculation

     iteration #  1     ecut=    30.00 Ry     beta= 0.70
     Davidson diagonalization with overlap

     ethr =  1.00E-02,  avg # of iterations =  5.0

     total energy              =   -1259.41306837 Ry
     estimated scf accuracy    <       2.66071690 Ry

[...]

     total energy              =   -1261.32412855 Ry
     estimated scf accuracy    <       0.00000241 Ry

     iteration # 56     ecut=    30.00 Ry     beta= 0.70
     Davidson diagonalization with overlap

     ethr =  2.84E-09,  avg # of iterations =  1.0

     End of self-consistent calculation

          k = 0.0000 0.0000 0.0000 (   829 PWs)   bands (ev):

   -22.6095 -22.4850 -11.0047  -7.9906  -7.4194  -6.4130  -5.2566  -4.7481
    -4.1022  -3.8211  -2.9106   0.6098   6.7326   7.0732   7.6971   8.9460
     9.4713   9.9988  10.0596  10.7245  10.9524  11.7722  12.0107  12.1570
    13.5632  13.8330  13.9042  13.9186  14.0126  14.0411  14.1656  14.2830

     occupation numbers
     1.0000   1.0000   1.0000   1.0000   1.0000   1.0000   1.0000   1.0000
     1.0000   1.0000   1.0000   1.0000   1.0000   1.0000   1.0000   1.0000
     1.0000   1.0000   1.0000   1.0000   1.0000   1.0000   1.0000   1.0000
     1.0000   1.0000   0.8859   0.1141  -0.0000  -0.0000  -0.0000  -0.0000

     the Fermi energy is    13.9114 ev

!    total energy              =   -1261.32412770 Ry
     estimated scf accuracy    <       0.00000084 Ry
     smearing contrib. (-TS)   =      -0.00018712 Ry
     internal energy E=F+TS    =   -1261.32394059 Ry

     The total energy is F=E-TS. E is the sum of the following terms:
     one-electron contribution =     -32.27717026 Ry
     hartree contribution      =      64.18826333 Ry
     xc contribution           =     -58.76982940 Ry
     ewald contribution        =    -311.58766387 Ry
     one-center paw contrib.   =    -922.87754037 Ry
      -> PAW hartree energy AE =     234.09338615 Ry
      -> PAW hartree energy PS =    -233.24558582 Ry
      -> PAW xc energy AE      =    -971.59426964 Ry
      -> PAW xc energy PS      =      47.86892894 Ry
      -> total E_H with PAW    =      65.03606366 Ry
      -> total E_XC with PAW   =    -982.49517011 Ry

     convergence has been achieved in  56 iterations

     Forces acting on atoms (cartesian axes, Ry/au):

     atom    1 type  1   force =    -0.14923962    0.04312474   -0.00000000
     atom    2 type  1   force =     0.09181623   -0.05771611    0.00000000
     atom    3 type  2   force =    -0.00205302   -0.00298042   -0.00000000
     atom    4 type  3   force =     0.00982836   -0.01067501    0.00000000
     atom    5 type  4   force =    -0.00106222    0.00536833    0.00000000
     atom    6 type  4   force =     0.02535513    0.01143924   -0.00330020
     atom    7 type  4   force =     0.02535513    0.01143924    0.00330020
     The non-local contrib.  to forces
     atom    1 type  1   force =    -0.06596869    0.02269131   -0.00000000
     atom    2 type  1   force =    -0.07948772   -0.10752334   -0.00000000
     atom    3 type  2   force =     0.05384643    0.02310817    0.00000000
     atom    4 type  3   force =     0.29424085    0.11571909    0.00000000
     atom    5 type  4   force =    -0.03586213   -0.01354861   -0.00000000
     atom    6 type  4   force =    -0.06676522   -0.02746871   -0.00916432
     atom    7 type  4   force =    -0.06676522   -0.02746871    0.00916432
     The ionic contribution  to forces
     atom    1 type  1   force =     5.65109809    2.37212420    0.00000000
     atom    2 type  1   force =    -3.77799183   -1.58586273   -0.00000000
     atom    3 type  2   force =    -0.68553724   -0.28776345   -0.00000000
     atom    4 type  3   force =    -0.38091467   -0.15989404   -0.00000000
     atom    5 type  4   force =     1.21010512    0.50795785    0.00000000
     atom    6 type  4   force =    -1.00837974   -0.42328092    0.00000000
     atom    7 type  4   force =    -1.00837974   -0.42328092   -0.00000000
     The local contribution  to forces
     atom    1 type  1   force =    -5.73429839   -2.35059226   -0.15831975
     atom    2 type  1   force =     3.94921645    1.63619876    0.06826160
     atom    3 type  2   force =     0.63899340    0.26655177   -0.00077373
     atom    4 type  3   force =     0.09906776    0.03515787    0.00622673
     atom    5 type  4   force =    -1.17539208   -0.48831062   -0.00975672
     atom    6 type  4   force =     1.10263017    0.45294533    0.00563265
     atom    7 type  4   force =     1.09565449    0.47149070   -0.00598622
     The core correction contribution to forces
     atom    1 type  1   force =    -0.00001757    0.00001645   -0.00003032
     atom    2 type  1   force =     0.00006259    0.00000356    0.00001438
     atom    3 type  2   force =    -0.00991400   -0.00441207    0.00003460
     atom    4 type  3   force =    -0.00258583   -0.00094128   -0.00004163
     atom    5 type  4   force =     0.00031829    0.00002240    0.00005120
     atom    6 type  4   force =     0.00038434    0.00005965    0.00003417
     atom    7 type  4   force =     0.00024288    0.00039322   -0.00010952
     The Hubbard contrib.    to forces
     atom    1 type  1   force =     0.00000000    0.00000000    0.00000000
     atom    2 type  1   force =     0.00000000    0.00000000    0.00000000
     atom    3 type  2   force =     0.00000000    0.00000000    0.00000000
     atom    4 type  3   force =     0.00000000    0.00000000    0.00000000
     atom    5 type  4   force =     0.00000000    0.00000000    0.00000000
     atom    6 type  4   force =     0.00000000    0.00000000    0.00000000
     atom    7 type  4   force =     0.00000000    0.00000000    0.00000000
     The SCF correction term to forces
     atom    1 type  1   force =    -0.00035038   -0.00053740   -0.00013565
     atom    2 type  1   force =    -0.00028057    0.00004521   -0.00002639
     atom    3 type  2   force =     0.00026107    0.00011272    0.00000256
     atom    4 type  3   force =    -0.00027707   -0.00013908   -0.00000797
     atom    5 type  4   force =    -0.00052874   -0.00017512    0.00000030
     atom    6 type  4   force =     0.00073898    0.00030358   -0.00001246
     atom    7 type  4   force =     0.00075469    0.00034039    0.00002186

     Total force =     0.194207     Total SCF correction =     0.001524

     Computing stress (Cartesian axis) and pressure

          total   stress  (Ry/bohr**3)                   (kbar)     P=     -312.35
  -0.00550075  -0.00277136  -0.00000000         -809.19     -407.68       -0.00
  -0.00277136  -0.00188727  -0.00000000         -407.68     -277.63       -0.00
  -0.00000000  -0.00000000   0.00101816           -0.00       -0.00      149.78

     kinetic stress (kbar)  17544.18   -366.72      0.00
                             -366.72  18179.83      0.00
                                0.00      0.00  18432.79

     local   stress (kbar)  -2949.55   -727.17   -268.03
                             -727.17  -1570.87     -6.14
                             -268.03     -6.14  -1044.19

     nonloc. stress (kbar)   8519.46    -14.83      0.00
                              -14.83   8401.26      0.00
                                0.00      0.00   8421.80

     hartree stress (kbar)   5687.35    248.35     51.96
                              248.35   5210.03     -8.50
                               51.96     -8.50   5030.56

     exc-cor stress (kbar)  -3827.61      2.74     -0.24
                                2.74  -3831.18     -2.10
                               -0.24     -2.10  -3836.58

     corecor stress (kbar)   -660.09      1.17     -0.23
                                1.17   -663.01      0.47
                               -0.23      0.47   -662.54

     ewald   stress (kbar) -25122.93    448.78      0.00
                              448.78 -26003.69      0.00
                                0.00      0.00 -26192.07

     hubbard stress (kbar)      0.00      0.00      0.00
                                0.00      0.00      0.00
                                0.00      0.00      0.00

     DFT-D   stress (kbar)      0.00      0.00      0.00
                                0.00      0.00      0.00
                                0.00      0.00      0.00

     XDM     stress (kbar)      0.00      0.00      0.00
                                0.00      0.00      0.00
                                0.00      0.00      0.00

     dft-nl  stress (kbar)      0.00      0.00      0.00
                                0.00      0.00      0.00
                                0.00      0.00      0.00

     TS-vdW  stress (kbar)      0.00      0.00      0.00
                                0.00      0.00      0.00
                                0.00      0.00      0.00

[...]

                                0.00      0.00      0.00

     Writing all to output data dir new_calculations/myprefix.save/

     General routines

     Parallel routines

     PAW routines

   This run was terminated on:   5:33:41  20May2023

   JOB DONE.