     Program PWSCF v.7.0 starts on 20May2023 at  6:58:53

     Reading input from espresso_18113.pwi
Warning: card &CELL ignored
Warning: card / ignored

     Current dimensions of program PWSCF are:
     Max number of different atomic species (ntypx) = 10
     Max number of k-points (npk) =  40000
     Max angular momentum in pseudopotentials (lmaxx) =  4
     file Ba.pbe-spn-kjpaw_psl.1.0.0.UPF: wavefunction(s)  5S 6S renormalized
     file O.pbe-n-kjpaw_psl.0.1.UPF: wavefunction(s)  2P renormalized

     gamma-point specific algorithms are used
     Message from routine setup:
     using ibrav=0 with symmetry is DISCOURAGED, use correct ibrav instead

     Subspace diagonalization in iterative solution of the eigenvalue problem:
     a serial algorithm will be used

     Using Slab Decomposition

     bravais-lattice index     =            0
     lattice parameter (alat)  =      11.4613  a.u.
     unit-cell volume          =    1064.6063 (a.u.)^3
     number of atoms/cell      =           10
     number of atomic types    =            5
     number of electrons       =        83.00
     number of Kohn-Sham states=           50
     kinetic-energy cutoff     =      30.0000  Ry
     charge density cutoff     =     240.0000  Ry
     scf convergence threshold =      1.0E-06
     mixing beta               =       0.7000
     number of iterations used =            8  plain     mixing
     Exchange-correlation= SLA  PW   PBX  PBC
                           (   1   4   3   4   0   0   0)

     celldm(1)=  11.461321  celldm(2)=   0.000000  celldm(3)=   0.000000
     celldm(4)=   0.000000  celldm(5)=   0.000000  celldm(6)=   0.000000

     crystal axes: (cart. coord. in units of alat)
               a(1) = (   1.000000   0.000000   0.000000 )
               a(2) = (   0.500000   0.866025   0.000000 )
               a(3) = (   0.500000   0.288675   0.816497 )

     reciprocal axes: (cart. coord. in units 2 pi/alat)
               b(1) = (  1.000000 -0.577350 -0.408248 )
               b(2) = (  0.000000  1.154701 -0.408248 )
               b(3) = (  0.000000  0.000000  1.224745 )

     PseudoPot. # 1 for Ba read from file:
     /home/pragov/projects/rrg-bengioy-ad/pragov/crystal_structure_design/SSSP/Ba.pbe-spn-kjpaw_psl.1.0.0.UPF
     MD5 check sum: c432291d3e53af55f19d5e8866385beb
     Pseudo is Projector augmented-wave + core cor, Zval = 10.0
     Generated using "atomic" code by A. Dal Corso  v.5.1
     Shape of augmentation charge: PSQ
     Using radial grid of 1251 points,  7 beta functions with:
                l(1) =   0
                l(2) =   0
                l(3) =   0
                l(4) =   1
                l(5) =   1
                l(6) =   2
                l(7) =   2
     Q(r) pseudized with 0 coefficients

     PseudoPot. # 2 for Na read from file:
     /home/pragov/projects/rrg-bengioy-ad/pragov/crystal_structure_design/SSSP/na_pbe_v1.5.uspp.F.UPF
     MD5 check sum: 44600605ef58000f06b90626533354dc
     Pseudo is Ultrasoft, Zval =  9.0
     Generated by new atomic code, or converted to UPF format
     Using radial grid of  819 points,  5 beta functions with:
                l(1) =   0
                l(2) =   0
                l(3) =   1
                l(4) =   1
                l(5) =   2
     Q(r) pseudized with  8 coefficients,  rinner =    1.250   1.250   1.250
                                                       1.250   1.250

     PseudoPot. # 3 for Nd read from file:
     /home/pragov/projects/rrg-bengioy-ad/pragov/crystal_structure_design/SSSP/Nd.GGA-PBE-paw-v1.0.UPF
     MD5 check sum: 1d1e94942b6eb1cde76049b71bb7dcb0
     Pseudo is Projector augmented-wave + core cor, Zval = 14.0
     Generated using ATOMPAW code
     Shape of augmentation charge: BESSEL
     Using radial grid of 1105 points,  8 beta functions with:
                l(1) =   0
                l(2) =   0
                l(3) =   1
                l(4) =   1
                l(5) =   2
                l(6) =   2
                l(7) =   3
                l(8) =   3
     Q(r) pseudized with 0 coefficients

     PseudoPot. # 4 for W  read from file:
     /home/pragov/projects/rrg-bengioy-ad/pragov/crystal_structure_design/SSSP/W_pbe_v1.2.uspp.F.UPF
     MD5 check sum: 9c083fa34c2a2ea0f02f1f893e16e1c8
     Pseudo is Ultrasoft + core correction, Zval = 14.0
     Generated by new atomic code, or converted to UPF format
     Using radial grid of  923 points,  8 beta functions with:
                l(1) =   0
                l(2) =   0
                l(3) =   0
                l(4) =   1
                l(5) =   1
                l(6) =   2
                l(7) =   2
                l(8) =   3
     Q(r) pseudized with  6 coefficients,  rinner =    1.350   1.350   1.350
                                                       1.350   1.350   1.350
                                                       1.350

     PseudoPot. # 5 for O  read from file:
     /home/pragov/projects/rrg-bengioy-ad/pragov/crystal_structure_design/SSSP/O.pbe-n-kjpaw_psl.0.1.UPF
     MD5 check sum: 0234752ac141de4415c5fc33072bef88
     Pseudo is Projector augmented-wave + core cor, Zval =  6.0
     Generated using "atomic" code by A. Dal Corso  v.5.0.99 svn rev. 10869
     Shape of augmentation charge: BESSEL
     Using radial grid of 1095 points,  4 beta functions with:
                l(1) =   0
                l(2) =   0
                l(3) =   1
                l(4) =   1
     Q(r) pseudized with 0 coefficients

     atomic species   valence    mass     pseudopotential
        Ba            10.00   137.32700     Ba( 1.00)
        Na             9.00    22.98977     Na( 1.00)
        Nd            14.00   144.24200     Nd( 1.00)
        W             14.00   183.84000     W ( 1.00)
        O              6.00    15.99900     O ( 1.00)

      6 Sym. Ops. (no inversion) found

                                    s                        frac. trans.

      isym =  1     identity

 cryst.   s( 1) = (     1          0          0      )
                  (     0          1          0      )
                  (     0          0          1      )

 cart.    s( 1) = (  1.0000000  0.0000000  0.0000000 )
                  (  0.0000000  1.0000000  0.0000000 )
                  (  0.0000000  0.0000000  1.0000000 )

      isym =  2     120 deg rotation - cryst. axis [0,0,1]

[...]

      isym =  3     120 deg rotation - cryst. axis [0,0,-1]

[...]

      isym =  4     inv. 180 deg rotation - cart. axis [1,0,0]

[...]

      isym =  5     inv. 180 deg rotation - cryst. axis [0,1,0]

[...]

      isym =  6     inv. 180 deg rotation - cryst. axis [1,1,0]

 cryst.   s( 6) = (     1         -1          0      )
                  (     0         -1          0      )
                  (     0         -1          1      )

 cart.    s( 6) = (  0.5000000 -0.8660254 -0.0000000 )
                  ( -0.8660254 -0.5000000 -0.0000000 )
                  (  0.0000000  0.0000000  1.0000000 )

   Cartesian axes

     site n.     atom                  positions (alat units)
         1           Ba  tau(   1) = (   1.5000000   0.8660254   0.6123724  )
         2           Na  tau(   2) = (   0.5000000   0.2886751   0.2041241  )
         3           Nd  tau(   3) = (   0.0000000   0.0000000   0.0000000  )
         4           W   tau(   4) = (   1.0000000   0.5773503   0.4082483  )
         5           O   tau(   5) = (   1.0000000   0.3140595   0.2220736  )
         6           O   tau(   6) = (   1.0000000   0.8406411   0.5944230  )
         7           O   tau(   7) = (   1.2280165   0.4457049   0.5944230  )
         8           O   tau(   8) = (   0.7719835   0.7089957   0.2220736  )
         9           O   tau(   9) = (   1.2280165   0.7089957   0.2220736  )
        10           O   tau(  10) = (   0.7719835   0.4457049   0.5944230  )

   Crystallographic axes

     site n.     atom                  positions (cryst. coord.)
         1           Ba  tau(   1) = (  0.7500000  0.7500000  0.7500000  )
         2           Na  tau(   2) = (  0.2500000  0.2500000  0.2500000  )
         3           Nd  tau(   3) = (  0.0000000  0.0000000  0.0000000  )
         4           W   tau(   4) = (  0.5000000  0.5000000  0.5000000  )
         5           O   tau(   5) = (  0.7280165  0.2719835  0.2719835  )
         6           O   tau(   6) = (  0.2719835  0.7280165  0.7280165  )
         7           O   tau(   7) = (  0.7280165  0.2719835  0.7280165  )
         8           O   tau(   8) = (  0.2719835  0.7280165  0.2719835  )
         9           O   tau(   9) = (  0.7280165  0.7280165  0.2719835  )
        10           O   tau(  10) = (  0.2719835  0.2719835  0.7280165  )

     number of k points=     1  Methfessel-Paxton smearing, width (Ry)=  0.0010
                       cart. coord. in units 2pi/alat
        k(    1) = (   0.0000000   0.0000000   0.0000000), wk =   2.0000000

                       cryst. coord.
        k(    1) = (   0.0000000   0.0000000   0.0000000), wk =   2.0000000

     Check: negative core charge=   -0.000009

     Initial potential from superposition of free atoms

     starting charge      82.8702, renormalised to      83.0000

     negative rho (up, down):  6.315E-02 0.000E+00
     Starting wfcs are   79 randomized atomic wfcs
     Checking if some PAW data can be deallocated...

     Self-consistent Calculation

     iteration #  1     ecut=    30.00 Ry     beta= 0.70
     Davidson diagonalization with overlap

     ethr =  1.00E-02,  avg # of iterations =  2.0

     negative rho (up, down):  5.937E-02 0.000E+00

     total energy              =   -1475.99796601 Ry
     estimated scf accuracy    <       3.79890540 Ry

[...]

     ethr =  3.01E-05,  avg # of iterations =  1.0
     Minimization algorithm failed to find Fermi energy: reverting to bisection
     Possible cause: smearing is larger than the electronic band-gap.

[...]

     ethr =  8.76E-06,  avg # of iterations =  1.0
     Minimization algorithm failed to find Fermi energy: reverting to bisection
     Possible cause: smearing is larger than the electronic band-gap.

[...]

     total energy              =   -1478.02068308 Ry
     estimated scf accuracy    <       0.00604323 Ry

     iteration # 88     ecut=    30.00 Ry     beta= 0.70
     Davidson diagonalization with overlap

     ethr =  1.88E-09,  avg # of iterations =  5.0

[...]

     End of self-consistent calculation

          k = 0.0000 0.0000 0.0000 (  1446 PWs)   bands (ev):

   -66.4475 -43.2738 -30.6255 -30.6253 -30.6246 -26.9536 -18.6226 -15.1642
   -15.1642 -15.1642  -9.4566  -9.4566  -9.4565  -8.8704  -8.3737  -8.3736
    -6.5130  -6.5130  -6.5129  -3.8659  -3.8658  -3.8655   3.5384   3.5384
     4.0173   4.3388   4.3388   4.3390   6.3669   6.3669   6.3670   7.1333
     7.1335   7.1335   7.3681   7.3681   7.3682   8.1852   8.1853   8.1853
    10.3406  10.3548  10.3549  10.3549  10.5126  10.5126  10.5126  10.5243
    10.5245  10.5245

     occupation numbers
     1.0000   1.0000   1.0000   1.0000   1.0000   1.0000   1.0000   1.0000
     1.0000   1.0000   1.0000   1.0000   1.0000   1.0000   1.0000   1.0000
     1.0000   1.0000   1.0000   1.0000   1.0000   1.0000   1.0000   1.0000
     1.0000   1.0000   1.0000   1.0000   1.0000   1.0000   1.0000   1.0000
     1.0000   1.0000   1.0000   1.0000   1.0000   1.0000   1.0000   1.0000
     0.9408   0.1891   0.1852   0.1849  -0.0000  -0.0000  -0.0000  -0.0000
    -0.0000  -0.0000

     the Fermi energy is    10.3494 ev

!    total energy              =   -1478.02071180 Ry
     estimated scf accuracy    <       0.00000048 Ry
     smearing contrib. (-TS)   =      -0.00051174 Ry
     internal energy E=F+TS    =   -1478.02020006 Ry

     The total energy is F=E-TS. E is the sum of the following terms:
     one-electron contribution =    -231.87245623 Ry
     hartree contribution      =     165.27621696 Ry
     xc contribution           =    -134.69978584 Ry
     ewald contribution        =    -414.55118395 Ry
     one-center paw contrib.   =    -862.17299100 Ry
      -> PAW hartree energy AE =     291.98286490 Ry
      -> PAW hartree energy PS =    -290.90819786 Ry
      -> PAW xc energy AE      =    -940.88566741 Ry
      -> PAW xc energy PS      =      77.63800938 Ry
      -> total E_H with PAW    =     166.35088399 Ry
      -> total E_XC with PAW   =    -997.94744387 Ry

     convergence has been achieved in  88 iterations

     negative rho (up, down):  6.054E-02 0.000E+00

     Forces acting on atoms (cartesian axes, Ry/au):

     atom    1 type  1   force =     0.00000000    0.00000000    0.00001743
     atom    2 type  2   force =     0.00000000    0.00000000    0.00001860
     atom    3 type  3   force =     0.00000000    0.00000000   -0.00027428
     atom    4 type  4   force =     0.00000000    0.00000000   -0.00041098
     atom    5 type  5   force =     0.00000000    0.00877891    0.00639079
     atom    6 type  5   force =     0.00000000   -0.00888382   -0.00617438
     atom    7 type  5   force =    -0.00769362    0.00444191   -0.00617438
     atom    8 type  5   force =     0.00760276   -0.00438945    0.00639079
     atom    9 type  5   force =    -0.00760276   -0.00438945    0.00639079
     atom   10 type  5   force =     0.00769362    0.00444191   -0.00617438
     The non-local contrib.  to forces
     atom    1 type  1   force =     0.00000000    0.00000000   -0.00007685
     atom    2 type  2   force =     0.00000000    0.00000000    0.00003790
     atom    3 type  3   force =     0.00000000    0.00000000   -0.00098822
     atom    4 type  4   force =     0.00000000    0.00000000   -0.00015742
     atom    5 type  5   force =     0.00000000    0.37141879    0.26264421
     atom    6 type  5   force =     0.00000000   -0.37136371   -0.26256138
     atom    7 type  5   force =    -0.32161041    0.18568186   -0.26256138
     atom    8 type  5   force =     0.32165811   -0.18570939    0.26264421
     atom    9 type  5   force =    -0.32165811   -0.18570939    0.26264421
     atom   10 type  5   force =     0.32161041    0.18568186   -0.26256138
     The ionic contribution  to forces
     atom    1 type  1   force =     0.00000000    0.00000000   -0.00000000
     atom    2 type  2   force =    -0.00000000   -0.00000000    0.00000000
     atom    3 type  3   force =    -0.00000000   -0.00000000    0.00000000
     atom    4 type  4   force =    -0.00000000   -0.00000000   -0.00000000
     atom    5 type  5   force =     0.00000000   -4.92788625   -3.48454178
     atom    6 type  5   force =    -0.00000000    4.92788624    3.48454178
     atom    7 type  5   force =     4.26767467   -2.46394312    3.48454178
     atom    8 type  5   force =    -4.26767468    2.46394312   -3.48454178
     atom    9 type  5   force =     4.26767468    2.46394312   -3.48454178
     atom   10 type  5   force =    -4.26767467   -2.46394312    3.48454178
     The local contribution  to forces
     atom    1 type  1   force =    -0.00094045    0.00003725    0.00001905
     atom    2 type  2   force =    -0.00004329   -0.00002165   -0.00004473
     atom    3 type  3   force =     0.00134191    0.00090300    0.00108590
     atom    4 type  4   force =    -0.00010503   -0.00005905   -0.00027761
     atom    5 type  5   force =     0.00004552    4.56824492    3.23040344
     atom    6 type  5   force =     0.00009783   -4.56851935   -3.23039898
     atom    7 type  5   force =    -3.95640624    2.28435100   -3.23040608
     atom    8 type  5   force =     3.95625317   -2.28408786    3.23041926
     atom    9 type  5   force =    -3.95627195   -2.28415435    3.23058042
     atom   10 type  5   force =     3.95638219    2.28423129   -3.23028622
     The core correction contribution to forces
     atom    1 type  1   force =    -0.00001748    0.00000379    0.00001003
     atom    2 type  2   force =     0.00000000    0.00000000    0.00000000
     atom    3 type  3   force =     0.00000019    0.00000013    0.00000006
     atom    4 type  4   force =    -0.00000977   -0.00000444   -0.00003633
     atom    5 type  5   force =    -0.00000028   -0.00322011   -0.00227704
     atom    6 type  5   force =     0.00000010    0.00322001    0.00227643
     atom    7 type  5   force =     0.00278859   -0.00160992    0.00227646
     atom    8 type  5   force =    -0.00278935    0.00161027   -0.00227748
     atom    9 type  5   force =     0.00278934    0.00161059   -0.00227740
     atom   10 type  5   force =    -0.00278863   -0.00160998    0.00227623
     The Hubbard contrib.    to forces
     atom    1 type  1   force =     0.00000000    0.00000000    0.00000000
     atom    2 type  2   force =     0.00000000    0.00000000    0.00000000
     atom    3 type  3   force =     0.00000000    0.00000000    0.00000000
     atom    4 type  4   force =     0.00000000    0.00000000    0.00000000
     atom    5 type  5   force =     0.00000000    0.00000000    0.00000000
     atom    6 type  5   force =     0.00000000    0.00000000    0.00000000
     atom    7 type  5   force =     0.00000000    0.00000000    0.00000000
     atom    8 type  5   force =     0.00000000    0.00000000    0.00000000
     atom    9 type  5   force =     0.00000000    0.00000000    0.00000000
     atom   10 type  5   force =     0.00000000    0.00000000    0.00000000
     The SCF correction term to forces
     atom    1 type  1   force =     0.00017954    0.00004962    0.00004994
     atom    2 type  2   force =     0.00004802    0.00002692    0.00001017
     atom    3 type  3   force =    -0.00078271   -0.00056612   -0.00038729
     atom    4 type  4   force =     0.00010037    0.00009274    0.00004512
     atom    5 type  5   force =    -0.00005143    0.00024520    0.00016783
     atom    6 type  5   force =    -0.00007744   -0.00011989   -0.00005205
     atom    7 type  5   force =    -0.00013362   -0.00003790   -0.00003827
     atom    8 type  5   force =     0.00015090   -0.00015083    0.00011440
     atom    9 type  5   force =    -0.00011638   -0.00007011   -0.00003413
     atom   10 type  5   force =     0.00016437    0.00006748   -0.00015765

     Total force =     0.026554     Total SCF correction =     0.001189

     Computing stress (Cartesian axis) and pressure

     negative rho (up, down):  6.054E-02 0.000E+00
          total   stress  (Ry/bohr**3)                   (kbar)     P=     -256.40
  -0.00174285   0.00000000   0.00000000         -256.38        0.00        0.00
   0.00000000  -0.00174285  -0.00000000            0.00     -256.38       -0.00
  -0.00000000  -0.00000000  -0.00174316           -0.00       -0.00     -256.43

     kinetic stress (kbar)  18965.78      0.00     -0.00
                                0.00  18965.78      0.00
                                0.00      0.00  18966.66

     local   stress (kbar)     88.55      0.22      0.14
                                0.22     88.13     -0.03
                                0.14     -0.03     87.29

     nonloc. stress (kbar)  -3009.89      0.00     -0.00
                                0.00  -3009.89     -0.00
                                0.00     -0.00  -3010.03

     hartree stress (kbar)   7612.37     -0.04     -0.02
                               -0.04   7612.46      0.03
                               -0.02      0.03   7612.69

     exc-cor stress (kbar)    927.60     -0.00     -0.00
                               -0.00    927.60     -0.00
                               -0.00     -0.00    927.61

     corecor stress (kbar)  -5746.69      0.00      0.00
                                0.00  -5746.69      0.00
                                0.00      0.00  -5746.70

     ewald   stress (kbar) -19093.94     -0.00     -0.00
                               -0.00 -19093.94      0.00
                               -0.00      0.00 -19093.94

     hubbard stress (kbar)      0.00      0.00      0.00
                                0.00      0.00      0.00
                                0.00      0.00      0.00

     DFT-D   stress (kbar)      0.00      0.00      0.00
                                0.00      0.00      0.00
                                0.00      0.00      0.00

     XDM     stress (kbar)      0.00      0.00      0.00
                                0.00      0.00      0.00
                                0.00      0.00      0.00

     dft-nl  stress (kbar)      0.00      0.00      0.00
                                0.00      0.00      0.00
                                0.00      0.00      0.00

     TS-vdW  stress (kbar)      0.00      0.00      0.00
                                0.00      0.00      0.00
                                0.00      0.00      0.00

[...]

                                0.00      0.00      0.00

     Writing all to output data dir new_calculations/myprefix.save/

     General routines

     Parallel routines

     PAW routines

   This run was terminated on:   7: 1:46  20May2023

   JOB DONE.