     Program PWSCF v.7.0 starts on 20May2023 at  3: 1:33

     Reading input from espresso_11024.pwi
Warning: card &CELL ignored
Warning: card / ignored

     Current dimensions of program PWSCF are:
     Max number of different atomic species (ntypx) = 10
     Max number of k-points (npk) =  40000
     Max angular momentum in pseudopotentials (lmaxx) =  4
     file Al.pbe-n-kjpaw_psl.1.0.0.UPF: wavefunction(s)  3S 3P renormalized

     gamma-point specific algorithms are used
     Message from routine setup:
     using ibrav=0 with symmetry is DISCOURAGED, use correct ibrav instead

     Subspace diagonalization in iterative solution of the eigenvalue problem:
     a serial algorithm will be used

     Using Slab Decomposition

     bravais-lattice index     =            0
     lattice parameter (alat)  =       9.8928  a.u.
     unit-cell volume          =    1347.8309 (a.u.)^3
     number of atoms/cell      =           20
     number of atomic types    =            4
     number of electrons       =        60.00
     number of Kohn-Sham states=           36
     kinetic-energy cutoff     =      30.0000  Ry
     charge density cutoff     =     240.0000  Ry
     scf convergence threshold =      1.0E-06
     mixing beta               =       0.7000
     number of iterations used =            8  plain     mixing
     Exchange-correlation= PBE
                           (   1   4   3   4   0   0   0)

     celldm(1)=   9.892754  celldm(2)=   0.000000  celldm(3)=   0.000000
     celldm(4)=   0.000000  celldm(5)=   0.000000  celldm(6)=   0.000000

     crystal axes: (cart. coord. in units of alat)
               a(1) = (   1.000000   0.000000   0.000000 )
               a(2) = (   0.000000   0.990077   0.000000 )
               a(3) = (   0.000000   0.990589   1.406095 )

     reciprocal axes: (cart. coord. in units 2 pi/alat)
               b(1) = (  1.000000  0.000000  0.000000 )
               b(2) = (  0.000000  1.010022 -0.711557 )
               b(3) = (  0.000000  0.000000  0.711190 )

     PseudoPot. # 1 for Na read from file:
     /home/pragov/projects/rrg-bengioy-ad/pragov/crystal_structure_design/SSSP/na_pbe_v1.5.uspp.F.UPF
     MD5 check sum: 44600605ef58000f06b90626533354dc
     Pseudo is Ultrasoft, Zval =  9.0
     Generated by new atomic code, or converted to UPF format
     Using radial grid of  819 points,  5 beta functions with:
                l(1) =   0
                l(2) =   0
                l(3) =   1
                l(4) =   1
                l(5) =   2
     Q(r) pseudized with  8 coefficients,  rinner =    1.250   1.250   1.250
                                                       1.250   1.250

     PseudoPot. # 2 for Li read from file:
     /home/pragov/projects/rrg-bengioy-ad/pragov/crystal_structure_design/SSSP/li_pbe_v1.4.uspp.F.UPF
     MD5 check sum: e912e257baa3777c20ea3d68f190483c
     Pseudo is Ultrasoft, Zval =  3.0
     Generated by new atomic code, or converted to UPF format
     Using radial grid of  751 points,  5 beta functions with:
                l(1) =   0
                l(2) =   0
                l(3) =   0
                l(4) =   1
                l(5) =   1
     Q(r) pseudized with 10 coefficients,  rinner =    1.150   1.150   1.150

     PseudoPot. # 3 for Al read from file:
     /home/pragov/projects/rrg-bengioy-ad/pragov/crystal_structure_design/SSSP/Al.pbe-n-kjpaw_psl.1.0.0.UPF
     MD5 check sum: cfc449ca30b5f3223ec38ddd88ac046d
     Pseudo is Projector augmented-wave + core cor, Zval =  3.0
     Generated using "atomic" code by A. Dal Corso  v.5.1
     Shape of augmentation charge: PSQ
     Using radial grid of 1135 points,  6 beta functions with:
                l(1) =   0
                l(2) =   0
                l(3) =   1
                l(4) =   1
                l(5) =   2
                l(6) =   2
     Q(r) pseudized with 0 coefficients

     PseudoPot. # 4 for H  read from file:
     /home/pragov/projects/rrg-bengioy-ad/pragov/crystal_structure_design/SSSP/H.pbe-rrkjus_psl.1.0.0.UPF
     MD5 check sum: f52b6d4d1c606e5624b1dc7b2218f220
     Pseudo is Ultrasoft, Zval =  1.0
     Generated using "atomic" code by A. Dal Corso  v.5.1
     Using radial grid of  929 points,  2 beta functions with:
                l(1) =   0
                l(2) =   0
     Q(r) pseudized with 0 coefficients

     atomic species   valence    mass     pseudopotential
        Na             9.00    22.98977     Na( 1.00)
        Li             3.00     6.94000     Li( 1.00)
        Al             3.00    26.98154     Al( 1.00)
        H              1.00     1.00800     H ( 1.00)

      4 Sym. Ops., with inversion, found ( 2 have fractional translation)

                                    s                        frac. trans.

      isym =  1     identity

 cryst.   s( 1) = (     1          0          0      )
                  (     0          1          0      )
                  (     0          0          1      )

 cart.    s( 1) = (  1.0000000  0.0000000  0.0000000 )
                  (  0.0000000  1.0000000 -0.0000000 )
                  (  0.0000000  0.0000000  1.0000000 )

      isym =  2     180 deg rotation - cart. axis [1,0,0]

 cryst.   s( 2) = (     1          0          0      )    f =( -0.5000000 )
                  (     0         -1          0      )       ( -0.0000000 )
                  (     0          0         -1      )       (  0.5000000 )

 cart.    s( 2) = (  1.0000000  0.0000000  0.0000000 )    f =( -0.5000000 )
                  (  0.0000000 -1.0000000  0.0000000 )       (  0.4952945 )
                  (  0.0000000  0.0000000 -1.0000000 )       (  0.7030475 )

      isym =  3     inversion

 cryst.   s( 3) = (    -1          0          0      )
                  (     0         -1          0      )
                  (     0          0         -1      )

 cart.    s( 3) = ( -1.0000000  0.0000000  0.0000000 )
                  (  0.0000000 -1.0000000  0.0000000 )
                  (  0.0000000  0.0000000 -1.0000000 )

      isym =  4     inv. 180 deg rotation - cart. axis [1,0,0]

 cryst.   s( 4) = (    -1          0          0      )    f =(  0.5000000 )
                  (     0          1          0      )       ( -0.0000000 )
                  (     0          0          1      )       ( -0.5000000 )

 cart.    s( 4) = ( -1.0000000  0.0000000  0.0000000 )    f =(  0.5000000 )
                  (  0.0000000  1.0000000 -0.0000000 )       ( -0.4952945 )
                  (  0.0000000  0.0000000  1.0000000 )       ( -0.7030475 )

   Cartesian axes

     site n.     atom                  positions (alat units)
         1           Na  tau(   1) = (   0.0259920   0.5006881   0.3512186  )
         2           Na  tau(   2) = (   0.5259920   0.9846837   0.3518289  )
         3           Na  tau(   3) = (   0.9740080   1.4799782   1.0548763  )
         4           Na  tau(   4) = (   0.4740080   0.9959826   1.0542661  )
         5           Li  tau(   5) = (   0.0000000   0.9903332   0.7030475  )
         6           Li  tau(   6) = (   0.5000000   0.4950387   0.0000000  )
         7           Al  tau(   7) = (   0.0000000   0.0000000   0.0000000  )
         8           Al  tau(   8) = (   0.5000000   0.4952945   0.7030475  )
         9           H   tau(   9) = (   0.2319160   1.2872122   0.7530763  )
        10           H   tau(  10) = (   0.7319160   1.1887486   1.3560661  )
        11           H   tau(  11) = (   0.7680840   0.6934541   0.6530186  )
        12           H   tau(  12) = (   0.2680840   0.7919177   0.0500289  )
        13           H   tau(  13) = (   0.2029260   1.2561136   1.3617973  )
        14           H   tau(  14) = (   0.7029260   1.2198473   0.7473451  )
        15           H   tau(  15) = (   0.7970740   0.7245528   0.0442976  )
        16           H   tau(  16) = (   0.2970740   0.7608191   0.6587498  )
        17           H   tau(  17) = (   0.0165120   0.9276512   1.0754953  )
        18           H   tau(  18) = (   0.5165120   1.5483096   1.0336471  )
        19           H   tau(  19) = (   0.9834880   1.0530151   0.3305996  )
        20           H   tau(  20) = (   0.4834880   0.4323568   0.3724478  )

   Crystallographic axes

     site n.     atom                  positions (cryst. coord.)
         1           Na  tau(   1) = (  0.0259920  0.2557940  0.2497830  )
         2           Na  tau(   2) = (  0.5259920  0.7442060  0.2502170  )
         3           Na  tau(   3) = (  0.9740080  0.7442060  0.7502170  )
         4           Na  tau(   4) = (  0.4740080  0.2557940  0.7497830  )
         5           Li  tau(   5) = (  0.0000000  0.5000000  0.5000000  )
         6           Li  tau(   6) = (  0.5000000  0.5000000  0.0000000  )
         7           Al  tau(   7) = (  0.0000000  0.0000000  0.0000000  )
         8           Al  tau(   8) = (  0.5000000 -0.0000000  0.5000000  )
         9           H   tau(   9) = (  0.2319160  0.7642560  0.5355800  )
        10           H   tau(  10) = (  0.7319160  0.2357440  0.9644200  )
        11           H   tau(  11) = (  0.7680840  0.2357440  0.4644200  )
        12           H   tau(  12) = (  0.2680840  0.7642560  0.0355800  )
        13           H   tau(  13) = (  0.2029260  0.2997060  0.9684960  )
        14           H   tau(  14) = (  0.7029260  0.7002940  0.5315040  )
        15           H   tau(  15) = (  0.7970740  0.7002940  0.0315040  )
        16           H   tau(  16) = (  0.2970740  0.2997060  0.4684960  )
        17           H   tau(  17) = (  0.0165120  0.1716720  0.7648810  )
        18           H   tau(  18) = (  0.5165120  0.8283280  0.7351190  )
        19           H   tau(  19) = (  0.9834880  0.8283280  0.2351190  )
        20           H   tau(  20) = (  0.4834880  0.1716720  0.2648810  )

     number of k points=     1  Methfessel-Paxton smearing, width (Ry)=  0.0010
                       cart. coord. in units 2pi/alat
        k(    1) = (   0.0000000   0.0000000   0.0000000), wk =   2.0000000

                       cryst. coord.
        k(    1) = (   0.0000000   0.0000000   0.0000000), wk =   2.0000000

     Initial potential from superposition of free atoms

     starting charge      59.0687, renormalised to      60.0000
     Starting wfcs are   50 randomized atomic wfcs
     Checking if some PAW data can be deallocated...

     Self-consistent Calculation

     iteration #  1     ecut=    30.00 Ry     beta= 0.70
     Davidson diagonalization with overlap

     ethr =  1.00E-02,  avg # of iterations =  3.0

     total energy              =    -503.14978100 Ry
     estimated scf accuracy    <       1.23782245 Ry

[...]

     c_bands:  2 eigenvalues not converged
     ethr =  2.83E-06,  avg # of iterations = 20.0

[...]

     total energy              =    -503.35195355 Ry
     estimated scf accuracy    <       0.00000451 Ry

     iteration #  7     ecut=    30.00 Ry     beta= 0.70
     Davidson diagonalization with overlap

     ethr =  7.51E-09,  avg # of iterations =  2.0

     End of self-consistent calculation

          k = 0.0000 0.0000 0.0000 (  1869 PWs)   bands (ev):

   -49.2628 -49.2621 -49.2620 -49.2613 -43.2828 -43.2824 -21.1948 -21.1931
   -21.1921 -21.1883 -21.1880 -21.1813 -21.1591 -21.1572 -21.1551 -21.1546
   -21.1515 -21.1508  -5.3644  -4.1111  -2.1742  -1.0932  -1.0796  -0.7428
    -0.4660  -0.4570  -0.4345   1.4885   1.5580   2.1704   4.7936   5.5181
     6.5594   6.7927   6.9989   7.0702

     occupation numbers
     1.0000   1.0000   1.0000   1.0000   1.0000   1.0000   1.0000   1.0000
     1.0000   1.0000   1.0000   1.0000   1.0000   1.0000   1.0000   1.0000
     1.0000   1.0000   1.0000   1.0000   1.0000   1.0000   1.0000   1.0000
     1.0000   1.0000   1.0000   1.0000   1.0000   1.0000  -0.0000  -0.0000
    -0.0000  -0.0000  -0.0000  -0.0000

     the Fermi energy is     3.6684 ev

!    total energy              =    -503.35195402 Ry
     estimated scf accuracy    <       0.00000010 Ry
     smearing contrib. (-TS)   =       0.00000000 Ry
     internal energy E=F+TS    =    -503.35195402 Ry

     The total energy is F=E-TS. E is the sum of the following terms:
     one-electron contribution =    -336.81784637 Ry
     hartree contribution      =     177.95834103 Ry
     xc contribution           =     -78.38056604 Ry
     ewald contribution        =    -196.78810646 Ry
     one-center paw contrib.   =     -69.32377618 Ry
      -> PAW hartree energy AE =       3.10488060 Ry
      -> PAW hartree energy PS =      -3.09710980 Ry
      -> PAW xc energy AE      =     -73.28238134 Ry
      -> PAW xc energy PS      =       3.95083435 Ry
      -> total E_H with PAW    =     177.96611184 Ry
      -> total E_XC with PAW   =    -147.71211302 Ry

     convergence has been achieved in   7 iterations

     Forces acting on atoms (cartesian axes, Ry/au):

     atom    1 type  1   force =    -0.00197487    0.00204447    0.00007011
     atom    2 type  1   force =    -0.00197487   -0.00204447   -0.00007011
     atom    3 type  1   force =     0.00197487   -0.00204447   -0.00007011
     atom    4 type  1   force =     0.00197487    0.00204447    0.00007011
     atom    5 type  2   force =     0.00000000    0.00000000    0.00000000
     atom    6 type  2   force =     0.00000000    0.00000000    0.00000000
     atom    7 type  3   force =     0.00000000    0.00000000   -0.00000000
     atom    8 type  3   force =    -0.00000000   -0.00000000    0.00000000
     atom    9 type  4   force =    -0.00558247    0.02058877    0.00014431
     atom   10 type  4   force =    -0.00558247   -0.02058877   -0.00014431
     atom   11 type  4   force =     0.00558247   -0.02058877   -0.00014431
     atom   12 type  4   force =     0.00558247    0.02058877    0.00014431
     atom   13 type  4   force =    -0.02078913    0.00569455    0.00029174
     atom   14 type  4   force =    -0.02078913   -0.00569455   -0.00029174
     atom   15 type  4   force =     0.02078913   -0.00569455   -0.00029174
     atom   16 type  4   force =     0.02078913    0.00569455    0.00029174
     atom   17 type  4   force =    -0.00398128   -0.00106127    0.00394516
     atom   18 type  4   force =    -0.00398128    0.00106127   -0.00394516
     atom   19 type  4   force =     0.00398128    0.00106127   -0.00394516
     atom   20 type  4   force =     0.00398128   -0.00106127    0.00394516
     The non-local contrib.  to forces
     atom    1 type  1   force =     0.02380675   -0.02266682    0.00059179
     atom    2 type  1   force =     0.02380675    0.02266682   -0.00059179
     atom    3 type  1   force =    -0.02380675    0.02266682   -0.00059179
     atom    4 type  1   force =    -0.02380675   -0.02266682    0.00059179
     atom    5 type  2   force =     0.00000000   -0.00000000    0.00000000
     atom    6 type  2   force =     0.00000000    0.00000000    0.00000000
     atom    7 type  3   force =     0.00000000    0.00000000    0.00000000
     atom    8 type  3   force =     0.00000000   -0.00000000    0.00000000
     atom    9 type  4   force =     0.00948161    0.00873969   -0.00169798
     atom   10 type  4   force =     0.00948161   -0.00873969    0.00169798
     atom   11 type  4   force =    -0.00948161   -0.00873969    0.00169798
     atom   12 type  4   force =    -0.00948161    0.00873969   -0.00169798
     atom   13 type  4   force =    -0.00910918   -0.00945605    0.00139372
     atom   14 type  4   force =    -0.00910918    0.00945605   -0.00139372
     atom   15 type  4   force =     0.00910918    0.00945605   -0.00139372
     atom   16 type  4   force =     0.00910918   -0.00945605    0.00139372
     atom   17 type  4   force =    -0.00007708    0.00176691    0.01248868
     atom   18 type  4   force =    -0.00007708   -0.00176691   -0.01248868
     atom   19 type  4   force =     0.00007708   -0.00176691   -0.01248868
     atom   20 type  4   force =     0.00007708    0.00176691    0.01248868
     The ionic contribution  to forces
     atom    1 type  1   force =    -0.17099426   -0.17889783    0.01020764
     atom    2 type  1   force =    -0.17099426    0.17889783   -0.01020764
     atom    3 type  1   force =     0.17099426    0.17889783   -0.01020764
     atom    4 type  1   force =     0.17099426   -0.17889783    0.01020764
     atom    5 type  2   force =    -0.00000000    0.00000000   -0.00000000
     atom    6 type  2   force =    -0.00000000    0.00000000    0.00000000
     atom    7 type  3   force =    -0.00000000    0.00000000    0.00000000
     atom    8 type  3   force =    -0.00000000    0.00000000   -0.00000000
     atom    9 type  4   force =    -0.01241315   -0.12807799   -0.11969643
     atom   10 type  4   force =    -0.01241315    0.12807799    0.11969643
     atom   11 type  4   force =     0.01241315    0.12807799    0.11969643
     atom   12 type  4   force =     0.01241315   -0.12807799   -0.11969643
     atom   13 type  4   force =     0.15694260    0.03369737    0.12003098
     atom   14 type  4   force =     0.15694260   -0.03369737   -0.12003098
     atom   15 type  4   force =    -0.15694260   -0.03369737   -0.12003098
     atom   16 type  4   force =    -0.15694260    0.03369737    0.12003098
     atom   17 type  4   force =    -0.12527897    0.10775630   -0.11700324
     atom   18 type  4   force =    -0.12527897   -0.10775630    0.11700324
     atom   19 type  4   force =     0.12527897   -0.10775630    0.11700324
     atom   20 type  4   force =     0.12527897    0.10775630   -0.11700324
     The local contribution  to forces
     atom    1 type  1   force =     0.14526891    0.20357872   -0.01077187
     atom    2 type  1   force =     0.14527075   -0.20358139    0.01077085
     atom    3 type  1   force =    -0.14524300   -0.20359115    0.01077169
     atom    4 type  1   force =    -0.14528079    0.20359205   -0.01077375
     atom    5 type  2   force =     0.00000324    0.00000078    0.00003301
     atom    6 type  2   force =    -0.00001110   -0.00000463   -0.00002999
     atom    7 type  3   force =     0.00000711   -0.00000387   -0.00002092
     atom    8 type  3   force =     0.00000067   -0.00000093    0.00002968
     atom    9 type  4   force =    -0.00263833    0.13992523    0.12155608
     atom   10 type  4   force =    -0.00265022   -0.13992255   -0.12156100
     atom   11 type  4   force =     0.00264723   -0.13993822   -0.12152361
     atom   12 type  4   force =     0.00264222    0.13992628    0.12152580
     atom   13 type  4   force =    -0.16863007   -0.01853652   -0.12115795
     atom   14 type  4   force =    -0.16862697    0.01854107    0.12115140
     atom   15 type  4   force =     0.16863361    0.01855022    0.12111631
     atom   16 type  4   force =     0.16861973   -0.01854894   -0.12111142
     atom   17 type  4   force =     0.12137880   -0.11058366    0.10844589
     atom   18 type  4   force =     0.12137262    0.11059102   -0.10846370
     atom   19 type  4   force =    -0.12137422    0.11058131   -0.10846414
     atom   20 type  4   force =    -0.12137622   -0.11058531    0.10846455
     The core correction contribution to forces
     atom    1 type  1   force =     0.00000000    0.00000000    0.00000000
     atom    2 type  1   force =     0.00000000    0.00000000    0.00000000
     atom    3 type  1   force =     0.00000000    0.00000000    0.00000000
     atom    4 type  1   force =     0.00000000    0.00000000    0.00000000
     atom    5 type  2   force =     0.00000000    0.00000000    0.00000000
     atom    6 type  2   force =     0.00000000    0.00000000    0.00000000
     atom    7 type  3   force =     0.00000058   -0.00000073    0.00000033
     atom    8 type  3   force =     0.00000112    0.00000079   -0.00000025
     atom    9 type  4   force =     0.00000000    0.00000000    0.00000000
     atom   10 type  4   force =     0.00000000    0.00000000    0.00000000
     atom   11 type  4   force =     0.00000000    0.00000000    0.00000000
     atom   12 type  4   force =     0.00000000    0.00000000    0.00000000
     atom   13 type  4   force =     0.00000000    0.00000000    0.00000000
     atom   14 type  4   force =     0.00000000    0.00000000    0.00000000
     atom   15 type  4   force =     0.00000000    0.00000000    0.00000000
     atom   16 type  4   force =     0.00000000    0.00000000    0.00000000
     atom   17 type  4   force =     0.00000000    0.00000000    0.00000000
     atom   18 type  4   force =     0.00000000    0.00000000    0.00000000
     atom   19 type  4   force =     0.00000000    0.00000000    0.00000000
     atom   20 type  4   force =     0.00000000    0.00000000    0.00000000
     The Hubbard contrib.    to forces
     atom    1 type  1   force =     0.00000000    0.00000000    0.00000000
     atom    2 type  1   force =     0.00000000    0.00000000    0.00000000
     atom    3 type  1   force =     0.00000000    0.00000000    0.00000000
     atom    4 type  1   force =     0.00000000    0.00000000    0.00000000
     atom    5 type  2   force =     0.00000000    0.00000000    0.00000000
     atom    6 type  2   force =     0.00000000    0.00000000    0.00000000
     atom    7 type  3   force =     0.00000000    0.00000000    0.00000000
     atom    8 type  3   force =     0.00000000    0.00000000    0.00000000
     atom    9 type  4   force =     0.00000000    0.00000000    0.00000000
     atom   10 type  4   force =     0.00000000    0.00000000    0.00000000
     atom   11 type  4   force =     0.00000000    0.00000000    0.00000000
     atom   12 type  4   force =     0.00000000    0.00000000    0.00000000
     atom   13 type  4   force =     0.00000000    0.00000000    0.00000000
     atom   14 type  4   force =     0.00000000    0.00000000    0.00000000
     atom   15 type  4   force =     0.00000000    0.00000000    0.00000000
     atom   16 type  4   force =     0.00000000    0.00000000    0.00000000
     atom   17 type  4   force =     0.00000000    0.00000000    0.00000000
     atom   18 type  4   force =     0.00000000    0.00000000    0.00000000
     atom   19 type  4   force =     0.00000000    0.00000000    0.00000000
     atom   20 type  4   force =     0.00000000    0.00000000    0.00000000
     The SCF correction term to forces
     atom    1 type  1   force =    -0.00008848    0.00004667    0.00002417
     atom    2 type  1   force =    -0.00001555   -0.00004668   -0.00005656
     atom    3 type  1   force =     0.00003306    0.00001793   -0.00001776
     atom    4 type  1   force =     0.00007577    0.00001779    0.00007239
     atom    5 type  2   force =    -0.00001482   -0.00000934   -0.00003847
     atom    6 type  2   force =     0.00000905   -0.00000435    0.00003433
     atom    7 type  3   force =    -0.00000661   -0.00000060    0.00003218
     atom    8 type  3   force =     0.00001527    0.00001205   -0.00002956
     atom    9 type  4   force =    -0.00000746    0.00000149   -0.00001326
     atom   10 type  4   force =    -0.00000781    0.00000190    0.00001746
     atom   11 type  4   force =     0.00000237    0.00000288   -0.00000850
     atom   12 type  4   force =     0.00000810   -0.00000071    0.00001057
     atom   13 type  4   force =     0.00000669   -0.00000328    0.00001513
     atom   14 type  4   force =     0.00000534    0.00000507   -0.00001424
     atom   15 type  4   force =    -0.00000849   -0.00000082    0.00001173
     atom   16 type  4   force =     0.00000036   -0.00000278   -0.00001239
     atom   17 type  4   force =    -0.00000531   -0.00000202    0.00000109
     atom   18 type  4   force =     0.00000345   -0.00000093   -0.00000217
     atom   19 type  4   force =    -0.00000269   -0.00000050    0.00000015
     atom   20 type  4   force =     0.00000358    0.00000394   -0.00000255

     Total force =     0.061981     Total SCF correction =     0.000191

     Computing stress (Cartesian axis) and pressure

          total   stress  (Ry/bohr**3)                   (kbar)     P=      -20.01
  -0.00002811   0.00000000   0.00000000           -4.14        0.00        0.00
   0.00000000   0.00000890   0.00001662            0.00        1.31        2.44
   0.00000000   0.00001662  -0.00038888            0.00        2.44      -57.21

     kinetic stress (kbar)   6729.40      0.00      0.00
                                0.00   6732.64     -1.36
                                0.00     -1.36   6656.58

     local   stress (kbar)  14300.43      0.00     -0.00
                                0.00  14176.23     10.63
                               -0.00     10.63  14276.40

     nonloc. stress (kbar) -17615.67      0.00      0.00
                                0.00 -17615.01      1.81
                                0.00      1.81 -17611.39

     hartree stress (kbar)   6455.20     -0.00      0.00
                               -0.00   6499.26      2.77
                                0.00      2.77   6468.28

     exc-cor stress (kbar)  -2466.72     -0.00      0.00
                               -0.00  -2466.47     -0.18
                                0.00     -0.18  -2465.55

     corecor stress (kbar)   -211.93     -0.00      0.00
                               -0.00   -211.99      0.02
                                0.00      0.02   -211.85

     ewald   stress (kbar)  -7194.85     -0.00      0.00
                               -0.00  -7113.34    -11.23
                                0.00    -11.23  -7169.68

     hubbard stress (kbar)      0.00      0.00      0.00
                                0.00      0.00      0.00
                                0.00      0.00      0.00

     DFT-D   stress (kbar)      0.00      0.00      0.00
                                0.00      0.00      0.00
                                0.00      0.00      0.00

     XDM     stress (kbar)      0.00      0.00      0.00
                                0.00      0.00      0.00
                                0.00      0.00      0.00

     dft-nl  stress (kbar)      0.00      0.00      0.00
                                0.00      0.00      0.00
                                0.00      0.00      0.00

     TS-vdW  stress (kbar)      0.00      0.00      0.00
                                0.00      0.00      0.00
                                0.00      0.00      0.00

[...]

                                0.00      0.00      0.00

     Writing all to output data dir new_calculations/myprefix.save/

     General routines

     Parallel routines

     PAW routines

   This run was terminated on:   3: 2:12  20May2023

   JOB DONE.