     Program PWSCF v.7.0 starts on 21May2023 at  4:39: 3

     Reading input from espresso_19740.pwi
Warning: card &CELL ignored
Warning: card / ignored

     Current dimensions of program PWSCF are:
     Max number of different atomic species (ntypx) = 10
     Max number of k-points (npk) =  40000
     Max angular momentum in pseudopotentials (lmaxx) =  4

     gamma-point specific algorithms are used
     Message from routine setup:
     using ibrav=0 with symmetry is DISCOURAGED, use correct ibrav instead

     Subspace diagonalization in iterative solution of the eigenvalue problem:
     a serial algorithm will be used

     Using Slab Decomposition

     bravais-lattice index     =            0
     lattice parameter (alat)  =      12.4226  a.u.
     unit-cell volume          =    4071.5807 (a.u.)^3
     number of atoms/cell      =           20
     number of atomic types    =            2
     number of electrons       =       256.00
     number of Kohn-Sham states=          154
     kinetic-energy cutoff     =      30.0000  Ry
     charge density cutoff     =     240.0000  Ry
     scf convergence threshold =      1.0E-06
     mixing beta               =       0.7000
     number of iterations used =            8  plain     mixing
     Exchange-correlation= SLA  PW   PBE  PBE
                           (   1   4   3   4   0   0   0)

     celldm(1)=  12.422627  celldm(2)=   0.000000  celldm(3)=   0.000000
     celldm(4)=   0.000000  celldm(5)=   0.000000  celldm(6)=   0.000000

     crystal axes: (cart. coord. in units of alat)
               a(1) = (   1.000000   0.000000   0.000000 )
               a(2) = (  -0.232848   1.303558   0.000000 )
               a(3) = (  -0.204366  -0.561506   1.629267 )

     reciprocal axes: (cart. coord. in units 2 pi/alat)
               b(1) = (  1.000000  0.178625  0.186995 )
               b(2) = (  0.000000  0.767131  0.264382 )
               b(3) = (  0.000000  0.000000  0.613773 )

     PseudoPot. # 1 for La read from file:
     /home/pragov/projects/rrg-bengioy-ad/pragov/crystal_structure_design/SSSP/La.GGA-PBE-paw-v1.0.UPF
     MD5 check sum: 436541e95c1ad8901025bd0b0ed42ae2
     Pseudo is Projector augmented-wave + core cor, Zval = 11.0
     Generated using ATOMPAW code
     Shape of augmentation charge: BESSEL
     Using radial grid of 1101 points,  8 beta functions with:
                l(1) =   0
                l(2) =   0
                l(3) =   1
                l(4) =   1
                l(5) =   2
                l(6) =   2
                l(7) =   3
                l(8) =   3
     Q(r) pseudized with 0 coefficients

     PseudoPot. # 2 for Sn read from file:
     /home/pragov/projects/rrg-bengioy-ad/pragov/crystal_structure_design/SSSP/Sn_pbe_v1.uspp.F.UPF
     MD5 check sum: 4cf58ce39ec5d5d420df3dd08604eb00
     Pseudo is Ultrasoft + core correction, Zval = 14.0
     Generated by new atomic code, or converted to UPF format
     Using radial grid of  891 points,  6 beta functions with:
                l(1) =   0
                l(2) =   0
                l(3) =   1
                l(4) =   1
                l(5) =   2
                l(6) =   2
     Q(r) pseudized with  6 coefficients,  rinner =    1.200   1.200   1.200
                                                       1.200   1.200

     atomic species   valence    mass     pseudopotential
        La            11.00   138.90547     La( 1.00)
        Sn            14.00   118.71000     Sn( 1.00)

      2 Sym. Ops., with inversion, found

                                    s                        frac. trans.

      isym =  1     identity

 cryst.   s( 1) = (     1          0          0      )
                  (     0          1          0      )
                  (     0          0          1      )

 cart.    s( 1) = (  1.0000000  0.0000000 -0.0000000 )
                  (  0.0000000  1.0000000  0.0000000 )
                  (  0.0000000  0.0000000  1.0000000 )

      isym =  2     inversion

 cryst.   s( 2) = (    -1          0          0      )
                  (     0         -1          0      )
                  (     0          0         -1      )

 cart.    s( 2) = ( -1.0000000 -0.0000000  0.0000000 )
                  (  0.0000000 -1.0000000 -0.0000000 )
                  (  0.0000000  0.0000000 -1.0000000 )

   Cartesian axes

     site n.     atom                  positions (alat units)
         1           La  tau(   1) = (   0.1721655  -0.3761695   1.2131211  )
         2           La  tau(   2) = (   0.3906206   1.1182220   0.4161457  )
         3           La  tau(   3) = (   0.8876379   0.2967120   0.0908952  )
         4           La  tau(   4) = (  -0.3248518   0.4453404   1.5383717  )
         5           La  tau(   5) = (   0.3885389   0.3724545   0.5478084  )
         6           La  tau(   6) = (   0.1742472   0.3695979   1.0814584  )
         7           La  tau(   7) = (  -0.1285475   0.7673223   0.6252181  )
         8           La  tau(   8) = (   0.6913337  -0.0252699   1.0040487  )
         9           Sn  tau(   9) = (  -0.1095619   0.2467280   0.6167606  )
        10           Sn  tau(  10) = (   0.6723481   0.4953245   1.0125062  )
        11           Sn  tau(  11) = (   0.2147732  -0.0632912   0.8104022  )
        12           Sn  tau(  12) = (   0.3480129   0.8053437   0.8188646  )
        13           Sn  tau(  13) = (   0.3871177   0.1909017   0.0827000  )
        14           Sn  tau(  14) = (   0.1756684   0.5511507   1.5465669  )
        15           Sn  tau(  15) = (   0.1562000   0.7065478   0.2248616  )
        16           Sn  tau(  16) = (   0.4065861   0.0355047   1.4044052  )
        17           Sn  tau(  17) = (  -0.0480804   0.0436036   1.4098860  )
        18           Sn  tau(  18) = (   0.6108666   0.6984489   0.2193808  )
        19           Sn  tau(  19) = (   0.1234519  -0.0751439   0.3647081  )
        20           Sn  tau(  20) = (   0.4393342   0.8171964   1.2645587  )

   Crystallographic axes

     site n.     atom                  positions (cryst. coord.)
         1           La  tau(   1) = (  0.3318200  0.0321560  0.7445810  )
         2           La  tau(   2) = (  0.6681800  0.9678440  0.2554190  )
         3           La  tau(   3) = (  0.9576350  0.2516480  0.0557890  )
         4           La  tau(   4) = (  0.0423650  0.7483520  0.9442110  )
         5           La  tau(   5) = (  0.5575060  0.4305520  0.3362300  )
         6           La  tau(   6) = (  0.4424940  0.5694480  0.6637700  )
         7           La  tau(   7) = (  0.1254280  0.7539330  0.3837420  )
         8           La  tau(   8) = (  0.8745720  0.2460670  0.6162580  )
         9           Sn  tau(   9) = (  0.0498410  0.3523330  0.3785510  )
        10           Sn  tau(  10) = (  0.9501590  0.6476670  0.6214490  )
        11           Sn  tau(  11) = (  0.3550090  0.1657030  0.4974030  )
        12           Sn  tau(  12) = (  0.6449910  0.8342970  0.5025970  )
        13           Sn  tau(  13) = (  0.4366820  0.1683110  0.0507590  )
        14           Sn  tau(  14) = (  0.5633180  0.8316890  0.9492410  )
        15           Sn  tau(  15) = (  0.3244550  0.6014640  0.1380140  )
        16           Sn  tau(  16) = (  0.6755450  0.3985360  0.8619860  )
        17           Sn  tau(  17) = (  0.2233500  0.4061980  0.8653500  )
        18           Sn  tau(  18) = (  0.7766500  0.5938020  0.1346500  )
        19           Sn  tau(  19) = (  0.1782280  0.0387770  0.2238480  )
        20           Sn  tau(  20) = (  0.8217720  0.9612230  0.7761520  )

     number of k points=     1  Methfessel-Paxton smearing, width (Ry)=  0.0010
                       cart. coord. in units 2pi/alat
        k(    1) = (   0.0000000   0.0000000   0.0000000), wk =   2.0000000

                       cryst. coord.
        k(    1) = (   0.0000000   0.0000000   0.0000000), wk =   2.0000000

     Initial potential from superposition of free atoms

     starting charge     243.9312, renormalised to     256.0000
     Starting wfcs are  364 randomized atomic wfcs
     Checking if some PAW data can be deallocated...

     Self-consistent Calculation

     iteration #  1     ecut=    30.00 Ry     beta= 0.70
     Davidson diagonalization with overlap

     ethr =  1.00E-02,  avg # of iterations =  2.0

     total energy              =   -5622.27791735 Ry
     estimated scf accuracy    <       7.75939642 Ry

[...]

     c_bands:  1 eigenvalues not converged
     ethr =  2.24E-05,  avg # of iterations = 20.0

[...]

     c_bands:  4 eigenvalues not converged
     ethr =  2.73E-06,  avg # of iterations = 20.0

[...]

     total energy              =   -5625.80683220 Ry
     estimated scf accuracy    <       0.00000110 Ry

     iteration # 27     ecut=    30.00 Ry     beta= 0.70
     Davidson diagonalization with overlap

     ethr =  4.30E-10,  avg # of iterations =  7.0

     End of self-consistent calculation

          k = 0.0000 0.0000 0.0000 (  5652 PWs)   bands (ev):

   -21.7248 -21.7207 -21.6596 -21.6582 -21.6030 -21.5745 -21.5498 -21.5425
   -10.1486 -10.1449 -10.1092 -10.1090 -10.0910 -10.0882 -10.0637 -10.0628
   -10.0463 -10.0446  -9.9828  -9.9773  -9.9466  -9.9297  -9.8874  -9.8825
    -9.8682  -9.8648  -9.8501  -9.8386  -9.8219  -9.8175  -9.7959  -9.7803
    -9.7553  -9.7472  -9.7418  -9.7334  -9.7280  -9.7211  -9.7187  -9.7140
    -9.6921  -9.6904  -9.6636  -9.6618  -9.6561  -9.6533  -9.6439  -9.6304
    -9.6226  -9.6219  -9.6101  -9.6036  -9.5941  -9.5920  -9.5902  -9.5712
    -9.5575  -9.5549  -9.4835  -9.4506  -9.4223  -9.4193  -9.4176  -9.3984
    -9.3933  -9.3739  -9.3513  -9.3472  -5.6170  -5.5966  -5.5606  -5.5297
    -5.5022  -5.4974  -5.4866  -5.4619  -5.4595  -5.4049  -5.3789  -5.3765
    -5.3703  -5.3456  -5.3113  -5.3085  -5.2602  -5.2460  -5.2349  -5.2253
    -5.2193  -5.1968  -5.1690  -5.1180   1.9370   2.8679   2.8735   3.7526
     4.1593   4.4074   4.4278   4.9442   4.9637   5.1561   5.3433   6.4608
     7.8089   8.3155   8.4847   8.5334   8.5612   8.8482   9.0294   9.1193
     9.3016   9.4892   9.5660   9.7629   9.7817   9.9294  10.0831  10.1816
    10.1956  10.2064  10.3524  10.4985  10.5232  10.7432  10.8827  11.2164
    11.2208  11.6583  11.7866  11.8155  11.9264  11.9499  12.0184  12.3832
    12.4577  12.5773  12.6027  12.7194  12.7405  12.8137  12.8644  12.8754
    12.8765  12.8802  12.8896  12.9250  12.9565  12.9620  12.9872  13.0034
    13.0246  13.0331

     occupation numbers
     1.0000   1.0000   1.0000   1.0000   1.0000   1.0000   1.0000   1.0000
     1.0000   1.0000   1.0000   1.0000   1.0000   1.0000   1.0000   1.0000
     1.0000   1.0000   1.0000   1.0000   1.0000   1.0000   1.0000   1.0000
     1.0000   1.0000   1.0000   1.0000   1.0000   1.0000   1.0000   1.0000
     1.0000   1.0000   1.0000   1.0000   1.0000   1.0000   1.0000   1.0000
     1.0000   1.0000   1.0000   1.0000   1.0000   1.0000   1.0000   1.0000
     1.0000   1.0000   1.0000   1.0000   1.0000   1.0000   1.0000   1.0000
     1.0000   1.0000   1.0000   1.0000   1.0000   1.0000   1.0000   1.0000
     1.0000   1.0000   1.0000   1.0000   1.0000   1.0000   1.0000   1.0000
     1.0000   1.0000   1.0000   1.0000   1.0000   1.0000   1.0000   1.0000
     1.0000   1.0000   1.0000   1.0000   1.0000   1.0000   1.0000   1.0000
     1.0000   1.0000   1.0000   1.0000   1.0000   1.0000   1.0000   1.0000
     1.0000   1.0000   1.0000   1.0000   1.0000   1.0000   1.0000   1.0000
     1.0000   1.0000   1.0000   1.0000   1.0000   1.0000   1.0000   1.0000
     1.0000   1.0000   1.0000   1.0000   1.0000   1.0000   1.0000   1.0000
     1.0000   1.0000   1.0000   1.0000   1.0000   1.0000   1.0000   0.6348
     0.3652  -0.0000  -0.0000  -0.0000  -0.0000  -0.0000  -0.0000  -0.0000
    -0.0000  -0.0000  -0.0000  -0.0000  -0.0000  -0.0000  -0.0000  -0.0000
    -0.0000  -0.0000  -0.0000  -0.0000  -0.0000  -0.0000  -0.0000  -0.0000
    -0.0000  -0.0000

     the Fermi energy is    11.2186 ev

!    total energy              =   -5625.80683228 Ry
     estimated scf accuracy    <       0.00000035 Ry
     smearing contrib. (-TS)   =      -0.00052095 Ry
     internal energy E=F+TS    =   -5625.80631133 Ry

     The total energy is F=E-TS. E is the sum of the following terms:
     one-electron contribution =    -767.87601561 Ry
     hartree contribution      =     559.47598104 Ry
     xc contribution           =    -641.20679884 Ry
     ewald contribution        =   -1591.65612959 Ry
     one-center paw contrib.   =   -3184.54334833 Ry
      -> PAW hartree energy AE =     279.98441266 Ry
      -> PAW hartree energy PS =    -280.26762733 Ry
      -> PAW xc energy AE      =   -3242.74437547 Ry
      -> PAW xc energy PS      =      58.48424182 Ry
      -> total E_H with PAW    =     559.19276637 Ry
      -> total E_XC with PAW   =   -3825.46693250 Ry

     convergence has been achieved in  27 iterations

     Forces acting on atoms (cartesian axes, Ry/au):

     atom    1 type  1   force =    -0.01039241    0.01108454   -0.01851158
     atom    2 type  1   force =     0.01039241   -0.01108454    0.01851158
     atom    3 type  1   force =    -0.00288281    0.01383737   -0.00197117
     atom    4 type  1   force =     0.00288281   -0.01383737    0.00197117
     atom    5 type  1   force =     0.00008843    0.01639562   -0.03168200
     atom    6 type  1   force =    -0.00008843   -0.01639562    0.03168200
     atom    7 type  1   force =     0.01036308   -0.00288929   -0.00701012
     atom    8 type  1   force =    -0.01036308    0.00288929    0.00701012
     atom    9 type  2   force =     0.00623554   -0.04625976    0.01059109
     atom   10 type  2   force =    -0.00623554    0.04625976   -0.01059109
     atom   11 type  2   force =    -0.01352761    0.01682391   -0.02840986
     atom   12 type  2   force =     0.01352761   -0.01682391    0.02840986
     atom   13 type  2   force =     0.01565534   -0.04078714    0.00678083
     atom   14 type  2   force =    -0.01565534    0.04078714   -0.00678083
     atom   15 type  2   force =    -0.01479576   -0.00065225   -0.00025437
     atom   16 type  2   force =     0.01479576    0.00065225    0.00025437
     atom   17 type  2   force =    -0.01341846    0.00408008    0.00289253
     atom   18 type  2   force =     0.01341846   -0.00408008   -0.00289253
     atom   19 type  2   force =    -0.02532780    0.03552317   -0.01342183
     atom   20 type  2   force =     0.02532780   -0.03552317    0.01342183
     The non-local contrib.  to forces
     atom    1 type  1   force =    -0.02181551   -0.07615767    0.01999274
     atom    2 type  1   force =     0.02181551    0.07615767   -0.01999274
     atom    3 type  1   force =     0.00176142   -0.06804484   -0.00294008
     atom    4 type  1   force =    -0.00176142    0.06804484    0.00294008
     atom    5 type  1   force =     0.00870661   -0.08440064    0.04088389
     atom    6 type  1   force =    -0.00870661    0.08440064   -0.04088389
     atom    7 type  1   force =    -0.01999486    0.00484218    0.07385732
     atom    8 type  1   force =     0.01999486   -0.00484218   -0.07385732
     atom    9 type  2   force =     0.11902588   -0.04534124   -0.00317501
     atom   10 type  2   force =    -0.11902588    0.04534124    0.00317501
     atom   11 type  2   force =    -0.05058571    0.05869914   -0.13417843
     atom   12 type  2   force =     0.05058571   -0.05869914    0.13417843
     atom   13 type  2   force =    -0.04416479   -0.11240228    0.03590319
     atom   14 type  2   force =     0.04416479    0.11240228   -0.03590319
     atom   15 type  2   force =     0.07826885    0.01569576   -0.19251722
     atom   16 type  2   force =    -0.07826885   -0.01569576    0.19251722
     atom   17 type  2   force =     0.08837582    0.00448664    0.19470378
     atom   18 type  2   force =    -0.08837582   -0.00448664   -0.19470378
     atom   19 type  2   force =     0.12969841    0.07814380    0.20277403
     atom   20 type  2   force =    -0.12969841   -0.07814380   -0.20277403
     The ionic contribution  to forces
     atom    1 type  1   force =    -1.09672478   -1.89878479   -5.00134929
     atom    2 type  1   force =     1.09672478    1.89878479    5.00134929
     atom    3 type  1   force =    -0.49572870   -2.78633432    1.76699936
     atom    4 type  1   force =     0.49572870    2.78633432   -1.76699936
     atom    5 type  1   force =     1.25381621   -0.56614459    3.77528198
     atom    6 type  1   force =    -1.25381621    0.56614459   -3.77528198
     atom    7 type  1   force =    -0.47473940    0.48429866    3.90291114
     atom    8 type  1   force =     0.47473940   -0.48429866   -3.90291114
     atom    9 type  2   force =    -3.44209431    2.10309694    1.84940274
     atom   10 type  2   force =     3.44209431   -2.10309694   -1.84940274
     atom   11 type  2   force =     1.33217139   -1.99084314    3.96257499
     atom   12 type  2   force =    -1.33217139    1.99084314   -3.96257499
     atom   13 type  2   force =     0.42159350   -0.35611003    0.72497570
     atom   14 type  2   force =    -0.42159350    0.35611003   -0.72497570
     atom   15 type  2   force =    -2.85520066    0.73154599    7.03042759
     atom   16 type  2   force =     2.85520066   -0.73154599   -7.03042759
     atom   17 type  2   force =    -2.86809187   -0.90974970   -6.99925784
     atom   18 type  2   force =     2.86809187    0.90974970    6.99925784
     atom   19 type  2   force =    -1.68135609   -3.27649902    0.37097342
     atom   20 type  2   force =     1.68135609    3.27649902   -0.37097342
     The local contribution  to forces
     atom    1 type  1   force =     1.10818978    1.98530787    4.96260493
     atom    2 type  1   force =    -1.10835710   -1.98599881   -4.96268842
     atom    3 type  1   force =     0.49079002    2.86787932   -1.76590421
     atom    4 type  1   force =    -0.49098751   -2.86805242    1.76603132
     atom    5 type  1   force =    -1.26222251    0.66657636   -3.84765556
     atom    6 type  1   force =     1.26225623   -0.66634144    3.84745224
     atom    7 type  1   force =     0.50518423   -0.49182453   -3.98361011
     atom    8 type  1   force =    -0.50511134    0.49200536    3.98288590
     atom    9 type  2   force =     3.33056402   -2.10276120   -1.83574870
     atom   10 type  2   force =    -3.33071037    2.10279993    1.83597388
     atom   11 type  2   force =    -1.29625390    1.94994086   -3.85907001
     atom   12 type  2   force =     1.29650401   -1.94981683    3.85827486
     atom   13 type  2   force =    -0.36234036    0.42868767   -0.75452387
     atom   14 type  2   force =     0.36266848   -0.42918377    0.75498658
     atom   15 type  2   force =     2.76353227   -0.74616510   -6.84270399
     atom   16 type  2   force =    -2.76336073    0.74714635    6.84318234
     atom   17 type  2   force =     2.76841035    0.90877958    6.81394254
     atom   18 type  2   force =    -2.76858480   -0.90811740   -6.81339431
     atom   19 type  2   force =     1.52957081    3.23187095   -0.58275068
     atom   20 type  2   force =    -1.52954186   -3.23257621    0.58281693
     The core correction contribution to forces
     atom    1 type  1   force =     0.00004261    0.00010772   -0.00009707
     atom    2 type  1   force =    -0.00004274   -0.00010788    0.00009700
     atom    3 type  1   force =     0.00000958    0.00005028   -0.00001996
     atom    4 type  1   force =    -0.00000964   -0.00005031    0.00001991
     atom    5 type  1   force =     0.00000961    0.00010316    0.00000520
     atom    6 type  1   force =    -0.00000962   -0.00010320   -0.00000532
     atom    7 type  1   force =     0.00001702    0.00003905   -0.00008086
     atom    8 type  1   force =    -0.00001700   -0.00003897    0.00008072
     atom    9 type  2   force =    -0.00168692   -0.00154947    0.00055508
     atom   10 type  2   force =     0.00168455    0.00154989   -0.00054781
     atom   11 type  2   force =     0.00150259   -0.00119119    0.00159019
     atom   12 type  2   force =    -0.00149535    0.00119304   -0.00159122
     atom   13 type  2   force =     0.00108363   -0.00180710    0.00052394
     atom   14 type  2   force =    -0.00108020    0.00180100   -0.00052590
     atom   15 type  2   force =    -0.00145833   -0.00083951    0.00494492
     atom   16 type  2   force =     0.00145871    0.00084742   -0.00494418
     atom   17 type  2   force =    -0.00237093    0.00072356   -0.00641488
     atom   18 type  2   force =     0.00237123   -0.00072199    0.00641678
     atom   19 type  2   force =    -0.00293824    0.00157339   -0.00395481
     atom   20 type  2   force =     0.00294111   -0.00157500    0.00395623
     The Hubbard contrib.    to forces
     atom    1 type  1   force =     0.00000000    0.00000000    0.00000000
     atom    2 type  1   force =     0.00000000    0.00000000    0.00000000
     atom    3 type  1   force =     0.00000000    0.00000000    0.00000000
     atom    4 type  1   force =     0.00000000    0.00000000    0.00000000
     atom    5 type  1   force =     0.00000000    0.00000000    0.00000000
     atom    6 type  1   force =     0.00000000    0.00000000    0.00000000
     atom    7 type  1   force =     0.00000000    0.00000000    0.00000000
     atom    8 type  1   force =     0.00000000    0.00000000    0.00000000
     atom    9 type  2   force =     0.00000000    0.00000000    0.00000000
     atom   10 type  2   force =     0.00000000    0.00000000    0.00000000
     atom   11 type  2   force =     0.00000000    0.00000000    0.00000000
     atom   12 type  2   force =     0.00000000    0.00000000    0.00000000
     atom   13 type  2   force =     0.00000000    0.00000000    0.00000000
     atom   14 type  2   force =     0.00000000    0.00000000    0.00000000
     atom   15 type  2   force =     0.00000000    0.00000000    0.00000000
     atom   16 type  2   force =     0.00000000    0.00000000    0.00000000
     atom   17 type  2   force =     0.00000000    0.00000000    0.00000000
     atom   18 type  2   force =     0.00000000    0.00000000    0.00000000
     atom   19 type  2   force =     0.00000000    0.00000000    0.00000000
     atom   20 type  2   force =     0.00000000    0.00000000    0.00000000
     The SCF correction term to forces
     atom    1 type  1   force =    -0.00014078    0.00053853    0.00030031
     atom    2 type  1   force =     0.00019568    0.00000681   -0.00029036
     atom    3 type  1   force =     0.00026880    0.00027098   -0.00013240
     atom    4 type  1   force =    -0.00010341   -0.00012975   -0.00004689
     atom    5 type  1   force =    -0.00023384    0.00022350   -0.00025351
     atom    6 type  1   force =     0.00017543   -0.00053404    0.00034493
     atom    7 type  1   force =    -0.00008840   -0.00021948   -0.00016200
     atom    8 type  1   force =     0.00004651    0.00008889    0.00073757
     atom    9 type  2   force =     0.00043566    0.00029986   -0.00044745
     atom   10 type  2   force =    -0.00026938   -0.00032971    0.00020614
     atom   11 type  2   force =    -0.00034036    0.00021816    0.00065630
     atom   12 type  2   force =     0.00012625   -0.00034419    0.00010567
     atom   13 type  2   force =    -0.00051101    0.00082000   -0.00008961
     atom   14 type  2   force =     0.00019070   -0.00036699   -0.00035409
     atom   15 type  2   force =     0.00007263   -0.00087464   -0.00038446
     atom   16 type  2   force =    -0.00022351   -0.00008503   -0.00005221
     atom   17 type  2   force =     0.00023861   -0.00017084   -0.00006234
     atom   18 type  2   force =    -0.00010360   -0.00051457   -0.00045036
     atom   19 type  2   force =    -0.00030939    0.00045810   -0.00043981
     atom   20 type  2   force =     0.00026418    0.00029688    0.00042010

     Total force =     0.143119     Total SCF correction =     0.002649

     Computing stress (Cartesian axis) and pressure

          total   stress  (Ry/bohr**3)                   (kbar)     P=        1.09
  -0.00011111   0.00002717   0.00000449          -16.35        4.00        0.66
   0.00002717   0.00014461  -0.00001013            4.00       21.27       -1.49
   0.00000449  -0.00001013  -0.00001130            0.66       -1.49       -1.66

     kinetic stress (kbar)   9504.66     19.37     -7.60
                               19.37   9646.55    -12.02
                               -7.60    -12.02   9583.92

     local   stress (kbar)    516.08   1154.36    655.48
                             1154.36    896.39   -417.25
                              655.48   -417.25   -224.55

     nonloc. stress (kbar)   6921.01     19.19     -0.01
                               19.19   6910.25     -1.87
                               -0.01     -1.87   6895.65

     hartree stress (kbar)   6711.63   -537.45   -304.27
                             -537.45   6606.25    173.43
                             -304.27    173.43   6895.83

     exc-cor stress (kbar)   8044.39      0.60     -0.17
                                0.60   8046.31     -0.06
                               -0.17     -0.06   8047.28

     corecor stress (kbar) -12496.88     -0.64      0.03
                               -0.64 -12497.79      0.09
                                0.03      0.09 -12497.62

     ewald   stress (kbar) -19217.23   -651.44   -342.79
                             -651.44 -19586.69    256.18
                             -342.79    256.18 -18702.17

     hubbard stress (kbar)      0.00      0.00      0.00
                                0.00      0.00      0.00
                                0.00      0.00      0.00

     DFT-D   stress (kbar)      0.00      0.00      0.00
                                0.00      0.00      0.00
                                0.00      0.00      0.00

     XDM     stress (kbar)      0.00      0.00      0.00
                                0.00      0.00      0.00
                                0.00      0.00      0.00

     dft-nl  stress (kbar)      0.00      0.00      0.00
                                0.00      0.00      0.00
                                0.00      0.00      0.00

     TS-vdW  stress (kbar)      0.00      0.00      0.00
                                0.00      0.00      0.00
                                0.00      0.00      0.00

[...]

                                0.00      0.00      0.00

     Writing all to output data dir new_calculations/myprefix.save/

     General routines

     Parallel routines

     PAW routines

   This run was terminated on:   4:43: 3  21May2023

   JOB DONE.