     Program PWSCF v.7.0 starts on 21May2023 at 11:14:52

     Reading input from espresso_24667.pwi
Warning: card &CELL ignored
Warning: card / ignored

     Current dimensions of program PWSCF are:
     Max number of different atomic species (ntypx) = 10
     Max number of k-points (npk) =  40000
     Max angular momentum in pseudopotentials (lmaxx) =  4

     gamma-point specific algorithms are used
     Message from routine setup:
     using ibrav=0 with symmetry is DISCOURAGED, use correct ibrav instead

     Subspace diagonalization in iterative solution of the eigenvalue problem:
     a serial algorithm will be used

     Using Slab Decomposition

     bravais-lattice index     =            0
     lattice parameter (alat)  =      12.0847  a.u.
     unit-cell volume          =    1247.9311 (a.u.)^3
     number of atoms/cell      =           10
     number of atomic types    =            4
     number of electrons       =        74.00
     number of Kohn-Sham states=           44
     kinetic-energy cutoff     =      30.0000  Ry
     charge density cutoff     =     240.0000  Ry
     scf convergence threshold =      1.0E-06
     mixing beta               =       0.7000
     number of iterations used =            8  plain     mixing
     Exchange-correlation=  SLA  PW   PBX  PBC
                           (   1   4   3   4   0   0   0)

     celldm(1)=  12.084681  celldm(2)=   0.000000  celldm(3)=   0.000000
     celldm(4)=   0.000000  celldm(5)=   0.000000  celldm(6)=   0.000000

     crystal axes: (cart. coord. in units of alat)
               a(1) = (   1.000000   0.000000   0.000000 )
               a(2) = (   0.500000   0.866025   0.000000 )
               a(3) = (   0.500000   0.288675   0.816497 )

     reciprocal axes: (cart. coord. in units 2 pi/alat)
               b(1) = (  1.000000 -0.577350 -0.408248 )
               b(2) = (  0.000000  1.154701 -0.408248 )
               b(3) = (  0.000000  0.000000  1.224745 )

     PseudoPot. # 1 for Cs read from file:
     /home/pragov/projects/rrg-bengioy-ad/pragov/crystal_structure_design/SSSP/Cs_pbe_v1.uspp.F.UPF
     MD5 check sum: 3476d69cb178dfad3ffaa59df4e07ca4
     Pseudo is Ultrasoft + core correction, Zval =  9.0
     Generated by new atomic code, or converted to UPF format
     Using radial grid of  905 points,  6 beta functions with:
                l(1) =   0
                l(2) =   0
                l(3) =   1
                l(4) =   1
                l(5) =   2
                l(6) =   2
     Q(r) pseudized with  6 coefficients,  rinner =    1.500   1.500   1.500
                                                       1.500   1.500

     PseudoPot. # 2 for Na read from file:
     /home/pragov/projects/rrg-bengioy-ad/pragov/crystal_structure_design/SSSP/na_pbe_v1.5.uspp.F.UPF
     MD5 check sum: 44600605ef58000f06b90626533354dc
     Pseudo is Ultrasoft, Zval =  9.0
     Generated by new atomic code, or converted to UPF format
     Using radial grid of  819 points,  5 beta functions with:
                l(1) =   0
                l(2) =   0
                l(3) =   1
                l(4) =   1
                l(5) =   2
     Q(r) pseudized with  8 coefficients,  rinner =    1.250   1.250   1.250
                                                       1.250   1.250

     PseudoPot. # 3 for As read from file:
     /home/pragov/projects/rrg-bengioy-ad/pragov/crystal_structure_design/SSSP/As.pbe-n-rrkjus_psl.0.2.UPF
     MD5 check sum: 767315de957beeeb34f87d97bf945c8f
     Pseudo is Ultrasoft + core correction, Zval =  5.0
     Generated using "atomic" code by A. Dal Corso  v.5.0.99 svn rev. 10869
     Using radial grid of 1209 points,  4 beta functions with:
                l(1) =   0
                l(2) =   0
                l(3) =   1
                l(4) =   1
     Q(r) pseudized with 0 coefficients

     PseudoPot. # 4 for F  read from file:
     /home/pragov/projects/rrg-bengioy-ad/pragov/crystal_structure_design/SSSP/f_pbe_v1.4.uspp.F.UPF
     MD5 check sum: 4c38b6a325caf53ec0e86aed9459de46
     Pseudo is Ultrasoft, Zval =  7.0
     Generated by new atomic code, or converted to UPF format
     Using radial grid of  799 points,  4 beta functions with:
                l(1) =   0
                l(2) =   0
                l(3) =   1
                l(4) =   1
     Q(r) pseudized with  8 coefficients,  rinner =    0.950   0.950   0.950

     atomic species   valence    mass     pseudopotential
        Cs             9.00   132.90545     Cs( 1.00)
        Na             9.00    22.98977     Na( 1.00)
        As             5.00    74.92159     As( 1.00)
        F              7.00    18.99840     F ( 1.00)

     12 Sym. Ops., with inversion, found

                                    s                        frac. trans.

      isym =  1     identity

 cryst.   s( 1) = (     1          0          0      )
                  (     0          1          0      )
                  (     0          0          1      )

 cart.    s( 1) = (  1.0000000  0.0000000  0.0000000 )
                  (  0.0000000  1.0000000 -0.0000000 )
                  (  0.0000000  0.0000000  1.0000000 )

      isym =  2     180 deg rotation - cart. axis [1,0,0]

[...]

      isym =  3     120 deg rotation - cryst. axis [0,0,1]

[...]

      isym =  6     180 deg rotation - cryst. axis [1,1,0]

[...]

      isym =  7     inversion

[...]

      isym =  8     inv. 180 deg rotation - cart. axis [1,0,0]

[...]

      isym =  9     inv. 120 deg rotation - cryst. axis [0,0,1]

 cryst.   s( 9) = (     1         -1          0      )
                  (     1          0          0      )
                  (     1          0         -1      )

 cart.    s( 9) = (  0.5000000  0.8660254 -0.0000000 )
                  ( -0.8660254  0.5000000 -0.0000000 )
                  (  0.0000000  0.0000000 -1.0000000 )

[...]

 cryst.   s(10) = (     0          1          0      )
                  (    -1          1          0      )
                  (     0          1         -1      )

 cart.    s(10) = (  0.5000000 -0.8660254  0.0000000 )
                  (  0.8660254  0.5000000 -0.0000000 )
                  (  0.0000000  0.0000000 -1.0000000 )

[...]

      isym = 12     inv. 180 deg rotation - cryst. axis [1,1,0]

 cryst.   s(12) = (     1         -1          0      )
                  (     0         -1          0      )
                  (     0         -1          1      )

 cart.    s(12) = (  0.5000000 -0.8660254  0.0000000 )
                  ( -0.8660254 -0.5000000  0.0000000 )
                  (  0.0000000  0.0000000  1.0000000 )

   Cartesian axes

     site n.     atom                  positions (alat units)
         1           Cs  tau(   1) = (   1.5000000   0.8660254   0.6123724  )
         2           Cs  tau(   2) = (   0.5000000   0.2886751   0.2041241  )
         3           Na  tau(   3) = (   1.0000000   0.5773503   0.4082483  )
         4           As  tau(   4) = (   0.0000000   0.0000000   0.0000000  )
         5           F   tau(   5) = (   1.0000000   0.2674702   0.1891300  )
         6           F   tau(   6) = (   0.7316360   0.4224102   0.6273666  )
         7           F   tau(   7) = (   1.0000000   0.8872303   0.6273666  )
         8           F   tau(   8) = (   0.7316360   0.7322903   0.1891300  )
         9           F   tau(   9) = (   1.2683640   0.4224102   0.6273666  )
        10           F   tau(  10) = (   1.2683640   0.7322903   0.1891300  )

   Crystallographic axes

     site n.     atom                  positions (cryst. coord.)
         1           Cs  tau(   1) = (  0.7500000  0.7500000  0.7500000  )
         2           Cs  tau(   2) = (  0.2500000  0.2500000  0.2500000  )
         3           Na  tau(   3) = (  0.5000000  0.5000000  0.5000000  )
         4           As  tau(   4) = (  0.0000000  0.0000000  0.0000000  )
         5           F   tau(   5) = (  0.7683640  0.2316360  0.2316360  )
         6           F   tau(   6) = (  0.2316360  0.2316360  0.7683640  )
         7           F   tau(   7) = (  0.2316360  0.7683640  0.7683640  )
         8           F   tau(   8) = (  0.2316360  0.7683640  0.2316360  )
         9           F   tau(   9) = (  0.7683640  0.2316360  0.7683640  )
        10           F   tau(  10) = (  0.7683640  0.7683640  0.2316360  )

     number of k points=     1  Methfessel-Paxton smearing, width (Ry)=  0.0010
                       cart. coord. in units 2pi/alat
        k(    1) = (   0.0000000   0.0000000   0.0000000), wk =   2.0000000

                       cryst. coord.
        k(    1) = (   0.0000000   0.0000000   0.0000000), wk =   2.0000000

     Initial potential from superposition of free atoms

     starting charge      73.9147, renormalised to      74.0000
     Starting wfcs are   59 randomized atomic wfcs

     Self-consistent Calculation

     iteration #  1     ecut=    30.00 Ry     beta= 0.70
     Davidson diagonalization with overlap

     ethr =  1.00E-02,  avg # of iterations =  2.0

     total energy              =    -531.30972339 Ry
     estimated scf accuracy    <       1.48057645 Ry

[...]

     total energy              =    -532.02413664 Ry
     estimated scf accuracy    <       0.00000232 Ry

     iteration #  8     ecut=    30.00 Ry     beta= 0.70
     Davidson diagonalization with overlap

     ethr =  3.13E-09,  avg # of iterations =  5.0

     End of self-consistent calculation

          k = 0.0000 0.0000 0.0000 (  1740 PWs)   bands (ev):

   -45.9299 -18.0663 -17.9695 -17.9691 -17.9691 -17.4577 -17.4564 -17.4563
   -17.4301 -17.4289 -15.5098 -15.4985  -6.0710  -2.9285  -2.9285  -2.9284
    -2.6044  -2.6044  -2.6044  -0.7679  -0.7668  -0.7668   0.7702   0.7713
     1.2012   1.2013   1.2020   1.3141   1.3142   1.3150   1.6092   1.6092
     1.6097   1.7262   1.7262   1.7271   3.0394   8.2691   8.2695   8.2695
     9.5956  10.1407  10.1407  12.0625

     occupation numbers
     1.0000   1.0000   1.0000   1.0000   1.0000   1.0000   1.0000   1.0000
     1.0000   1.0000   1.0000   1.0000   1.0000   1.0000   1.0000   1.0000
     1.0000   1.0000   1.0000   1.0000   1.0000   1.0000   1.0000   1.0000
     1.0000   1.0000   1.0000   1.0000   1.0000   1.0000   1.0000   1.0000
     1.0000   1.0000   1.0000   1.0000   1.0000  -0.0000  -0.0000  -0.0000
    -0.0000  -0.0000  -0.0000  -0.0000

     the Fermi energy is     4.9155 ev

!    total energy              =    -532.02413746 Ry
     estimated scf accuracy    <       0.00000051 Ry
     smearing contrib. (-TS)   =       0.00000000 Ry
     internal energy E=F+TS    =    -532.02413746 Ry

     The total energy is F=E-TS. E is the sum of the following terms:
     one-electron contribution =    -246.84143349 Ry
     hartree contribution      =     163.66727440 Ry
     xc contribution           =    -140.56184627 Ry
     ewald contribution        =    -308.28813210 Ry

     convergence has been achieved in   8 iterations

     Forces acting on atoms (cartesian axes, Ry/au):

     atom    1 type  1   force =    -0.00000000   -0.00000000   -0.00002220
     atom    2 type  1   force =     0.00000000    0.00000000    0.00002220
     atom    3 type  2   force =     0.00000000   -0.00000000   -0.00000000
     atom    4 type  3   force =     0.00000000    0.00000000   -0.00000000
     atom    5 type  4   force =     0.00000000   -0.01649530   -0.01167718
     atom    6 type  4   force =    -0.01428535   -0.00824765    0.01167718
     atom    7 type  4   force =     0.00000000    0.01649530    0.01167718
     atom    8 type  4   force =    -0.01428535    0.00824765   -0.01167718
     atom    9 type  4   force =     0.01428535   -0.00824765    0.01167718
     atom   10 type  4   force =     0.01428535    0.00824765   -0.01167718
     The non-local contrib.  to forces
     atom    1 type  1   force =     0.00000000    0.00000000    0.00002463
     atom    2 type  1   force =    -0.00000000   -0.00000000   -0.00002463
     atom    3 type  2   force =     0.00000000    0.00000000    0.00000000
     atom    4 type  3   force =     0.00000000    0.00000000    0.00000000
     atom    5 type  4   force =     0.00000000   -0.36595523   -0.25876229
     atom    6 type  4   force =    -0.31692652   -0.18297761    0.25876229
     atom    7 type  4   force =     0.00000000    0.36595523    0.25876229
     atom    8 type  4   force =    -0.31692652    0.18297761   -0.25876229
     atom    9 type  4   force =     0.31692652   -0.18297761    0.25876229
     atom   10 type  4   force =     0.31692652    0.18297761   -0.25876229
     The ionic contribution  to forces
     atom    1 type  1   force =    -0.00000000    0.00000000   -0.00000000
     atom    2 type  1   force =     0.00000000   -0.00000000    0.00000000
     atom    3 type  2   force =    -0.00000000   -0.00000000   -0.00000000
     atom    4 type  3   force =    -0.00000000   -0.00000000    0.00000000
     atom    5 type  4   force =     0.00000000    1.22496523    0.86618122
     atom    6 type  4   force =     1.06085101    0.61248262   -0.86618122
     atom    7 type  4   force =    -0.00000000   -1.22496523   -0.86618122
     atom    8 type  4   force =     1.06085101   -0.61248262    0.86618122
     atom    9 type  4   force =    -1.06085101    0.61248262   -0.86618122
     atom   10 type  4   force =    -1.06085101   -0.61248262    0.86618122
     The local contribution  to forces
     atom    1 type  1   force =     0.00001544   -0.00005066   -0.00011037
     atom    2 type  1   force =    -0.00014550   -0.00006335    0.00012239
     atom    3 type  2   force =    -0.00006022   -0.00011520    0.00003417
     atom    4 type  3   force =     0.00014140    0.00018172   -0.00006852
     atom    5 type  4   force =     0.00004993   -0.87578610   -0.61927074
     atom    6 type  4   force =    -0.75847221   -0.43788472    0.61927265
     atom    7 type  4   force =     0.00001081    0.87572213    0.61914608
     atom    8 type  4   force =    -0.75837094    0.43791892   -0.61921262
     atom    9 type  4   force =     0.75846327   -0.43787192    0.61919861
     atom   10 type  4   force =     0.75827237    0.43779982   -0.61909927
     The core correction contribution to forces
     atom    1 type  1   force =    -0.00000044   -0.00000147   -0.00000244
     atom    2 type  1   force =    -0.00000684   -0.00000204    0.00000318
     atom    3 type  2   force =     0.00000000    0.00000000    0.00000000
     atom    4 type  3   force =     0.00001086    0.00001338   -0.00000626
     atom    5 type  4   force =     0.00000000    0.00000000    0.00000000
     atom    6 type  4   force =     0.00000000    0.00000000    0.00000000
     atom    7 type  4   force =     0.00000000    0.00000000    0.00000000
     atom    8 type  4   force =     0.00000000    0.00000000    0.00000000
     atom    9 type  4   force =     0.00000000    0.00000000    0.00000000
     atom   10 type  4   force =     0.00000000    0.00000000    0.00000000
     The Hubbard contrib.    to forces
     atom    1 type  1   force =     0.00000000    0.00000000    0.00000000
     atom    2 type  1   force =     0.00000000    0.00000000    0.00000000
     atom    3 type  2   force =     0.00000000    0.00000000    0.00000000
     atom    4 type  3   force =     0.00000000    0.00000000    0.00000000
     atom    5 type  4   force =     0.00000000    0.00000000    0.00000000
     atom    6 type  4   force =     0.00000000    0.00000000    0.00000000
     atom    7 type  4   force =     0.00000000    0.00000000    0.00000000
     atom    8 type  4   force =     0.00000000    0.00000000    0.00000000
     atom    9 type  4   force =     0.00000000    0.00000000    0.00000000
     atom   10 type  4   force =     0.00000000    0.00000000    0.00000000
     The SCF correction term to forces
     atom    1 type  1   force =    -0.00001447    0.00002044    0.00006190
     atom    2 type  1   force =     0.00008449    0.00003845   -0.00008283
     atom    3 type  2   force =     0.00020889    0.00015792   -0.00002163
     atom    4 type  3   force =    -0.00011289   -0.00014814    0.00004918
     atom    5 type  4   force =    -0.00006820    0.00025910    0.00016600
     atom    6 type  4   force =     0.00020693    0.00010084   -0.00014146
     atom    7 type  4   force =    -0.00000524   -0.00026461   -0.00006921
     atom    8 type  4   force =     0.00015838   -0.00018462    0.00012573
     atom    9 type  4   force =    -0.00027077    0.00013109   -0.00010090
     atom   10 type  4   force =    -0.00007117   -0.00005171    0.00001998

     Total force =     0.049505     Total SCF correction =     0.000746

     Computing stress (Cartesian axis) and pressure

          total   stress  (Ry/bohr**3)                   (kbar)     P=      -38.32
  -0.00026047   0.00000000  -0.00000000          -38.32        0.00       -0.00
   0.00000000  -0.00026047   0.00000000            0.00      -38.32        0.00
   0.00000000   0.00000000  -0.00026048            0.00        0.00      -38.32

     kinetic stress (kbar)  12008.65     -0.00     -0.00
                               -0.00  12008.65     -0.00
                               -0.00     -0.00  12008.65

     local   stress (kbar)  -2287.22     -0.05      0.07
                               -0.05  -2287.16      0.04
                                0.07      0.04  -2287.20

     nonloc. stress (kbar)   -410.47     -0.00      0.00
                                0.00   -410.47      0.00
                                0.00      0.00   -410.46

     hartree stress (kbar)   6431.01      0.04     -0.06
                                0.04   6430.97     -0.03
                               -0.06     -0.03   6430.99

     exc-cor stress (kbar)   2693.48     -0.00      0.00
                               -0.00   2693.48      0.00
                                0.00      0.00   2693.48

     corecor stress (kbar)  -6360.19      0.00     -0.00
                                0.00  -6360.19     -0.00
                               -0.00     -0.00  -6360.19

     ewald   stress (kbar) -12113.58     -0.00     -0.00
                               -0.00 -12113.58      0.00
                               -0.00      0.00 -12113.58

     hubbard stress (kbar)      0.00      0.00      0.00
                                0.00      0.00      0.00
                                0.00      0.00      0.00

     DFT-D   stress (kbar)      0.00      0.00      0.00
                                0.00      0.00      0.00
                                0.00      0.00      0.00

     XDM     stress (kbar)      0.00      0.00      0.00
                                0.00      0.00      0.00
                                0.00      0.00      0.00

     dft-nl  stress (kbar)      0.00      0.00      0.00
                                0.00      0.00      0.00
                                0.00      0.00      0.00

     TS-vdW  stress (kbar)      0.00      0.00      0.00
                                0.00      0.00      0.00
                                0.00      0.00      0.00

[...]

                                0.00      0.00      0.00

     Writing all to output data dir new_calculations/myprefix.save/

     General routines

     Parallel routines

   This run was terminated on:  11:15: 9  21May2023

   JOB DONE.