     Program PWSCF v.7.0 starts on 20May2023 at 20:49: 1

     Reading input from espresso_24119.pwi
Warning: card &CELL ignored
Warning: card / ignored

     Current dimensions of program PWSCF are:
     Max number of different atomic species (ntypx) = 10
     Max number of k-points (npk) =  40000
     Max angular momentum in pseudopotentials (lmaxx) =  4
     file Pb.pbe-dn-kjpaw_psl.0.2.2.UPF: wavefunction(s)  6S renormalized

     gamma-point specific algorithms are used
     Message from routine setup:
     using ibrav=0 with symmetry is DISCOURAGED, use correct ibrav instead

     Subspace diagonalization in iterative solution of the eigenvalue problem:
     a serial algorithm will be used

     Using Slab Decomposition

     bravais-lattice index     =            0
     lattice parameter (alat)  =      17.5217  a.u.
     unit-cell volume          =    3684.3374 (a.u.)^3
     number of atoms/cell      =           16
     number of atomic types    =            3
     number of electrons       =       168.00
     number of Kohn-Sham states=          101
     kinetic-energy cutoff     =      30.0000  Ry
     charge density cutoff     =     240.0000  Ry
     scf convergence threshold =      1.0E-06
     mixing beta               =       0.7000
     number of iterations used =            8  plain     mixing
     Exchange-correlation= SLA  PW   PBX  PBC
                           (   1   4   3   4   0   0   0)

     celldm(1)=  17.521689  celldm(2)=   0.000000  celldm(3)=   0.000000
     celldm(4)=   0.000000  celldm(5)=   0.000000  celldm(6)=   0.000000

     crystal axes: (cart. coord. in units of alat)
               a(1) = (   1.000000   0.000000   0.000000 )
               a(2) = (   0.058575   0.998283   0.000000 )
               a(3) = (  -0.529288  -0.499141   0.686085 )

     reciprocal axes: (cart. coord. in units 2 pi/alat)
               b(1) = (  1.000000 -0.058676  0.728773 )
               b(2) = (  0.000000  1.001720  0.728773 )
               b(3) = (  0.000000  0.000000  1.457546 )

     PseudoPot. # 1 for Tl read from file:
     /home/pragov/projects/rrg-bengioy-ad/pragov/crystal_structure_design/SSSP/Tl_pbe_v1.2.uspp.F.UPF
     MD5 check sum: b76cf1f7e72655a2b2c53cf6385d7059
     Pseudo is Ultrasoft + core correction, Zval = 13.0
     Generated by new atomic code, or converted to UPF format
     Using radial grid of  899 points,  6 beta functions with:
                l(1) =   0
                l(2) =   0
                l(3) =   1
                l(4) =   1
                l(5) =   2
                l(6) =   2
     Q(r) pseudized with  6 coefficients,  rinner =    1.100   1.100   1.100
                                                       1.100   1.100

     PseudoPot. # 2 for Te read from file:
     /home/pragov/projects/rrg-bengioy-ad/pragov/crystal_structure_design/SSSP/Te_pbe_v1.uspp.F.UPF
     MD5 check sum: c319670d6894cc26e93307826a071b75
     Pseudo is Ultrasoft + core correction, Zval =  6.0
     Generated by new atomic code, or converted to UPF format
     Using radial grid of  891 points,  5 beta functions with:
                l(1) =   0
                l(2) =   0
                l(3) =   1
                l(4) =   1
                l(5) =   2
     Q(r) pseudized with  6 coefficients,  rinner =    1.800   1.800   1.800
                                                       1.800   1.800

     PseudoPot. # 3 for Pb read from file:
     /home/pragov/projects/rrg-bengioy-ad/pragov/crystal_structure_design/SSSP/Pb.pbe-dn-kjpaw_psl.0.2.2.UPF
     MD5 check sum: 9d431e6316058b74ade52399a6cf67da
     Pseudo is Projector augmented-wave + core cor, Zval = 14.0
     Generated using "atomic" code by A. Dal Corso  v.5.0.99 svn rev. 10869
     Shape of augmentation charge: PSQ
     Using radial grid of 1281 points,  6 beta functions with:
                l(1) =   0
                l(2) =   0
                l(3) =   1
                l(4) =   1
                l(5) =   2
                l(6) =   2
     Q(r) pseudized with 0 coefficients

     atomic species   valence    mass     pseudopotential
        Tl            13.00   204.38000     Tl( 1.00)
        Te             6.00   127.60000     Te( 1.00)
        Pb            14.00   207.20000     Pb( 1.00)

      4 Sym. Ops., with inversion, found ( 2 have fractional translation)

                                    s                        frac. trans.

      isym =  1     identity

 cryst.   s( 1) = (     1          0          0      )
                  (     0          1          0      )
                  (     0          0          1      )

 cart.    s( 1) = (  1.0000000  0.0000000 -0.0000000 )
                  (  0.0000000  1.0000000  0.0000000 )
                  (  0.0000000  0.0000000  1.0000000 )

      isym =  2     180 deg rotation - cart. axis [0,0,1]

 cryst.   s( 2) = (    -1          0          0      )    f =( -0.4999990 )
                  (     0         -1          0      )       ( -0.4999990 )
                  (     1          1          1      )       (  0.0000000 )

 cart.    s( 2) = ( -1.0000000 -0.0000000  0.0000000 )    f =( -0.5292866 )
                  (  0.0000000 -1.0000000  0.0000000 )       ( -0.4991405 )
                  (  0.0000000  0.0000000  1.0000000 )       (  0.0000000 )

      isym =  3     inversion

 cryst.   s( 3) = (    -1          0          0      )
                  (     0         -1          0      )
                  (     0          0         -1      )

 cart.    s( 3) = ( -1.0000000 -0.0000000  0.0000000 )
                  (  0.0000000 -1.0000000 -0.0000000 )
                  (  0.0000000  0.0000000 -1.0000000 )

      isym =  4     inv. 180 deg rotation - cart. axis [0,0,1]

 cryst.   s( 4) = (     1          0          0      )    f =( -0.4999990 )
                  (     0          1          0      )       ( -0.4999990 )
                  (    -1         -1         -1      )       (  0.0000000 )

 cart.    s( 4) = (  1.0000000  0.0000000 -0.0000000 )    f =( -0.5292866 )
                  (  0.0000000  1.0000000 -0.0000000 )       ( -0.4991405 )
                  (  0.0000000  0.0000000 -1.0000000 )       (  0.0000000 )

   Cartesian axes

     site n.     atom                  positions (alat units)
         1           Tl  tau(   1) = (  -0.0685480   0.4068782   0.1415983  )
         2           Tl  tau(   2) = (   0.5978346   0.0922623   0.1415983  )
         3           Tl  tau(   3) = (  -0.0685470   0.4068792   0.5444865  )
         4           Tl  tau(   4) = (   0.5403731  -0.2388182   0.3430424  )
         5           Tl  tau(   5) = (   0.2639567   0.0542926   0.3430424  )
         6           Tl  tau(   6) = (  -0.0110855   0.7379597   0.3430424  )
         7           Tl  tau(   7) = (   0.2653309   0.4448489   0.3430424  )
         8           Tl  tau(   8) = (   0.5978356   0.0922633   0.5444865  )
         9           Te  tau(   9) = (  -0.0806660   0.0855379   0.3430424  )
        10           Te  tau(  10) = (   0.2353557  -0.2495712   0.5685112  )
        11           Te  tau(  11) = (   0.7939314   0.7487122   0.0000000  )
        12           Te  tau(  12) = (   0.2646438   0.2495707   0.0000000  )
        13           Te  tau(  13) = (   0.2939319   0.7487127   0.1175737  )
        14           Te  tau(  14) = (   0.6099536   0.4136036   0.3430424  )
        15           Pb  tau(  15) = (   0.0000000   0.0000000   0.0000000  )
        16           Pb  tau(  16) = (   0.5292876   0.4991415   0.0000000  )

   Crystallographic axes

     site n.     atom                  positions (cryst. coord.)
         1           Tl  tau(   1) = (  0.0107710  0.5107710  0.2063860  )
         2           Tl  tau(   2) = (  0.6956140  0.1956140  0.2063860  )
         3           Tl  tau(   3) = (  0.3043860  0.8043860  0.7936140  )
         4           Tl  tau(   4) = (  0.8043860  0.0107710  0.5000000  )
         5           Tl  tau(   5) = (  0.5107710  0.3043860  0.5000000  )
         6           Tl  tau(   6) = (  0.1956140  0.9892290  0.5000000  )
         7           Tl  tau(   7) = (  0.4892290  0.6956140  0.5000000  )
         8           Tl  tau(   8) = (  0.9892290  0.4892290  0.7936140  )
         9           Te  tau(   9) = (  0.1643150  0.3356850  0.5000000  )
        10           Te  tau(  10) = (  0.6643150  0.1643150  0.8286310  )
        11           Te  tau(  11) = (  0.7500000  0.7500000  0.0000000  )
        12           Te  tau(  12) = (  0.2500000  0.2500000  0.0000000  )
        13           Te  tau(  13) = (  0.3356850  0.8356850  0.1713690  )
        14           Te  tau(  14) = (  0.8356850  0.6643150  0.5000000  )
        15           Pb  tau(  15) = (  0.0000000  0.0000000  0.0000000  )
        16           Pb  tau(  16) = (  0.5000000  0.5000000  0.0000000  )

     number of k points=     1  Methfessel-Paxton smearing, width (Ry)=  0.0010
                       cart. coord. in units 2pi/alat
        k(    1) = (   0.0000000   0.0000000   0.0000000), wk =   2.0000000

                       cryst. coord.
        k(    1) = (   0.0000000   0.0000000   0.0000000), wk =   2.0000000

     Check: negative core charge=   -0.000003

     Initial potential from superposition of free atoms

     starting charge     167.9551, renormalised to     168.0000

     negative rho (up, down):  4.011E-01 0.000E+00
     Starting wfcs are  114 randomized atomic wfcs
     Checking if some PAW data can be deallocated...

     Self-consistent Calculation

     iteration #  1     ecut=    30.00 Ry     beta= 0.70
     Davidson diagonalization with overlap

     ethr =  1.00E-02,  avg # of iterations =  7.0

     Threshold (ethr) on eigenvalues was too large:
     Diagonalizing with lowered threshold

     Davidson diagonalization with overlap

[...]

     negative rho (up, down):  2.999E-01 0.000E+00

     total energy              =   -3062.52277869 Ry
     estimated scf accuracy    <       0.46416112 Ry

[...]

     c_bands:  1 eigenvalues not converged
     ethr =  4.73E-06,  avg # of iterations = 20.0

[...]

     total energy              =   -3062.67419888 Ry
     estimated scf accuracy    <       0.00000525 Ry

     iteration # 17     ecut=    30.00 Ry     beta= 0.70
     Davidson diagonalization with overlap

     ethr =  8.96E-10,  avg # of iterations =  2.0

[...]

     End of self-consistent calculation

          k = 0.0000 0.0000 0.0000 (  5098 PWs)   bands (ev):

    -9.3382  -9.2855  -9.2706  -9.1852  -9.0739  -9.0258  -8.9197  -8.7315
    -8.5151  -8.0450  -7.2307  -4.1664  -3.7023  -3.6823  -3.5826  -3.2451
    -3.1000  -3.0520  -3.0126  -3.0067  -2.9972  -2.9906  -2.9562  -2.9416
    -2.9399  -2.9249  -2.9041  -2.8859  -2.8817  -2.8770  -2.8656  -2.8430
    -2.8384  -2.8261  -2.8210  -2.8108  -2.7879  -2.7851  -2.7698  -2.7553
    -2.7458  -2.7385  -2.7332  -2.7260  -2.7021  -2.7004  -2.6806  -2.6717
    -2.6695  -2.6531  -2.6211  -2.4910  -2.4626  -2.3753  -2.3335  -2.2456
    -1.6344  -0.9718   0.0665   0.6803   0.8188   1.2947   1.5526   1.7085
     1.7984   1.9704   2.7729   2.9238   3.2276   4.1790   5.0128   5.0300
     5.0818   5.1826   5.3189   5.4316   5.7357   5.9025   5.9468   6.0092
     6.2628   6.2996   6.4090   6.5198   6.5243   7.0870   8.3648   8.4325
     8.5305   8.6088   9.3456   9.3968   9.4533   9.4742   9.7460   9.8158
     9.8762  10.0813  10.1292  10.3164  10.6383

     occupation numbers
     1.0000   1.0000   1.0000   1.0000   1.0000   1.0000   1.0000   1.0000
     1.0000   1.0000   1.0000   1.0000   1.0000   1.0000   1.0000   1.0000
     1.0000   1.0000   1.0000   1.0000   1.0000   1.0000   1.0000   1.0000
     1.0000   1.0000   1.0000   1.0000   1.0000   1.0000   1.0000   1.0000
     1.0000   1.0000   1.0000   1.0000   1.0000   1.0000   1.0000   1.0000
     1.0000   1.0000   1.0000   1.0000   1.0000   1.0000   1.0000   1.0000
     1.0000   1.0000   1.0000   1.0000   1.0000   1.0000   1.0000   1.0000
     1.0000   1.0000   1.0000   1.0000   1.0000   1.0000   1.0000   1.0000
     1.0000   1.0000   1.0000   1.0000   1.0000   1.0000   1.0000   1.0000
     1.0000   1.0000   1.0000   1.0000   1.0000   1.0000   1.0000   1.0000
     1.0000   1.0000   1.0000   0.6392   0.3608  -0.0000  -0.0000  -0.0000
    -0.0000  -0.0000  -0.0000  -0.0000  -0.0000  -0.0000  -0.0000  -0.0000
    -0.0000  -0.0000  -0.0000  -0.0000  -0.0000

     the Fermi energy is     6.5220 ev

!    total energy              =   -3062.67419896 Ry
     estimated scf accuracy    <       0.00000021 Ry
     smearing contrib. (-TS)   =      -0.00051804 Ry
     internal energy E=F+TS    =   -3062.67368092 Ry

     The total energy is F=E-TS. E is the sum of the following terms:
     one-electron contribution =    -346.58255721 Ry
     hartree contribution      =     294.20093844 Ry
     xc contribution           =    -673.85297078 Ry
     ewald contribution        =    -879.87514936 Ry
     one-center paw contrib.   =   -1456.56394201 Ry
      -> PAW hartree energy AE =     194.75102698 Ry
      -> PAW hartree energy PS =    -194.04689722 Ry
      -> PAW xc energy AE      =   -1544.10808023 Ry
      -> PAW xc energy PS      =      86.84000845 Ry
      -> total E_H with PAW    =     294.90506820 Ry
      -> total E_XC with PAW   =   -2131.12104255 Ry

     convergence has been achieved in  17 iterations

     negative rho (up, down):  3.769E-01 0.000E+00

     Forces acting on atoms (cartesian axes, Ry/au):

     atom    1 type  1   force =     0.01356283   -0.06055395   -0.10271508
     atom    2 type  1   force =    -0.01356283    0.06055395   -0.10271508
     atom    3 type  1   force =     0.01356283   -0.06055395    0.10271508
     atom    4 type  1   force =    -0.06611925   -0.20017369    0.00000000
     atom    5 type  1   force =     0.06998136    0.11942914   -0.00000000
     atom    6 type  1   force =     0.06611925    0.20017369   -0.00000000
     atom    7 type  1   force =    -0.06998136   -0.11942914    0.00000000
     atom    8 type  1   force =    -0.01356283    0.06055395    0.10271508
     atom    9 type  2   force =    -0.15436411    0.48221170   -0.00000000
     atom   10 type  2   force =     0.00000000    0.00000000   -0.41228339
     atom   11 type  2   force =     0.00000000    0.00000000    0.04913819
     atom   12 type  2   force =     0.00000000    0.00000000   -0.04913819
     atom   13 type  2   force =     0.00000000    0.00000000    0.41228339
     atom   14 type  2   force =     0.15436411   -0.48221170    0.00000000
     atom   15 type  3   force =     0.00000000    0.00000000    0.00000000
     atom   16 type  3   force =     0.00000000    0.00000000   -0.00000000
     The non-local contrib.  to forces
     atom    1 type  1   force =    -0.03141530   -0.06672940   -0.00506932
     atom    2 type  1   force =     0.03141530    0.06672940   -0.00506932
     atom    3 type  1   force =    -0.03141530   -0.06672940    0.00506932
     atom    4 type  1   force =    -0.05288495   -0.04384955    0.00000000
     atom    5 type  1   force =    -0.01509906   -0.06533357    0.00000000
     atom    6 type  1   force =     0.05288495    0.04384955   -0.00000000
     atom    7 type  1   force =     0.01509906    0.06533357   -0.00000000
     atom    8 type  1   force =     0.03141530    0.06672940    0.00506932
     atom    9 type  2   force =    -0.07362901    0.44578698   -0.00000000
     atom   10 type  2   force =     0.00000000    0.00000000   -0.32401335
     atom   11 type  2   force =     0.00000000    0.00000000    0.03581599
     atom   12 type  2   force =     0.00000000    0.00000000   -0.03581599
     atom   13 type  2   force =     0.00000000    0.00000000    0.32401335
     atom   14 type  2   force =     0.07362901   -0.44578698    0.00000000
     atom   15 type  3   force =     0.00000000    0.00000000    0.00000000
     atom   16 type  3   force =     0.00000000    0.00000000    0.00000000
     The ionic contribution  to forces
     atom    1 type  1   force =    -0.57702137   -0.54415653   -0.90264249
     atom    2 type  1   force =     0.57709472    0.54422571   -0.90258677
     atom    3 type  1   force =    -0.57709472   -0.54422571    0.90258677
     atom    4 type  1   force =     0.04209327   -1.20083270    0.00004202
     atom    5 type  1   force =    -1.19630525    0.11236003    0.00004202
     atom    6 type  1   force =    -0.04209327    1.20083270   -0.00004202
     atom    7 type  1   force =     1.19630525   -0.11236003   -0.00004202
     atom    8 type  1   force =     0.57702137    0.54415653    0.90264249
     atom    9 type  2   force =    -0.55750026    0.59117101    0.00000000
     atom   10 type  2   force =     0.00001866    0.00001760   -0.81262782
     atom   11 type  2   force =     0.00001881   -0.00001995   -0.00000000
     atom   12 type  2   force =    -0.00001881    0.00001995   -0.00000000
     atom   13 type  2   force =    -0.00001866   -0.00001760    0.81262782
     atom   14 type  2   force =     0.55750026   -0.59117101    0.00000000
     atom   15 type  3   force =    -0.00000000   -0.00000000   -0.00000000
     atom   16 type  3   force =     0.00000000   -0.00000000   -0.00000000
     The local contribution  to forces
     atom    1 type  1   force =     0.61070158    0.58951620    0.84325846
     atom    2 type  1   force =    -0.64015358   -0.57558980    0.84274516
     atom    3 type  1   force =     0.64005032    0.57578827   -0.84284472
     atom    4 type  1   force =    -0.02623382    1.14476821   -0.00741218
     atom    5 type  1   force =     1.25850068    0.03587056    0.00811506
     atom    6 type  1   force =     0.02628594   -1.14489788    0.00769768
     atom    7 type  1   force =    -1.25833086   -0.03582573   -0.00786712
     atom    8 type  1   force =    -0.61088123   -0.58942321   -0.84336008
     atom    9 type  2   force =     0.47037185   -0.55126387   -0.02908190
     atom   10 type  2   force =    -0.03809893   -0.11120728    0.71745357
     atom   11 type  2   force =    -0.00480396   -0.02662940    0.01573658
     atom   12 type  2   force =     0.00481208    0.02662168   -0.01578741
     atom   13 type  2   force =     0.03811077    0.11117036   -0.71746841
     atom   14 type  2   force =    -0.47038428    0.55127216    0.02908109
     atom   15 type  3   force =     0.00002606   -0.00005575   -0.00036582
     atom   16 type  3   force =     0.00010725   -0.00017211   -0.00015591
     The core correction contribution to forces
     atom    1 type  1   force =    -0.01466969   -0.03687977   -0.03674507
     atom    2 type  1   force =    -0.00789873    0.02700765   -0.03936793
     atom    3 type  1   force =     0.00789426   -0.02700329    0.03936616
     atom    4 type  1   force =    -0.02878594   -0.09990573   -0.00471357
     atom    5 type  1   force =     0.02352809    0.03631865    0.00305921
     atom    6 type  1   force =     0.02878875    0.09990805    0.00471864
     atom    7 type  1   force =    -0.02353010   -0.03631726   -0.00304989
     atom    8 type  1   force =     0.01467298    0.03687836    0.03674312
     atom    9 type  2   force =     0.00623877   -0.00345044    0.00250382
     atom   10 type  2   force =     0.00380104    0.00983627    0.00690848
     atom   11 type  2   force =     0.00049070    0.00247112   -0.00234370
     atom   12 type  2   force =    -0.00048968   -0.00247164    0.00234363
     atom   13 type  2   force =    -0.00380481   -0.00983339   -0.00690771
     atom   14 type  2   force =    -0.00623892    0.00344993   -0.00249844
     atom   15 type  3   force =     0.00000187   -0.00000323   -0.00000988
     atom   16 type  3   force =     0.00000181   -0.00000408   -0.00001340
     The Hubbard contrib.    to forces
     atom    1 type  1   force =     0.00000000    0.00000000    0.00000000
     atom    2 type  1   force =     0.00000000    0.00000000    0.00000000
     atom    3 type  1   force =     0.00000000    0.00000000    0.00000000
     atom    4 type  1   force =     0.00000000    0.00000000    0.00000000
     atom    5 type  1   force =     0.00000000    0.00000000    0.00000000
     atom    6 type  1   force =     0.00000000    0.00000000    0.00000000
     atom    7 type  1   force =     0.00000000    0.00000000    0.00000000
     atom    8 type  1   force =     0.00000000    0.00000000    0.00000000
     atom    9 type  2   force =     0.00000000    0.00000000    0.00000000
     atom   10 type  2   force =     0.00000000    0.00000000    0.00000000
     atom   11 type  2   force =     0.00000000    0.00000000    0.00000000
     atom   12 type  2   force =     0.00000000    0.00000000    0.00000000
     atom   13 type  2   force =     0.00000000    0.00000000    0.00000000
     atom   14 type  2   force =     0.00000000    0.00000000    0.00000000
     atom   15 type  3   force =     0.00000000    0.00000000    0.00000000
     atom   16 type  3   force =     0.00000000    0.00000000    0.00000000
     The SCF correction term to forces
     atom    1 type  1   force =     0.00006268   -0.00047962    0.00008947
     atom    2 type  1   force =     0.00005888    0.00004101   -0.00005134
     atom    3 type  1   force =     0.00004490   -0.00022613    0.00014863
     atom    4 type  1   force =    -0.00029189   -0.00031801   -0.00011862
     atom    5 type  1   force =    -0.00065482    0.00021853   -0.00026285
     atom    6 type  1   force =     0.00026881    0.00051717   -0.00012126
     atom    7 type  1   force =     0.00046357   -0.00025462    0.00002142
     atom    8 type  1   force =     0.00014105    0.00033536    0.00000018
     atom    9 type  2   force =     0.00016020   -0.00003321   -0.00010925
     atom   10 type  2   force =     0.00004623   -0.00007552   -0.00000882
     atom   11 type  2   force =     0.00002183    0.00008602   -0.00006883
     atom   12 type  2   force =    -0.00004401   -0.00007676    0.00012341
     atom   13 type  2   force =    -0.00002441    0.00008980    0.00001380
     atom   14 type  2   force =    -0.00013632    0.00002296    0.00005463
     atom   15 type  3   force =    -0.00000827    0.00005236    0.00032034
     atom   16 type  3   force =    -0.00009894    0.00014284    0.00003410

     Total force =     1.020934     Total SCF correction =     0.001445

     Computing stress (Cartesian axis) and pressure

     negative rho (up, down):  3.769E-01 0.000E+00
          total   stress  (Ry/bohr**3)                   (kbar)     P=      153.12
  -0.00137889  -0.00002642   0.00000000         -202.84       -3.89        0.00
  -0.00002642   0.00340483  -0.00000000           -3.89      500.87       -0.00
   0.00000000  -0.00000000   0.00109675            0.00       -0.00      161.34

     kinetic stress (kbar)   5645.69     28.98     -0.00
                               28.98   6233.79     -0.00
                               -0.00     -0.00   5914.66

     local   stress (kbar)   3945.42   -140.17     13.66
                             -140.17   4109.48     13.31
                               13.66     13.31   4153.20

     nonloc. stress (kbar)   1791.75    -28.37     -0.00
                              -28.37   1759.56     -0.00
                               -0.00     -0.00   1819.16

     hartree stress (kbar)   3933.23     57.43     -0.99
                               57.43   3933.04      0.05
                               -0.99      0.05   3880.34

     exc-cor stress (kbar)  16547.13     -0.55      0.00
                               -0.55  16547.13      0.07
                                0.00      0.07  16548.09

     corecor stress (kbar) -20385.64      2.67      0.53
                                2.67 -20392.78     -0.65
                                0.53     -0.65 -20392.97

     ewald   stress (kbar) -11680.41     76.13      0.00
                               76.13 -11689.35      0.00
                                0.00      0.00 -11761.14

     hubbard stress (kbar)      0.00      0.00      0.00
                                0.00      0.00      0.00
                                0.00      0.00      0.00

     DFT-D   stress (kbar)      0.00      0.00      0.00
                                0.00      0.00      0.00
                                0.00      0.00      0.00

     XDM     stress (kbar)      0.00      0.00      0.00
                                0.00      0.00      0.00
                                0.00      0.00      0.00

     dft-nl  stress (kbar)      0.00      0.00      0.00
                                0.00      0.00      0.00
                                0.00      0.00      0.00

     TS-vdW  stress (kbar)      0.00      0.00      0.00
                                0.00      0.00      0.00
                                0.00      0.00      0.00

[...]

                                0.00      0.00      0.00

     Writing all to output data dir new_calculations/myprefix.save/

     General routines

     Parallel routines

     PAW routines

   This run was terminated on:  20:49:51  20May2023

   JOB DONE.