     Program PWSCF v.7.0 starts on 21May2023 at  1:27:52

     Reading input from espresso_18738.pwi
Warning: card &CELL ignored
Warning: card / ignored

     Current dimensions of program PWSCF are:
     Max number of different atomic species (ntypx) = 10
     Max number of k-points (npk) =  40000
     Max angular momentum in pseudopotentials (lmaxx) =  4
     file O.pbe-n-kjpaw_psl.0.1.UPF: wavefunction(s)  2P renormalized

     gamma-point specific algorithms are used
     Message from routine setup:
     using ibrav=0 with symmetry is DISCOURAGED, use correct ibrav instead

     Subspace diagonalization in iterative solution of the eigenvalue problem:
     a serial algorithm will be used

     Using Slab Decomposition

     bravais-lattice index     =            0
     lattice parameter (alat)  =       8.7988  a.u.
     unit-cell volume          =    1303.2942 (a.u.)^3
     number of atoms/cell      =           18
     number of atomic types    =            3
     number of electrons       =       152.00
     number of Kohn-Sham states=           91
     kinetic-energy cutoff     =      30.0000  Ry
     charge density cutoff     =     240.0000  Ry
     scf convergence threshold =      1.0E-06
     mixing beta               =       0.7000
     number of iterations used =            8  plain     mixing
     Exchange-correlation=  SLA  PW   PBX  PBC
                           (   1   4   3   4   0   0   0)

     celldm(1)=   8.798845  celldm(2)=   0.000000  celldm(3)=   0.000000
     celldm(4)=   0.000000  celldm(5)=   0.000000  celldm(6)=   0.000000

     crystal axes: (cart. coord. in units of alat)
               a(1) = (   1.000000   0.000000   0.000000 )
               a(2) = (   0.023767   1.193036   0.000000 )
               a(3) = (   0.020384   0.153768   1.603659 )

     reciprocal axes: (cart. coord. in units 2 pi/alat)
               b(1) = (  1.000000 -0.019921 -0.010801 )
               b(2) = (  0.000000  0.838198 -0.080371 )
               b(3) = (  0.000000  0.000000  0.623574 )

     PseudoPot. # 1 for V  read from file:
     /home/pragov/projects/rrg-bengioy-ad/pragov/crystal_structure_design/SSSP/v_pbe_v1.4.uspp.F.UPF
     MD5 check sum: 22b79981416ebb76fdaf5b1b8640f6fb
     Pseudo is Ultrasoft + core correction, Zval = 13.0
     Generated by new atomic code, or converted to UPF format
     Using radial grid of  853 points,  6 beta functions with:
                l(1) =   0
                l(2) =   0
                l(3) =   1
                l(4) =   1
                l(5) =   2
                l(6) =   2
     Q(r) pseudized with  8 coefficients,  rinner =    1.100   1.100   1.100
                                                       1.100   1.100

     PseudoPot. # 2 for O  read from file:
     /home/pragov/projects/rrg-bengioy-ad/pragov/crystal_structure_design/SSSP/O.pbe-n-kjpaw_psl.0.1.UPF
     MD5 check sum: 0234752ac141de4415c5fc33072bef88
     Pseudo is Projector augmented-wave + core cor, Zval =  6.0
     Generated using "atomic" code by A. Dal Corso  v.5.0.99 svn rev. 10869
     Shape of augmentation charge: BESSEL
     Using radial grid of 1095 points,  4 beta functions with:
                l(1) =   0
                l(2) =   0
                l(3) =   1
                l(4) =   1
     Q(r) pseudized with 0 coefficients

     PseudoPot. # 3 for F  read from file:
     /home/pragov/projects/rrg-bengioy-ad/pragov/crystal_structure_design/SSSP/f_pbe_v1.4.uspp.F.UPF
     MD5 check sum: 4c38b6a325caf53ec0e86aed9459de46
     Pseudo is Ultrasoft, Zval =  7.0
     Generated by new atomic code, or converted to UPF format
     Using radial grid of  799 points,  4 beta functions with:
                l(1) =   0
                l(2) =   0
                l(3) =   1
                l(4) =   1
     Q(r) pseudized with  8 coefficients,  rinner =    0.950   0.950   0.950

     atomic species   valence    mass     pseudopotential
        V             13.00    50.94150     V ( 1.00)
        O              6.00    15.99900     O ( 1.00)
        F              7.00    18.99840     F ( 1.00)

      2 Sym. Ops., with inversion, found

                                    s                        frac. trans.

      isym =  1     identity

 cryst.   s( 1) = (     1          0          0      )
                  (     0          1          0      )
                  (     0          0          1      )

 cart.    s( 1) = (  1.0000000 -0.0000000  0.0000000 )
                  (  0.0000000  1.0000000  0.0000000 )
                  (  0.0000000  0.0000000  1.0000000 )

      isym =  2     inversion

 cryst.   s( 2) = (    -1          0          0      )
                  (     0         -1          0      )
                  (     0          0         -1      )

 cart.    s( 2) = ( -1.0000000  0.0000000 -0.0000000 )
                  (  0.0000000 -1.0000000 -0.0000000 )
                  (  0.0000000  0.0000000 -1.0000000 )

   Cartesian axes

     site n.     atom                  positions (alat units)
         1           V   tau(   1) = (   0.5418939   0.8614353   0.5461516  )
         2           V   tau(   2) = (   0.5022572   0.4853692   1.0575070  )
         3           V   tau(   3) = (   0.5000000   0.0000000   0.0000000  )
         4           V   tau(   4) = (   0.9938913   0.2258760   0.5393553  )
         5           V   tau(   5) = (   0.0118834   0.5965181   0.0000000  )
         6           V   tau(   6) = (   0.0502598   1.1209285   1.0643033  )
         7           O   tau(   7) = (   0.8052589   0.2467167   0.1624875  )
         8           O   tau(   8) = (   0.8259174   1.0946514   0.7023913  )
         9           O   tau(   9) = (   0.7138951   0.1660501   1.2222236  )
        10           O   tau(  10) = (   0.7158592   0.5045191   0.7018380  )
        11           O   tau(  11) = (   0.7102039   0.8462533   0.1740098  )
        12           O   tau(  12) = (   0.3302560   1.1807544   0.3814350  )
        13           O   tau(  13) = (   0.3339471   0.5005512   1.4296489  )
        14           O   tau(  14) = (   0.3282919   0.8422854   0.9018206  )
        15           O   tau(  15) = (   0.2388922   1.1000878   1.4411711  )
        16           O   tau(  16) = (   0.2182337   0.2521531   0.9012674  )
        17           F   tau(  17) = (   0.8253415   0.7598893   1.2192071  )
        18           F   tau(  18) = (   0.2188096   0.5869152   0.3844515  )

   Crystallographic axes

     site n.     atom                  positions (cryst. coord.)
         1           V   tau(   1) = (  0.5188340  0.6781580  0.3405660  )
         2           V   tau(   2) = (  0.4811660  0.3218420  0.6594340  )
         3           V   tau(   3) = (  0.5000000  0.0000000  0.0000000  )
         4           V   tau(   4) = (  0.9835660  0.1459800  0.3363280  )
         5           V   tau(   5) = ( -0.0000000  0.5000000  0.0000000  )
         6           V   tau(   6) = (  0.0164340  0.8540200  0.6636720  )
         7           O   tau(   7) = (  0.7985890  0.1937380  0.1013230  )
         8           O   tau(   8) = (  0.7965240  0.8610820  0.4379930  )
         9           O   tau(   9) = (  0.6973860  0.0409510  0.7621470  )
        10           O   tau(  10) = (  0.6982280  0.3664790  0.4376480  )
        11           O   tau(  11) = (  0.6914660  0.6953420  0.1085080  )
        12           O   tau(  12) = (  0.3026140  0.9590490  0.2378530  )
        13           O   tau(  13) = (  0.3085340  0.3046580  0.8914920  )
        14           O   tau(  14) = (  0.3017720  0.6335210  0.5623520  )
        15           O   tau(  15) = (  0.2014110  0.8062620  0.8986770  )
        16           O   tau(  16) = (  0.2034760  0.1389180  0.5620070  )
        17           F   tau(  17) = (  0.7970350  0.5389480  0.7602660  )
        18           F   tau(  18) = (  0.2029650  0.4610520  0.2397340  )

     number of k points=     1  Methfessel-Paxton smearing, width (Ry)=  0.0010
                       cart. coord. in units 2pi/alat
        k(    1) = (   0.0000000   0.0000000   0.0000000), wk =   2.0000000

                       cryst. coord.
        k(    1) = (   0.0000000   0.0000000   0.0000000), wk =   2.0000000

     Check: negative core charge=   -0.000017

     Initial potential from superposition of free atoms

     starting charge     151.9926, renormalised to     152.0000

     negative rho (up, down):  4.918E-03 0.000E+00
     Starting wfcs are  108 randomized atomic wfcs
     Checking if some PAW data can be deallocated...

     Self-consistent Calculation

     iteration #  1     ecut=    30.00 Ry     beta= 0.70
     Davidson diagonalization with overlap

     ethr =  1.00E-02,  avg # of iterations =  2.0

     negative rho (up, down):  1.004E-02 0.000E+00

     total energy              =   -1380.59496063 Ry
     estimated scf accuracy    <       7.02147529 Ry

[...]

     WARNING: integrated charge=   151.99923646, expected=   152.00000000

[...]

     WARNING: integrated charge=   152.00002510, expected=   152.00000000

[...]

     total energy              =   -1384.86955188 Ry
     estimated scf accuracy    <       0.00003315 Ry

     iteration # 52     ecut=    30.00 Ry     beta= 0.70
     Davidson diagonalization with overlap

     ethr =  3.77E-09,  avg # of iterations =  1.0

[...]

     End of self-consistent calculation

          k = 0.0000 0.0000 0.0000 (  1809 PWs)   bands (ev):

   -55.8082 -55.7783 -55.7604 -55.7593 -55.7459 -55.7413 -29.9535 -29.8543
   -29.8099 -29.8001 -29.7255 -29.6968 -29.6506 -29.6418 -29.6141 -29.5713
   -29.5657 -29.5179 -29.3998 -29.3976 -29.3631 -29.3090 -29.2997 -29.2539
   -15.0024 -14.8711  -9.7496  -9.1022  -9.0822  -8.6867  -8.6438  -8.5466
    -8.5411  -8.3383  -8.2927  -8.1453   1.8861   2.4464   2.8020   2.9167
     2.9610   3.1088   3.5591   3.5695   3.8996   4.0758   4.0802   4.2372
     4.3361   4.4063   4.4947   4.6758   4.6782   4.7863   4.8213   4.8892
     5.2496   5.3575   5.5723   5.8913   6.1280   6.1649   6.1767   6.4609
     6.6900   6.7968   6.9629   7.3237   7.4457   7.4930   7.8211   8.1118
     9.3694   9.6694   9.7592   9.8589   9.8717   9.9030  10.0308  10.1220
    10.1360  10.1871  10.6553  10.6631  10.8413  10.8944  11.1395  11.2355
    11.3061  11.4861  11.6188

     occupation numbers
     1.0000   1.0000   1.0000   1.0000   1.0000   1.0000   1.0000   1.0000
     1.0000   1.0000   1.0000   1.0000   1.0000   1.0000   1.0000   1.0000
     1.0000   1.0000   1.0000   1.0000   1.0000   1.0000   1.0000   1.0000
     1.0000   1.0000   1.0000   1.0000   1.0000   1.0000   1.0000   1.0000
     1.0000   1.0000   1.0000   1.0000   1.0000   1.0000   1.0000   1.0000
     1.0000   1.0000   1.0000   1.0000   1.0000   1.0000   1.0000   1.0000
     1.0000   1.0000   1.0000   1.0000   1.0000   1.0000   1.0000   1.0000
     1.0000   1.0000   1.0000   1.0000   1.0000   1.0000   1.0000   1.0000
     1.0000   1.0000   1.0000   1.0000   1.0000   1.0000   1.0000   1.0000
     1.0000   1.0000   1.0000   0.8536   0.1467  -0.0003  -0.0000  -0.0000
    -0.0000  -0.0000  -0.0000  -0.0000  -0.0000  -0.0000  -0.0000  -0.0000
    -0.0000  -0.0000  -0.0000

     the Fermi energy is     9.8653 ev

!    total energy              =   -1384.86955223 Ry
     estimated scf accuracy    <       0.00000019 Ry
     smearing contrib. (-TS)   =      -0.00025014 Ry
     internal energy E=F+TS    =   -1384.86930209 Ry

     The total energy is F=E-TS. E is the sum of the following terms:
     one-electron contribution =    -533.69849561 Ry
     hartree contribution      =     337.98824401 Ry
     xc contribution           =    -209.65630555 Ry
     ewald contribution        =    -884.28856802 Ry
     one-center paw contrib.   =     -95.21417691 Ry
      -> PAW hartree energy AE =     295.16619035 Ry
      -> PAW hartree energy PS =    -294.11413746 Ry
      -> PAW xc energy AE      =    -171.51968372 Ry
      -> PAW xc energy PS      =      75.25345391 Ry
      -> total E_H with PAW    =     339.04029690 Ry
      -> total E_XC with PAW   =    -305.92253535 Ry

     convergence has been achieved in  52 iterations

     negative rho (up, down):  7.289E-03 0.000E+00

     Forces acting on atoms (cartesian axes, Ry/au):

     atom    1 type  1   force =     0.01628421    0.00487057    0.01725816
     atom    2 type  1   force =    -0.01628421   -0.00487057   -0.01725816
     atom    3 type  1   force =     0.00000000    0.00000000    0.00000000
     atom    4 type  1   force =    -0.00947790   -0.00868283   -0.01835414
     atom    5 type  1   force =     0.00000000    0.00000000    0.00000000
     atom    6 type  1   force =     0.00947790    0.00868283    0.01835414
     atom    7 type  2   force =     0.02839953    0.01787688    0.02706324
     atom    8 type  2   force =     0.02419489    0.02799472    0.00309649
     atom    9 type  2   force =     0.01341923   -0.01346065    0.02694902
     atom   10 type  2   force =     0.00462966    0.00718706    0.01399330
     atom   11 type  2   force =     0.02182241   -0.02990833   -0.01252430
     atom   12 type  2   force =    -0.01341923    0.01346065   -0.02694902
     atom   13 type  2   force =    -0.02182241    0.02990833    0.01252430
     atom   14 type  2   force =    -0.00462966   -0.00718706   -0.01399330
     atom   15 type  2   force =    -0.02839953   -0.01787688   -0.02706324
     atom   16 type  2   force =    -0.02419489   -0.02799472   -0.00309649
     atom   17 type  3   force =     0.01489724    0.00063591    0.02671746
     atom   18 type  3   force =    -0.01489724   -0.00063591   -0.02671746
     The non-local contrib.  to forces
     atom    1 type  1   force =    -0.03588836   -0.04473077   -0.03666781
     atom    2 type  1   force =     0.03588836    0.04473077    0.03666781
     atom    3 type  1   force =     0.00000000    0.00000000    0.00000000
     atom    4 type  1   force =     0.02622034    0.03345657    0.00842448
     atom    5 type  1   force =     0.00000000    0.00000000    0.00000000
     atom    6 type  1   force =    -0.02622034   -0.03345657   -0.00842448
     atom    7 type  2   force =     0.13093548    0.09196666    0.09527400
     atom    8 type  2   force =     0.09587524    0.14956303   -0.07425609
     atom    9 type  2   force =    -0.09194647    0.07768266    0.04138319
     atom   10 type  2   force =    -0.13233508    0.04794754    0.06551164
     atom   11 type  2   force =    -0.05468498    0.10565662    0.06170423
     atom   12 type  2   force =     0.09194647   -0.07768266   -0.04138319
     atom   13 type  2   force =     0.05468498   -0.10565662   -0.06170423
     atom   14 type  2   force =     0.13233508   -0.04794754   -0.06551164
     atom   15 type  2   force =    -0.13093548   -0.09196666   -0.09527400
     atom   16 type  2   force =    -0.09587524   -0.14956303    0.07425609
     atom   17 type  3   force =     0.23521104    0.08764702    0.27079588
     atom   18 type  3   force =    -0.23521104   -0.08764702   -0.27079588
     The ionic contribution  to forces
     atom    1 type  1   force =    -0.37617051   -1.35513265   -1.27835644
     atom    2 type  1   force =     0.37617051    1.35513265    1.27835644
     atom    3 type  1   force =    -0.00000000    0.00000000   -0.00000000
     atom    4 type  1   force =    -0.21444042    1.31403041   -3.14412403
     atom    5 type  1   force =     0.00000000   -0.00000000    0.00000000
     atom    6 type  1   force =     0.21444042   -1.31403041    3.14412403
     atom    7 type  2   force =    -1.19361665   -0.49697005   -1.94851398
     atom    8 type  2   force =    -1.04695531   -1.69861936    0.18452630
     atom    9 type  2   force =     1.93856860   -1.78729170    0.52788373
     atom   10 type  2   force =     2.30982765   -0.93787034   -1.79645106
     atom   11 type  2   force =     1.75090143   -2.01388825   -2.68800408
     atom   12 type  2   force =    -1.93856860    1.78729170   -0.52788372
     atom   13 type  2   force =    -1.75090143    2.01388825    2.68800408
     atom   14 type  2   force =    -2.30982765    0.93787034    1.79645106
     atom   15 type  2   force =     1.19361665    0.49697005    1.94851398
     atom   16 type  2   force =     1.04695531    1.69861936   -0.18452630
     atom   17 type  3   force =    -2.01173054   -1.11108944   -0.65140908
     atom   18 type  3   force =     2.01173054    1.11108944    0.65140908
     The local contribution  to forces
     atom    1 type  1   force =     0.43123219    1.40739942    1.33333570
     atom    2 type  1   force =    -0.43124227   -1.40747767   -1.33355973
     atom    3 type  1   force =    -0.00003052    0.00004935    0.00016125
     atom    4 type  1   force =     0.17467977   -1.36134869    3.11791549
     atom    5 type  1   force =     0.00001576   -0.00009545    0.00023646
     atom    6 type  1   force =    -0.17461688    1.36160396   -3.11817152
     atom    7 type  2   force =     1.09260392    0.42411730    1.88125327
     atom    8 type  2   force =     0.97635589    1.57868916   -0.10795617
     atom    9 type  2   force =    -1.83381669    1.69677517   -0.54223141
     atom   10 type  2   force =    -2.17369750    0.89735560    1.74512733
     atom   11 type  2   force =    -1.67439776    1.87898060    2.61392723
     atom   12 type  2   force =     1.83363185   -1.69653540    0.54228762
     atom   13 type  2   force =     1.67442183   -1.87898694   -2.61383017
     atom   14 type  2   force =     2.17384014   -0.89760309   -1.74532218
     atom   15 type  2   force =    -1.09247880   -0.42409961   -1.88089605
     atom   16 type  2   force =    -0.97632869   -1.57840703    0.10750952
     atom   17 type  3   force =     1.79141033    1.02391968    0.40730555
     atom   18 type  3   force =    -1.79156959   -1.02423423   -0.40719417
     The core correction contribution to forces
     atom    1 type  1   force =    -0.00290012   -0.00277191   -0.00087500
     atom    2 type  1   force =     0.00290025    0.00277090    0.00087507
     atom    3 type  1   force =    -0.00000043   -0.00000008   -0.00000058
     atom    4 type  1   force =     0.00409205    0.00533551   -0.00045547
     atom    5 type  1   force =     0.00000002   -0.00000018    0.00000032
     atom    6 type  1   force =    -0.00409124   -0.00533358    0.00045522
     atom    7 type  2   force =    -0.00127965   -0.00104897   -0.00059754
     atom    8 type  2   force =    -0.00101859   -0.00148584    0.00061875
     atom    9 type  2   force =     0.00064951   -0.00050363   -0.00037616
     atom   10 type  2   force =     0.00093416   -0.00037199   -0.00024681
     atom   11 type  2   force =     0.00015482   -0.00090614    0.00006791
     atom   12 type  2   force =    -0.00064929    0.00050346    0.00037585
     atom   13 type  2   force =    -0.00015475    0.00090613   -0.00006779
     atom   14 type  2   force =    -0.00093435    0.00037240    0.00024672
     atom   15 type  2   force =     0.00127960    0.00104922    0.00059726
     atom   16 type  2   force =     0.00101862    0.00148538   -0.00061812
     atom   17 type  3   force =     0.00000000    0.00000000    0.00000000
     atom   18 type  3   force =     0.00000000    0.00000000    0.00000000
     The Hubbard contrib.    to forces
     atom    1 type  1   force =     0.00000000    0.00000000    0.00000000
     atom    2 type  1   force =     0.00000000    0.00000000    0.00000000
     atom    3 type  1   force =     0.00000000    0.00000000    0.00000000
     atom    4 type  1   force =     0.00000000    0.00000000    0.00000000
     atom    5 type  1   force =     0.00000000    0.00000000    0.00000000
     atom    6 type  1   force =     0.00000000    0.00000000    0.00000000
     atom    7 type  2   force =     0.00000000    0.00000000    0.00000000
     atom    8 type  2   force =     0.00000000    0.00000000    0.00000000
     atom    9 type  2   force =     0.00000000    0.00000000    0.00000000
     atom   10 type  2   force =     0.00000000    0.00000000    0.00000000
     atom   11 type  2   force =     0.00000000    0.00000000    0.00000000
     atom   12 type  2   force =     0.00000000    0.00000000    0.00000000
     atom   13 type  2   force =     0.00000000    0.00000000    0.00000000
     atom   14 type  2   force =     0.00000000    0.00000000    0.00000000
     atom   15 type  2   force =     0.00000000    0.00000000    0.00000000
     atom   16 type  2   force =     0.00000000    0.00000000    0.00000000
     atom   17 type  3   force =     0.00000000    0.00000000    0.00000000
     atom   18 type  3   force =     0.00000000    0.00000000    0.00000000
     The SCF correction term to forces
     atom    1 type  1   force =     0.00001187    0.00010863   -0.00017667
     atom    2 type  1   force =    -0.00000022   -0.00002508    0.00040386
     atom    3 type  1   force =     0.00002986   -0.00004824   -0.00015989
     atom    4 type  1   force =    -0.00002641   -0.00014879   -0.00012087
     atom    5 type  1   force =    -0.00001523    0.00008831   -0.00022393
     atom    6 type  1   force =    -0.00003083   -0.00009274    0.00036463
     atom    7 type  2   force =    -0.00024526   -0.00018223   -0.00035636
     atom    8 type  2   force =    -0.00006312   -0.00016409    0.00017437
     atom    9 type  2   force =    -0.00003186   -0.00012602    0.00028500
     atom   10 type  2   force =    -0.00010317    0.00013652    0.00004996
     atom   11 type  2   force =    -0.00014904    0.00024735   -0.00021422
     atom   12 type  2   force =     0.00022421   -0.00011933   -0.00035023
     atom   13 type  2   force =     0.00012903   -0.00024398    0.00012775
     atom   14 type  2   force =    -0.00004648    0.00013109    0.00014049
     atom   15 type  2   force =     0.00011679    0.00017595   -0.00000827
     atom   16 type  2   force =     0.00003432   -0.00014124    0.00029299
     atom   17 type  3   force =     0.00000695    0.00016228    0.00002303
     atom   18 type  3   force =     0.00015338    0.00015952   -0.00013856

     Total force =     0.127642     Total SCF correction =     0.001257

     Computing stress (Cartesian axis) and pressure

     negative rho (up, down):  7.289E-03 0.000E+00
          total   stress  (Ry/bohr**3)                   (kbar)     P=     -547.83
  -0.00362774   0.00006369   0.00007469         -533.66        9.37       10.99
   0.00006369  -0.00324362   0.00051566            9.37     -477.15       75.86
   0.00007469   0.00051566  -0.00430095           10.99       75.86     -632.69

     kinetic stress (kbar)  32186.96    -86.71    -69.56
                              -86.71  32165.28    204.45
                              -69.56    204.45  31471.77

     local   stress (kbar)    709.22   -721.07   -192.21
                             -721.07  -5432.32  10170.59
                             -192.21  10170.59 -15252.02

     nonloc. stress (kbar)   2093.64    -16.88     -1.83
                              -16.88   2150.73    -31.99
                               -1.83    -31.99   2108.95

     hartree stress (kbar)   9872.46    292.13     98.80
                              292.13  12263.79  -3927.30
                               98.80  -3927.30  16013.07

     exc-cor stress (kbar)  -5166.87     -2.07     -2.15
                               -2.07  -5164.65     -5.32
                               -2.15     -5.32  -5160.64

     corecor stress (kbar)  -2231.39      0.31      0.07
                                0.31  -2233.39      1.00
                                0.07      1.00  -2226.90

     ewald   stress (kbar) -37997.68    543.65    177.87
                              543.65 -34226.58  -6335.58
                              177.87  -6335.58 -27586.92

     hubbard stress (kbar)      0.00      0.00      0.00
                                0.00      0.00      0.00
                                0.00      0.00      0.00

     DFT-D   stress (kbar)      0.00      0.00      0.00
                                0.00      0.00      0.00
                                0.00      0.00      0.00

     XDM     stress (kbar)      0.00      0.00      0.00
                                0.00      0.00      0.00
                                0.00      0.00      0.00

     dft-nl  stress (kbar)      0.00      0.00      0.00
                                0.00      0.00      0.00
                                0.00      0.00      0.00

     TS-vdW  stress (kbar)      0.00      0.00      0.00
                                0.00      0.00      0.00
                                0.00      0.00      0.00

[...]

                                0.00      0.00      0.00

     Writing all to output data dir new_calculations/myprefix.save/

     General routines

     Parallel routines

     PAW routines

   This run was terminated on:   1:28:46  21May2023

   JOB DONE.