     Program PWSCF v.7.0 starts on 20May2023 at  9:32:55

     Reading input from espresso_17227.pwi
Warning: card &CELL ignored
Warning: card / ignored

     Current dimensions of program PWSCF are:
     Max number of different atomic species (ntypx) = 10
     Max number of k-points (npk) =  40000
     Max angular momentum in pseudopotentials (lmaxx) =  4
     file K.pbe-spn-kjpaw_psl.1.0.0.UPF: wavefunction(s)  3S renormalized

     gamma-point specific algorithms are used
     Message from routine setup:
     using ibrav=0 with symmetry is DISCOURAGED, use correct ibrav instead

     Subspace diagonalization in iterative solution of the eigenvalue problem:
     a serial algorithm will be used

     Using Slab Decomposition

     bravais-lattice index     =            0
     lattice parameter (alat)  =      18.0394  a.u.
     unit-cell volume          =    3278.2279 (a.u.)^3
     number of atoms/cell      =           18
     number of atomic types    =            3
     number of electrons       =       204.00
     number of Kohn-Sham states=          122
     kinetic-energy cutoff     =      30.0000  Ry
     charge density cutoff     =     240.0000  Ry
     scf convergence threshold =      1.0E-06
     mixing beta               =       0.7000
     number of iterations used =            8  plain     mixing
     Exchange-correlation= SLA  PW   PBE  PBE
                           (   1   4   3   4   0   0   0)

     celldm(1)=  18.039444  celldm(2)=   0.000000  celldm(3)=   0.000000
     celldm(4)=   0.000000  celldm(5)=   0.000000  celldm(6)=   0.000000

     crystal axes: (cart. coord. in units of alat)
               a(1) = (   1.000000   0.000000   0.000000 )
               a(2) = (   0.071409   0.997447   0.000000 )
               a(3) = (  -0.271054  -0.782998   0.559860 )

     reciprocal axes: (cart. coord. in units 2 pi/alat)
               b(1) = (  1.000000 -0.071592  0.384021 )
               b(2) = (  0.000000  1.002559  1.402139 )
               b(3) = (  0.000000  0.000000  1.786159 )

     PseudoPot. # 1 for K  read from file:
     /home/pragov/projects/rrg-bengioy-ad/pragov/crystal_structure_design/SSSP/K.pbe-spn-kjpaw_psl.1.0.0.UPF
     MD5 check sum: 7d58810084cac21f60fbe77ea2b688fd
     Pseudo is Projector augmented-wave + core cor, Zval =  9.0
     Generated using "atomic" code by A. Dal Corso  v.5.1
     Shape of augmentation charge: PSQ
     Using radial grid of 1165 points,  6 beta functions with:
                l(1) =   0
                l(2) =   0
                l(3) =   1
                l(4) =   1
                l(5) =   2
                l(6) =   2
     Q(r) pseudized with 0 coefficients

     PseudoPot. # 2 for Zn read from file:
     /home/pragov/projects/rrg-bengioy-ad/pragov/crystal_structure_design/SSSP/Zn_pbe_v1.uspp.F.UPF
     MD5 check sum: df62231357ef9e81f77b2b3087fa5675
     Pseudo is Ultrasoft, Zval = 20.0
     Generated by new atomic code, or converted to UPF format
     Using radial grid of  943 points,  6 beta functions with:
                l(1) =   0
                l(2) =   0
                l(3) =   1
                l(4) =   1
                l(5) =   2
                l(6) =   2
     Q(r) pseudized with  8 coefficients,  rinner =    1.100   1.100   1.100
                                                       1.100   1.100

     PseudoPot. # 3 for Se read from file:
     /home/pragov/projects/rrg-bengioy-ad/pragov/crystal_structure_design/SSSP/Se_pbe_v1.uspp.F.UPF
     MD5 check sum: 1b3568f3a8ae88f9a2a0ad0698632c85
     Pseudo is Ultrasoft + core correction, Zval =  6.0
     Generated by new atomic code, or converted to UPF format
     Using radial grid of  877 points,  6 beta functions with:
                l(1) =   0
                l(2) =   0
                l(3) =   1
                l(4) =   1
                l(5) =   2
                l(6) =   2
     Q(r) pseudized with  8 coefficients,  rinner =    1.300   1.300   1.300
                                                       1.300   1.300

     atomic species   valence    mass     pseudopotential
        K              9.00    39.09830     K ( 1.00)
        Zn            20.00    65.38000     Zn( 1.00)
        Se             6.00    78.97100     Se( 1.00)

      2 Sym. Ops., with inversion, found

                                    s                        frac. trans.

      isym =  1     identity

 cryst.   s( 1) = (     1          0          0      )
                  (     0          1          0      )
                  (     0          0          1      )

 cart.    s( 1) = (  1.0000000  0.0000000 -0.0000000 )
                  (  0.0000000  1.0000000  0.0000000 )
                  (  0.0000000  0.0000000  1.0000000 )

      isym =  2     inversion

 cryst.   s( 2) = (    -1          0          0      )
                  (     0         -1          0      )
                  (     0          0         -1      )

 cart.    s( 2) = ( -1.0000000 -0.0000000  0.0000000 )
                  (  0.0000000 -1.0000000 -0.0000000 )
                  (  0.0000000  0.0000000 -1.0000000 )

   Cartesian axes

     site n.     atom                  positions (alat units)
         1           K   tau(   1) = (   0.5780477   0.4532394   0.1998394  )
         2           K   tau(   2) = (   0.2223072  -0.2387904   0.3600211  )
         3           K   tau(   3) = (  -0.0636273   0.0683453   0.4970105  )
         4           K   tau(   4) = (   0.8639821   0.1461037   0.0628499  )
         5           Zn  tau(   5) = (   0.6323252  -0.1421373   0.2799302  )
         6           Zn  tau(   6) = (   0.1680296   0.3565863   0.2799302  )
         7           Zn  tau(   7) = (   0.9675447   0.5719374   0.1259496  )
         8           Zn  tau(   8) = (   0.3685146   0.1412352   0.4339109  )
         9           Zn  tau(   9) = (  -0.1671898  -0.3574884   0.4339109  )
        10           Zn  tau(  10) = (   0.4318403   0.0732138   0.1259496  )
        11           Se  tau(  11) = (  -0.0852350   0.4030268   0.3313920  )
        12           Se  tau(  12) = (   0.1962663   0.1006519   0.2284684  )
        13           Se  tau(  13) = (   0.2291266   0.5165629   0.0808758  )
        14           Se  tau(  14) = (   0.2605519  -0.5913436   0.4789847  )
        15           Se  tau(  15) = (   0.8855899  -0.1885778   0.2284684  )
        16           Se  tau(  16) = (   0.6040886   0.1137971   0.3313920  )
        17           Se  tau(  17) = (   0.5712283  -0.3021138   0.4789847  )
        18           Se  tau(  18) = (   0.5398030   0.8057926   0.0808758  )

   Crystallographic axes

     site n.     atom                  positions (cryst. coord.)
         1           K   tau(   1) = (  0.6223420  0.7346020  0.3569450  )
         2           K   tau(   2) = (  0.3776580  0.2653980  0.6430550  )
         3           K   tau(   3) = (  0.1223420  0.7653980  0.8877400  )
         4           K   tau(   4) = (  0.8776580  0.2346020  0.1122600  )
         5           Zn  tau(   5) = (  0.7500000  0.2500000  0.5000000  )
         6           Zn  tau(   6) = (  0.2500000  0.7500000  0.5000000  )
         7           Zn  tau(   7) = (  0.9749660  0.7500000  0.2249660  )
         8           Zn  tau(   8) = (  0.5250340  0.7500000  0.7750340  )
         9           Zn  tau(   9) = (  0.0250340  0.2500000  0.7750340  )
        10           Zn  tau(  10) = (  0.4749660  0.2500000  0.2249660  )
        11           Se  tau(  11) = (  0.0131730  0.8687160  0.5919190  )
        12           Se  tau(  12) = (  0.2767970  0.4212540  0.4080810  )
        13           Se  tau(  13) = (  0.2232030  0.6312840  0.1444570  )
        14           Se  tau(  14) = (  0.4868270  0.0787460  0.8555430  )
        15           Se  tau(  15) = (  0.9868270  0.1312840  0.4080810  )
        16           Se  tau(  16) = (  0.7232030  0.5787460  0.5919190  )
        17           Se  tau(  17) = (  0.7767970  0.3687160  0.8555430  )
        18           Se  tau(  18) = (  0.5131730  0.9212540  0.1444570  )

     number of k points=     1  Methfessel-Paxton smearing, width (Ry)=  0.0010
                       cart. coord. in units 2pi/alat
        k(    1) = (   0.0000000   0.0000000   0.0000000), wk =   2.0000000

                       cryst. coord.
        k(    1) = (   0.0000000   0.0000000   0.0000000), wk =   2.0000000

     Check: negative core charge=   -0.000002

     Initial potential from superposition of free atoms

     starting charge     203.9233, renormalised to     204.0000
     Starting wfcs are  142 randomized atomic wfcs
     Checking if some PAW data can be deallocated...

     Self-consistent Calculation

     iteration #  1     ecut=    30.00 Ry     beta= 0.70
     Davidson diagonalization with overlap

     ethr =  1.00E-02,  avg # of iterations =  5.0

     Threshold (ethr) on eigenvalues was too large:
     Diagonalizing with lowered threshold

     Davidson diagonalization with overlap

[...]

     total energy              =   -3569.25367676 Ry
     estimated scf accuracy    <       1.38433191 Ry

[...]

     total energy              =   -3570.01498057 Ry
     estimated scf accuracy    <       0.00002142 Ry

     iteration #  8     ecut=    30.00 Ry     beta= 0.70
     Davidson diagonalization with overlap

     ethr =  1.05E-08,  avg # of iterations =  2.0

     End of self-consistent calculation

          k = 0.0000 0.0000 0.0000 (  4527 PWs)   bands (ev):

  -120.8153-120.6903-120.4854-120.2295-120.1469-120.0512 -74.9173 -74.9127
   -74.9031 -74.7951 -74.7931 -74.7910 -74.7651 -74.6904 -74.6621 -74.6566
   -74.6322 -74.5443 -74.4805 -74.2204 -74.0078 -73.9267 -73.7593 -73.4733
   -25.7156 -25.5009 -25.1442 -25.0518  -8.8063  -8.7855  -8.7280  -8.6974
    -8.5964  -8.4974  -8.4866  -8.4464  -8.4344  -8.4207  -8.4137  -8.3612
    -7.3909  -7.1363  -6.9615  -6.7779  -6.6524  -6.5586  -6.5583  -6.5231
    -1.8698  -1.7802  -1.7759  -1.7724  -1.7343  -1.7102  -1.6371  -1.6306
    -1.5871  -1.5686  -1.5524  -1.5415  -1.5314  -1.5121  -1.5091  -1.4719
    -1.4589  -1.4332  -1.4023  -1.3675  -1.3013  -1.2840  -1.2573  -1.2466
    -1.1595  -1.1167  -1.0883  -1.0391  -0.9924  -0.5395   0.7323   0.7372
     1.0854   1.1227   1.4359   1.7668   2.1176   2.5980   2.6541   2.6544
     2.8423   2.9248   2.9866   3.1618   3.2358   3.7511   3.8340   3.9041
     4.0460   4.1325   4.1716   4.5855   4.8535   4.9125   6.6645   7.9368
     7.9759   8.4021   8.6036   8.8948   8.9018   8.9254   9.3191   9.4068
     9.4654   9.4722   9.9168  10.0788  10.1957  10.4133  10.8061  10.9309
    11.0149  11.4636

     occupation numbers
     1.0000   1.0000   1.0000   1.0000   1.0000   1.0000   1.0000   1.0000
     1.0000   1.0000   1.0000   1.0000   1.0000   1.0000   1.0000   1.0000
     1.0000   1.0000   1.0000   1.0000   1.0000   1.0000   1.0000   1.0000
     1.0000   1.0000   1.0000   1.0000   1.0000   1.0000   1.0000   1.0000
     1.0000   1.0000   1.0000   1.0000   1.0000   1.0000   1.0000   1.0000
     1.0000   1.0000   1.0000   1.0000   1.0000   1.0000   1.0000   1.0000
     1.0000   1.0000   1.0000   1.0000   1.0000   1.0000   1.0000   1.0000
     1.0000   1.0000   1.0000   1.0000   1.0000   1.0000   1.0000   1.0000
     1.0000   1.0000   1.0000   1.0000   1.0000   1.0000   1.0000   1.0000
     1.0000   1.0000   1.0000   1.0000   1.0000   1.0000   1.0000   1.0000
     1.0000   1.0000   1.0000   1.0000   1.0000   1.0000   1.0000   1.0000
     1.0000   1.0000   1.0000   1.0000   1.0000   1.0000   1.0000   1.0000
     1.0000   1.0000   1.0000   1.0000   1.0000   1.0000  -0.0000  -0.0000
    -0.0000  -0.0000  -0.0000  -0.0000  -0.0000  -0.0000  -0.0000  -0.0000
    -0.0000  -0.0000  -0.0000  -0.0000  -0.0000  -0.0000  -0.0000  -0.0000
    -0.0000  -0.0000

     the Fermi energy is     5.3864 ev

!    total energy              =   -3570.01498513 Ry
     estimated scf accuracy    <       0.00000074 Ry
     smearing contrib. (-TS)   =       0.00000000 Ry
     internal energy E=F+TS    =   -3570.01498513 Ry

     The total energy is F=E-TS. E is the sum of the following terms:
     one-electron contribution =   -3422.00263261 Ry
     hartree contribution      =    1758.80918284 Ry
     xc contribution           =    -536.50273917 Ry
     ewald contribution        =   -1148.71294051 Ry
     one-center paw contrib.   =    -221.60585567 Ry
      -> PAW hartree energy AE =     147.84470627 Ry
      -> PAW hartree energy PS =    -147.02959292 Ry
      -> PAW xc energy AE      =    -264.31309876 Ry
      -> PAW xc energy PS      =      41.89212973 Ry
      -> total E_H with PAW    =    1759.62429619 Ry
      -> total E_XC with PAW   =    -758.92370820 Ry

     convergence has been achieved in   8 iterations

     Forces acting on atoms (cartesian axes, Ry/au):

     atom    1 type  1   force =     0.02344874   -0.03831709    0.03101503
     atom    2 type  1   force =    -0.02344874    0.03831709   -0.03101503
     atom    3 type  1   force =     0.01835808   -0.03411088    0.04680608
     atom    4 type  1   force =    -0.01835808    0.03411088   -0.04680608
     atom    5 type  2   force =     0.00872941   -0.00147625   -0.01714883
     atom    6 type  2   force =    -0.00872941    0.00147625    0.01714883
     atom    7 type  2   force =    -0.00576319   -0.00383398    0.00913882
     atom    8 type  2   force =     0.00544966    0.01129431   -0.01542625
     atom    9 type  2   force =     0.00576319    0.00383398   -0.00913882
     atom   10 type  2   force =    -0.00544966   -0.01129431    0.01542625
     atom   11 type  3   force =     0.00557120    0.00098871   -0.00572407
     atom   12 type  3   force =     0.02042112    0.00482036    0.03033569
     atom   13 type  3   force =    -0.03307048    0.01221999    0.01702571
     atom   14 type  3   force =     0.00228541   -0.02333507   -0.01090880
     atom   15 type  3   force =    -0.00557120   -0.00098871    0.00572407
     atom   16 type  3   force =    -0.02042112   -0.00482036   -0.03033569
     atom   17 type  3   force =     0.03307048   -0.01221999   -0.01702571
     atom   18 type  3   force =    -0.00228541    0.02333507    0.01090880
     The non-local contrib.  to forces
     atom    1 type  1   force =     0.00182986   -0.01126628    0.01531937
     atom    2 type  1   force =    -0.00182986    0.01126628   -0.01531937
     atom    3 type  1   force =    -0.00722184   -0.01547320    0.01735987
     atom    4 type  1   force =     0.00722184    0.01547320   -0.01735987
     atom    5 type  2   force =     0.01082107    0.03444939    0.00439384
     atom    6 type  2   force =    -0.01082107   -0.03444939   -0.00439384
     atom    7 type  2   force =     0.12193709   -0.00117120    0.00512778
     atom    8 type  2   force =    -0.01976472    0.06688557    0.00958321
     atom    9 type  2   force =    -0.12193709    0.00117120   -0.00512778
     atom   10 type  2   force =     0.01976472   -0.06688557   -0.00958321
     atom   11 type  3   force =     0.15446610    0.13424810   -0.06808044
     atom   12 type  3   force =     0.17801658    0.10648271    0.02540312
     atom   13 type  3   force =    -0.18967905   -0.09992769    0.03100842
     atom   14 type  3   force =    -0.14367444   -0.14351727    0.04236884
     atom   15 type  3   force =    -0.15446610   -0.13424810    0.06808044
     atom   16 type  3   force =    -0.17801658   -0.10648271   -0.02540312
     atom   17 type  3   force =     0.18967905    0.09992769   -0.03100842
     atom   18 type  3   force =     0.14367444    0.14351727   -0.04236884
     The ionic contribution  to forces
     atom    1 type  1   force =    -0.70176832    0.75396755   -1.73057082
     atom    2 type  1   force =     0.70176833   -0.75396755    1.73057082
     atom    3 type  1   force =    -1.36891524    1.47041309    0.14012567
     atom    4 type  1   force =     1.36891524   -1.47041309   -0.14012567
     atom    5 type  2   force =     0.00000864   -0.00003600    0.00000145
     atom    6 type  2   force =    -0.00000864    0.00003599   -0.00000144
     atom    7 type  2   force =    -7.52980887    8.08813224   -5.78318569
     atom    8 type  2   force =     7.52979178   -8.08813813    5.78321238
     atom    9 type  2   force =     7.52980886   -8.08813224    5.78318569
     atom   10 type  2   force =    -7.52979178    8.08813814   -5.78321238
     atom   11 type  3   force =    -9.48790726  -11.62212696    3.84855708
     atom   12 type  3   force =   -12.26998969   -8.63375567   -3.84856406
     atom   13 type  3   force =    13.82650884    6.96183321   -0.51634720
     atom   14 type  3   force =     7.93138627   13.29408665    0.51634254
     atom   15 type  3   force =     9.48790726   11.62212696   -3.84855708
     atom   16 type  3   force =    12.26998969    8.63375567    3.84856406
     atom   17 type  3   force =   -13.82650884   -6.96183321    0.51634720
     atom   18 type  3   force =    -7.93138627  -13.29408665   -0.51634254
     The local contribution  to forces
     atom    1 type  1   force =     0.72040446   -0.77707820    1.74552772
     atom    2 type  1   force =    -0.72045863    0.77709462   -1.74548808
     atom    3 type  1   force =     1.39282798   -1.48776178   -0.11498072
     atom    4 type  1   force =    -1.39287183    1.48773258    0.11505870
     atom    5 type  2   force =    -0.00346749   -0.03727325   -0.02139388
     atom    6 type  2   force =     0.00350131    0.03727959    0.02141530
     atom    7 type  2   force =     7.40210559   -8.09128130    5.78758604
     atom    8 type  2   force =    -7.50509254    8.03232938   -5.80911965
     atom    9 type  2   force =    -7.40213521    8.09144245   -5.78763335
     atom   10 type  2   force =     7.50507514   -8.03241684    5.80915240
     atom   11 type  3   force =     9.35940069   11.50462404   -3.79540965
     atom   12 type  3   force =    12.13385250    8.54205929    3.84967482
     atom   13 type  3   force =   -13.69070930   -6.86365363    0.50601197
     atom   14 type  3   force =    -7.80472610  -13.18452960   -0.55950352
     atom   15 type  3   force =    -9.35941167  -11.50463416    3.79538178
     atom   16 type  3   force =   -12.13385582   -8.54207355   -3.84964178
     atom   17 type  3   force =    13.69072027    6.86370581   -0.50603813
     atom   18 type  3   force =     7.80473631   13.18451128    0.55949036
     The core correction contribution to forces
     atom    1 type  1   force =     0.00248752   -0.00339575    0.00046419
     atom    2 type  1   force =    -0.00248813    0.00339524   -0.00046347
     atom    3 type  1   force =     0.00186030   -0.00163303    0.00450688
     atom    4 type  1   force =    -0.00186103    0.00163374   -0.00450579
     atom    5 type  2   force =     0.00000000    0.00000000    0.00000000
     atom    6 type  2   force =     0.00000000    0.00000000    0.00000000
     atom    7 type  2   force =     0.00000000    0.00000000    0.00000000
     atom    8 type  2   force =     0.00000000    0.00000000    0.00000000
     atom    9 type  2   force =     0.00000000    0.00000000    0.00000000
     atom   10 type  2   force =     0.00000000    0.00000000    0.00000000
     atom   11 type  3   force =    -0.02019649   -0.01531100    0.00897906
     atom   12 type  3   force =    -0.02107506   -0.00978146    0.00405330
     atom   13 type  3   force =     0.02091952    0.01389492   -0.00346346
     atom   14 type  3   force =     0.01926101    0.01085988   -0.01038368
     atom   15 type  3   force =     0.02019499    0.01530913   -0.00897882
     atom   16 type  3   force =     0.02107386    0.00978271   -0.00405382
     atom   17 type  3   force =    -0.02092019   -0.01389511    0.00346190
     atom   18 type  3   force =    -0.01925934   -0.01085865    0.01038373
     The Hubbard contrib.    to forces
     atom    1 type  1   force =     0.00000000    0.00000000    0.00000000
     atom    2 type  1   force =     0.00000000    0.00000000    0.00000000
     atom    3 type  1   force =     0.00000000    0.00000000    0.00000000
     atom    4 type  1   force =     0.00000000    0.00000000    0.00000000
     atom    5 type  2   force =     0.00000000    0.00000000    0.00000000
     atom    6 type  2   force =     0.00000000    0.00000000    0.00000000
     atom    7 type  2   force =     0.00000000    0.00000000    0.00000000
     atom    8 type  2   force =     0.00000000    0.00000000    0.00000000
     atom    9 type  2   force =     0.00000000    0.00000000    0.00000000
     atom   10 type  2   force =     0.00000000    0.00000000    0.00000000
     atom   11 type  3   force =     0.00000000    0.00000000    0.00000000
     atom   12 type  3   force =     0.00000000    0.00000000    0.00000000
     atom   13 type  3   force =     0.00000000    0.00000000    0.00000000
     atom   14 type  3   force =     0.00000000    0.00000000    0.00000000
     atom   15 type  3   force =     0.00000000    0.00000000    0.00000000
     atom   16 type  3   force =     0.00000000    0.00000000    0.00000000
     atom   17 type  3   force =     0.00000000    0.00000000    0.00000000
     atom   18 type  3   force =     0.00000000    0.00000000    0.00000000
     The SCF correction term to forces
     atom    1 type  1   force =     0.00049318   -0.00055305    0.00027597
     atom    2 type  1   force =    -0.00044249    0.00051986   -0.00031354
     atom    3 type  1   force =    -0.00020257    0.00035439   -0.00020436
     atom    4 type  1   force =     0.00022825   -0.00030521    0.00012782
     atom    5 type  2   force =     0.00135910    0.00138730   -0.00014030
     atom    6 type  2   force =    -0.00140912   -0.00138626    0.00013876
     atom    7 type  2   force =     0.00003006    0.00047344   -0.00039419
     atom    8 type  2   force =     0.00052787    0.00024336    0.00088457
     atom    9 type  2   force =     0.00005371   -0.00066027    0.00043174
     atom   10 type  2   force =    -0.00048501   -0.00010417   -0.00094380
     atom   11 type  3   force =    -0.00019638   -0.00045091    0.00022532
     atom   12 type  3   force =    -0.00038562   -0.00017775   -0.00022841
     atom   13 type  3   force =    -0.00011149    0.00007290   -0.00018834
     atom   14 type  3   force =     0.00004210   -0.00023307    0.00026738
     atom   15 type  3   force =     0.00019978    0.00045205   -0.00020682
     atom   16 type  3   force =     0.00038533    0.00020428    0.00020206
     atom   17 type  3   force =     0.00009918   -0.00012545    0.00020742
     atom   18 type  3   force =    -0.00004712    0.00025347   -0.00025353

     Total force =     0.149649     Total SCF correction =     0.003737

     Computing stress (Cartesian axis) and pressure

          total   stress  (Ry/bohr**3)                   (kbar)     P=     -140.05
  -0.00094509  -0.00023105   0.00005098         -139.03      -33.99        7.50
  -0.00023105  -0.00094069  -0.00003465          -33.99     -138.38       -5.10
   0.00005098  -0.00003465  -0.00097043            7.50       -5.10     -142.76

     kinetic stress (kbar)  11589.78    -28.56    -22.38
                              -28.56  11592.05     15.03
                              -22.38     15.03  11620.25

     local   stress (kbar)  -6856.38  24475.25   1315.83
                            24475.25 -10366.71  -1417.81
                             1315.83  -1417.81 -35858.30

     nonloc. stress (kbar)   1830.32     13.57     50.93
                               13.57   1828.13    -31.20
                               50.93    -31.20   1779.24

     hartree stress (kbar)  21071.02 -11905.78   -600.81
                           -11905.78  22778.98    639.47
                             -600.81    639.47  35073.66

     exc-cor stress (kbar)   4530.14      0.27     -0.05
                                0.27   4530.08      0.20
                               -0.05      0.20   4530.69

     corecor stress (kbar)  -9516.02     -1.71     -2.08
                               -1.71  -9515.28      0.85
                               -2.08      0.85  -9515.24

     ewald   stress (kbar) -22787.90 -12587.03   -733.94
                           -12587.03 -20985.64    788.36
                             -733.94    788.36  -7773.06

     hubbard stress (kbar)      0.00      0.00      0.00
                                0.00      0.00      0.00
                                0.00      0.00      0.00

     DFT-D   stress (kbar)      0.00      0.00      0.00
                                0.00      0.00      0.00
                                0.00      0.00      0.00

     XDM     stress (kbar)      0.00      0.00      0.00
                                0.00      0.00      0.00
                                0.00      0.00      0.00

     dft-nl  stress (kbar)      0.00      0.00      0.00
                                0.00      0.00      0.00
                                0.00      0.00      0.00

     TS-vdW  stress (kbar)      0.00      0.00      0.00
                                0.00      0.00      0.00
                                0.00      0.00      0.00

[...]

                                0.00      0.00      0.00

     Writing all to output data dir new_calculations/myprefix.save/

     General routines

     Parallel routines

     PAW routines

   This run was terminated on:   9:33:31  20May2023

   JOB DONE.