     Program PWSCF v.7.0 starts on 21May2023 at 20:54:58

     Reading input from espresso_20890.pwi
Warning: card &CELL ignored
Warning: card / ignored

     Current dimensions of program PWSCF are:
     Max number of different atomic species (ntypx) = 10
     Max number of k-points (npk) =  40000
     Max angular momentum in pseudopotentials (lmaxx) =  4

     gamma-point specific algorithms are used
     Message from routine setup:
     using ibrav=0 with symmetry is DISCOURAGED, use correct ibrav instead

     Subspace diagonalization in iterative solution of the eigenvalue problem:
     a serial algorithm will be used

     Using Slab Decomposition

     bravais-lattice index     =            0
     lattice parameter (alat)  =      13.3857  a.u.
     unit-cell volume          =    4049.4381 (a.u.)^3
     number of atoms/cell      =           20
     number of atomic types    =            2
     number of electrons       =       160.00
     number of Kohn-Sham states=           96
     kinetic-energy cutoff     =      30.0000  Ry
     charge density cutoff     =     240.0000  Ry
     scf convergence threshold =      1.0E-06
     mixing beta               =       0.7000
     number of iterations used =            8  plain     mixing
     Exchange-correlation= SLA  PW   PBE  PBE
                           (   1   4   3   4   0   0   0)

     celldm(1)=  13.385707  celldm(2)=   0.000000  celldm(3)=   0.000000
     celldm(4)=   0.000000  celldm(5)=   0.000000  celldm(6)=   0.000000

     crystal axes: (cart. coord. in units of alat)
               a(1) = (   1.000000   0.000000   0.000000 )
               a(2) = (  -0.487892   0.873137   0.000000 )
               a(3) = (  -0.169820  -0.287958   1.933697 )

     reciprocal axes: (cart. coord. in units 2 pi/alat)
               b(1) = (  1.000000  0.558781  0.171033 )
               b(2) = (  0.000000  1.145296  0.170553 )
               b(3) = (  0.000000  0.000000  0.517144 )

     PseudoPot. # 1 for Sc read from file:
     /home/pragov/projects/rrg-bengioy-ad/pragov/crystal_structure_design/SSSP/Sc_ONCV_PBE-1.0.oncvpsp.upf
     MD5 check sum: e21af8023abb52e52cb7cd3133e4a229
     Pseudo is Norm-conserving, Zval = 11.0
     Generated using ONCVPSP code by D. R. Hamann
     Using radial grid of 1662 points,  6 beta functions with:
                l(1) =   0
                l(2) =   0
                l(3) =   1
                l(4) =   1
                l(5) =   2
                l(6) =   2

     PseudoPot. # 2 for Te read from file:
     /home/pragov/projects/rrg-bengioy-ad/pragov/crystal_structure_design/SSSP/Te_pbe_v1.uspp.F.UPF
     MD5 check sum: c319670d6894cc26e93307826a071b75
     Pseudo is Ultrasoft + core correction, Zval =  6.0
     Generated by new atomic code, or converted to UPF format
     Using radial grid of  891 points,  5 beta functions with:
                l(1) =   0
                l(2) =   0
                l(3) =   1
                l(4) =   1
                l(5) =   2
     Q(r) pseudized with  6 coefficients,  rinner =    1.800   1.800   1.800
                                                       1.800   1.800

     atomic species   valence    mass     pseudopotential
        Sc            11.00    44.95591     Sc( 1.00)
        Te             6.00   127.60000     Te( 1.00)

      2 Sym. Ops., with inversion, found

                                    s                        frac. trans.

      isym =  1     identity

 cryst.   s( 1) = (     1          0          0      )
                  (     0          1          0      )
                  (     0          0          1      )

 cart.    s( 1) = (  1.0000000 -0.0000000 -0.0000000 )
                  (  0.0000000  1.0000000 -0.0000000 )
                  (  0.0000000  0.0000000  1.0000000 )

      isym =  2     inversion

 cryst.   s( 2) = (    -1          0          0      )
                  (     0         -1          0      )
                  (     0          0         -1      )

 cart.    s( 2) = ( -1.0000000  0.0000000  0.0000000 )
                  (  0.0000000 -1.0000000  0.0000000 )
                  (  0.0000000  0.0000000 -1.0000000 )

   Cartesian axes

     site n.     atom                  positions (alat units)
         1           Sc  tau(   1) = (   0.0000000   0.0000000   0.0000000  )
         2           Sc  tau(   2) = (   0.3366576   0.0041933   1.9336082  )
         3           Sc  tau(   3) = (   0.0056302   0.5809852   0.0000890  )
         4           Sc  tau(   4) = (  -0.3248062   0.5826052   0.4762561  )
         5           Sc  tau(   5) = (  -0.3248080   0.5836112   0.9740245  )
         6           Sc  tau(   6) = (   0.6670958   0.0015674   0.9596726  )
         7           Sc  tau(   7) = (   0.6670939   0.0025734   1.4574411  )
         8           Sc  tau(   8) = (   0.1711439   0.2925893   0.9668486  )
         9           Te  tau(   9) = (   0.0025023   0.0012128   0.7231892  )
        10           Te  tau(  10) = (   0.0024436   0.0017282   1.6921069  )
        11           Te  tau(  11) = (   0.5043424   0.2957083   0.7226710  )
        12           Te  tau(  12) = (   0.5031825   0.2946617   1.6897710  )
        13           Te  tau(  13) = (   0.0075742   0.5815275   0.7233130  )
        14           Te  tau(  14) = (   0.0083716   0.5837863   1.6911652  )
        15           Te  tau(  15) = (   0.3339162   0.0013922   0.2425320  )
        16           Te  tau(  16) = (   0.3347136   0.0036510   1.2103842  )
        17           Te  tau(  17) = (  -0.1608947   0.2905168   0.2439262  )
        18           Te  tau(  18) = (  -0.1620546   0.2894703   1.2110262  )
        19           Te  tau(  19) = (   0.3398441   0.5834503   0.2415903  )
        20           Te  tau(  20) = (   0.3397855   0.5839657   1.2105080  )

   Crystallographic axes

     site n.     atom                  positions (cryst. coord.)
         1           Sc  tau(   1) = (  0.0000000  0.0000000  0.0000000  )
         2           Sc  tau(   2) = (  0.6697110  0.3345850  0.9999540  )
         3           Sc  tau(   3) = (  0.3302890  0.6654150  0.0000460  )
         4           Sc  tau(   4) = (  0.0821980  0.7484820  0.2462930  )
         5           Sc  tau(   5) = (  0.1678930  0.8345300  0.5037110  )
         6           Sc  tau(   6) = (  0.8321070  0.1654700  0.4962890  )
         7           Sc  tau(   7) = (  0.9178020  0.2515180  0.7537070  )
         8           Sc  tau(   8) = (  0.5000000  0.5000000  0.5000000  )
         9           Te  tau(   9) = (  0.1268690  0.1247310  0.3739930  )
        10           Te  tau(  10) = (  0.2928150  0.2905730  0.8750630  )
        11           Te  tau(  11) = (  0.7931790  0.4619270  0.3737250  )
        12           Te  tau(  12) = (  0.9568400  0.6256700  0.8738550  )
        13           Te  tau(  13) = (  0.4562310  0.7893840  0.3740570  )
        14           Te  tau(  14) = (  0.6238250  0.9570410  0.8745760  )
        15           Te  tau(  15) = (  0.3761750  0.0429590  0.1254240  )
        16           Te  tau(  16) = (  0.5437690  0.2106160  0.6259430  )
        17           Te  tau(  17) = (  0.0431600  0.3743300  0.1261450  )
        18           Te  tau(  18) = (  0.2068210  0.5380730  0.6262750  )
        19           Te  tau(  19) = (  0.7071850  0.7094270  0.1249370  )
        20           Te  tau(  20) = (  0.8731310  0.8752690  0.6260070  )

     number of k points=     1  Methfessel-Paxton smearing, width (Ry)=  0.0010
                       cart. coord. in units 2pi/alat
        k(    1) = (   0.0000000   0.0000000   0.0000000), wk =   2.0000000

                       cryst. coord.
        k(    1) = (   0.0000000   0.0000000   0.0000000), wk =   2.0000000

     Initial potential from superposition of free atoms

     starting charge     159.9763, renormalised to     160.0000
     Starting wfcs are  128 randomized atomic wfcs

     Self-consistent Calculation

     iteration #  1     ecut=    30.00 Ry     beta= 0.70
     Davidson diagonalization with overlap

     ethr =  1.00E-02,  avg # of iterations =  2.0

     Threshold (ethr) on eigenvalues was too large:
     Diagonalizing with lowered threshold

     Davidson diagonalization with overlap

[...]

     total energy              =   -1054.34503659 Ry
     estimated scf accuracy    <       0.53644754 Ry

[...]

     c_bands:  1 eigenvalues not converged
     ethr =  3.35E-04,  avg # of iterations = 20.0

[...]

     c_bands:  1 eigenvalues not converged
     ethr =  7.60E-07,  avg # of iterations = 20.0

[...]

     total energy              =   -1054.53519469 Ry
     estimated scf accuracy    <       0.00000108 Ry

     iteration # 18     ecut=    30.00 Ry     beta= 0.70
     Davidson diagonalization with overlap

     ethr =  6.78E-10,  avg # of iterations =  6.0

     End of self-consistent calculation

          k = 0.0000 0.0000 0.0000 (  5629 PWs)   bands (ev):

   -43.7305 -43.7283 -43.7007 -43.6667 -43.6653 -43.6162 -43.3890 -43.3870
   -22.3829 -22.3804 -22.3523 -22.3080 -22.3044 -22.2656 -22.2635 -22.2567
   -22.2545 -22.2401 -22.2235 -22.2204 -22.2150 -22.1948 -22.1843 -22.1687
   -22.1512 -22.1507 -22.0285 -22.0233 -21.9312 -21.9283 -21.9159 -21.9125
    -4.7519  -4.3204  -4.1289  -3.5774  -3.5188  -3.5090  -3.5035  -3.4954
    -3.2887  -3.2832  -3.2775  -3.2706   2.2256   2.8654   3.0415   3.0729
     3.1337   3.3984   3.4197   3.4648   3.5272   3.5392   3.5970   3.6708
     3.7009   3.9060   3.9550   3.9848   4.3968   4.4218   4.5343   4.5538
     4.5875   4.6081   4.7662   4.9708   5.1136   5.2300   5.2547   5.3131
     5.3472   5.4692   5.5275   6.4582   6.5374   6.9649   7.0616   7.1599
     7.4722   7.7649   7.8110   8.0429   8.0738   8.0974   8.1623   8.1772
     8.2149   8.2446   8.2821   8.3792   8.4062   8.4813   8.5479   8.6372

     occupation numbers
     1.0000   1.0000   1.0000   1.0000   1.0000   1.0000   1.0000   1.0000
     1.0000   1.0000   1.0000   1.0000   1.0000   1.0000   1.0000   1.0000
     1.0000   1.0000   1.0000   1.0000   1.0000   1.0000   1.0000   1.0000
     1.0000   1.0000   1.0000   1.0000   1.0000   1.0000   1.0000   1.0000
     1.0000   1.0000   1.0000   1.0000   1.0000   1.0000   1.0000   1.0000
     1.0000   1.0000   1.0000   1.0000   1.0000   1.0000   1.0000   1.0000
     1.0000   1.0000   1.0000   1.0000   1.0000   1.0000   1.0000   1.0000
     1.0000   1.0000   1.0000   1.0000   1.0000   1.0000   1.0000   1.0000
     1.0000   1.0000   1.0000   1.0000   1.0000   1.0000   1.0000   1.0000
     1.0000   1.0000   1.0000   1.0000   1.0000   1.0000   1.0000   1.0000
    -0.0000  -0.0000  -0.0000  -0.0000  -0.0000  -0.0000  -0.0000  -0.0000
    -0.0000  -0.0000  -0.0000  -0.0000  -0.0000  -0.0000  -0.0000  -0.0000

     the Fermi energy is     7.3339 ev

!    total energy              =   -1054.53519432 Ry
     estimated scf accuracy    <       0.00000089 Ry
     smearing contrib. (-TS)   =       0.00000000 Ry
     internal energy E=F+TS    =   -1054.53519432 Ry

     The total energy is F=E-TS. E is the sum of the following terms:
     one-electron contribution =    -432.16510817 Ry
     hartree contribution      =     254.53387565 Ry
     xc contribution           =    -269.06481188 Ry
     ewald contribution        =    -607.83914993 Ry

     convergence has been achieved in  18 iterations

     Forces acting on atoms (cartesian axes, Ry/au):

     atom    1 type  1   force =     0.00000000    0.00000000    0.00000000
     atom    2 type  1   force =     0.00423795    0.00205501    0.00080625
     atom    3 type  1   force =    -0.00423795   -0.00205501   -0.00080625
     atom    4 type  1   force =     0.00073215   -0.00125325   -0.00437086
     atom    5 type  1   force =    -0.00081144    0.00032569    0.00732950
     atom    6 type  1   force =     0.00081144   -0.00032569   -0.00732950
     atom    7 type  1   force =    -0.00073215    0.00125325    0.00437086
     atom    8 type  1   force =     0.00000000    0.00000000    0.00000000
     atom    9 type  2   force =     0.00282210    0.00368950   -0.00169070
     atom   10 type  2   force =    -0.00139492   -0.00096656   -0.00239386
     atom   11 type  2   force =    -0.00278746    0.00093861   -0.00201304
     atom   12 type  2   force =     0.00051887   -0.00008608   -0.00714986
     atom   13 type  2   force =     0.00102548   -0.00097007   -0.00287730
     atom   14 type  2   force =     0.00117936    0.00093795   -0.00257401
     atom   15 type  2   force =    -0.00117936   -0.00093795    0.00257401
     atom   16 type  2   force =    -0.00102548    0.00097007    0.00287730
     atom   17 type  2   force =    -0.00051887    0.00008608    0.00714986
     atom   18 type  2   force =     0.00278746   -0.00093861    0.00201304
     atom   19 type  2   force =     0.00139492    0.00096656    0.00239386
     atom   20 type  2   force =    -0.00282210   -0.00368950    0.00169070
     The non-local contrib.  to forces
     atom    1 type  1   force =     0.00000000    0.00000000    0.00000000
     atom    2 type  1   force =    -0.01754044   -0.00823370    0.00099624
     atom    3 type  1   force =     0.01754044    0.00823370   -0.00099624
     atom    4 type  1   force =    -0.00166078   -0.00020407   -0.02493157
     atom    5 type  1   force =     0.00066308    0.00014918   -0.01016141
     atom    6 type  1   force =    -0.00066308   -0.00014918    0.01016141
     atom    7 type  1   force =     0.00166078    0.00020407    0.02493157
     atom    8 type  1   force =     0.00000000    0.00000000    0.00000000
     atom    9 type  2   force =    -0.02422411    0.03155748    0.00003196
     atom   10 type  2   force =     0.00772807    0.00050879   -0.00094968
     atom   11 type  2   force =    -0.01879266   -0.03778273    0.00053461
     atom   12 type  2   force =    -0.00197745    0.00528450   -0.00324837
     atom   13 type  2   force =     0.03780038   -0.00387465    0.00109168
     atom   14 type  2   force =     0.00140500   -0.00450969   -0.00011700
     atom   15 type  2   force =    -0.00140500    0.00450969    0.00011700
     atom   16 type  2   force =    -0.03780038    0.00387465   -0.00109168
     atom   17 type  2   force =     0.00197745   -0.00528450    0.00324837
     atom   18 type  2   force =     0.01879266    0.03778273   -0.00053461
     atom   19 type  2   force =    -0.00772807   -0.00050879    0.00094968
     atom   20 type  2   force =     0.02422411   -0.03155748   -0.00003196
     The ionic contribution  to forces
     atom    1 type  1   force =    -0.00000000   -0.00000000   -0.00000000
     atom    2 type  1   force =    -1.41704370   -0.81714011    0.08913518
     atom    3 type  1   force =     1.41704370    0.81714011   -0.08913518
     atom    4 type  1   force =    -0.04056319    0.06197195    0.24809119
     atom    5 type  1   force =     0.05323731    0.00681016    2.61773321
     atom    6 type  1   force =    -0.05323731   -0.00681016   -2.61773321
     atom    7 type  1   force =     0.04056319   -0.06197195   -0.24809119
     atom    8 type  1   force =    -0.00000000   -0.00000000   -0.00000000
     atom    9 type  2   force =    -0.86067670    1.90719282   -3.81353171
     atom   10 type  2   force =     2.31671470   -0.02763982   -3.92798274
     atom   11 type  2   force =    -1.15114757   -1.71775211   -3.83207196
     atom   12 type  2   force =    -1.17941463    2.03720076   -4.22087698
     atom   13 type  2   force =     2.09704789   -0.04487963   -3.79877788
     atom   14 type  2   force =    -1.22796571   -2.08641202   -3.97227693
     atom   15 type  2   force =     1.22796571    2.08641202    3.97227693
     atom   16 type  2   force =    -2.09704789    0.04487963    3.79877788
     atom   17 type  2   force =     1.17941463   -2.03720076    4.22087698
     atom   18 type  2   force =     1.15114757    1.71775211    3.83207196
     atom   19 type  2   force =    -2.31671470    0.02763982    3.92798274
     atom   20 type  2   force =     0.86067670   -1.90719282    3.81353171
     The local contribution  to forces
     atom    1 type  1   force =    -0.00005332    0.00006064   -0.00096944
     atom    2 type  1   force =     1.43900024    0.82752006   -0.09031275
     atom    3 type  1   force =    -1.43895472   -0.82756612    0.08836502
     atom    4 type  1   force =     0.04307741   -0.06308340   -0.22714020
     atom    5 type  1   force =    -0.05472970   -0.00669067   -2.59933748
     atom    6 type  1   force =     0.05472483    0.00667739    2.60118481
     atom    7 type  1   force =    -0.04295313    0.06313080    0.22729654
     atom    8 type  1   force =     0.00000514    0.00001910    0.00084000
     atom    9 type  2   force =     0.89274922   -1.94353455    3.82021270
     atom   10 type  2   force =    -2.33321253    0.02626198    3.93417805
     atom   11 type  2   force =     1.17199534    1.76509273    3.83790857
     atom   12 type  2   force =     1.18560534   -2.04881913    4.22478285
     atom   13 type  2   force =    -2.14356369    0.04808032    3.80302194
     atom   14 type  2   force =     1.23095880    2.09819054    3.97748834
     atom   15 type  2   force =    -1.23083586   -2.09805592   -3.97830178
     atom   16 type  2   force =     2.14363846   -0.04818859   -3.80222847
     atom   17 type  2   force =    -1.18543074    2.04865505   -4.22561432
     atom   18 type  2   force =    -1.17211817   -1.76510350   -3.83709478
     atom   19 type  2   force =     2.33290595   -0.02622088   -3.93500078
     atom   20 type  2   force =    -0.89269719    1.94365610   -3.81942083
     The core correction contribution to forces
     atom    1 type  1   force =     0.00000000    0.00000000    0.00000000
     atom    2 type  1   force =     0.00000000    0.00000000    0.00000000
     atom    3 type  1   force =     0.00000000    0.00000000    0.00000000
     atom    4 type  1   force =     0.00000000    0.00000000    0.00000000
     atom    5 type  1   force =     0.00000000    0.00000000    0.00000000
     atom    6 type  1   force =     0.00000000    0.00000000    0.00000000
     atom    7 type  1   force =     0.00000000    0.00000000    0.00000000
     atom    8 type  1   force =     0.00000000    0.00000000    0.00000000
     atom    9 type  2   force =    -0.00503941    0.00848626   -0.00805284
     atom   10 type  2   force =     0.00719192   -0.00006748   -0.00841016
     atom   11 type  2   force =    -0.00481688   -0.00860576   -0.00801930
     atom   12 type  2   force =    -0.00358488    0.00612269   -0.00857390
     atom   13 type  2   force =     0.00972748   -0.00031562   -0.00787940
     atom   14 type  2   force =    -0.00314582   -0.00623515   -0.00843693
     atom   15 type  2   force =     0.00314343    0.00622512    0.00842978
     atom   16 type  2   force =    -0.00973499    0.00031621    0.00788818
     atom   17 type  2   force =     0.00358639   -0.00611642    0.00856688
     atom   18 type  2   force =     0.00482027    0.00861187    0.00802868
     atom   19 type  2   force =    -0.00718989    0.00006948    0.00840183
     atom   20 type  2   force =     0.00504310   -0.00849401    0.00806315
     The Hubbard contrib.    to forces
     atom    1 type  1   force =     0.00000000    0.00000000    0.00000000
     atom    2 type  1   force =     0.00000000    0.00000000    0.00000000
     atom    3 type  1   force =     0.00000000    0.00000000    0.00000000
     atom    4 type  1   force =     0.00000000    0.00000000    0.00000000
     atom    5 type  1   force =     0.00000000    0.00000000    0.00000000
     atom    6 type  1   force =     0.00000000    0.00000000    0.00000000
     atom    7 type  1   force =     0.00000000    0.00000000    0.00000000
     atom    8 type  1   force =     0.00000000    0.00000000    0.00000000
     atom    9 type  2   force =     0.00000000    0.00000000    0.00000000
     atom   10 type  2   force =     0.00000000    0.00000000    0.00000000
     atom   11 type  2   force =     0.00000000    0.00000000    0.00000000
     atom   12 type  2   force =     0.00000000    0.00000000    0.00000000
     atom   13 type  2   force =     0.00000000    0.00000000    0.00000000
     atom   14 type  2   force =     0.00000000    0.00000000    0.00000000
     atom   15 type  2   force =     0.00000000    0.00000000    0.00000000
     atom   16 type  2   force =     0.00000000    0.00000000    0.00000000
     atom   17 type  2   force =     0.00000000    0.00000000    0.00000000
     atom   18 type  2   force =     0.00000000    0.00000000    0.00000000
     atom   19 type  2   force =     0.00000000    0.00000000    0.00000000
     atom   20 type  2   force =     0.00000000    0.00000000    0.00000000
     The SCF correction term to forces
     atom    1 type  1   force =     0.00006039   -0.00005203    0.00102556
     atom    2 type  1   force =    -0.00017986   -0.00008986    0.00104365
     atom    3 type  1   force =     0.00013093    0.00013868    0.00101623
     atom    4 type  1   force =    -0.00011739    0.00005871   -0.00038624
     atom    5 type  1   force =     0.00001636    0.00005531   -0.00094522
     atom    6 type  1   force =    -0.00001451   -0.00004545   -0.00098290
     atom    7 type  1   force =     0.00000089   -0.00011322    0.00023798
     atom    8 type  1   force =    -0.00000156   -0.00001649   -0.00088401
     atom    9 type  2   force =    -0.00000090    0.00002410   -0.00039063
     atom   10 type  2   force =     0.00016749   -0.00004137    0.00080149
     atom   11 type  2   force =    -0.00004489   -0.00004145   -0.00040272
     atom   12 type  2   force =    -0.00011414    0.00008932    0.00078953
     atom   13 type  2   force =     0.00004901    0.00001372   -0.00036755
     atom   14 type  2   force =    -0.00005855   -0.00004161    0.00079379
     atom   15 type  2   force =    -0.00003325    0.00002526    0.00007739
     atom   16 type  2   force =    -0.00004510    0.00008237   -0.00050253
     atom   17 type  2   force =    -0.00007123   -0.00000309    0.00009492
     atom   18 type  2   force =     0.00012595   -0.00000973   -0.00049595
     atom   19 type  2   force =     0.00010619   -0.00002441    0.00009120
     atom   20 type  2   force =    -0.00008282   -0.00006467   -0.00049117

     Total force =     0.020729     Total SCF correction =     0.003060
     SCF correction compared to forces is large: reduce conv_thr to get better values

     Computing stress (Cartesian axis) and pressure

          total   stress  (Ry/bohr**3)                   (kbar)     P=        0.95
  -0.00001697  -0.00002784  -0.00000306           -2.50       -4.10       -0.45
  -0.00002784  -0.00004304  -0.00000289           -4.10       -6.33       -0.42
  -0.00000306  -0.00000289   0.00007933           -0.45       -0.42       11.67

     kinetic stress (kbar)   7567.80     -5.47      0.47
                               -5.47   7563.77     -1.40
                                0.47     -1.40   7488.38

     local   stress (kbar)   3035.10     66.52     17.62
                               66.52   3044.66    -33.07
                               17.62    -33.07   6621.85

     nonloc. stress (kbar)  -5523.61      1.90     -0.65
                                1.90  -5522.78      0.27
                               -0.65      0.27  -5491.68

     hartree stress (kbar)   3640.16    -27.87     -9.04
                              -27.87   3637.84     14.30
                               -9.04     14.30   1968.52

     exc-cor stress (kbar)   2804.22     -0.10      0.02
                               -0.10   2804.15      0.01
                                0.02      0.01   2804.24

     corecor stress (kbar)  -4785.78      0.15     -0.02
                                0.15  -4785.69      0.00
                               -0.02      0.00  -4787.16

     ewald   stress (kbar)  -6740.38    -39.23     -8.84
                              -39.23  -6748.28     19.47
                               -8.84     19.47  -8592.48

     hubbard stress (kbar)      0.00      0.00      0.00
                                0.00      0.00      0.00
                                0.00      0.00      0.00

     DFT-D   stress (kbar)      0.00      0.00      0.00
                                0.00      0.00      0.00
                                0.00      0.00      0.00

     XDM     stress (kbar)      0.00      0.00      0.00
                                0.00      0.00      0.00
                                0.00      0.00      0.00

     dft-nl  stress (kbar)      0.00      0.00      0.00
                                0.00      0.00      0.00
                                0.00      0.00      0.00

     TS-vdW  stress (kbar)      0.00      0.00      0.00
                                0.00      0.00      0.00
                                0.00      0.00      0.00

[...]

                                0.00      0.00      0.00

     Writing all to output data dir new_calculations/myprefix.save/

     General routines

     Parallel routines

   This run was terminated on:  20:55:43  21May2023

   JOB DONE.