     Program PWSCF v.7.0 starts on 21May2023 at  4:32:47

     Reading input from espresso_16853.pwi
Warning: card &CELL ignored
Warning: card / ignored

     Current dimensions of program PWSCF are:
     Max number of different atomic species (ntypx) = 10
     Max number of k-points (npk) =  40000
     Max angular momentum in pseudopotentials (lmaxx) =  4
     file Pb.pbe-dn-kjpaw_psl.0.2.2.UPF: wavefunction(s)  6S renormalized

     gamma-point specific algorithms are used
     Message from routine setup:
     using ibrav=0 with symmetry is DISCOURAGED, use correct ibrav instead

     Subspace diagonalization in iterative solution of the eigenvalue problem:
     a serial algorithm will be used

     Using Slab Decomposition

     bravais-lattice index     =            0
     lattice parameter (alat)  =      15.9863  a.u.
     unit-cell volume          =    2884.6221 (a.u.)^3
     number of atoms/cell      =           10
     number of atomic types    =            3
     number of electrons       =        88.00
     number of Kohn-Sham states=           53
     kinetic-energy cutoff     =      30.0000  Ry
     charge density cutoff     =     240.0000  Ry
     scf convergence threshold =      1.0E-06
     mixing beta               =       0.7000
     number of iterations used =            8  plain     mixing
     Exchange-correlation=  SLA  PW   PBX  PBC
                           (   1   4   3   4   0   0   0)

     celldm(1)=  15.986349  celldm(2)=   0.000000  celldm(3)=   0.000000
     celldm(4)=   0.000000  celldm(5)=   0.000000  celldm(6)=   0.000000

     crystal axes: (cart. coord. in units of alat)
               a(1) = (   1.000000   0.000000   0.000000 )
               a(2) = (   0.002952   0.999996   0.000000 )
               a(3) = (  -0.501476  -0.499998   0.706062 )

     reciprocal axes: (cart. coord. in units 2 pi/alat)
               b(1) = (  1.000000 -0.002953  0.708153 )
               b(2) = (  0.000000  1.000004  0.708153 )
               b(3) = (  0.000000  0.000000  1.416306 )

     PseudoPot. # 1 for Cs read from file:
     /home/pragov/projects/rrg-bengioy-ad/pragov/crystal_structure_design/SSSP/Cs_pbe_v1.uspp.F.UPF
     MD5 check sum: 3476d69cb178dfad3ffaa59df4e07ca4
     Pseudo is Ultrasoft + core correction, Zval =  9.0
     Generated by new atomic code, or converted to UPF format
     Using radial grid of  905 points,  6 beta functions with:
                l(1) =   0
                l(2) =   0
                l(3) =   1
                l(4) =   1
                l(5) =   2
                l(6) =   2
     Q(r) pseudized with  6 coefficients,  rinner =    1.500   1.500   1.500
                                                       1.500   1.500

     PseudoPot. # 2 for Pb read from file:
     /home/pragov/projects/rrg-bengioy-ad/pragov/crystal_structure_design/SSSP/Pb.pbe-dn-kjpaw_psl.0.2.2.UPF
     MD5 check sum: 9d431e6316058b74ade52399a6cf67da
     Pseudo is Projector augmented-wave + core cor, Zval = 14.0
     Generated using "atomic" code by A. Dal Corso  v.5.0.99 svn rev. 10869
     Shape of augmentation charge: PSQ
     Using radial grid of 1281 points,  6 beta functions with:
                l(1) =   0
                l(2) =   0
                l(3) =   1
                l(4) =   1
                l(5) =   2
                l(6) =   2
     Q(r) pseudized with 0 coefficients

     PseudoPot. # 3 for Br read from file:
     /home/pragov/projects/rrg-bengioy-ad/pragov/crystal_structure_design/SSSP/br_pbe_v1.4.uspp.F.UPF
     MD5 check sum: d3ffb7b29f6225aa16fe06858fb2a80b
     Pseudo is Ultrasoft + core correction, Zval =  7.0
     Generated by new atomic code, or converted to UPF format
     Using radial grid of  879 points,  6 beta functions with:
                l(1) =   0
                l(2) =   0
                l(3) =   1
                l(4) =   1
                l(5) =   2
                l(6) =   2
     Q(r) pseudized with  8 coefficients,  rinner =    1.100   1.100   1.100
                                                       1.100   1.100

     atomic species   valence    mass     pseudopotential
        Cs             9.00   132.90545     Cs( 1.00)
        Pb            14.00   207.20000     Pb( 1.00)
        Br             7.00    79.90400     Br( 1.00)

      4 Sym. Ops., with inversion, found ( 2 have fractional translation)

                                    s                        frac. trans.

      isym =  1     identity

 cryst.   s( 1) = (     1          0          0      )
                  (     0          1          0      )
                  (     0          0          1      )

 cart.    s( 1) = (  1.0000000 -0.0000000  0.0000000 )
                  (  0.0000000  1.0000000 -0.0000000 )
                  (  0.0000000  0.0000000  1.0000000 )

      isym =  2     180 deg rotation - cart. axis [0,0,1]

 cryst.   s( 2) = (    -1          0          0      )    f =(  0.5000000 )
                  (     0         -1          0      )       ( -0.5000000 )
                  (     1          1          1      )       (  0.0000000 )

 cart.    s( 2) = ( -1.0000000  0.0000000 -0.0000000 )    f =(  0.4985238 )
                  (  0.0000000 -1.0000000 -0.0000000 )       ( -0.4999978 )
                  (  0.0000000  0.0000000  1.0000000 )       (  0.0000000 )

      isym =  3     inversion

 cryst.   s( 3) = (    -1          0          0      )
                  (     0         -1          0      )
                  (     0          0         -1      )

 cart.    s( 3) = ( -1.0000000  0.0000000 -0.0000000 )
                  (  0.0000000 -1.0000000  0.0000000 )
                  (  0.0000000  0.0000000 -1.0000000 )

      isym =  4     inv. 180 deg rotation - cart. axis [0,0,1]

 cryst.   s( 4) = (     1          0          0      )    f =(  0.5000000 )
                  (     0          1          0      )       (  0.5000000 )
                  (    -1         -1         -1      )       ( -0.0000000 )

 cart.    s( 4) = (  1.0000000 -0.0000000  0.0000000 )    f =(  0.5014762 )
                  (  0.0000000  1.0000000  0.0000000 )       (  0.4999978 )
                  (  0.0000000  0.0000000 -1.0000000 )       ( -0.0000000 )

   Cartesian axes

     site n.     atom                  positions (alat units)
         1           Cs  tau(   1) = (   0.5000000  -0.0000000   0.3530311  )
         2           Cs  tau(   2) = (   0.0014762   0.4999978   0.3530311  )
         3           Pb  tau(   3) = (   0.0000000   0.0000000   0.0000000  )
         4           Pb  tau(   4) = (   0.5014762   0.4999978   0.0000000  )
         5           Br  tau(   5) = (   0.2507381   0.2499989   0.0000000  )
         6           Br  tau(   6) = (   0.7522144   0.7499967   0.0000000  )
         7           Br  tau(   7) = (   0.2492614  -0.2499994   0.6626132  )
         8           Br  tau(   8) = (   0.2522149   0.7499972   0.0434489  )
         9           Br  tau(   9) = (  -0.0306782   0.0307689   0.3530311  )
        10           Br  tau(  10) = (   0.5321544   0.4692290   0.3530311  )

   Crystallographic axes

     site n.     atom                  positions (cryst. coord.)
         1           Cs  tau(   1) = (  0.7500000  0.2500000  0.5000000  )
         2           Cs  tau(   2) = (  0.2500000  0.7500000  0.5000000  )
         3           Pb  tau(   3) = (  0.0000000  0.0000000  0.0000000  )
         4           Pb  tau(   4) = (  0.5000000  0.5000000  0.0000000  )
         5           Br  tau(   5) = (  0.2500000  0.2500000  0.0000000  )
         6           Br  tau(   6) = (  0.7500000  0.7500000  0.0000000  )
         7           Br  tau(   7) = (  0.7192310  0.2192310  0.9384630  )
         8           Br  tau(   8) = (  0.2807690  0.7807690  0.0615370  )
         9           Br  tau(   9) = (  0.2192310  0.2807690  0.5000000  )
        10           Br  tau(  10) = (  0.7807690  0.7192310  0.5000000  )

     number of k points=     1  Methfessel-Paxton smearing, width (Ry)=  0.0010
                       cart. coord. in units 2pi/alat
        k(    1) = (   0.0000000   0.0000000   0.0000000), wk =   2.0000000

                       cryst. coord.
        k(    1) = (   0.0000000   0.0000000   0.0000000), wk =   2.0000000

     Check: negative core charge=   -0.000001

     Initial potential from superposition of free atoms

     starting charge      87.9164, renormalised to      88.0000
     Starting wfcs are   68 randomized atomic wfcs
     Checking if some PAW data can be deallocated...

     Self-consistent Calculation

     iteration #  1     ecut=    30.00 Ry     beta= 0.70
     Davidson diagonalization with overlap

     ethr =  1.00E-02,  avg # of iterations =  2.0

     Threshold (ethr) on eigenvalues was too large:
     Diagonalizing with lowered threshold

     Davidson diagonalization with overlap

[...]

     total energy              =   -2149.18177896 Ry
     estimated scf accuracy    <       0.54274082 Ry

[...]

     c_bands:  2 eigenvalues not converged
     ethr =  1.71E-06,  avg # of iterations = 20.0

[...]

     c_bands:  1 eigenvalues not converged
     ethr =  6.05E-08,  avg # of iterations = 20.0

[...]

     total energy              =   -2149.37142593 Ry
     estimated scf accuracy    <       0.00000496 Ry

     iteration #  8     ecut=    30.00 Ry     beta= 0.70
     Davidson diagonalization with overlap

     ethr =  5.64E-09,  avg # of iterations =  3.0

     End of self-consistent calculation

          k = 0.0000 0.0000 0.0000 (  3984 PWs)   bands (ev):

   -18.0602 -18.0590 -14.0629 -14.0412 -14.0188 -14.0075 -13.9920 -13.9902
   -13.9695 -13.9538 -13.9346 -13.9050 -10.8473 -10.5173 -10.5130 -10.4815
   -10.2703 -10.2548  -5.6166  -4.9378  -4.9138  -4.8843  -4.8753  -4.8703
    -4.8536  -4.0457  -0.6523  -0.6213  -0.5779   0.7113   0.8076   0.8948
     1.2511   1.3262   1.4100   1.4776   1.5747   1.6020   1.6716   1.7035
     1.8398   1.9561   1.9783   3.1066   4.7479   4.7796   4.7866   6.5170
     7.6186   7.7808   8.0567   8.4001   8.4050

     occupation numbers
     1.0000   1.0000   1.0000   1.0000   1.0000   1.0000   1.0000   1.0000
     1.0000   1.0000   1.0000   1.0000   1.0000   1.0000   1.0000   1.0000
     1.0000   1.0000   1.0000   1.0000   1.0000   1.0000   1.0000   1.0000
     1.0000   1.0000   1.0000   1.0000   1.0000   1.0000   1.0000   1.0000
     1.0000   1.0000   1.0000   1.0000   1.0000   1.0000   1.0000   1.0000
     1.0000   1.0000   1.0000   1.0000  -0.0000  -0.0000  -0.0000  -0.0000
    -0.0000  -0.0000  -0.0000  -0.0000  -0.0000

     the Fermi energy is     3.5278 ev

!    total energy              =   -2149.37142619 Ry
     estimated scf accuracy    <       0.00000074 Ry
     smearing contrib. (-TS)   =       0.00000000 Ry
     internal energy E=F+TS    =   -2149.37142619 Ry

     The total energy is F=E-TS. E is the sum of the following terms:
     one-electron contribution =    -196.57577341 Ry
     hartree contribution      =     139.35746865 Ry
     xc contribution           =    -306.31060387 Ry
     ewald contribution        =    -329.07864850 Ry
     one-center paw contrib.   =   -1456.76386906 Ry
      -> PAW hartree energy AE =     194.75718067 Ry
      -> PAW hartree energy PS =    -194.13323657 Ry
      -> PAW xc energy AE      =   -1544.62893790 Ry
      -> PAW xc energy PS      =      87.24112474 Ry
      -> total E_H with PAW    =     139.98141275 Ry
      -> total E_XC with PAW   =   -1763.69841703 Ry

     convergence has been achieved in   8 iterations

     Forces acting on atoms (cartesian axes, Ry/au):

     atom    1 type  1   force =     0.00000532    0.00114818    0.00000000
     atom    2 type  1   force =    -0.00000532   -0.00114818   -0.00000000
     atom    3 type  2   force =     0.00000000   -0.00000000   -0.00000000
     atom    4 type  2   force =     0.00000000    0.00000000    0.00000000
     atom    5 type  3   force =     0.00000000    0.00000000    0.00161732
     atom    6 type  3   force =     0.00000000    0.00000000   -0.00161732
     atom    7 type  3   force =     0.00000000    0.00000000   -0.02349523
     atom    8 type  3   force =     0.00000000    0.00000000    0.02349523
     atom    9 type  3   force =    -0.01406775    0.01599601    0.00000000
     atom   10 type  3   force =     0.01406775   -0.01599601   -0.00000000
     The non-local contrib.  to forces
     atom    1 type  1   force =     0.00006833   -0.00067091   -0.00000000
     atom    2 type  1   force =    -0.00006833    0.00067091    0.00000000
     atom    3 type  2   force =     0.00000000    0.00000000   -0.00000000
     atom    4 type  2   force =     0.00000000   -0.00000000   -0.00000000
     atom    5 type  3   force =     0.00000000    0.00000000    0.00208654
     atom    6 type  3   force =     0.00000000    0.00000000   -0.00208654
     atom    7 type  3   force =     0.00000000    0.00000000   -0.01275730
     atom    8 type  3   force =     0.00000000    0.00000000    0.01275730
     atom    9 type  3   force =    -0.00065537    0.00927633    0.00000000
     atom   10 type  3   force =     0.00065537   -0.00927633   -0.00000000
     The ionic contribution  to forces
     atom    1 type  1   force =    -0.00001020   -0.00001016    0.00001444
     atom    2 type  1   force =     0.00001019    0.00001017   -0.00001444
     atom    3 type  2   force =    -0.00000000   -0.00000000    0.00000000
     atom    4 type  2   force =     0.00000000   -0.00000000    0.00000000
     atom    5 type  3   force =    -0.00000764    0.00000767    0.00000000
     atom    6 type  3   force =     0.00000764   -0.00000767    0.00000000
     atom    7 type  3   force =    -0.00000095   -0.00000095   -0.74419077
     atom    8 type  3   force =     0.00000095    0.00000095    0.74419077
     atom    9 type  3   force =    -0.52543725    0.52699089   -0.00000000
     atom   10 type  3   force =     0.52543725   -0.52699089   -0.00000000
     The local contribution  to forces
     atom    1 type  1   force =    -0.00019437    0.00149465    0.00030654
     atom    2 type  1   force =     0.00012148   -0.00147482   -0.00031933
     atom    3 type  2   force =     0.00026481   -0.00010622    0.00017182
     atom    4 type  2   force =     0.00021440   -0.00003530   -0.00007973
     atom    5 type  3   force =    -0.00082260   -0.00023492   -0.00052327
     atom    6 type  3   force =     0.00082305    0.00013705    0.00052535
     atom    7 type  3   force =     0.01629605   -0.01191342    0.73744956
     atom    8 type  3   force =    -0.01637492    0.01204253   -0.73743393
     atom    9 type  3   force =     0.51396991   -0.52327816    0.00228673
     atom   10 type  3   force =    -0.51387335    0.52323182   -0.00230522
     The core correction contribution to forces
     atom    1 type  1   force =     0.00006048    0.00034089    0.00009972
     atom    2 type  1   force =    -0.00006209   -0.00034616   -0.00010211
     atom    3 type  2   force =     0.00000647   -0.00000260    0.00000353
     atom    4 type  2   force =     0.00000289   -0.00000068   -0.00000143
     atom    5 type  3   force =     0.00007224    0.00001865    0.00007432
     atom    6 type  3   force =    -0.00007516   -0.00002198   -0.00007596
     atom    7 type  3   force =    -0.00173157    0.00125598   -0.00389235
     atom    8 type  3   force =     0.00172623   -0.00125138    0.00389407
     atom    9 type  3   force =    -0.00174747    0.00286594    0.00005315
     atom   10 type  3   force =     0.00174898   -0.00286770   -0.00005248
     The Hubbard contrib.    to forces
     atom    1 type  1   force =     0.00000000    0.00000000    0.00000000
     atom    2 type  1   force =     0.00000000    0.00000000    0.00000000
     atom    3 type  2   force =     0.00000000    0.00000000    0.00000000
     atom    4 type  2   force =     0.00000000    0.00000000    0.00000000
     atom    5 type  3   force =     0.00000000    0.00000000    0.00000000
     atom    6 type  3   force =     0.00000000    0.00000000    0.00000000
     atom    7 type  3   force =     0.00000000    0.00000000    0.00000000
     atom    8 type  3   force =     0.00000000    0.00000000    0.00000000
     atom    9 type  3   force =     0.00000000    0.00000000    0.00000000
     atom   10 type  3   force =     0.00000000    0.00000000    0.00000000
     The SCF correction term to forces
     atom    1 type  1   force =     0.00007733   -0.00001913   -0.00002331
     atom    2 type  1   force =    -0.00001032   -0.00002112    0.00002801
     atom    3 type  2   force =    -0.00031711    0.00012260   -0.00023275
     atom    4 type  2   force =    -0.00027515    0.00004064    0.00011125
     atom    5 type  3   force =     0.00006423    0.00008269   -0.00001605
     atom    6 type  3   force =    -0.00004867    0.00005031    0.00002406
     atom    7 type  3   force =     0.00001555   -0.00009423   -0.00010910
     atom    8 type  3   force =     0.00010578   -0.00007915    0.00008231
     atom    9 type  3   force =    -0.00020563    0.00014678    0.00005625
     atom   10 type  3   force =     0.00009147   -0.00008713   -0.00003700

     Total force =     0.044938     Total SCF correction =     0.000643

     Computing stress (Cartesian axis) and pressure

          total   stress  (Ry/bohr**3)                   (kbar)     P=       51.35
   0.00036792  -0.00012275   0.00000000           54.12      -18.06        0.00
  -0.00012275   0.00024219   0.00000000          -18.06       35.63        0.00
   0.00000000   0.00000000   0.00043713            0.00        0.00       64.30

     kinetic stress (kbar)   4745.50      3.04      0.00
                                3.04   4749.04      0.00
                                0.00      0.00   4746.81

     local   stress (kbar)      1.44    -68.68      1.53
                              -68.68    -14.62      9.74
                                1.53      9.74     65.05

     nonloc. stress (kbar)    490.91     -6.66      0.00
                               -6.66    484.17      0.00
                                0.00      0.00    490.72

     hartree stress (kbar)   2372.94     10.66      0.24
                               10.66   2372.35     -0.61
                                0.24     -0.61   2361.42

     exc-cor stress (kbar)   9686.85     -0.07      0.01
                               -0.07   9686.46      0.16
                                0.01      0.16   9686.80

     corecor stress (kbar) -11663.65      1.85     -0.09
                                1.85 -11661.66     -0.90
                               -0.09     -0.90 -11664.69

     ewald   stress (kbar)  -5579.87     41.80      0.00
                               41.80  -5580.12      0.00
                                0.00      0.00  -5621.81

     hubbard stress (kbar)      0.00      0.00      0.00
                                0.00      0.00      0.00
                                0.00      0.00      0.00

     DFT-D   stress (kbar)      0.00      0.00      0.00
                                0.00      0.00      0.00
                                0.00      0.00      0.00

     XDM     stress (kbar)      0.00      0.00      0.00
                                0.00      0.00      0.00
                                0.00      0.00      0.00

     dft-nl  stress (kbar)      0.00      0.00      0.00
                                0.00      0.00      0.00
                                0.00      0.00      0.00

     TS-vdW  stress (kbar)      0.00      0.00      0.00
                                0.00      0.00      0.00
                                0.00      0.00      0.00

[...]

                                0.00      0.00      0.00

     Writing all to output data dir new_calculations/myprefix.save/

     General routines

     Parallel routines

     PAW routines

   This run was terminated on:   4:33:55  21May2023

   JOB DONE.