     Program PWSCF v.7.0 starts on 21May2023 at  0:32:17

     Reading input from espresso_976.pwi
Warning: card &CELL ignored
Warning: card / ignored

     Current dimensions of program PWSCF are:
     Max number of different atomic species (ntypx) = 10
     Max number of k-points (npk) =  40000
     Max angular momentum in pseudopotentials (lmaxx) =  4

     gamma-point specific algorithms are used

     Subspace diagonalization in iterative solution of the eigenvalue problem:
     a serial algorithm will be used

     Using Slab Decomposition

     bravais-lattice index     =            0
     lattice parameter (alat)  =      47.7220  a.u.
     unit-cell volume          =    2184.7231 (a.u.)^3
     number of atoms/cell      =           16
     number of atomic types    =            2
     number of electrons       =       208.00
     number of Kohn-Sham states=          125
     kinetic-energy cutoff     =      30.0000  Ry
     charge density cutoff     =     240.0000  Ry
     scf convergence threshold =      1.0E-06
     mixing beta               =       0.7000
     number of iterations used =            8  plain     mixing
     Exchange-correlation=  SLA  PW   PBX  PBC
                           (   1   4   3   4   0   0   0)

     celldm(1)=  47.721980  celldm(2)=   0.000000  celldm(3)=   0.000000
     celldm(4)=   0.000000  celldm(5)=   0.000000  celldm(6)=   0.000000

     crystal axes: (cart. coord. in units of alat)
               a(1) = (   1.000000   0.000000   0.000000 )
               a(2) = (   0.988349   0.152206   0.000000 )
               a(3) = (   0.988349   0.075657   0.132071 )

     reciprocal axes: (cart. coord. in units 2 pi/alat)
               b(1) = (  1.000000 -6.493473 -3.763654 )
               b(2) = (  0.000000  6.570022 -3.763654 )
               b(3) = (  0.000000  0.000000  7.571677 )

     PseudoPot. # 1 for Zn read from file:
     /home/pragov/projects/rrg-bengioy-ad/pragov/crystal_structure_design/SSSP/Zn_pbe_v1.uspp.F.UPF
     MD5 check sum: df62231357ef9e81f77b2b3087fa5675
     Pseudo is Ultrasoft, Zval = 20.0
     Generated by new atomic code, or converted to UPF format
     Using radial grid of  943 points,  6 beta functions with:
                l(1) =   0
                l(2) =   0
                l(3) =   1
                l(4) =   1
                l(5) =   2
                l(6) =   2
     Q(r) pseudized with  8 coefficients,  rinner =    1.100   1.100   1.100
                                                       1.100   1.100

     PseudoPot. # 2 for S  read from file:
     /home/pragov/projects/rrg-bengioy-ad/pragov/crystal_structure_design/SSSP/s_pbe_v1.4.uspp.F.UPF
     MD5 check sum: 88d86576ff6df21479756cfb9bdac1df
     Pseudo is Ultrasoft + core correction, Zval =  6.0
     Generated by new atomic code, or converted to UPF format
     Using radial grid of  907 points,  6 beta functions with:
                l(1) =   0
                l(2) =   0
                l(3) =   1
                l(4) =   1
                l(5) =   2
                l(6) =   2
     Q(r) pseudized with  8 coefficients,  rinner =    1.300   1.300   1.300
                                                       1.300   1.300

     atomic species   valence    mass     pseudopotential
        Zn            20.00    65.38000     Zn( 1.00)
        S              6.00    32.06000     S ( 1.00)

     No symmetry found

                                    s                        frac. trans.

      isym =  1     identity

 cryst.   s( 1) = (     1          0          0      )
                  (     0          1          0      )
                  (     0          0          1      )

 cart.    s( 1) = (  1.0000000  0.0000000  0.0000000 )
                  (  0.0000000  1.0000000  0.0000000 )
                  (  0.0000000  0.0000000  1.0000000 )

   Cartesian axes

     site n.     atom                  positions (alat units)
         1           Zn  tau(   1) = (   2.1084662   0.1614014   0.0935492  )
         2           Zn  tau(   2) = (   1.2402172   0.0949376   0.0550264  )
         3           Zn  tau(   3) = (   2.9766677   0.2278615   0.1320698  )
         4           Zn  tau(   4) = (   0.3720634   0.0284811   0.0165078  )
         5           Zn  tau(   5) = (   0.7441386   0.0569632   0.0330162  )
         6           Zn  tau(   6) = (   1.4883160   0.1139294   0.0660341  )
         7           Zn  tau(   7) = (   2.6045715   0.1993778   0.1155605  )
         8           Zn  tau(   8) = (   1.8603585   0.1424089   0.0825410  )
         9           S   tau(   9) = (   2.5116271   0.1922630   0.1114367  )
        10           S   tau(  10) = (   1.1473115   0.0878258   0.0509043  )
        11           S   tau(  11) = (   0.2790475   0.0213609   0.0123809  )
        12           S   tau(  12) = (   0.6511972   0.0498486   0.0288925  )
        13           S   tau(  13) = (   1.3954281   0.1068189   0.0619128  )
        14           S   tau(  14) = (   2.0155724   0.1542904   0.0894276  )
        15           S   tau(  15) = (   1.7674528   0.1352971   0.0784190  )
        16           S   tau(  16) = (   2.8836488   0.2207410   0.1279427  )

   Crystallographic axes

     site n.     atom                  positions (cryst. coord.)
         1           Zn  tau(   1) = (  0.7083240  0.7083240  0.7083240  )
         2           Zn  tau(   2) = (  0.4166420  0.4166420  0.4166420  )
         3           Zn  tau(   3) = (  0.9999900  0.9999900  0.9999900  )
         4           Zn  tau(   4) = (  0.1249920  0.1249920  0.1249920  )
         5           Zn  tau(   5) = (  0.2499880  0.2499880  0.2499880  )
         6           Zn  tau(   6) = (  0.4999890  0.4999890  0.4999890  )
         7           Zn  tau(   7) = (  0.8749870  0.8749870  0.8749870  )
         8           Zn  tau(   8) = (  0.6249740  0.6249740  0.6249740  )
         9           S   tau(   9) = (  0.8437630  0.8437630  0.8437630  )
        10           S   tau(  10) = (  0.3854310  0.3854310  0.3854310  )
        11           S   tau(  11) = (  0.0937440  0.0937440  0.0937440  )
        12           S   tau(  12) = (  0.2187650  0.2187650  0.2187650  )
        13           S   tau(  13) = (  0.4687840  0.4687840  0.4687840  )
        14           S   tau(  14) = (  0.6771170  0.6771170  0.6771170  )
        15           S   tau(  15) = (  0.5937630  0.5937630  0.5937630  )
        16           S   tau(  16) = (  0.9687410  0.9687410  0.9687410  )

     number of k points=     1  Methfessel-Paxton smearing, width (Ry)=  0.0010
                       cart. coord. in units 2pi/alat
        k(    1) = (   0.0000000   0.0000000   0.0000000), wk =   2.0000000

                       cryst. coord.
        k(    1) = (   0.0000000   0.0000000   0.0000000), wk =   2.0000000

     Initial potential from superposition of free atoms

     starting charge     207.9986, renormalised to     208.0000
     Starting wfcs are  136 randomized atomic wfcs

     Self-consistent Calculation

     iteration #  1     ecut=    30.00 Ry     beta= 0.70
     Davidson diagonalization with overlap

     ethr =  1.00E-02,  avg # of iterations =  4.0

     total energy              =   -3881.45280479 Ry
     estimated scf accuracy    <       2.34207603 Ry

[...]

     total energy              =   -3882.30479270 Ry
     estimated scf accuracy    <       0.00000274 Ry

     iteration # 11     ecut=    30.00 Ry     beta= 0.70
     Davidson diagonalization with overlap

     ethr =  1.32E-09,  avg # of iterations =  3.0

     End of self-consistent calculation

          k = 0.0000 0.0000 0.0000 (  3018 PWs)   bands (ev):

  -118.6121-118.6025-118.5997-118.5973-118.5957-118.5924-118.5899-118.5878
   -72.7766 -72.7687 -72.7642 -72.7608 -72.7583 -72.7549 -72.7519 -72.7488
   -72.7167 -72.7167 -72.7092 -72.7092 -72.7049 -72.7049 -72.7014 -72.7014
   -72.6962 -72.6961 -72.6917 -72.6917 -72.6870 -72.6870 -72.6830 -72.6830
    -5.7428  -5.6207  -5.6158  -5.2925  -5.2923  -4.9223  -4.9160  -4.7462
     0.0829   0.0913   0.0984   0.1314   0.1314   0.1473   0.1473   0.1550
     0.1551   0.1567   0.1567   0.1850   0.1850   0.1881   0.1881   0.2111
     0.2111   0.2158   0.2158   0.2270   0.2270   0.3819   0.3830   0.4836
     0.4836   0.4859   0.4859   0.4930   0.4930   0.4972   0.4972   0.5016
     0.5016   0.5063   0.5063   0.5149   0.5149   0.5252   0.5252   0.6969
     1.6749   2.5032   2.5047   4.0742   4.0743   5.8548   5.8671   6.3237
     6.3237   6.4369   6.4369   6.4431   6.4431   6.7407   6.7407   6.7412
     6.7412   7.0777   7.0777   7.0807   7.0870   7.0870   7.2402   7.2402
     8.8444   9.6914   9.7516   9.8726   9.9349  10.0339  10.1880  10.1929
    12.9663  13.0236  13.0404  13.0404  13.1140  13.2101  13.2101  13.3183
    13.3183  13.5839  13.5842  13.6529  13.6531

     occupation numbers
     1.0000   1.0000   1.0000   1.0000   1.0000   1.0000   1.0000   1.0000
     1.0000   1.0000   1.0000   1.0000   1.0000   1.0000   1.0000   1.0000
     1.0000   1.0000   1.0000   1.0000   1.0000   1.0000   1.0000   1.0000
     1.0000   1.0000   1.0000   1.0000   1.0000   1.0000   1.0000   1.0000
     1.0000   1.0000   1.0000   1.0000   1.0000   1.0000   1.0000   1.0000
     1.0000   1.0000   1.0000   1.0000   1.0000   1.0000   1.0000   1.0000
     1.0000   1.0000   1.0000   1.0000   1.0000   1.0000   1.0000   1.0000
     1.0000   1.0000   1.0000   1.0000   1.0000   1.0000   1.0000   1.0000
     1.0000   1.0000   1.0000   1.0000   1.0000   1.0000   1.0000   1.0000
     1.0000   1.0000   1.0000   1.0000   1.0000   1.0000   1.0000   1.0000
     1.0000   1.0000   1.0000   1.0000   1.0000   1.0000   1.0000   1.0000
     1.0000   1.0000   1.0000   1.0000   1.0000   1.0000   1.0000   1.0000
     1.0000   1.0000   1.0000   1.0000   1.0000   1.0000   1.0000   1.0000
    -0.0000  -0.0000  -0.0000  -0.0000  -0.0000  -0.0000  -0.0000  -0.0000
    -0.0000  -0.0000  -0.0000  -0.0000  -0.0000  -0.0000  -0.0000  -0.0000
    -0.0000  -0.0000  -0.0000  -0.0000  -0.0000

     the Fermi energy is     7.5764 ev

!    total energy              =   -3882.30479287 Ry
     estimated scf accuracy    <       0.00000090 Ry
     smearing contrib. (-TS)   =       0.00000000 Ry
     internal energy E=F+TS    =   -3882.30479287 Ry

     The total energy is F=E-TS. E is the sum of the following terms:
     one-electron contribution =   -3660.16326302 Ry
     hartree contribution      =    1886.78657286 Ry
     xc contribution           =    -407.00589641 Ry
     ewald contribution        =   -1701.92220631 Ry

     convergence has been achieved in  11 iterations

     Forces acting on atoms (cartesian axes, Ry/au):

     atom    1 type  1   force =    -0.07367913   -0.00561435   -0.00325142
     atom    2 type  1   force =    -0.07498803   -0.00574291   -0.00332600
     atom    3 type  1   force =    -0.07292445   -0.00557205   -0.00322377
     atom    4 type  1   force =    -0.07499600   -0.00576956   -0.00335769
     atom    5 type  1   force =    -0.07534738   -0.00577987   -0.00334280
     atom    6 type  1   force =    -0.07123002   -0.00543891   -0.00315359
     atom    7 type  1   force =    -0.07308354   -0.00560327   -0.00324831
     atom    8 type  1   force =    -0.07367301   -0.00562535   -0.00326750
     atom    9 type  2   force =     0.07345808    0.00562305    0.00325864
     atom   10 type  2   force =     0.07365147    0.00564302    0.00327382
     atom   11 type  2   force =     0.07526089    0.00576334    0.00334192
     atom   12 type  2   force =     0.07353839    0.00562928    0.00326127
     atom   13 type  2   force =     0.07248526    0.00554559    0.00321390
     atom   14 type  2   force =     0.07252062    0.00554877    0.00321830
     atom   15 type  2   force =     0.07368813    0.00563084    0.00326605
     atom   16 type  2   force =     0.07531871    0.00576238    0.00333717
     The non-local contrib.  to forces
     atom    1 type  1   force =     0.96025005    0.07350667    0.04260102
     atom    2 type  1   force =     0.95310534    0.07295555    0.04228213
     atom    3 type  1   force =     0.96904170    0.07418129    0.04299805
     atom    4 type  1   force =     0.96795486    0.07409077    0.04294080
     atom    5 type  1   force =     0.96165124    0.07361399    0.04266853
     atom    6 type  1   force =     0.96105510    0.07357096    0.04264065
     atom    7 type  1   force =     0.96181599    0.07362543    0.04267607
     atom    8 type  1   force =     0.95403413    0.07303786    0.04233029
     atom    9 type  2   force =    -0.10322405   -0.00791324   -0.00456700
     atom   10 type  2   force =    -0.10296333   -0.00793298   -0.00461793
     atom   11 type  2   force =    -0.11242943   -0.00864800   -0.00503288
     atom   12 type  2   force =    -0.10281930   -0.00784501   -0.00453135
     atom   13 type  2   force =    -0.09854010   -0.00753249   -0.00436050
     atom   14 type  2   force =    -0.09857290   -0.00754501   -0.00438656
     atom   15 type  2   force =    -0.10230081   -0.00776899   -0.00451006
     atom   16 type  2   force =    -0.11248206   -0.00857326   -0.00495800
     The ionic contribution  to forces
     atom    1 type  1   force =     0.02863262    0.00219180    0.00126679
     atom    2 type  1   force =    -0.06096548   -0.00466686   -0.00270846
     atom    3 type  1   force =    -0.01772856   -0.00135711   -0.00079068
     atom    4 type  1   force =    -0.02810024   -0.00215105   -0.00124628
     atom    5 type  1   force =     0.03188308    0.00244062    0.00141458
     atom    6 type  1   force =     0.03749243    0.00287001    0.00166345
     atom    7 type  1   force =     0.03125976    0.00239291    0.00138692
     atom    8 type  1   force =    -0.04929177   -0.00377325   -0.00218691
     atom    9 type  2   force =    -0.04547072   -0.00348075   -0.00201744
     atom   10 type  2   force =    -0.05373691   -0.00411352   -0.00238063
     atom   11 type  2   force =    -0.00556482   -0.00042598   -0.00024327
     atom   12 type  2   force =    -0.04351302   -0.00333089   -0.00193058
     atom   13 type  2   force =     0.11064794    0.00847001    0.00490920
     atom   14 type  2   force =     0.11437321    0.00875518    0.00507808
     atom   15 type  2   force =    -0.04845717   -0.00370936   -0.00214994
     atom   16 type  2   force =    -0.00146035   -0.00011179   -0.00006482
     The local contribution  to forces
     atom    1 type  1   force =    -1.06193335   -0.08130542   -0.04711810
     atom    2 type  1   force =    -0.96482721   -0.07384312   -0.04280563
     atom    3 type  1   force =    -1.02632793   -0.07856941   -0.04555002
     atom    4 type  1   force =    -1.01295525   -0.07751873   -0.04491825
     atom    5 type  1   force =    -1.06519472   -0.08152788   -0.04725974
     atom    6 type  1   force =    -1.07398897   -0.08223198   -0.04765239
     atom    7 type  1   force =    -1.06689836   -0.08166316   -0.04733739
     atom    8 type  1   force =    -0.97891005   -0.07494197   -0.04342647
     atom    9 type  2   force =     0.21479770    0.01646409    0.00950860
     atom   10 type  2   force =     0.22492898    0.01732001    0.01007595
     atom   11 type  2   force =     0.18760633    0.01444164    0.00840718
     atom   12 type  2   force =     0.21423840    0.01635140    0.00944693
     atom   13 type  2   force =     0.05531951    0.00420880    0.00242775
     atom   14 type  2   force =     0.05083061    0.00388797    0.00227680
     atom   15 type  2   force =     0.21984087    0.01670493    0.00969929
     atom   16 type  2   force =     0.18287349    0.01392961    0.00804858
     The core correction contribution to forces
     atom    1 type  1   force =     0.00000000    0.00000000    0.00000000
     atom    2 type  1   force =     0.00000000    0.00000000    0.00000000
     atom    3 type  1   force =     0.00000000    0.00000000    0.00000000
     atom    4 type  1   force =     0.00000000    0.00000000    0.00000000
     atom    5 type  1   force =     0.00000000    0.00000000    0.00000000
     atom    6 type  1   force =     0.00000000    0.00000000    0.00000000
     atom    7 type  1   force =     0.00000000    0.00000000    0.00000000
     atom    8 type  1   force =     0.00000000    0.00000000    0.00000000
     atom    9 type  2   force =     0.00551839    0.00042346    0.00024383
     atom   10 type  2   force =     0.00552235    0.00042630    0.00024839
     atom   11 type  2   force =     0.00604619    0.00046572    0.00027132
     atom   12 type  2   force =     0.00550030    0.00041926    0.00024197
     atom   13 type  2   force =     0.00526652    0.00040236    0.00023287
     atom   14 type  2   force =     0.00527231    0.00040350    0.00023490
     atom   15 type  2   force =     0.00547548    0.00041486    0.00024095
     atom   16 type  2   force =     0.00605737    0.00046113    0.00026645
     The Hubbard contrib.    to forces
     atom    1 type  1   force =     0.00000000    0.00000000    0.00000000
     atom    2 type  1   force =     0.00000000    0.00000000    0.00000000
     atom    3 type  1   force =     0.00000000    0.00000000    0.00000000
     atom    4 type  1   force =     0.00000000    0.00000000    0.00000000
     atom    5 type  1   force =     0.00000000    0.00000000    0.00000000
     atom    6 type  1   force =     0.00000000    0.00000000    0.00000000
     atom    7 type  1   force =     0.00000000    0.00000000    0.00000000
     atom    8 type  1   force =     0.00000000    0.00000000    0.00000000
     atom    9 type  2   force =     0.00000000    0.00000000    0.00000000
     atom   10 type  2   force =     0.00000000    0.00000000    0.00000000
     atom   11 type  2   force =     0.00000000    0.00000000    0.00000000
     atom   12 type  2   force =     0.00000000    0.00000000    0.00000000
     atom   13 type  2   force =     0.00000000    0.00000000    0.00000000
     atom   14 type  2   force =     0.00000000    0.00000000    0.00000000
     atom   15 type  2   force =     0.00000000    0.00000000    0.00000000
     atom   16 type  2   force =     0.00000000    0.00000000    0.00000000
     The SCF correction term to forces
     atom    1 type  1   force =    -0.00069924   -0.00001222   -0.00000364
     atom    2 type  1   force =    -0.00237150   -0.00019331   -0.00009656
     atom    3 type  1   force =     0.00201953    0.00016836    0.00011637
     atom    4 type  1   force =    -0.00196619   -0.00019537   -0.00013647
     atom    5 type  1   force =    -0.00375778   -0.00031143   -0.00016869
     atom    6 type  1   force =     0.00414061    0.00034726    0.00019218
     atom    7 type  1   force =     0.00066826    0.00003673    0.00002358
     atom    8 type  1   force =     0.00042388    0.00004719    0.00001308
     atom    9 type  2   force =     0.00176595    0.00012466    0.00008813
     atom   10 type  2   force =    -0.00017043   -0.00006161   -0.00005448
     atom   11 type  2   force =    -0.00046818   -0.00007487   -0.00006295
     atom   12 type  2   force =     0.00006121    0.00002969    0.00003178
     atom   13 type  2   force =    -0.00027942   -0.00000791    0.00000206
     atom   14 type  2   force =     0.00054658    0.00004230    0.00001256
     atom   15 type  2   force =    -0.00094105   -0.00001542   -0.00001671
     atom   16 type  2   force =     0.00025944    0.00005185    0.00004245

     Total force =     0.296149     Total SCF correction =     0.007151

     Computing stress (Cartesian axis) and pressure

          total   stress  (Ry/bohr**3)                   (kbar)     P=      -18.25
  -0.00107677  -0.00010983  -0.00006365         -158.40      -16.16       -9.36
  -0.00010983   0.00034948  -0.00000489          -16.16       51.41       -0.72
  -0.00006365  -0.00000489   0.00035511           -9.36       -0.72       52.24

     kinetic stress (kbar)  17268.85    -37.89    -21.96
                              -37.89  17760.96     -1.68
                              -21.96     -1.68  17762.88

     local   stress (kbar) -14028.32    -19.94    -11.56
                              -19.94 -13769.39     -0.91
                              -11.56     -0.91 -13768.32

     nonloc. stress (kbar)    164.67    -21.17    -12.27
                              -21.17    439.62     -0.94
                              -12.27     -0.94    440.69

     hartree stress (kbar)  42595.97     28.59     16.57
                               28.59  42224.75      1.29
                               16.57      1.29  42223.25

     exc-cor stress (kbar)  -6152.71      0.14      0.08
                                0.14  -6154.56      0.01
                                0.08      0.01  -6154.57

     corecor stress (kbar)  -2090.08      1.61      0.93
                                1.61  -2110.97      0.07
                                0.93      0.07  -2111.05

     ewald   stress (kbar) -37916.76     32.51     18.84
                               32.51 -38338.99      1.44
                               18.84      1.44 -38340.64

     hubbard stress (kbar)      0.00      0.00      0.00
                                0.00      0.00      0.00
                                0.00      0.00      0.00

     DFT-D   stress (kbar)      0.00      0.00      0.00
                                0.00      0.00      0.00
                                0.00      0.00      0.00

     XDM     stress (kbar)      0.00      0.00      0.00
                                0.00      0.00      0.00
                                0.00      0.00      0.00

     dft-nl  stress (kbar)      0.00      0.00      0.00
                                0.00      0.00      0.00
                                0.00      0.00      0.00

     TS-vdW  stress (kbar)      0.00      0.00      0.00
                                0.00      0.00      0.00
                                0.00      0.00      0.00

[...]

                                0.00      0.00      0.00

     Writing all to output data dir new_calculations/myprefix.save/

     General routines

     Parallel routines

   This run was terminated on:   0:36: 0  21May2023

   JOB DONE.