     Program PWSCF v.7.0 starts on 21May2023 at  3:29:58

     Reading input from espresso_23342.pwi
Warning: card &CELL ignored
Warning: card / ignored

     Current dimensions of program PWSCF are:
     Max number of different atomic species (ntypx) = 10
     Max number of k-points (npk) =  40000
     Max angular momentum in pseudopotentials (lmaxx) =  4

     gamma-point specific algorithms are used
     Message from routine setup:
     using ibrav=0 with symmetry is DISCOURAGED, use correct ibrav instead

     Subspace diagonalization in iterative solution of the eigenvalue problem:
     a serial algorithm will be used

     Using Slab Decomposition

     bravais-lattice index     =            0
     lattice parameter (alat)  =       6.8096  a.u.
     unit-cell volume          =    1584.8915 (a.u.)^3
     number of atoms/cell      =           10
     number of atomic types    =            3
     number of electrons       =       156.00
     number of Kohn-Sham states=           94
     kinetic-energy cutoff     =      30.0000  Ry
     charge density cutoff     =     240.0000  Ry
     scf convergence threshold =      1.0E-06
     mixing beta               =       0.7000
     number of iterations used =            8  plain     mixing
     Exchange-correlation= SLA  PW   PBE  PBE
                           (   1   4   3   4   0   0   0)

     celldm(1)=   6.809619  celldm(2)=   0.000000  celldm(3)=   0.000000
     celldm(4)=   0.000000  celldm(5)=   0.000000  celldm(6)=   0.000000

     crystal axes: (cart. coord. in units of alat)
               a(1) = (   1.000000   0.000000   0.000000 )
               a(2) = (   0.000000   1.000000   0.000000 )
               a(3) = (   0.000000   0.000000   5.019161 )

     reciprocal axes: (cart. coord. in units 2 pi/alat)
               b(1) = (  1.000000  0.000000  0.000000 )
               b(2) = (  0.000000  1.000000  0.000000 )
               b(3) = (  0.000000  0.000000  0.199236 )

     PseudoPot. # 1 for Ce read from file:
     /home/pragov/projects/rrg-bengioy-ad/pragov/crystal_structure_design/SSSP/Ce.GGA-PBE-paw-v1.0.UPF
     MD5 check sum: f2b950f613061344c13339c8d844425d
     Pseudo is Projector augmented-wave + core cor, Zval = 12.0
     Generated using ATOMPAW code
     Shape of augmentation charge: BESSEL
     Using radial grid of 1102 points,  8 beta functions with:
                l(1) =   0
                l(2) =   0
                l(3) =   1
                l(4) =   1
                l(5) =   2
                l(6) =   2
                l(7) =   3
                l(8) =   3
     Q(r) pseudized with 0 coefficients

     PseudoPot. # 2 for Y  read from file:
     /home/pragov/projects/rrg-bengioy-ad/pragov/crystal_structure_design/SSSP/Y_pbe_v1.uspp.F.UPF
     MD5 check sum: 2cf71db95cafeb975fc457bd7f14888e
     Pseudo is Ultrasoft + core correction, Zval = 11.0
     Generated by new atomic code, or converted to UPF format
     Using radial grid of  885 points,  6 beta functions with:
                l(1) =   0
                l(2) =   0
                l(3) =   1
                l(4) =   1
                l(5) =   2
                l(6) =   2
     Q(r) pseudized with  6 coefficients,  rinner =    1.200   1.200   1.200
                                                       1.200   1.200

     PseudoPot. # 3 for Zn read from file:
     /home/pragov/projects/rrg-bengioy-ad/pragov/crystal_structure_design/SSSP/Zn_pbe_v1.uspp.F.UPF
     MD5 check sum: df62231357ef9e81f77b2b3087fa5675
     Pseudo is Ultrasoft, Zval = 20.0
     Generated by new atomic code, or converted to UPF format
     Using radial grid of  943 points,  6 beta functions with:
                l(1) =   0
                l(2) =   0
                l(3) =   1
                l(4) =   1
                l(5) =   2
                l(6) =   2
     Q(r) pseudized with  8 coefficients,  rinner =    1.100   1.100   1.100
                                                       1.100   1.100

     atomic species   valence    mass     pseudopotential
        Ce            12.00   140.11600     Ce( 1.00)
        Y             11.00    88.90584     Y ( 1.00)
        Zn            20.00    65.38000     Zn( 1.00)

     16 Sym. Ops., with inversion, found

                                    s                        frac. trans.

      isym =  1     identity

 cryst.   s( 1) = (     1          0          0      )
                  (     0          1          0      )
                  (     0          0          1      )

 cart.    s( 1) = (  1.0000000  0.0000000  0.0000000 )
                  (  0.0000000  1.0000000  0.0000000 )
                  (  0.0000000  0.0000000  1.0000000 )

      isym =  2     180 deg rotation - cart. axis [0,0,1]

[...]

      isym =  8      90 deg rotation - cart. axis [0,0,1]

[...]

      isym =  9     inversion

 cryst.   s( 9) = (    -1          0          0      )
                  (     0         -1          0      )
                  (     0          0         -1      )

 cart.    s( 9) = ( -1.0000000  0.0000000  0.0000000 )
                  (  0.0000000 -1.0000000  0.0000000 )
                  (  0.0000000  0.0000000 -1.0000000 )

      isym = 10     inv. 180 deg rotation - cart. axis [0,0,1]

 cryst.   s(10) = (     1          0          0      )
                  (     0          1          0      )
                  (     0          0         -1      )

 cart.    s(10) = (  1.0000000  0.0000000  0.0000000 )
                  (  0.0000000  1.0000000  0.0000000 )
                  (  0.0000000  0.0000000 -1.0000000 )

[...]

      isym = 16     inv.  90 deg rotation - cart. axis [0,0,1]

 cryst.   s(16) = (     0         -1          0      )
                  (     1          0          0      )
                  (     0          0         -1      )

 cart.    s(16) = (  0.0000000  1.0000000  0.0000000 )
                  ( -1.0000000  0.0000000  0.0000000 )
                  (  0.0000000  0.0000000 -1.0000000 )

   Cartesian axes

     site n.     atom                  positions (alat units)
         1           Ce  tau(   1) = (   0.0000000   0.0000000   0.0000000  )
         2           Y   tau(   2) = (   0.0000000   0.0000000   1.0036365  )
         3           Y   tau(   3) = (   0.0000000   0.0000000   2.0094112  )
         4           Y   tau(   4) = (   0.0000000   0.0000000   3.0097502  )
         5           Y   tau(   5) = (   0.0000000   0.0000000   4.0155249  )
         6           Zn  tau(   6) = (   0.5000000   0.5000000   0.5100622  )
         7           Zn  tau(   7) = (   0.5000000   0.5000000   1.5069329  )
         8           Zn  tau(   8) = (   0.5000000   0.5000000   2.5095807  )
         9           Zn  tau(   9) = (   0.5000000   0.5000000   3.5122285  )
        10           Zn  tau(  10) = (   0.5000000   0.5000000   4.5090992  )

   Crystallographic axes

     site n.     atom                  positions (cryst. coord.)
         1           Ce  tau(   1) = (  0.0000000  0.0000000  0.0000000  )
         2           Y   tau(   2) = (  0.0000000  0.0000000  0.1999610  )
         3           Y   tau(   3) = (  0.0000000  0.0000000  0.4003480  )
         4           Y   tau(   4) = (  0.0000000  0.0000000  0.5996520  )
         5           Y   tau(   5) = (  0.0000000  0.0000000  0.8000390  )
         6           Zn  tau(   6) = (  0.5000000  0.5000000  0.1016230  )
         7           Zn  tau(   7) = (  0.5000000  0.5000000  0.3002360  )
         8           Zn  tau(   8) = (  0.5000000  0.5000000  0.5000000  )
         9           Zn  tau(   9) = (  0.5000000  0.5000000  0.6997640  )
        10           Zn  tau(  10) = (  0.5000000  0.5000000  0.8983770  )

     number of k points=     1  Methfessel-Paxton smearing, width (Ry)=  0.0010
                       cart. coord. in units 2pi/alat
        k(    1) = (   0.0000000   0.0000000   0.0000000), wk =   2.0000000

                       cryst. coord.
        k(    1) = (   0.0000000   0.0000000   0.0000000), wk =   2.0000000

     Check: negative core charge=   -0.000005

     Initial potential from superposition of free atoms

     starting charge     155.9744, renormalised to     156.0000

     negative rho (up, down):  1.693E-01 0.000E+00
     Starting wfcs are  149 randomized atomic wfcs
     Checking if some PAW data can be deallocated...

     Self-consistent Calculation

     iteration #  1     ecut=    30.00 Ry     beta= 0.70
     Davidson diagonalization with overlap

     ethr =  1.00E-02,  avg # of iterations =  2.0

     negative rho (up, down):  1.750E-01 0.000E+00

     total energy              =   -3067.07758799 Ry
     estimated scf accuracy    <      79.33875738 Ry

[...]

     total energy              =   -3140.08790120 Ry
     estimated scf accuracy    <       0.00000291 Ry

     iteration # 53     ecut=    30.00 Ry     beta= 0.70
     Davidson diagonalization with overlap

     ethr =  9.51E-10,  avg # of iterations =  1.0

[...]

     End of self-consistent calculation

          k = 0.0000 0.0000 0.0000 (  2200 PWs)   bands (ev):

  -115.7389-115.7381-115.6513-115.2945-115.2932 -69.8997 -69.8997 -69.8975
   -69.8975 -69.8080 -69.8080 -69.7257 -69.7215 -69.6470 -69.4511 -69.4511
   -69.4441 -69.4441 -69.2952 -69.2945 -30.1903 -30.1899 -30.1652 -30.1535
   -22.4239 -10.5919 -10.5146 -10.4052 -10.3078 -10.0716 -10.0716 -10.0708
   -10.0708 -10.0430 -10.0430 -10.0280 -10.0280  -5.4858  -4.6852  -4.6852
     3.2220   3.2271   3.3156   3.3639   3.3657   3.4221   3.4496   3.4506
     3.5057   3.5057   3.5077   3.5077   3.5433   3.5838   3.5838   3.6443
     3.6692   3.7915   3.8002   3.8350   3.9262   3.9274   3.9274   3.9415
     3.9415   4.2616   4.7864   5.1176   6.3613   6.5699   9.1707   9.3539
    11.1881  11.3123  11.5674  11.8871  12.0236  12.0697  12.0876  12.1464
    12.1464  12.2237  12.3508  12.4124  12.4124  12.4402  12.4861  13.1092
    13.1092  13.1178  13.1178  14.1495  14.1496  14.2696

     occupation numbers
     1.0000   1.0000   1.0000   1.0000   1.0000   1.0000   1.0000   1.0000
     1.0000   1.0000   1.0000   1.0000   1.0000   1.0000   1.0000   1.0000
     1.0000   1.0000   1.0000   1.0000   1.0000   1.0000   1.0000   1.0000
     1.0000   1.0000   1.0000   1.0000   1.0000   1.0000   1.0000   1.0000
     1.0000   1.0000   1.0000   1.0000   1.0000   1.0000   1.0000   1.0000
     1.0000   1.0000   1.0000   1.0000   1.0000   1.0000   1.0000   1.0000
     1.0000   1.0000   1.0000   1.0000   1.0000   1.0000   1.0000   1.0000
     1.0000   1.0000   1.0000   1.0000   1.0000   1.0000   1.0000   1.0000
     1.0000   1.0000   1.0000   1.0000   1.0000   1.0000   1.0000   1.0000
     1.0000   1.0000   1.0000   1.0000   1.0000   0.9442   0.0558  -0.0000
    -0.0000  -0.0000  -0.0000  -0.0000  -0.0000  -0.0000  -0.0000  -0.0000
    -0.0000  -0.0000  -0.0000  -0.0000  -0.0000  -0.0000

     the Fermi energy is    12.0787 ev

!    total energy              =   -3140.08790117 Ry
     estimated scf accuracy    <       0.00000004 Ry
     smearing contrib. (-TS)   =      -0.00004952 Ry
     internal energy E=F+TS    =   -3140.08785166 Ry

     The total energy is F=E-TS. E is the sum of the following terms:
     one-electron contribution =   -2232.06536981 Ry
     hartree contribution      =    1166.21770705 Ry
     xc contribution           =    -309.24743702 Ry
     ewald contribution        =   -1356.75378092 Ry
     one-center paw contrib.   =    -408.23897096 Ry
      -> PAW hartree energy AE =      44.23250601 Ry
      -> PAW hartree energy PS =     -43.97041581 Ry
      -> PAW xc energy AE      =    -417.11183621 Ry
      -> PAW xc energy PS      =       8.61077504 Ry
      -> total E_H with PAW    =    1166.47979725 Ry
      -> total E_XC with PAW   =    -717.74849818 Ry

     convergence has been achieved in  53 iterations

     negative rho (up, down):  1.657E-01 0.000E+00

     Forces acting on atoms (cartesian axes, Ry/au):

     atom    1 type  1   force =     0.00000000    0.00000000    0.00000000
     atom    2 type  2   force =     0.00000000    0.00000000    0.00673836
     atom    3 type  2   force =     0.00000000    0.00000000    0.00430478
     atom    4 type  2   force =     0.00000000    0.00000000   -0.00430478
     atom    5 type  2   force =     0.00000000    0.00000000   -0.00673836
     atom    6 type  3   force =     0.00000000    0.00000000   -0.00957761
     atom    7 type  3   force =     0.00000000    0.00000000   -0.00174860
     atom    8 type  3   force =     0.00000000    0.00000000    0.00000000
     atom    9 type  3   force =     0.00000000    0.00000000    0.00174860
     atom   10 type  3   force =     0.00000000    0.00000000    0.00957761
     The non-local contrib.  to forces
     atom    1 type  1   force =     0.00000000    0.00000000    0.00000000
     atom    2 type  2   force =     0.00000000    0.00000000    0.00311944
     atom    3 type  2   force =     0.00000000    0.00000000    0.00007113
     atom    4 type  2   force =     0.00000000    0.00000000   -0.00007113
     atom    5 type  2   force =     0.00000000    0.00000000   -0.00311944
     atom    6 type  3   force =     0.00000000    0.00000000    0.22389076
     atom    7 type  3   force =     0.00000000    0.00000000    0.01021974
     atom    8 type  3   force =     0.00000000    0.00000000    0.00000000
     atom    9 type  3   force =     0.00000000    0.00000000   -0.01021974
     atom   10 type  3   force =     0.00000000    0.00000000   -0.22389076
     The ionic contribution  to forces
     atom    1 type  1   force =    -0.00000000   -0.00000000   -0.00000000
     atom    2 type  2   force =    -0.00000000   -0.00000000    1.46448844
     atom    3 type  2   force =    -0.00000000   -0.00000000    0.35397577
     atom    4 type  2   force =    -0.00000000   -0.00000000   -0.35397577
     atom    5 type  2   force =    -0.00000000   -0.00000000   -1.46448844
     atom    6 type  3   force =    -0.00000000   -0.00000000    1.47470442
     atom    7 type  3   force =    -0.00000000   -0.00000000    1.83228581
     atom    8 type  3   force =    -0.00000000   -0.00000000   -0.00000000
     atom    9 type  3   force =     0.00000000    0.00000000   -1.83228581
     atom   10 type  3   force =     0.00000000    0.00000000   -1.47470442
     The local contribution  to forces
     atom    1 type  1   force =     0.00003765    0.00013270    0.00062910
     atom    2 type  2   force =     0.00000027    0.00000152   -1.46104800
     atom    3 type  2   force =     0.00000021   -0.00000003   -0.34940172
     atom    4 type  2   force =    -0.00000029    0.00000054    0.34964952
     atom    5 type  2   force =     0.00000131    0.00000117    1.46054301
     atom    6 type  3   force =    -0.00000663   -0.00002432   -1.70849935
     atom    7 type  3   force =    -0.00000029   -0.00000038   -1.84444590
     atom    8 type  3   force =    -0.00000038   -0.00000003    0.00084466
     atom    9 type  3   force =    -0.00000039    0.00000038    1.84338443
     atom   10 type  3   force =    -0.00000699   -0.00002841    1.70855966
     The core correction contribution to forces
     atom    1 type  1   force =     0.00000003    0.00000009    0.00000028
     atom    2 type  2   force =     0.00000002    0.00000003   -0.00007601
     atom    3 type  2   force =     0.00000001   -0.00000001   -0.00002254
     atom    4 type  2   force =    -0.00000002    0.00000003    0.00002282
     atom    5 type  2   force =     0.00000003   -0.00000003    0.00007570
     atom    6 type  3   force =     0.00000000    0.00000000    0.00000000
     atom    7 type  3   force =     0.00000000    0.00000000    0.00000000
     atom    8 type  3   force =     0.00000000    0.00000000    0.00000000
     atom    9 type  3   force =     0.00000000    0.00000000    0.00000000
     atom   10 type  3   force =     0.00000000    0.00000000    0.00000000
     The Hubbard contrib.    to forces
     atom    1 type  1   force =     0.00000000    0.00000000    0.00000000
     atom    2 type  2   force =     0.00000000    0.00000000    0.00000000
     atom    3 type  2   force =     0.00000000    0.00000000    0.00000000
     atom    4 type  2   force =     0.00000000    0.00000000    0.00000000
     atom    5 type  2   force =     0.00000000    0.00000000    0.00000000
     atom    6 type  3   force =     0.00000000    0.00000000    0.00000000
     atom    7 type  3   force =     0.00000000    0.00000000    0.00000000
     atom    8 type  3   force =     0.00000000    0.00000000    0.00000000
     atom    9 type  3   force =     0.00000000    0.00000000    0.00000000
     atom   10 type  3   force =     0.00000000    0.00000000    0.00000000
     The SCF correction term to forces
     atom    1 type  1   force =    -0.00001557   -0.00005466   -0.00042892
     atom    2 type  2   force =    -0.00000019   -0.00000123    0.00025277
     atom    3 type  2   force =    -0.00000015    0.00000002   -0.00031530
     atom    4 type  2   force =     0.00000010   -0.00000024    0.00007233
     atom    5 type  2   force =    -0.00000106   -0.00000139    0.00024909
     atom    6 type  3   force =     0.00000669    0.00002897    0.00034809
     atom    7 type  3   force =     0.00000064    0.00000103    0.00019660
     atom    8 type  3   force =     0.00000075   -0.00000042   -0.00084174
     atom    9 type  3   force =     0.00000129   -0.00000083    0.00087458
     atom   10 type  3   force =     0.00000974    0.00003840   -0.00036536

     Total force =     0.017817     Total SCF correction =     0.001479

     Computing stress (Cartesian axis) and pressure

     negative rho (up, down):  1.657E-01 0.000E+00
          total   stress  (Ry/bohr**3)                   (kbar)     P=     -209.76
  -0.00227399   0.00000000   0.00000000         -334.51        0.00        0.00
   0.00000000  -0.00227399   0.00000000            0.00     -334.51        0.00
   0.00000000   0.00000000   0.00027013            0.00        0.00       39.74

     kinetic stress (kbar)  19354.43      0.00      0.00
                                0.00  19354.43      0.00
                                0.00      0.00  19498.44

     local   stress (kbar)  -9948.31      0.00     -0.00
                                0.00  -9948.34      0.00
                               -0.00      0.00 -10754.20

     nonloc. stress (kbar)   4680.85      0.00      0.00
                                0.00   4680.85      0.00
                                0.00      0.00   5122.13

     hartree stress (kbar)  35842.38      0.00      0.00
                                0.00  35842.38     -0.00
                                0.00     -0.00  36560.22

     exc-cor stress (kbar)  -3758.39     -0.00      0.00
                               -0.00  -3758.39      0.00
                                0.00      0.00  -3758.85

     corecor stress (kbar)  -4566.04      0.00     -0.00
                                0.00  -4566.04     -0.00
                               -0.00     -0.00  -4576.85

     ewald   stress (kbar) -41939.42     -0.00     -0.00
                               -0.00 -41939.42     -0.00
                               -0.00     -0.00 -42051.15

     hubbard stress (kbar)      0.00      0.00      0.00
                                0.00      0.00      0.00
                                0.00      0.00      0.00

     DFT-D   stress (kbar)      0.00      0.00      0.00
                                0.00      0.00      0.00
                                0.00      0.00      0.00

     XDM     stress (kbar)      0.00      0.00      0.00
                                0.00      0.00      0.00
                                0.00      0.00      0.00

     dft-nl  stress (kbar)      0.00      0.00      0.00
                                0.00      0.00      0.00
                                0.00      0.00      0.00

     TS-vdW  stress (kbar)      0.00      0.00      0.00
                                0.00      0.00      0.00
                                0.00      0.00      0.00

[...]

                                0.00      0.00      0.00

     Writing all to output data dir new_calculations/myprefix.save/

     General routines

     Parallel routines

     PAW routines

   This run was terminated on:   3:31:54  21May2023

   JOB DONE.