     Program PWSCF v.7.0 starts on 21May2023 at 15:26:45

     Reading input from espresso_21027.pwi
Warning: card &CELL ignored
Warning: card / ignored

     Current dimensions of program PWSCF are:
     Max number of different atomic species (ntypx) = 10
     Max number of k-points (npk) =  40000
     Max angular momentum in pseudopotentials (lmaxx) =  4
     file In.pbe-dn-rrkjus_psl.0.2.2.UPF: wavefunction(s)  5S renormalized

     gamma-point specific algorithms are used
     Message from routine setup:
     using ibrav=0 with symmetry is DISCOURAGED, use correct ibrav instead

     Subspace diagonalization in iterative solution of the eigenvalue problem:
     a serial algorithm will be used

     Using Slab Decomposition

     bravais-lattice index     =            0
     lattice parameter (alat)  =      12.7222  a.u.
     unit-cell volume          =    1456.0310 (a.u.)^3
     number of atoms/cell      =           10
     number of atomic types    =            3
     number of electrons       =        82.00
     number of Kohn-Sham states=           49
     kinetic-energy cutoff     =      30.0000  Ry
     charge density cutoff     =     240.0000  Ry
     scf convergence threshold =      1.0E-06
     mixing beta               =       0.7000
     number of iterations used =            8  plain     mixing
     Exchange-correlation=  SLA  PW   PBX  PBC
                           (   1   4   3   4   0   0   0)

     celldm(1)=  12.722190  celldm(2)=   0.000000  celldm(3)=   0.000000
     celldm(4)=   0.000000  celldm(5)=   0.000000  celldm(6)=   0.000000

     crystal axes: (cart. coord. in units of alat)
               a(1) = (   1.000000   0.000000   0.000000 )
               a(2) = (   0.500000   0.866025   0.000000 )
               a(3) = (   0.500000   0.288675   0.816497 )

     reciprocal axes: (cart. coord. in units 2 pi/alat)
               b(1) = (  1.000000 -0.577350 -0.408248 )
               b(2) = (  0.000000  1.154701 -0.408248 )
               b(3) = (  0.000000  0.000000  1.224745 )

     PseudoPot. # 1 for Rb read from file:
     /home/pragov/projects/rrg-bengioy-ad/pragov/crystal_structure_design/SSSP/Rb_ONCV_PBE-1.0.oncvpsp.upf
     MD5 check sum: 55a5172d6bfbce6759a58e35d43f6aa9
     Pseudo is Norm-conserving, Zval =  9.0
     Generated using ONCVPSP code by D. R. Hamann
     Using radial grid of 2308 points,  6 beta functions with:
                l(1) =   0
                l(2) =   0
                l(3) =   1
                l(4) =   1
                l(5) =   2
                l(6) =   2

     PseudoPot. # 2 for In read from file:
     /home/pragov/projects/rrg-bengioy-ad/pragov/crystal_structure_design/SSSP/In.pbe-dn-rrkjus_psl.0.2.2.UPF
     MD5 check sum: 25e7c42c3b55b68f4bf926be2e7201a4
     Pseudo is Ultrasoft + core correction, Zval = 13.0
     Generated using "atomic" code by A. Dal Corso  v.5.0.99 svn rev. 10869
     Using radial grid of 1241 points,  6 beta functions with:
                l(1) =   0
                l(2) =   0
                l(3) =   1
                l(4) =   1
                l(5) =   2
                l(6) =   2
     Q(r) pseudized with 0 coefficients

     PseudoPot. # 3 for F  read from file:
     /home/pragov/projects/rrg-bengioy-ad/pragov/crystal_structure_design/SSSP/f_pbe_v1.4.uspp.F.UPF
     MD5 check sum: 4c38b6a325caf53ec0e86aed9459de46
     Pseudo is Ultrasoft, Zval =  7.0
     Generated by new atomic code, or converted to UPF format
     Using radial grid of  799 points,  4 beta functions with:
                l(1) =   0
                l(2) =   0
                l(3) =   1
                l(4) =   1
     Q(r) pseudized with  8 coefficients,  rinner =    0.950   0.950   0.950

     atomic species   valence    mass     pseudopotential
        Rb             9.00    85.46780     Rb( 1.00)
        In            13.00   114.81800     In( 1.00)
        F              7.00    18.99840     F ( 1.00)

     12 Sym. Ops., with inversion, found

                                    s                        frac. trans.

      isym =  1     identity

 cryst.   s( 1) = (     1          0          0      )
                  (     0          1          0      )
                  (     0          0          1      )

 cart.    s( 1) = (  1.0000000  0.0000000  0.0000000 )
                  (  0.0000000  1.0000000  0.0000000 )
                  (  0.0000000  0.0000000  1.0000000 )

      isym =  2     180 deg rotation - cart. axis [1,0,0]

[...]

      isym =  3     120 deg rotation - cryst. axis [0,0,1]

[...]

      isym =  6     180 deg rotation - cryst. axis [1,1,0]

[...]

      isym =  7     inversion

[...]

      isym =  8     inv. 180 deg rotation - cart. axis [1,0,0]

[...]

      isym =  9     inv. 120 deg rotation - cryst. axis [0,0,1]

 cryst.   s( 9) = (     1         -1          0      )
                  (     1          0          0      )
                  (     1          0         -1      )

 cart.    s( 9) = (  0.5000000  0.8660254  0.0000000 )
                  ( -0.8660254  0.5000000 -0.0000000 )
                  (  0.0000000  0.0000000 -1.0000000 )

[...]

 cryst.   s(10) = (     0          1          0      )
                  (    -1          1          0      )
                  (     0          1         -1      )

 cart.    s(10) = (  0.5000000 -0.8660254  0.0000000 )
                  (  0.8660254  0.5000000 -0.0000000 )
                  (  0.0000000  0.0000000 -1.0000000 )

[...]

      isym = 12     inv. 180 deg rotation - cryst. axis [1,1,0]

 cryst.   s(12) = (     1         -1          0      )
                  (     0         -1          0      )
                  (     0         -1          1      )

 cart.    s(12) = (  0.5000000 -0.8660254  0.0000000 )
                  ( -0.8660254 -0.5000000  0.0000000 )
                  (  0.0000000  0.0000000  1.0000000 )

   Cartesian axes

     site n.     atom                  positions (alat units)
         1           Rb  tau(   1) = (   1.5000000   0.8660254   0.6123724  )
         2           Rb  tau(   2) = (   0.5000000   0.2886751   0.2041241  )
         3           Rb  tau(   3) = (   1.0000000   0.5773503   0.4082483  )
         4           In  tau(   4) = (   0.0000000   0.0000000   0.0000000  )
         5           F   tau(   5) = (   1.0000000   0.2554452   0.1806270  )
         6           F   tau(   6) = (   0.7212220   0.4163977   0.6358696  )
         7           F   tau(   7) = (   1.0000000   0.8992554   0.6358696  )
         8           F   tau(   8) = (   0.7212220   0.7383028   0.1806270  )
         9           F   tau(   9) = (   1.2787780   0.4163977   0.6358696  )
        10           F   tau(  10) = (   1.2787780   0.7383028   0.1806270  )

   Crystallographic axes

     site n.     atom                  positions (cryst. coord.)
         1           Rb  tau(   1) = (  0.7500000  0.7500000  0.7500000  )
         2           Rb  tau(   2) = (  0.2500000  0.2500000  0.2500000  )
         3           Rb  tau(   3) = (  0.5000000  0.5000000  0.5000000  )
         4           In  tau(   4) = (  0.0000000  0.0000000  0.0000000  )
         5           F   tau(   5) = (  0.7787780  0.2212220  0.2212220  )
         6           F   tau(   6) = (  0.2212220  0.2212220  0.7787780  )
         7           F   tau(   7) = (  0.2212220  0.7787780  0.7787780  )
         8           F   tau(   8) = (  0.2212220  0.7787780  0.2212220  )
         9           F   tau(   9) = (  0.7787780  0.2212220  0.7787780  )
        10           F   tau(  10) = (  0.7787780  0.7787780  0.2212220  )

     number of k points=     1  Methfessel-Paxton smearing, width (Ry)=  0.0010
                       cart. coord. in units 2pi/alat
        k(    1) = (   0.0000000   0.0000000   0.0000000), wk =   2.0000000

                       cryst. coord.
        k(    1) = (   0.0000000   0.0000000   0.0000000), wk =   2.0000000

     Initial potential from superposition of free atoms

     starting charge      81.9220, renormalised to      82.0000
     Starting wfcs are   48 randomized atomic wfcs +    1 random wfcs

     Self-consistent Calculation

     iteration #  1     ecut=    30.00 Ry     beta= 0.70
     Davidson diagonalization with overlap

     ethr =  1.00E-02,  avg # of iterations =  5.0

     total energy              =    -583.52256006 Ry
     estimated scf accuracy    <       1.40417881 Ry

[...]

     total energy              =    -584.15006831 Ry
     estimated scf accuracy    <       0.00000179 Ry

     iteration #  8     ecut=    30.00 Ry     beta= 0.70
     Davidson diagonalization with overlap

     ethr =  2.19E-09,  avg # of iterations =  2.0

     End of self-consistent calculation

          k = 0.0000 0.0000 0.0000 (  2008 PWs)   bands (ev):

   -22.6648 -22.6529 -21.2460 -18.4248 -18.2512 -18.2507 -18.2186 -18.2180
   -18.2177  -9.4343  -9.4342  -9.4342  -9.3519  -9.3518  -6.7814  -6.7814
    -6.7814  -6.7254  -6.7254  -6.7254  -5.4735  -5.4735  -5.4735  -2.4198
    -0.4443  -0.4440  -0.4439   0.1683   0.1684   0.1686   0.6414   0.6416
     0.6418   0.6821   0.6821   0.6821   0.7675   0.7679   1.0075   1.0076
     1.0079   6.0710   9.5828   9.6454   9.9156   9.9157   9.9157  10.8593
    10.8593

     occupation numbers
     1.0000   1.0000   1.0000   1.0000   1.0000   1.0000   1.0000   1.0000
     1.0000   1.0000   1.0000   1.0000   1.0000   1.0000   1.0000   1.0000
     1.0000   1.0000   1.0000   1.0000   1.0000   1.0000   1.0000   1.0000
     1.0000   1.0000   1.0000   1.0000   1.0000   1.0000   1.0000   1.0000
     1.0000   1.0000   1.0000   1.0000   1.0000   1.0000   1.0000   1.0000
     1.0000  -0.0000  -0.0000  -0.0000  -0.0000  -0.0000  -0.0000  -0.0000
    -0.0000

     the Fermi energy is     2.5463 ev

!    total energy              =    -584.15006872 Ry
     estimated scf accuracy    <       0.00000004 Ry
     smearing contrib. (-TS)   =       0.00000000 Ry
     internal energy E=F+TS    =    -584.15006872 Ry

     The total energy is F=E-TS. E is the sum of the following terms:
     one-electron contribution =    -329.97154137 Ry
     hartree contribution      =     208.93824556 Ry
     xc contribution           =    -126.81964888 Ry
     ewald contribution        =    -336.29712403 Ry

     convergence has been achieved in   8 iterations

     Forces acting on atoms (cartesian axes, Ry/au):

     atom    1 type  1   force =     0.00000000    0.00000000   -0.00000248
     atom    2 type  1   force =    -0.00000000   -0.00000000    0.00000248
     atom    3 type  1   force =     0.00000000    0.00000000   -0.00000000
     atom    4 type  2   force =     0.00000000    0.00000000   -0.00000000
     atom    5 type  3   force =     0.00000000    0.00041313    0.00029299
     atom    6 type  3   force =     0.00035778    0.00020656   -0.00029299
     atom    7 type  3   force =     0.00000000   -0.00041313   -0.00029299
     atom    8 type  3   force =     0.00035778   -0.00020656    0.00029299
     atom    9 type  3   force =    -0.00035778    0.00020656   -0.00029299
     atom   10 type  3   force =    -0.00035778   -0.00020656    0.00029299
     The non-local contrib.  to forces
     atom    1 type  1   force =     0.00000000    0.00000000    0.00000039
     atom    2 type  1   force =     0.00000000   -0.00000000   -0.00000039
     atom    3 type  1   force =     0.00000000    0.00000000   -0.00000000
     atom    4 type  2   force =     0.00000000    0.00000000   -0.00000000
     atom    5 type  3   force =     0.00000000   -0.51589877   -0.36479578
     atom    6 type  3   force =    -0.44678144   -0.25794939    0.36479578
     atom    7 type  3   force =     0.00000000    0.51589877    0.36479578
     atom    8 type  3   force =    -0.44678144    0.25794939   -0.36479578
     atom    9 type  3   force =     0.44678144   -0.25794939    0.36479578
     atom   10 type  3   force =     0.44678144    0.25794939   -0.36479578
     The ionic contribution  to forces
     atom    1 type  1   force =     0.00000000    0.00000000    0.00000000
     atom    2 type  1   force =    -0.00000000   -0.00000000   -0.00000000
     atom    3 type  1   force =     0.00000000    0.00000000    0.00000000
     atom    4 type  2   force =     0.00000000   -0.00000000    0.00000000
     atom    5 type  3   force =    -0.00000000    7.61514715    5.38472219
     atom    6 type  3   force =     6.59491088    3.80757357   -5.38472219
     atom    7 type  3   force =    -0.00000000   -7.61514715   -5.38472219
     atom    8 type  3   force =     6.59491088   -3.80757357    5.38472219
     atom    9 type  3   force =    -6.59491088    3.80757357   -5.38472219
     atom   10 type  3   force =    -6.59491088   -3.80757357    5.38472219
     The local contribution  to forces
     atom    1 type  1   force =     0.00000274   -0.00000169    0.00000265
     atom    2 type  1   force =    -0.00000335    0.00000213   -0.00000401
     atom    3 type  1   force =    -0.00000251   -0.00002988    0.00000507
     atom    4 type  2   force =    -0.00000011    0.00000676    0.00000157
     atom    5 type  3   force =     0.00000074   -7.09883920   -5.01963442
     atom    6 type  3   force =    -6.14774916   -3.54940812    5.01961892
     atom    7 type  3   force =    -0.00000122    7.09882997    5.01963674
     atom    8 type  3   force =    -6.14773885    3.54939409   -5.01960691
     atom    9 type  3   force =     6.14773777   -3.54940251    5.01960734
     atom   10 type  3   force =     6.14774775    3.54939808   -5.01961590
     The core correction contribution to forces
     atom    1 type  1   force =     0.00000000    0.00000000    0.00000000
     atom    2 type  1   force =     0.00000000    0.00000000    0.00000000
     atom    3 type  1   force =     0.00000000    0.00000000    0.00000000
     atom    4 type  2   force =     0.00000004   -0.00000240    0.00000010
     atom    5 type  3   force =     0.00000000    0.00000000    0.00000000
     atom    6 type  3   force =     0.00000000    0.00000000    0.00000000
     atom    7 type  3   force =     0.00000000    0.00000000    0.00000000
     atom    8 type  3   force =     0.00000000    0.00000000    0.00000000
     atom    9 type  3   force =     0.00000000    0.00000000    0.00000000
     atom   10 type  3   force =     0.00000000    0.00000000    0.00000000
     The Hubbard contrib.    to forces
     atom    1 type  1   force =     0.00000000    0.00000000    0.00000000
     atom    2 type  1   force =     0.00000000    0.00000000    0.00000000
     atom    3 type  1   force =     0.00000000    0.00000000    0.00000000
     atom    4 type  2   force =     0.00000000    0.00000000    0.00000000
     atom    5 type  3   force =     0.00000000    0.00000000    0.00000000
     atom    6 type  3   force =     0.00000000    0.00000000    0.00000000
     atom    7 type  3   force =     0.00000000    0.00000000    0.00000000
     atom    8 type  3   force =     0.00000000    0.00000000    0.00000000
     atom    9 type  3   force =     0.00000000    0.00000000    0.00000000
     atom   10 type  3   force =     0.00000000    0.00000000    0.00000000
     The SCF correction term to forces
     atom    1 type  1   force =    -0.00000412    0.00000020   -0.00000432
     atom    2 type  1   force =     0.00000293   -0.00000206    0.00000809
     atom    3 type  1   force =     0.00000342    0.00003660   -0.00000626
     atom    4 type  2   force =    -0.00001078   -0.00004331    0.00001176
     atom    5 type  3   force =    -0.00000285   -0.00002222   -0.00001353
     atom    6 type  3   force =    -0.00002261   -0.00001402    0.00001493
     atom    7 type  3   force =     0.00000124    0.00001364    0.00000544
     atom    8 type  3   force =    -0.00001778    0.00001081   -0.00001360
     atom    9 type  3   force =     0.00002221   -0.00001239    0.00001853
     atom   10 type  3   force =     0.00001933    0.00001540   -0.00001423

     Total force =     0.001241     Total SCF correction =     0.000089

     Computing stress (Cartesian axis) and pressure

          total   stress  (Ry/bohr**3)                   (kbar)     P=      -57.77
  -0.00039274  -0.00000000  -0.00000000          -57.77       -0.00       -0.00
   0.00000000  -0.00039274  -0.00000000            0.00      -57.77       -0.00
  -0.00000000  -0.00000000  -0.00039274           -0.00       -0.00      -57.77

     kinetic stress (kbar)  12114.13      0.00      0.00
                                0.00  12114.13      0.00
                               -0.00      0.00  12114.13

     local   stress (kbar)  -5467.80     -0.01      0.02
                               -0.01  -5467.86     -0.04
                                0.02     -0.04  -5467.83

     nonloc. stress (kbar)    882.68     -0.00     -0.00
                               -0.00    882.68     -0.00
                               -0.00      0.00    882.68

     hartree stress (kbar)   7036.43      0.01     -0.01
                                0.01   7036.48      0.03
                               -0.01      0.03   7036.45

     exc-cor stress (kbar)   -339.22     -0.00      0.00
                               -0.00   -339.22     -0.00
                                0.00     -0.00   -339.22

     corecor stress (kbar)  -2958.44      0.00     -0.00
                                0.00  -2958.44      0.00
                               -0.00      0.00  -2958.44

     ewald   stress (kbar) -11325.54      0.00      0.00
                                0.00 -11325.54      0.00
                                0.00      0.00 -11325.54

     hubbard stress (kbar)      0.00      0.00      0.00
                                0.00      0.00      0.00
                                0.00      0.00      0.00

     DFT-D   stress (kbar)      0.00      0.00      0.00
                                0.00      0.00      0.00
                                0.00      0.00      0.00

     XDM     stress (kbar)      0.00      0.00      0.00
                                0.00      0.00      0.00
                                0.00      0.00      0.00

     dft-nl  stress (kbar)      0.00      0.00      0.00
                                0.00      0.00      0.00
                                0.00      0.00      0.00

     TS-vdW  stress (kbar)      0.00      0.00      0.00
                                0.00      0.00      0.00
                                0.00      0.00      0.00

[...]

                                0.00      0.00      0.00

     Writing all to output data dir new_calculations/myprefix.save/

     General routines

     Parallel routines

   This run was terminated on:  15:26:55  21May2023

   JOB DONE.