     Program PWSCF v.7.0 starts on 21May2023 at 15:59:55

     Reading input from espresso_21046.pwi
Warning: card &CELL ignored
Warning: card / ignored

     Current dimensions of program PWSCF are:
     Max number of different atomic species (ntypx) = 10
     Max number of k-points (npk) =  40000
     Max angular momentum in pseudopotentials (lmaxx) =  4

     gamma-point specific algorithms are used
     Message from routine setup:
     using ibrav=0 with symmetry is DISCOURAGED, use correct ibrav instead

     Subspace diagonalization in iterative solution of the eigenvalue problem:
     a serial algorithm will be used

     Using Slab Decomposition

     bravais-lattice index     =            0
     lattice parameter (alat)  =      15.0847  a.u.
     unit-cell volume          =    2427.1304 (a.u.)^3
     number of atoms/cell      =           10
     number of atomic types    =            4
     number of electrons       =        75.00
     number of Kohn-Sham states=           46
     kinetic-energy cutoff     =      30.0000  Ry
     charge density cutoff     =     240.0000  Ry
     scf convergence threshold =      1.0E-06
     mixing beta               =       0.7000
     number of iterations used =            8  plain     mixing
     Exchange-correlation=  SLA  PW   PBX  PBC
                           (   1   4   3   4   0   0   0)

     celldm(1)=  15.084678  celldm(2)=   0.000000  celldm(3)=   0.000000
     celldm(4)=   0.000000  celldm(5)=   0.000000  celldm(6)=   0.000000

     crystal axes: (cart. coord. in units of alat)
               a(1) = (   1.000000   0.000000   0.000000 )
               a(2) = (   0.500000   0.866025   0.000000 )
               a(3) = (   0.500000   0.288675   0.816497 )

     reciprocal axes: (cart. coord. in units 2 pi/alat)
               b(1) = (  1.000000 -0.577350 -0.408248 )
               b(2) = (  0.000000  1.154701 -0.408248 )
               b(3) = (  0.000000  0.000000  1.224745 )

     PseudoPot. # 1 for Rb read from file:
     /home/pragov/projects/rrg-bengioy-ad/pragov/crystal_structure_design/SSSP/Rb_ONCV_PBE-1.0.oncvpsp.upf
     MD5 check sum: 55a5172d6bfbce6759a58e35d43f6aa9
     Pseudo is Norm-conserving, Zval =  9.0
     Generated using ONCVPSP code by D. R. Hamann
     Using radial grid of 2308 points,  6 beta functions with:
                l(1) =   0
                l(2) =   0
                l(3) =   1
                l(4) =   1
                l(5) =   2
                l(6) =   2

     PseudoPot. # 2 for Li read from file:
     /home/pragov/projects/rrg-bengioy-ad/pragov/crystal_structure_design/SSSP/li_pbe_v1.4.uspp.F.UPF
     MD5 check sum: e912e257baa3777c20ea3d68f190483c
     Pseudo is Ultrasoft, Zval =  3.0
     Generated by new atomic code, or converted to UPF format
     Using radial grid of  751 points,  5 beta functions with:
                l(1) =   0
                l(2) =   0
                l(3) =   0
                l(4) =   1
                l(5) =   1
     Q(r) pseudized with 10 coefficients,  rinner =    1.150   1.150   1.150

     PseudoPot. # 3 for Ce read from file:
     /home/pragov/projects/rrg-bengioy-ad/pragov/crystal_structure_design/SSSP/Ce.GGA-PBE-paw-v1.0.UPF
     MD5 check sum: f2b950f613061344c13339c8d844425d
     Pseudo is Projector augmented-wave + core cor, Zval = 12.0
     Generated using ATOMPAW code
     Shape of augmentation charge: BESSEL
     Using radial grid of 1102 points,  8 beta functions with:
                l(1) =   0
                l(2) =   0
                l(3) =   1
                l(4) =   1
                l(5) =   2
                l(6) =   2
                l(7) =   3
                l(8) =   3
     Q(r) pseudized with 0 coefficients

     PseudoPot. # 4 for Br read from file:
     /home/pragov/projects/rrg-bengioy-ad/pragov/crystal_structure_design/SSSP/br_pbe_v1.4.uspp.F.UPF
     MD5 check sum: d3ffb7b29f6225aa16fe06858fb2a80b
     Pseudo is Ultrasoft + core correction, Zval =  7.0
     Generated by new atomic code, or converted to UPF format
     Using radial grid of  879 points,  6 beta functions with:
                l(1) =   0
                l(2) =   0
                l(3) =   1
                l(4) =   1
                l(5) =   2
                l(6) =   2
     Q(r) pseudized with  8 coefficients,  rinner =    1.100   1.100   1.100
                                                       1.100   1.100

     atomic species   valence    mass     pseudopotential
        Rb             9.00    85.46780     Rb( 1.00)
        Li             3.00     6.94000     Li( 1.00)
        Ce            12.00   140.11600     Ce( 1.00)
        Br             7.00    79.90400     Br( 1.00)

     12 Sym. Ops., with inversion, found

                                    s                        frac. trans.

      isym =  1     identity

 cryst.   s( 1) = (     1          0          0      )
                  (     0          1          0      )
                  (     0          0          1      )

 cart.    s( 1) = (  1.0000000  0.0000000  0.0000000 )
                  (  0.0000000  1.0000000  0.0000000 )
                  (  0.0000000  0.0000000  1.0000000 )

      isym =  2     180 deg rotation - cart. axis [1,0,0]

[...]

      isym =  3     120 deg rotation - cryst. axis [0,0,1]

[...]

      isym =  6     180 deg rotation - cryst. axis [1,1,0]

[...]

      isym =  7     inversion

[...]

      isym =  8     inv. 180 deg rotation - cart. axis [1,0,0]

[...]

      isym =  9     inv. 120 deg rotation - cryst. axis [0,0,1]

 cryst.   s( 9) = (     1         -1          0      )
                  (     1          0          0      )
                  (     1          0         -1      )

 cart.    s( 9) = (  0.5000000  0.8660254 -0.0000000 )
                  ( -0.8660254  0.5000000 -0.0000000 )
                  (  0.0000000  0.0000000 -1.0000000 )

[...]

 cryst.   s(10) = (     0          1          0      )
                  (    -1          1          0      )
                  (     0          1         -1      )

 cart.    s(10) = (  0.5000000 -0.8660254  0.0000000 )
                  (  0.8660254  0.5000000 -0.0000000 )
                  (  0.0000000  0.0000000 -1.0000000 )

[...]

      isym = 12     inv. 180 deg rotation - cryst. axis [1,1,0]

 cryst.   s(12) = (     1         -1          0      )
                  (     0         -1          0      )
                  (     0         -1          1      )

 cart.    s(12) = (  0.5000000 -0.8660254  0.0000000 )
                  ( -0.8660254 -0.5000000  0.0000000 )
                  (  0.0000000  0.0000000  1.0000000 )

   Cartesian axes

     site n.     atom                  positions (alat units)
         1           Rb  tau(   1) = (   1.5000000   0.8660254   0.6123724  )
         2           Rb  tau(   2) = (   0.5000000   0.2886751   0.2041241  )
         3           Li  tau(   3) = (   1.0000000   0.5773503   0.4082483  )
         4           Ce  tau(   4) = (   0.0000000   0.0000000   0.0000000  )
         5           Br  tau(   5) = (   1.0000000   0.2959913   0.2092975  )
         6           Br  tau(   6) = (   0.7563360   0.4366708   0.6071991  )
         7           Br  tau(   7) = (   1.0000000   0.8587092   0.6071991  )
         8           Br  tau(   8) = (   0.7563360   0.7180297   0.2092975  )
         9           Br  tau(   9) = (   1.2436640   0.4366708   0.6071991  )
        10           Br  tau(  10) = (   1.2436640   0.7180297   0.2092975  )

   Crystallographic axes

     site n.     atom                  positions (cryst. coord.)
         1           Rb  tau(   1) = (  0.7500000  0.7500000  0.7500000  )
         2           Rb  tau(   2) = (  0.2500000  0.2500000  0.2500000  )
         3           Li  tau(   3) = (  0.5000000  0.5000000  0.5000000  )
         4           Ce  tau(   4) = (  0.0000000  0.0000000  0.0000000  )
         5           Br  tau(   5) = (  0.7436640  0.2563360  0.2563360  )
         6           Br  tau(   6) = (  0.2563360  0.2563360  0.7436640  )
         7           Br  tau(   7) = (  0.2563360  0.7436640  0.7436640  )
         8           Br  tau(   8) = (  0.2563360  0.7436640  0.2563360  )
         9           Br  tau(   9) = (  0.7436640  0.2563360  0.7436640  )
        10           Br  tau(  10) = (  0.7436640  0.7436640  0.2563360  )

     number of k points=     1  Methfessel-Paxton smearing, width (Ry)=  0.0010
                       cart. coord. in units 2pi/alat
        k(    1) = (   0.0000000   0.0000000   0.0000000), wk =   2.0000000

                       cryst. coord.
        k(    1) = (   0.0000000   0.0000000   0.0000000), wk =   2.0000000

     Check: negative core charge=   -0.000001

     Initial potential from superposition of free atoms

     starting charge      74.4926, renormalised to      75.0000
     Starting wfcs are   71 randomized atomic wfcs
     Checking if some PAW data can be deallocated...

     Self-consistent Calculation

     iteration #  1     ecut=    30.00 Ry     beta= 0.70
     Davidson diagonalization with overlap

     ethr =  1.00E-02,  avg # of iterations =  2.0

     Threshold (ethr) on eigenvalues was too large:
     Diagonalizing with lowered threshold

     Davidson diagonalization with overlap

[...]

     total energy              =    -876.46565654 Ry
     estimated scf accuracy    <       0.35411114 Ry

[...]

     ethr =  4.22E-05,  avg # of iterations =  1.0
     Minimization algorithm failed to find Fermi energy: reverting to bisection
     Possible cause: smearing is larger than the electronic band-gap.

[...]

     ethr =  7.55E-07,  avg # of iterations =  1.0
     Minimization algorithm failed to find Fermi energy: reverting to bisection
     Possible cause: smearing is larger than the electronic band-gap.

[...]

     total energy              =    -876.54892769 Ry
     estimated scf accuracy    <       0.00000214 Ry

     iteration # 69     ecut=    30.00 Ry     beta= 0.70
     Davidson diagonalization with overlap

     ethr =  2.85E-09,  avg # of iterations =  1.0

     End of self-consistent calculation

          k = 0.0000 0.0000 0.0000 (  3368 PWs)   bands (ev):

   -42.5162 -30.3629 -23.5031 -23.5023 -13.5413 -13.5331 -13.5307 -10.8792
   -10.5540 -10.5529 -10.3435 -10.3415 -10.3412  -7.5814  -7.5813  -7.5809
    -7.5666  -7.5665  -7.5661  -0.6065   0.3528   0.3534   0.3543   0.4317
     0.4327   0.4328   0.7073   0.7098   1.5225   1.5234   1.5236   1.7940
     1.7944   1.7949   2.1563   2.1574   2.1578   5.3260   5.3325   5.3457
     5.3490   5.4117   5.4130   5.4172   6.1694   6.4749

     occupation numbers
     1.0000   1.0000   1.0000   1.0000   1.0000   1.0000   1.0000   1.0000
     1.0000   1.0000   1.0000   1.0000   1.0000   1.0000   1.0000   1.0000
     1.0000   1.0000   1.0000   1.0000   1.0000   1.0000   1.0000   1.0000
     1.0000   1.0000   1.0000   1.0000   1.0000   1.0000   1.0000   1.0000
     1.0000   1.0000   1.0000   1.0000   1.0000   0.4379   0.1045  -0.0266
    -0.0158  -0.0000  -0.0000  -0.0000  -0.0000  -0.0000

     the Fermi energy is     5.3250 ev

!    total energy              =    -876.54892755 Ry
     estimated scf accuracy    <       0.00000044 Ry
     smearing contrib. (-TS)   =      -0.00019444 Ry
     internal energy E=F+TS    =    -876.54873311 Ry

     The total energy is F=E-TS. E is the sum of the following terms:
     one-electron contribution =     -97.03048995 Ry
     hartree contribution      =      74.54453378 Ry
     xc contribution           =    -185.95832010 Ry
     ewald contribution        =    -259.64863298 Ry
     one-center paw contrib.   =    -408.45582386 Ry
      -> PAW hartree energy AE =      44.75842226 Ry
      -> PAW hartree energy PS =     -44.44099863 Ry
      -> PAW xc energy AE      =    -417.42363007 Ry
      -> PAW xc energy PS      =       8.65038258 Ry
      -> total E_H with PAW    =      74.86195741 Ry
      -> total E_XC with PAW   =    -594.73156759 Ry

     convergence has been achieved in  69 iterations

     Forces acting on atoms (cartesian axes, Ry/au):

     atom    1 type  1   force =     0.00000000    0.00000000    0.00001117
     atom    2 type  1   force =     0.00000000    0.00000000   -0.00001117
     atom    3 type  2   force =    -0.00000000   -0.00000000    0.00000000
     atom    4 type  3   force =    -0.00000000   -0.00000000    0.00000000
     atom    5 type  4   force =     0.00000000   -0.00595815   -0.00421978
     atom    6 type  4   force =    -0.00515991   -0.00297908    0.00421978
     atom    7 type  4   force =     0.00000000    0.00595815    0.00421978
     atom    8 type  4   force =    -0.00515991    0.00297908   -0.00421978
     atom    9 type  4   force =     0.00515991   -0.00297908    0.00421978
     atom   10 type  4   force =     0.00515991    0.00297908   -0.00421978
     The non-local contrib.  to forces
     atom    1 type  1   force =     0.00000000    0.00000000   -0.00000221
     atom    2 type  1   force =     0.00000000    0.00000000    0.00000221
     atom    3 type  2   force =    -0.00000000    0.00000000    0.00000000
     atom    4 type  3   force =    -0.00000000   -0.00000000   -0.00000000
     atom    5 type  4   force =     0.00000000   -0.01691417   -0.01193880
     atom    6 type  4   force =    -0.01464810   -0.00845708    0.01193880
     atom    7 type  4   force =     0.00000000    0.01691417    0.01193880
     atom    8 type  4   force =    -0.01464810    0.00845708   -0.01193880
     atom    9 type  4   force =     0.01464810   -0.00845708    0.01193880
     atom   10 type  4   force =     0.01464810    0.00845708   -0.01193880
     The ionic contribution  to forces
     atom    1 type  1   force =    -0.00000000   -0.00000000   -0.00000000
     atom    2 type  1   force =    -0.00000000    0.00000000   -0.00000000
     atom    3 type  2   force =    -0.00000000   -0.00000000    0.00000000
     atom    4 type  3   force =    -0.00000000    0.00000000    0.00000000
     atom    5 type  4   force =     0.00000000    2.08600575    1.47502881
     atom    6 type  4   force =     1.80653397    1.04300287   -1.47502881
     atom    7 type  4   force =    -0.00000000   -2.08600575   -1.47502881
     atom    8 type  4   force =     1.80653397   -1.04300287    1.47502881
     atom    9 type  4   force =    -1.80653397    1.04300287   -1.47502881
     atom   10 type  4   force =    -1.80653397   -1.04300287    1.47502881
     The local contribution  to forces
     atom    1 type  1   force =     0.00000995   -0.00007899    0.00002566
     atom    2 type  1   force =    -0.00000666    0.00007632   -0.00002379
     atom    3 type  2   force =    -0.00000052    0.00000030   -0.00000006
     atom    4 type  3   force =    -0.00000914    0.00000675   -0.00001095
     atom    5 type  4   force =     0.00001906   -2.07735194   -1.46904469
     atom    6 type  4   force =    -1.79897108   -1.03844608    1.46880103
     atom    7 type  4   force =    -0.00002153    2.07735211    1.46904109
     atom    8 type  4   force =    -1.79898110    1.03846927   -1.46881978
     atom    9 type  4   force =     1.79898486   -1.03847067    1.46882419
     atom   10 type  4   force =     1.79896948    1.03844825   -1.46880463
     The core correction contribution to forces
     atom    1 type  1   force =     0.00000000    0.00000000    0.00000000
     atom    2 type  1   force =     0.00000000    0.00000000    0.00000000
     atom    3 type  2   force =     0.00000000    0.00000000    0.00000000
     atom    4 type  3   force =    -0.00000001    0.00000000   -0.00000001
     atom    5 type  4   force =    -0.00000022    0.00222176    0.00159045
     atom    6 type  4   force =     0.00192147    0.00109027   -0.00156067
     atom    7 type  4   force =     0.00000016   -0.00222159   -0.00159031
     atom    8 type  4   force =     0.00192155   -0.00109015    0.00156131
     atom    9 type  4   force =    -0.00192116    0.00109001   -0.00156109
     atom   10 type  4   force =    -0.00192162   -0.00109027    0.00156068
     The Hubbard contrib.    to forces
     atom    1 type  1   force =     0.00000000    0.00000000    0.00000000
     atom    2 type  1   force =     0.00000000    0.00000000    0.00000000
     atom    3 type  2   force =     0.00000000    0.00000000    0.00000000
     atom    4 type  3   force =     0.00000000    0.00000000    0.00000000
     atom    5 type  4   force =     0.00000000    0.00000000    0.00000000
     atom    6 type  4   force =     0.00000000    0.00000000    0.00000000
     atom    7 type  4   force =     0.00000000    0.00000000    0.00000000
     atom    8 type  4   force =     0.00000000    0.00000000    0.00000000
     atom    9 type  4   force =     0.00000000    0.00000000    0.00000000
     atom   10 type  4   force =     0.00000000    0.00000000    0.00000000
     The SCF correction term to forces
     atom    1 type  1   force =    -0.00001060    0.00002790   -0.00001248
     atom    2 type  1   force =     0.00000588   -0.00002391    0.00001020
     atom    3 type  2   force =     0.00000149   -0.00000092    0.00000076
     atom    4 type  3   force =     0.00000643   -0.00000591    0.00000562
     atom    5 type  4   force =    -0.00001174   -0.00002699    0.00003986
     atom    6 type  4   force =    -0.00000301   -0.00005820    0.00001158
     atom    7 type  4   force =     0.00001603    0.00002612   -0.00003563
     atom    8 type  4   force =     0.00001164    0.00002956   -0.00000667
     atom    9 type  4   force =    -0.00002016   -0.00002681   -0.00000200
     atom   10 type  4   force =     0.00000776    0.00005396   -0.00000716

     Total force =     0.017884     Total SCF correction =     0.000124

     Computing stress (Cartesian axis) and pressure

          total   stress  (Ry/bohr**3)                   (kbar)     P=       22.41
   0.00015244  -0.00000000   0.00000000           22.42       -0.00        0.00
   0.00000000   0.00015244  -0.00000000            0.00       22.42       -0.00
   0.00000000  -0.00000000   0.00015207            0.00       -0.00       22.37

     kinetic stress (kbar)   4265.95     -0.00     -0.00
                               -0.00   4265.95     -0.00
                               -0.00     -0.00   4265.17

     local   stress (kbar)   1534.55     -0.04     -0.10
                               -0.04   1534.83      1.67
                               -0.10      1.67   1534.87

     nonloc. stress (kbar)   -559.83     -0.00     -0.00
                                0.00   -559.83      0.00
                               -0.00      0.00   -559.12

     hartree stress (kbar)   1505.83      0.00      0.02
                                0.00   1506.31     -0.39
                                0.02     -0.39   1505.90

     exc-cor stress (kbar)   6000.95     -0.00     -0.00
                               -0.00   6000.99     -0.01
                               -0.00     -0.01   6000.96

     corecor stress (kbar)  -7479.76     -0.00      0.00
                               -0.00  -7479.81      0.03
                                0.00      0.03  -7479.76

     ewald   stress (kbar)  -5245.65      0.00     -0.00
                                0.00  -5245.65      0.00
                               -0.00      0.00  -5245.65

     hubbard stress (kbar)      0.00      0.00      0.00
                                0.00      0.00      0.00
                                0.00      0.00      0.00

     DFT-D   stress (kbar)      0.00      0.00      0.00
                                0.00      0.00      0.00
                                0.00      0.00      0.00

     XDM     stress (kbar)      0.00      0.00      0.00
                                0.00      0.00      0.00
                                0.00      0.00      0.00

     dft-nl  stress (kbar)      0.00      0.00      0.00
                                0.00      0.00      0.00
                                0.00      0.00      0.00

     TS-vdW  stress (kbar)      0.00      0.00      0.00
                                0.00      0.00      0.00
                                0.00      0.00      0.00

[...]

                                0.00      0.00      0.00

     Writing all to output data dir new_calculations/myprefix.save/

     General routines

     Parallel routines

     PAW routines

   This run was terminated on:  16: 1:58  21May2023

   JOB DONE.