     Program PWSCF v.7.0 starts on 20May2023 at 11:16:50

     Reading input from espresso_453.pwi
Warning: card &CELL ignored
Warning: card / ignored

     Current dimensions of program PWSCF are:
     Max number of different atomic species (ntypx) = 10
     Max number of k-points (npk) =  40000
     Max angular momentum in pseudopotentials (lmaxx) =  4

     gamma-point specific algorithms are used
     Message from routine setup:
     using ibrav=0 with symmetry is DISCOURAGED, use correct ibrav instead

     Subspace diagonalization in iterative solution of the eigenvalue problem:
     a serial algorithm will be used

     Using Slab Decomposition

     bravais-lattice index     =            0
     lattice parameter (alat)  =      11.7768  a.u.
     unit-cell volume          =    1154.9689 (a.u.)^3
     number of atoms/cell      =           10
     number of atomic types    =            4
     number of electrons       =        74.00
     number of Kohn-Sham states=           44
     kinetic-energy cutoff     =      30.0000  Ry
     charge density cutoff     =     240.0000  Ry
     scf convergence threshold =      1.0E-06
     mixing beta               =       0.7000
     number of iterations used =            8  plain     mixing
     Exchange-correlation=  SLA  PW   PBX  PBC
                           (   1   4   3   4   0   0   0)

     celldm(1)=  11.776831  celldm(2)=   0.000000  celldm(3)=   0.000000
     celldm(4)=   0.000000  celldm(5)=   0.000000  celldm(6)=   0.000000

     crystal axes: (cart. coord. in units of alat)
               a(1) = (   1.000000   0.000000   0.000000 )
               a(2) = (   0.500000   0.866025   0.000000 )
               a(3) = (   0.500000   0.288675   0.816497 )

     reciprocal axes: (cart. coord. in units 2 pi/alat)
               b(1) = (  1.000000 -0.577350 -0.408248 )
               b(2) = (  0.000000  1.154701 -0.408248 )
               b(3) = (  0.000000  0.000000  1.224745 )

     PseudoPot. # 1 for Rb read from file:
     /home/pragov/projects/rrg-bengioy-ad/pragov/crystal_structure_design/SSSP/Rb_ONCV_PBE-1.0.oncvpsp.upf
     MD5 check sum: 55a5172d6bfbce6759a58e35d43f6aa9
     Pseudo is Norm-conserving, Zval =  9.0
     Generated using ONCVPSP code by D. R. Hamann
     Using radial grid of 2308 points,  6 beta functions with:
                l(1) =   0
                l(2) =   0
                l(3) =   1
                l(4) =   1
                l(5) =   2
                l(6) =   2

     PseudoPot. # 2 for Na read from file:
     /home/pragov/projects/rrg-bengioy-ad/pragov/crystal_structure_design/SSSP/na_pbe_v1.5.uspp.F.UPF
     MD5 check sum: 44600605ef58000f06b90626533354dc
     Pseudo is Ultrasoft, Zval =  9.0
     Generated by new atomic code, or converted to UPF format
     Using radial grid of  819 points,  5 beta functions with:
                l(1) =   0
                l(2) =   0
                l(3) =   1
                l(4) =   1
                l(5) =   2
     Q(r) pseudized with  8 coefficients,  rinner =    1.250   1.250   1.250
                                                       1.250   1.250

     PseudoPot. # 3 for As read from file:
     /home/pragov/projects/rrg-bengioy-ad/pragov/crystal_structure_design/SSSP/As.pbe-n-rrkjus_psl.0.2.UPF
     MD5 check sum: 767315de957beeeb34f87d97bf945c8f
     Pseudo is Ultrasoft + core correction, Zval =  5.0
     Generated using "atomic" code by A. Dal Corso  v.5.0.99 svn rev. 10869
     Using radial grid of 1209 points,  4 beta functions with:
                l(1) =   0
                l(2) =   0
                l(3) =   1
                l(4) =   1
     Q(r) pseudized with 0 coefficients

     PseudoPot. # 4 for F  read from file:
     /home/pragov/projects/rrg-bengioy-ad/pragov/crystal_structure_design/SSSP/f_pbe_v1.4.uspp.F.UPF
     MD5 check sum: 4c38b6a325caf53ec0e86aed9459de46
     Pseudo is Ultrasoft, Zval =  7.0
     Generated by new atomic code, or converted to UPF format
     Using radial grid of  799 points,  4 beta functions with:
                l(1) =   0
                l(2) =   0
                l(3) =   1
                l(4) =   1
     Q(r) pseudized with  8 coefficients,  rinner =    0.950   0.950   0.950

     atomic species   valence    mass     pseudopotential
        Rb             9.00    85.46780     Rb( 1.00)
        Na             9.00    22.98977     Na( 1.00)
        As             5.00    74.92159     As( 1.00)
        F              7.00    18.99840     F ( 1.00)

     12 Sym. Ops., with inversion, found

                                    s                        frac. trans.

      isym =  1     identity

 cryst.   s( 1) = (     1          0          0      )
                  (     0          1          0      )
                  (     0          0          1      )

 cart.    s( 1) = (  1.0000000  0.0000000  0.0000000 )
                  (  0.0000000  1.0000000  0.0000000 )
                  (  0.0000000  0.0000000  1.0000000 )

      isym =  2     180 deg rotation - cart. axis [1,0,0]

[...]

      isym =  3     120 deg rotation - cryst. axis [0,0,1]

[...]

      isym =  6     180 deg rotation - cryst. axis [1,1,0]

[...]

      isym =  7     inversion

[...]

      isym =  8     inv. 180 deg rotation - cart. axis [1,0,0]

[...]

      isym =  9     inv. 120 deg rotation - cryst. axis [0,0,1]

 cryst.   s( 9) = (     1         -1          0      )
                  (     1          0          0      )
                  (     1          0         -1      )

 cart.    s( 9) = (  0.5000000  0.8660254  0.0000000 )
                  ( -0.8660254  0.5000000  0.0000000 )
                  (  0.0000000  0.0000000 -1.0000000 )

[...]

 cryst.   s(10) = (     0          1          0      )
                  (    -1          1          0      )
                  (     0          1         -1      )

 cart.    s(10) = (  0.5000000 -0.8660254 -0.0000000 )
                  (  0.8660254  0.5000000  0.0000000 )
                  (  0.0000000  0.0000000 -1.0000000 )

[...]

      isym = 12     inv. 180 deg rotation - cryst. axis [1,1,0]

 cryst.   s(12) = (     1         -1          0      )
                  (     0         -1          0      )
                  (     0         -1          1      )

 cart.    s(12) = (  0.5000000 -0.8660254 -0.0000000 )
                  ( -0.8660254 -0.5000000 -0.0000000 )
                  (  0.0000000  0.0000000  1.0000000 )

   Cartesian axes

     site n.     atom                  positions (alat units)
         1           Rb  tau(   1) = (   1.5000000   0.8660254   0.6123724  )
         2           Rb  tau(   2) = (   0.5000000   0.2886751   0.2041241  )
         3           Na  tau(   3) = (   1.0000000   0.5773503   0.4082483  )
         4           As  tau(   4) = (   0.0000000   0.0000000   0.0000000  )
         5           F   tau(   5) = (   1.0000000   0.2723303   0.1925666  )
         6           F   tau(   6) = (   0.7358450   0.4248403   0.6239299  )
         7           F   tau(   7) = (   1.0000000   0.8823702   0.6239299  )
         8           F   tau(   8) = (   0.7358450   0.7298602   0.1925666  )
         9           F   tau(   9) = (   1.2641550   0.4248403   0.6239299  )
        10           F   tau(  10) = (   1.2641550   0.7298602   0.1925666  )

   Crystallographic axes

     site n.     atom                  positions (cryst. coord.)
         1           Rb  tau(   1) = (  0.7500000  0.7500000  0.7500000  )
         2           Rb  tau(   2) = (  0.2500000  0.2500000  0.2500000  )
         3           Na  tau(   3) = (  0.5000000  0.5000000  0.5000000  )
         4           As  tau(   4) = (  0.0000000  0.0000000  0.0000000  )
         5           F   tau(   5) = (  0.7641550  0.2358450  0.2358450  )
         6           F   tau(   6) = (  0.2358450  0.2358450  0.7641550  )
         7           F   tau(   7) = (  0.2358450  0.7641550  0.7641550  )
         8           F   tau(   8) = (  0.2358450  0.7641550  0.2358450  )
         9           F   tau(   9) = (  0.7641550  0.2358450  0.7641550  )
        10           F   tau(  10) = (  0.7641550  0.7641550  0.2358450  )

     number of k points=     1  Methfessel-Paxton smearing, width (Ry)=  0.0010
                       cart. coord. in units 2pi/alat
        k(    1) = (   0.0000000   0.0000000   0.0000000), wk =   2.0000000

                       cryst. coord.
        k(    1) = (   0.0000000   0.0000000   0.0000000), wk =   2.0000000

     Initial potential from superposition of free atoms

     starting charge      73.9439, renormalised to      74.0000
     Starting wfcs are   43 randomized atomic wfcs +    1 random wfcs

     Self-consistent Calculation

     iteration #  1     ecut=    30.00 Ry     beta= 0.70
     Davidson diagonalization with overlap

     ethr =  1.00E-02,  avg # of iterations =  5.0

     total energy              =    -503.12702804 Ry
     estimated scf accuracy    <       1.37740823 Ry

[...]

     total energy              =    -503.75812685 Ry
     estimated scf accuracy    <       0.00000195 Ry

     iteration #  8     ecut=    30.00 Ry     beta= 0.70
     Davidson diagonalization with overlap

     ethr =  2.63E-09,  avg # of iterations =  2.0

     End of self-consistent calculation

          k = 0.0000 0.0000 0.0000 (  1572 PWs)   bands (ev):

   -45.9829 -21.5721 -21.5254 -18.6363 -18.3892 -18.3892 -18.3892 -18.0349
   -18.0349 -17.7151 -17.7151 -17.7151  -6.6424  -5.8390  -5.8390  -5.8390
    -5.6690  -5.6690  -5.6690  -1.5945  -1.5945  -1.5945   0.1271   0.1271
     0.1271   0.2047   0.2048   0.7718   0.7718   0.7718   0.8992   0.8992
     0.8992   1.1915   1.1915   1.1915   2.5662   8.0264   8.0265   8.0265
     8.7315  10.5122  10.5122  12.3317

     occupation numbers
     1.0000   1.0000   1.0000   1.0000   1.0000   1.0000   1.0000   1.0000
     1.0000   1.0000   1.0000   1.0000   1.0000   1.0000   1.0000   1.0000
     1.0000   1.0000   1.0000   1.0000   1.0000   1.0000   1.0000   1.0000
     1.0000   1.0000   1.0000   1.0000   1.0000   1.0000   1.0000   1.0000
     1.0000   1.0000   1.0000   1.0000   1.0000  -0.0000  -0.0000  -0.0000
    -0.0000  -0.0000  -0.0000  -0.0000

     the Fermi energy is     5.1444 ev

!    total energy              =    -503.75812715 Ry
     estimated scf accuracy    <       0.00000008 Ry
     smearing contrib. (-TS)   =       0.00000000 Ry
     internal energy E=F+TS    =    -503.75812715 Ry

     The total energy is F=E-TS. E is the sum of the following terms:
     one-electron contribution =    -257.89562881 Ry
     hartree contribution      =     165.92830790 Ry
     xc contribution           =     -94.97814023 Ry
     ewald contribution        =    -316.81266603 Ry

     convergence has been achieved in   8 iterations

     Forces acting on atoms (cartesian axes, Ry/au):

     atom    1 type  1   force =     0.00000000    0.00000000   -0.00001146
     atom    2 type  1   force =     0.00000000    0.00000000    0.00001146
     atom    3 type  2   force =     0.00000000    0.00000000   -0.00000000
     atom    4 type  3   force =     0.00000000    0.00000000    0.00000000
     atom    5 type  4   force =     0.00000000   -0.01348410   -0.00952815
     atom    6 type  4   force =    -0.01167758   -0.00674205    0.00952815
     atom    7 type  4   force =     0.00000000    0.01348410    0.00952815
     atom    8 type  4   force =    -0.01167758    0.00674205   -0.00952815
     atom    9 type  4   force =     0.01167758   -0.00674205    0.00952815
     atom   10 type  4   force =     0.01167758    0.00674205   -0.00952815
     The non-local contrib.  to forces
     atom    1 type  1   force =     0.00000000    0.00000000    0.00000164
     atom    2 type  1   force =     0.00000000    0.00000000   -0.00000164
     atom    3 type  2   force =    -0.00000000    0.00000000   -0.00000000
     atom    4 type  3   force =     0.00000000    0.00000000    0.00000000
     atom    5 type  4   force =     0.00000000   -0.37798453   -0.26728038
     atom    6 type  4   force =    -0.32734421   -0.18899227    0.26728038
     atom    7 type  4   force =     0.00000000    0.37798453    0.26728038
     atom    8 type  4   force =    -0.32734421    0.18899227   -0.26728038
     atom    9 type  4   force =     0.32734421   -0.18899227    0.26728038
     atom   10 type  4   force =     0.32734421    0.18899227   -0.26728038
     The ionic contribution  to forces
     atom    1 type  1   force =    -0.00000000    0.00000000   -0.00000000
     atom    2 type  1   force =    -0.00000000    0.00000000    0.00000000
     atom    3 type  2   force =    -0.00000000   -0.00000000    0.00000000
     atom    4 type  3   force =    -0.00000000    0.00000000   -0.00000000
     atom    5 type  4   force =    -0.00000000    0.51980145    0.36755513
     atom    6 type  4   force =     0.45016126    0.25990072   -0.36755513
     atom    7 type  4   force =    -0.00000000   -0.51980145   -0.36755513
     atom    8 type  4   force =     0.45016126   -0.25990073    0.36755513
     atom    9 type  4   force =    -0.45016126    0.25990072   -0.36755513
     atom   10 type  4   force =    -0.45016126   -0.25990073    0.36755513
     The local contribution  to forces
     atom    1 type  1   force =     0.00004300    0.00000301    0.00001782
     atom    2 type  1   force =    -0.00003056    0.00000218   -0.00001245
     atom    3 type  2   force =     0.00000060    0.00000212   -0.00001588
     atom    4 type  3   force =    -0.00000495   -0.00000583    0.00001995
     atom    5 type  4   force =     0.00002711   -0.15530796   -0.10983009
     atom    6 type  4   force =    -0.13448978   -0.07763117    0.10983579
     atom    7 type  4   force =    -0.00003121    0.15530212    0.10982940
     atom    8 type  4   force =    -0.13453638    0.07768983   -0.10984522
     atom    9 type  4   force =     0.13452130   -0.07768847    0.10984166
     atom   10 type  4   force =     0.13450515    0.07763913   -0.10985144
     The core correction contribution to forces
     atom    1 type  1   force =     0.00000000    0.00000000    0.00000000
     atom    2 type  1   force =     0.00000000    0.00000000    0.00000000
     atom    3 type  2   force =     0.00000000    0.00000000    0.00000000
     atom    4 type  3   force =    -0.00000040   -0.00000051    0.00000140
     atom    5 type  4   force =     0.00000000    0.00000000    0.00000000
     atom    6 type  4   force =     0.00000000    0.00000000    0.00000000
     atom    7 type  4   force =     0.00000000    0.00000000    0.00000000
     atom    8 type  4   force =     0.00000000    0.00000000    0.00000000
     atom    9 type  4   force =     0.00000000    0.00000000    0.00000000
     atom   10 type  4   force =     0.00000000    0.00000000    0.00000000
     The Hubbard contrib.    to forces
     atom    1 type  1   force =     0.00000000    0.00000000    0.00000000
     atom    2 type  1   force =     0.00000000    0.00000000    0.00000000
     atom    3 type  2   force =     0.00000000    0.00000000    0.00000000
     atom    4 type  3   force =     0.00000000    0.00000000    0.00000000
     atom    5 type  4   force =     0.00000000    0.00000000    0.00000000
     atom    6 type  4   force =     0.00000000    0.00000000    0.00000000
     atom    7 type  4   force =     0.00000000    0.00000000    0.00000000
     atom    8 type  4   force =     0.00000000    0.00000000    0.00000000
     atom    9 type  4   force =     0.00000000    0.00000000    0.00000000
     atom   10 type  4   force =     0.00000000    0.00000000    0.00000000
     The SCF correction term to forces
     atom    1 type  1   force =    -0.00007307   -0.00000522   -0.00003323
     atom    2 type  1   force =     0.00005819   -0.00000302    0.00002323
     atom    3 type  2   force =    -0.00000115    0.00000001    0.00002113
     atom    4 type  3   force =     0.00000371    0.00000415   -0.00001691
     atom    5 type  4   force =    -0.00005065    0.00000312    0.00002374
     atom    6 type  4   force =    -0.00000216   -0.00003177   -0.00004326
     atom    7 type  4   force =     0.00005710   -0.00000435   -0.00002840
     atom    8 type  4   force =     0.00004010   -0.00005106    0.00003013
     atom    9 type  4   force =    -0.00003025    0.00005726   -0.00003336
     atom   10 type  4   force =    -0.00000566    0.00002844    0.00005726

     Total force =     0.040443     Total SCF correction =     0.000189

     Computing stress (Cartesian axis) and pressure

          total   stress  (Ry/bohr**3)                   (kbar)     P=      -64.52
  -0.00043857   0.00000000  -0.00000000          -64.52        0.00       -0.00
   0.00000000  -0.00043857  -0.00000000            0.00      -64.52       -0.00
   0.00000000  -0.00000000  -0.00043856            0.00       -0.00      -64.51

     kinetic stress (kbar)  13407.82     -0.00     -0.00
                               -0.00  13407.82      0.00
                               -0.00      0.00  13407.82

     local   stress (kbar)    810.46     -0.00      0.01
                               -0.00    810.46     -0.00
                                0.01     -0.00    810.46

     nonloc. stress (kbar)  -4218.48      0.00      0.00
                                0.00  -4218.48     -0.00
                                0.00     -0.00  -4218.48

     hartree stress (kbar)   7044.60      0.00     -0.01
                                0.00   7044.61      0.00
                               -0.01      0.00   7044.60

     exc-cor stress (kbar)  -2891.26     -0.00      0.00
                               -0.00  -2891.26     -0.00
                                0.00     -0.00  -2891.26

     corecor stress (kbar)   -767.15     -0.00     -0.00
                               -0.00   -767.15     -0.00
                               -0.00     -0.00   -767.15

     ewald   stress (kbar) -13450.51      0.00      0.00
                                0.00 -13450.51      0.00
                                0.00      0.00 -13450.51

     hubbard stress (kbar)      0.00      0.00      0.00
                                0.00      0.00      0.00
                                0.00      0.00      0.00

     DFT-D   stress (kbar)      0.00      0.00      0.00
                                0.00      0.00      0.00
                                0.00      0.00      0.00

     XDM     stress (kbar)      0.00      0.00      0.00
                                0.00      0.00      0.00
                                0.00      0.00      0.00

     dft-nl  stress (kbar)      0.00      0.00      0.00
                                0.00      0.00      0.00
                                0.00      0.00      0.00

     TS-vdW  stress (kbar)      0.00      0.00      0.00
                                0.00      0.00      0.00
                                0.00      0.00      0.00

[...]

                                0.00      0.00      0.00

     Writing all to output data dir new_calculations/myprefix.save/

     General routines

     Parallel routines

   This run was terminated on:  11:17: 9  20May2023

   JOB DONE.