     Program PWSCF v.7.0 starts on 20May2023 at 14:23:54

     Reading input from espresso_17415.pwi
Warning: card &CELL ignored
Warning: card / ignored

     Current dimensions of program PWSCF are:
     Max number of different atomic species (ntypx) = 10
     Max number of k-points (npk) =  40000
     Max angular momentum in pseudopotentials (lmaxx) =  4
     file Ba.pbe-spn-kjpaw_psl.1.0.0.UPF: wavefunction(s)  5S 6S renormalized

     gamma-point specific algorithms are used
     Message from routine setup:
     using ibrav=0 with symmetry is DISCOURAGED, use correct ibrav instead

     Subspace diagonalization in iterative solution of the eigenvalue problem:
     a serial algorithm will be used

     Using Slab Decomposition

     bravais-lattice index     =            0
     lattice parameter (alat)  =      11.9332  a.u.
     unit-cell volume          =    3902.1018 (a.u.)^3
     number of atoms/cell      =           20
     number of atomic types    =            4
     number of electrons       =       176.00
     number of Kohn-Sham states=          106
     kinetic-energy cutoff     =      30.0000  Ry
     charge density cutoff     =     240.0000  Ry
     scf convergence threshold =      1.0E-06
     mixing beta               =       0.7000
     number of iterations used =            8  plain     mixing
     Exchange-correlation=  SLA  PW   PBX  PBC
                           (   1   4   3   4   0   0   0)

     celldm(1)=  11.933243  celldm(2)=   0.000000  celldm(3)=   0.000000
     celldm(4)=   0.000000  celldm(5)=   0.000000  celldm(6)=   0.000000

     crystal axes: (cart. coord. in units of alat)
               a(1) = (   1.000000   0.000000   0.000000 )
               a(2) = (   0.001870   1.021492   0.000000 )
               a(3) = (  -0.153755  -0.180118   2.247957 )

     reciprocal axes: (cart. coord. in units 2 pi/alat)
               b(1) = (  1.000000 -0.001831  0.068251 )
               b(2) = (  0.000000  0.978960  0.078440 )
               b(3) = (  0.000000  0.000000  0.444848 )

     PseudoPot. # 1 for Ba read from file:
     /home/pragov/projects/rrg-bengioy-ad/pragov/crystal_structure_design/SSSP/Ba.pbe-spn-kjpaw_psl.1.0.0.UPF
     MD5 check sum: c432291d3e53af55f19d5e8866385beb
     Pseudo is Projector augmented-wave + core cor, Zval = 10.0
     Generated using "atomic" code by A. Dal Corso  v.5.1
     Shape of augmentation charge: PSQ
     Using radial grid of 1251 points,  7 beta functions with:
                l(1) =   0
                l(2) =   0
                l(3) =   0
                l(4) =   1
                l(5) =   1
                l(6) =   2
                l(7) =   2
     Q(r) pseudized with 0 coefficients

     PseudoPot. # 2 for Sb read from file:
     /home/pragov/projects/rrg-bengioy-ad/pragov/crystal_structure_design/SSSP/sb_pbe_v1.4.uspp.F.UPF
     MD5 check sum: 9bc50dfb53373b713f5709b9110fe27f
     Pseudo is Ultrasoft + core correction, Zval = 15.0
     Generated by new atomic code, or converted to UPF format
     Using radial grid of  891 points,  6 beta functions with:
                l(1) =   0
                l(2) =   0
                l(3) =   1
                l(4) =   1
                l(5) =   2
                l(6) =   2
     Q(r) pseudized with  8 coefficients,  rinner =    1.350   1.350   1.350
                                                       1.350   1.350

     PseudoPot. # 3 for Se read from file:
     /home/pragov/projects/rrg-bengioy-ad/pragov/crystal_structure_design/SSSP/Se_pbe_v1.uspp.F.UPF
     MD5 check sum: 1b3568f3a8ae88f9a2a0ad0698632c85
     Pseudo is Ultrasoft + core correction, Zval =  6.0
     Generated by new atomic code, or converted to UPF format
     Using radial grid of  877 points,  6 beta functions with:
                l(1) =   0
                l(2) =   0
                l(3) =   1
                l(4) =   1
                l(5) =   2
                l(6) =   2
     Q(r) pseudized with  8 coefficients,  rinner =    1.300   1.300   1.300
                                                       1.300   1.300

     PseudoPot. # 4 for F  read from file:
     /home/pragov/projects/rrg-bengioy-ad/pragov/crystal_structure_design/SSSP/f_pbe_v1.4.uspp.F.UPF
     MD5 check sum: 4c38b6a325caf53ec0e86aed9459de46
     Pseudo is Ultrasoft, Zval =  7.0
     Generated by new atomic code, or converted to UPF format
     Using radial grid of  799 points,  4 beta functions with:
                l(1) =   0
                l(2) =   0
                l(3) =   1
                l(4) =   1
     Q(r) pseudized with  8 coefficients,  rinner =    0.950   0.950   0.950

     atomic species   valence    mass     pseudopotential
        Ba            10.00   137.32700     Ba( 1.00)
        Sb            15.00   121.76000     Sb( 1.00)
        Se             6.00    78.97100     Se( 1.00)
        F              7.00    18.99840     F ( 1.00)

      2 Sym. Ops., with inversion, found

                                    s                        frac. trans.

      isym =  1     identity

 cryst.   s( 1) = (     1          0          0      )
                  (     0          1          0      )
                  (     0          0          1      )

 cart.    s( 1) = (  1.0000000 -0.0000000 -0.0000000 )
                  (  0.0000000  1.0000000  0.0000000 )
                  (  0.0000000  0.0000000  1.0000000 )

      isym =  2     inversion

 cryst.   s( 2) = (    -1          0          0      )
                  (     0         -1          0      )
                  (     0          0         -1      )

 cart.    s( 2) = ( -1.0000000  0.0000000  0.0000000 )
                  (  0.0000000 -1.0000000 -0.0000000 )
                  (  0.0000000  0.0000000 -1.0000000 )

   Cartesian axes

     site n.     atom                  positions (alat units)
         1           Ba  tau(   1) = (   0.1776138   0.4245031   1.3648923  )
         2           Ba  tau(   2) = (   0.1711622   0.9346645   0.8842228  )
         3           Ba  tau(   3) = (   0.6705011   0.4168708   0.8830651  )
         4           Ba  tau(   4) = (   0.6769527  -0.0932906   1.3637346  )
         5           Sb  tau(   5) = (   0.7185858   0.9690748   0.2860256  )
         6           Sb  tau(   6) = (   0.2132347   0.3641087   0.2871159  )
         7           Sb  tau(   7) = (   0.1295291  -0.1277009   1.9619317  )
         8           Sb  tau(   8) = (   0.6348802   0.4772652   1.9608415  )
         9           Se  tau(   9) = (   0.2110034   0.4839534   1.9889589  )
        10           Se  tau(  10) = (   0.1785303  -0.0846147   1.5640883  )
        11           Se  tau(  11) = (   0.1705770   0.4250029   0.6822483  )
        12           Se  tau(  12) = (   0.6371115   0.3574205   0.2589984  )
        13           Se  tau(  13) = (   0.6775379   0.4163710   1.5657090  )
        14           Se  tau(  14) = (   0.7038721  -0.1313679   1.9615990  )
        15           Se  tau(  15) = (   0.1442428   0.9727418   0.2863583  )
        16           Se  tau(  16) = (   0.6695847   0.9259886   0.6838691  )
        17           F   tau(  17) = (   0.9230732   0.1681688   1.1277283  )
        18           F   tau(  18) = (   0.4233892   0.1640980   1.1275012  )
        19           F   tau(  19) = (   0.4247257   0.6772759   1.1204561  )
        20           F   tau(  20) = (  -0.0749583   0.6732051   1.1202291  )

   Crystallographic axes

     site n.     atom                  positions (cryst. coord.)
         1           Ba  tau(   1) = (  0.2699920  0.5226330  0.6071700  )
         2           Ba  tau(   2) = (  0.2298000  0.9843570  0.3933450  )
         3           Ba  tau(   3) = (  0.7300080  0.4773670  0.3928300  )
         4           Ba  tau(   4) = (  0.7702000  0.0156430  0.6066550  )
         5           Sb  tau(   5) = (  0.7363330  0.9711210  0.1272380  )
         6           Sb  tau(   6) = (  0.2321640  0.3789690  0.1277230  )
         7           Sb  tau(   7) = (  0.2636670  0.0288790  0.8727620  )
         8           Sb  tau(   8) = (  0.7678360  0.6210310  0.8722770  )
         9           Se  tau(   9) = (  0.3458660  0.6297840  0.8847850  )
        10           Se  tau(  10) = (  0.2854360  0.0398520  0.6957820  )
        11           Se  tau(  11) = (  0.2163630  0.4695760  0.3034970  )
        12           Se  tau(  12) = (  0.6541340  0.3702160  0.1152150  )
        13           Se  tau(  13) = (  0.7836370  0.5304240  0.6965030  )
        14           Se  tau(  14) = (  0.8379940  0.0252630  0.8726140  )
        15           Se  tau(  15) = (  0.1620060  0.9747370  0.1273860  )
        16           Se  tau(  16) = (  0.7145640  0.9601480  0.3042180  )
        17           F   tau(  17) = (  0.9997340  0.2530890  0.5016680  )
        18           F   tau(  18) = (  0.5000420  0.2490860  0.5015670  )
        19           F   tau(  19) = (  0.4999580  0.7509140  0.4984330  )
        20           F   tau(  20) = (  0.0002660  0.7469110  0.4983320  )

     number of k points=     1  Methfessel-Paxton smearing, width (Ry)=  0.0010
                       cart. coord. in units 2pi/alat
        k(    1) = (   0.0000000   0.0000000   0.0000000), wk =   2.0000000

                       cryst. coord.
        k(    1) = (   0.0000000   0.0000000   0.0000000), wk =   2.0000000

     Check: negative core charge=   -0.000002

     Initial potential from superposition of free atoms

     starting charge     171.9314, renormalised to     176.0000
     Starting wfcs are  104 randomized atomic wfcs +    2 random wfcs
     Checking if some PAW data can be deallocated...

     Self-consistent Calculation

     iteration #  1     ecut=    30.00 Ry     beta= 0.70
     Davidson diagonalization with overlap

     ethr =  1.00E-02,  avg # of iterations =  7.0

     negative rho (up, down):  9.965E-02 0.000E+00

     total energy              =   -2822.15748080 Ry
     estimated scf accuracy    <     240.30284661 Ry

[...]

     negative rho (up, down):  2.236E-04 0.000E+00

[...]

     total energy              =   -3029.80644119 Ry
     estimated scf accuracy    <       0.00000488 Ry

     iteration # 31     ecut=    30.00 Ry     beta= 0.70
     Davidson diagonalization with overlap

     ethr =  1.95E-09,  avg # of iterations =  2.0

     End of self-consistent calculation

          k = 0.0000 0.0000 0.0000 (  5416 PWs)   bands (ev):

   -23.7555 -23.7533 -23.7488 -23.7480 -23.7363 -23.7353 -23.7304 -23.7294
   -23.6804 -23.6784 -23.6773 -23.6737 -23.6634 -23.6625 -23.6556 -23.6534
   -23.6523 -23.6513 -23.6342 -23.6306 -20.8351 -20.7324 -20.7136 -20.7036
   -16.6139 -16.5967 -16.5370 -16.4761  -7.8303  -7.6548  -6.6638  -6.6403
    -6.1553  -6.1160  -6.0927  -6.0900  -6.0745  -6.0398  -6.0267  -6.0036
    -5.9734  -5.9206  -5.8870  -5.8742  -5.8359  -5.8292  -5.4725  -5.4419
    -3.0416  -2.9148  -1.8085  -1.8062   1.1977   1.2284   1.3328   1.3437
     1.5745   1.6000   1.6184   1.6285   1.6490   1.6514   1.9096   2.1338
     2.1415   2.1810   2.1852   2.2659   2.2684   2.7381   2.7460   2.9601
     2.9803   3.3249   3.5269   3.7731   4.2387   4.3321   4.6029   4.6910
     4.7245   4.8250   4.8692   5.0142   5.3162   5.3861   5.4140   5.4425
     7.8349   8.0026   8.3364   8.6297   8.7549   8.7783   8.8842   8.9414
     9.3532  10.0261  10.1392  10.1697  10.2689  10.2923  10.2978  10.8081
    10.8866  10.9841

     occupation numbers
     1.0000   1.0000   1.0000   1.0000   1.0000   1.0000   1.0000   1.0000
     1.0000   1.0000   1.0000   1.0000   1.0000   1.0000   1.0000   1.0000
     1.0000   1.0000   1.0000   1.0000   1.0000   1.0000   1.0000   1.0000
     1.0000   1.0000   1.0000   1.0000   1.0000   1.0000   1.0000   1.0000
     1.0000   1.0000   1.0000   1.0000   1.0000   1.0000   1.0000   1.0000
     1.0000   1.0000   1.0000   1.0000   1.0000   1.0000   1.0000   1.0000
     1.0000   1.0000   1.0000   1.0000   1.0000   1.0000   1.0000   1.0000
     1.0000   1.0000   1.0000   1.0000   1.0000   1.0000   1.0000   1.0000
     1.0000   1.0000   1.0000   1.0000   1.0000   1.0000   1.0000   1.0000
     1.0000   1.0000   1.0000   1.0000   1.0000   1.0000   1.0000   1.0000
     1.0000   1.0000   1.0000   1.0000   1.0000   1.0000   1.0000   1.0000
    -0.0000  -0.0000  -0.0000  -0.0000  -0.0000  -0.0000  -0.0000  -0.0000
    -0.0000  -0.0000  -0.0000  -0.0000  -0.0000  -0.0000  -0.0000  -0.0000
    -0.0000  -0.0000

     the Fermi energy is     6.7437 ev

!    total energy              =   -3029.80644104 Ry
     estimated scf accuracy    <       0.00000071 Ry
     smearing contrib. (-TS)   =       0.00000000 Ry
     internal energy E=F+TS    =   -3029.80644104 Ry

     The total energy is F=E-TS. E is the sum of the following terms:
     one-electron contribution =    -610.01479711 Ry
     hartree contribution      =     389.70633599 Ry
     xc contribution           =    -532.32468754 Ry
     ewald contribution        =    -777.34839521 Ry
     one-center paw contrib.   =   -1499.82489717 Ry
      -> PAW hartree energy AE =     114.57430279 Ry
      -> PAW hartree energy PS =    -114.11641669 Ry
      -> PAW xc energy AE      =   -1576.88186511 Ry
      -> PAW xc energy PS      =      76.59908184 Ry
      -> total E_H with PAW    =     390.16422209 Ry
      -> total E_XC with PAW   =   -2032.60747080 Ry

     convergence has been achieved in  31 iterations

     Forces acting on atoms (cartesian axes, Ry/au):

     atom    1 type  1   force =    -0.00106650    0.00132848   -0.03872696
     atom    2 type  1   force =     0.00087337    0.00187886    0.04060858
     atom    3 type  1   force =     0.00106650   -0.00132848    0.03872696
     atom    4 type  1   force =    -0.00087337   -0.00187886   -0.04060858
     atom    5 type  2   force =    -0.04935357   -0.03623884    0.01706970
     atom    6 type  2   force =    -0.04972606    0.04237032    0.01581702
     atom    7 type  2   force =     0.04935357    0.03623884   -0.01706970
     atom    8 type  2   force =     0.04972606   -0.04237032   -0.01581702
     atom    9 type  3   force =    -0.04586094   -0.04655160    0.00997547
     atom   10 type  3   force =    -0.00730010   -0.00012737    0.02921526
     atom   11 type  3   force =     0.00608866   -0.00216523   -0.02728184
     atom   12 type  3   force =     0.04586094    0.04655160   -0.00997547
     atom   13 type  3   force =    -0.00608866    0.00216523    0.02728184
     atom   14 type  3   force =    -0.04248216    0.04490032    0.02089020
     atom   15 type  3   force =     0.04248216   -0.04490032   -0.02089020
     atom   16 type  3   force =     0.00730010    0.00012737   -0.02921526
     atom   17 type  4   force =     0.00023612    0.00010968    0.00035138
     atom   18 type  4   force =    -0.00010005   -0.00035858    0.00041656
     atom   19 type  4   force =     0.00010005    0.00035858   -0.00041656
     atom   20 type  4   force =    -0.00023612   -0.00010968   -0.00035138
     The non-local contrib.  to forces
     atom    1 type  1   force =     0.00081744    0.00046453    0.10615949
     atom    2 type  1   force =    -0.00145409    0.00078103   -0.10074793
     atom    3 type  1   force =    -0.00081744   -0.00046453   -0.10615949
     atom    4 type  1   force =     0.00145409   -0.00078103    0.10074793
     atom    5 type  2   force =     0.21234716    0.33020715    0.40160096
     atom    6 type  2   force =     0.22721625   -0.30700407    0.43086996
     atom    7 type  2   force =    -0.21234716   -0.33020715   -0.40160096
     atom    8 type  2   force =    -0.22721625    0.30700407   -0.43086996
     atom    9 type  3   force =     0.08085097    0.15618343   -0.09234088
     atom   10 type  3   force =    -0.05349849   -0.05090386    0.12653203
     atom   11 type  3   force =     0.04820448   -0.07037615   -0.12201193
     atom   12 type  3   force =    -0.08085097   -0.15618343    0.09234088
     atom   13 type  3   force =    -0.04820448    0.07037615    0.12201193
     atom   14 type  3   force =     0.08507716   -0.16180990   -0.07111804
     atom   15 type  3   force =    -0.08507716    0.16180990    0.07111804
     atom   16 type  3   force =     0.05349849    0.05090386   -0.12653203
     atom   17 type  4   force =    -0.00332481   -0.01371824   -0.00851538
     atom   18 type  4   force =     0.00138024    0.01531073   -0.00418103
     atom   19 type  4   force =    -0.00138024   -0.01531073    0.00418103
     atom   20 type  4   force =     0.00332481    0.01371824    0.00851538
     The ionic contribution  to forces
     atom    1 type  1   force =    -0.10765385   -0.37398860    8.99173804
     atom    2 type  1   force =     0.10040416   -0.37817005   -8.69197676
     atom    3 type  1   force =     0.10765385    0.37398860   -8.99173804
     atom    4 type  1   force =    -0.10040416    0.37817005    8.69197676
     atom    5 type  2   force =    -1.68592877   -5.13142700   -4.22768625
     atom    6 type  2   force =    -1.82576707    6.13970567   -5.59955757
     atom    7 type  2   force =     1.68592877    5.13142700    4.22768626
     atom    8 type  2   force =     1.82576707   -6.13970567    5.59955757
     atom    9 type  3   force =    -2.16648973   -4.16513682    1.49348052
     atom   10 type  3   force =     0.58038995    1.09309038    0.07786087
     atom   11 type  3   force =    -0.53441778    1.29193369   -0.13830363
     atom   12 type  3   force =     2.16648973    4.16513682   -1.49348052
     atom   13 type  3   force =     0.53441778   -1.29193369    0.13830363
     atom   14 type  3   force =    -2.07154978    4.25549174    0.50761789
     atom   15 type  3   force =     2.07154978   -4.25549174   -0.50761789
     atom   16 type  3   force =    -0.58038995   -1.09309038   -0.07786088
     atom   17 type  4   force =     0.01976830    0.05842459    0.27125203
     atom   18 type  4   force =    -0.00911353   -0.05893105    0.24290373
     atom   19 type  4   force =     0.00911352    0.05893105   -0.24290373
     atom   20 type  4   force =    -0.01976830   -0.05842459   -0.27125203
     The local contribution  to forces
     atom    1 type  1   force =     0.10615690    0.37498663   -9.12685819
     atom    2 type  1   force =    -0.09906588    0.37969766    8.82443332
     atom    3 type  1   force =    -0.10588524   -0.37490637    9.12692643
     atom    4 type  1   force =     0.09770739   -0.37908560   -8.82333734
     atom    5 type  2   force =     1.42382431    4.76492985    3.84661660
     atom    6 type  2   force =     1.54802948   -5.78980553    5.18821848
     atom    7 type  2   force =    -1.42391401   -4.76486648   -3.84615801
     atom    8 type  2   force =    -1.54792521    5.78981915   -5.18776173
     atom    9 type  3   force =     2.04822631    3.97946328   -1.40203400
     atom   10 type  3   force =    -0.54038441   -1.04815922   -0.16185626
     atom   11 type  3   force =     0.49785446   -1.23184244    0.22019006
     atom   12 type  3   force =    -2.04826190   -3.97948518    1.40220215
     atom   13 type  3   force =    -0.49782295    1.23181306   -0.22033712
     atom   14 type  3   force =     1.95307200   -4.06647255   -0.42433778
     atom   15 type  3   force =    -1.95305273    4.06648834    0.42448654
     atom   16 type  3   force =     0.54037869    1.04818899    0.16171334
     atom   17 type  4   force =    -0.01620949   -0.04460609   -0.26243665
     atom   18 type  4   force =     0.00763355    0.04325516   -0.23836633
     atom   19 type  4   force =    -0.00762590   -0.04325419    0.23826044
     atom   20 type  4   force =     0.01619910    0.04460595    0.26234695
     The core correction contribution to forces
     atom    1 type  1   force =    -0.00026313   -0.00008075   -0.00972248
     atom    2 type  1   force =     0.00027703   -0.00010329    0.00942178
     atom    3 type  1   force =     0.00026863    0.00008526    0.00972438
     atom    4 type  1   force =    -0.00030696    0.00011292   -0.00940137
     atom    5 type  2   force =     0.00060867   -0.00005090   -0.00297632
     atom    6 type  2   force =     0.00056529   -0.00064284   -0.00323246
     atom    7 type  2   force =    -0.00061032    0.00005151    0.00298264
     atom    8 type  2   force =    -0.00056368    0.00064347    0.00323877
     atom    9 type  3   force =    -0.00851303   -0.01705867    0.01087880
     atom   10 type  3   force =     0.00616750    0.00585621   -0.01338315
     atom   11 type  3   force =    -0.00555405    0.00808766    0.01274401
     atom   12 type  3   force =     0.00851131    0.01705769   -0.01087678
     atom   13 type  3   force =     0.00555503   -0.00808894   -0.01274961
     atom   14 type  3   force =    -0.00901706    0.01768847    0.00873763
     atom   15 type  3   force =     0.00901798   -0.01768834   -0.00873632
     atom   16 type  3   force =    -0.00616679   -0.00585537    0.01337740
     atom   17 type  4   force =     0.00000000    0.00000000    0.00000000
     atom   18 type  4   force =     0.00000000    0.00000000    0.00000000
     atom   19 type  4   force =     0.00000000    0.00000000    0.00000000
     atom   20 type  4   force =     0.00000000    0.00000000    0.00000000
     The Hubbard contrib.    to forces
     atom    1 type  1   force =     0.00000000    0.00000000    0.00000000
     atom    2 type  1   force =     0.00000000    0.00000000    0.00000000
     atom    3 type  1   force =     0.00000000    0.00000000    0.00000000
     atom    4 type  1   force =     0.00000000    0.00000000    0.00000000
     atom    5 type  2   force =     0.00000000    0.00000000    0.00000000
     atom    6 type  2   force =     0.00000000    0.00000000    0.00000000
     atom    7 type  2   force =     0.00000000    0.00000000    0.00000000
     atom    8 type  2   force =     0.00000000    0.00000000    0.00000000
     atom    9 type  3   force =     0.00000000    0.00000000    0.00000000
     atom   10 type  3   force =     0.00000000    0.00000000    0.00000000
     atom   11 type  3   force =     0.00000000    0.00000000    0.00000000
     atom   12 type  3   force =     0.00000000    0.00000000    0.00000000
     atom   13 type  3   force =     0.00000000    0.00000000    0.00000000
     atom   14 type  3   force =     0.00000000    0.00000000    0.00000000
     atom   15 type  3   force =     0.00000000    0.00000000    0.00000000
     atom   16 type  3   force =     0.00000000    0.00000000    0.00000000
     atom   17 type  4   force =     0.00000000    0.00000000    0.00000000
     atom   18 type  4   force =     0.00000000    0.00000000    0.00000000
     atom   19 type  4   force =     0.00000000    0.00000000    0.00000000
     atom   20 type  4   force =     0.00000000    0.00000000    0.00000000
     The SCF correction term to forces
     atom    1 type  1   force =     0.00000565   -0.00000241    0.00008077
     atom    2 type  1   force =     0.00009646   -0.00006367    0.00006885
     atom    3 type  1   force =    -0.00002380    0.00001949    0.00009829
     atom    4 type  1   force =     0.00006058   -0.00003239   -0.00000389
     atom    5 type  2   force =    -0.00020132    0.00009676   -0.00050479
     atom    6 type  2   force =     0.00022269    0.00011732   -0.00050060
     atom    7 type  2   force =     0.00029993   -0.00017133    0.00000089
     atom    8 type  2   force =    -0.00034315   -0.00013110   -0.00000088
     atom    9 type  3   force =     0.00005813   -0.00000651   -0.00000330
     atom   10 type  3   force =     0.00002756   -0.00000701    0.00004050
     atom   11 type  3   force =     0.00000600    0.00002682    0.00007828
     atom   12 type  3   force =    -0.00003364    0.00002201   -0.00015553
     atom   13 type  3   force =    -0.00002959   -0.00000654    0.00003164
     atom   14 type  3   force =    -0.00006156    0.00000302   -0.00000598
     atom   15 type  3   force =     0.00004720   -0.00001802   -0.00013705
     atom   16 type  3   force =    -0.00001810   -0.00001586    0.00006564
     atom   17 type  4   force =     0.00000210    0.00000948    0.00007193
     atom   18 type  4   force =    -0.00000126    0.00000663    0.00008308
     atom   19 type  4   force =    -0.00000827   -0.00000749    0.00006859
     atom   20 type  4   force =     0.00000826   -0.00000922    0.00005886

     Total force =     0.209928     Total SCF correction =     0.001002

     Computing stress (Cartesian axis) and pressure

          total   stress  (Ry/bohr**3)                   (kbar)     P=      -77.13
  -0.00066806  -0.00000749   0.00002472          -98.27       -1.10        3.64
  -0.00000749  -0.00054850  -0.00000443           -1.10      -80.69       -0.65
   0.00002472  -0.00000443  -0.00035648            3.64       -0.65      -52.44

     kinetic stress (kbar)   8394.40      0.24     28.41
                                0.24   8418.11     -1.40
                               28.41     -1.40   8459.88

     local   stress (kbar)  -6023.89     15.57    577.98
                               15.57  -4031.20   -427.64
                              577.98   -427.64   -788.91

     nonloc. stress (kbar)   2875.07     -0.29      7.22
                               -0.29   2883.20      1.47
                                7.22      1.47   2917.74

     hartree stress (kbar)   5982.46     -3.47   -200.45
                               -3.47   5131.78    195.69
                             -200.45    195.69   3577.28

     exc-cor stress (kbar)  10078.94     -0.04     -0.50
                               -0.04  10078.05     -0.09
                               -0.50     -0.09  10077.69

     corecor stress (kbar) -12984.40     -0.03     -1.01
                               -0.03 -12985.37     -0.03
                               -1.01     -0.03 -12987.02

     ewald   stress (kbar)  -8420.85    -13.07   -408.02
                              -13.07  -9575.26    231.35
                             -408.02    231.35 -11309.10

     hubbard stress (kbar)      0.00      0.00      0.00
                                0.00      0.00      0.00
                                0.00      0.00      0.00

     DFT-D   stress (kbar)      0.00      0.00      0.00
                                0.00      0.00      0.00
                                0.00      0.00      0.00

     XDM     stress (kbar)      0.00      0.00      0.00
                                0.00      0.00      0.00
                                0.00      0.00      0.00

     dft-nl  stress (kbar)      0.00      0.00      0.00
                                0.00      0.00      0.00
                                0.00      0.00      0.00

     TS-vdW  stress (kbar)      0.00      0.00      0.00
                                0.00      0.00      0.00
                                0.00      0.00      0.00

[...]

                                0.00      0.00      0.00

     Writing all to output data dir new_calculations/myprefix.save/

     General routines

     Parallel routines

     PAW routines

   This run was terminated on:  14:26: 0  20May2023

   JOB DONE.