     Program PWSCF v.7.0 starts on 21May2023 at 16:46:41

     Reading input from espresso_26878.pwi
Warning: card &CELL ignored
Warning: card / ignored

     Current dimensions of program PWSCF are:
     Max number of different atomic species (ntypx) = 10
     Max number of k-points (npk) =  40000
     Max angular momentum in pseudopotentials (lmaxx) =  4

     gamma-point specific algorithms are used
     Message from routine setup:
     using ibrav=0 with symmetry is DISCOURAGED, use correct ibrav instead

     Subspace diagonalization in iterative solution of the eigenvalue problem:
     a serial algorithm will be used

     Using Slab Decomposition

     bravais-lattice index     =            0
     lattice parameter (alat)  =      15.4764  a.u.
     unit-cell volume          =    2621.1726 (a.u.)^3
     number of atoms/cell      =           10
     number of atomic types    =            4
     number of electrons       =        88.00
     number of Kohn-Sham states=           53
     kinetic-energy cutoff     =      30.0000  Ry
     charge density cutoff     =     240.0000  Ry
     scf convergence threshold =      1.0E-06
     mixing beta               =       0.7000
     number of iterations used =            8  plain     mixing
     Exchange-correlation=  SLA  PW   PBX  PBC
                           (   1   4   3   4   0   0   0)

     celldm(1)=  15.476409  celldm(2)=   0.000000  celldm(3)=   0.000000
     celldm(4)=   0.000000  celldm(5)=   0.000000  celldm(6)=   0.000000

     crystal axes: (cart. coord. in units of alat)
               a(1) = (   1.000000   0.000000   0.000000 )
               a(2) = (   0.500000   0.866025   0.000000 )
               a(3) = (   0.500000   0.288675   0.816497 )

     reciprocal axes: (cart. coord. in units 2 pi/alat)
               b(1) = (  1.000000 -0.577350 -0.408248 )
               b(2) = (  0.000000  1.154701 -0.408248 )
               b(3) = (  0.000000  0.000000  1.224745 )

     PseudoPot. # 1 for Cs read from file:
     /home/pragov/projects/rrg-bengioy-ad/pragov/crystal_structure_design/SSSP/Cs_pbe_v1.uspp.F.UPF
     MD5 check sum: 3476d69cb178dfad3ffaa59df4e07ca4
     Pseudo is Ultrasoft + core correction, Zval =  9.0
     Generated by new atomic code, or converted to UPF format
     Using radial grid of  905 points,  6 beta functions with:
                l(1) =   0
                l(2) =   0
                l(3) =   1
                l(4) =   1
                l(5) =   2
                l(6) =   2
     Q(r) pseudized with  6 coefficients,  rinner =    1.500   1.500   1.500
                                                       1.500   1.500

     PseudoPot. # 2 for Tl read from file:
     /home/pragov/projects/rrg-bengioy-ad/pragov/crystal_structure_design/SSSP/Tl_pbe_v1.2.uspp.F.UPF
     MD5 check sum: b76cf1f7e72655a2b2c53cf6385d7059
     Pseudo is Ultrasoft + core correction, Zval = 13.0
     Generated by new atomic code, or converted to UPF format
     Using radial grid of  899 points,  6 beta functions with:
                l(1) =   0
                l(2) =   0
                l(3) =   1
                l(4) =   1
                l(5) =   2
                l(6) =   2
     Q(r) pseudized with  6 coefficients,  rinner =    1.100   1.100   1.100
                                                       1.100   1.100

     PseudoPot. # 3 for Bi read from file:
     /home/pragov/projects/rrg-bengioy-ad/pragov/crystal_structure_design/SSSP/Bi_pbe_v1.uspp.F.UPF
     MD5 check sum: cceb9f28ec65b6d7ff33140f5b0b1758
     Pseudo is Ultrasoft + core correction, Zval = 15.0
     Generated by new atomic code, or converted to UPF format
     Using radial grid of  899 points,  6 beta functions with:
                l(1) =   0
                l(2) =   0
                l(3) =   1
                l(4) =   1
                l(5) =   2
                l(6) =   2
     Q(r) pseudized with  6 coefficients,  rinner =    1.000   1.000   1.000
                                                       1.000   1.000

     PseudoPot. # 4 for Cl read from file:
     /home/pragov/projects/rrg-bengioy-ad/pragov/crystal_structure_design/SSSP/cl_pbe_v1.4.uspp.F.UPF
     MD5 check sum: fc6f6913ecf08c9257cb748ef0700058
     Pseudo is Ultrasoft + core correction, Zval =  7.0
     Generated by new atomic code, or converted to UPF format
     Using radial grid of  909 points,  6 beta functions with:
                l(1) =   0
                l(2) =   0
                l(3) =   1
                l(4) =   1
                l(5) =   2
                l(6) =   2
     Q(r) pseudized with  8 coefficients,  rinner =    1.300   1.300   1.300
                                                       1.300   1.300

     atomic species   valence    mass     pseudopotential
        Cs             9.00   132.90545     Cs( 1.00)
        Tl            13.00   204.38000     Tl( 1.00)
        Bi            15.00   208.98040     Bi( 1.00)
        Cl             7.00    35.45000     Cl( 1.00)

     12 Sym. Ops., with inversion, found

                                    s                        frac. trans.

      isym =  1     identity

 cryst.   s( 1) = (     1          0          0      )
                  (     0          1          0      )
                  (     0          0          1      )

 cart.    s( 1) = (  1.0000000  0.0000000  0.0000000 )
                  (  0.0000000  1.0000000  0.0000000 )
                  (  0.0000000  0.0000000  1.0000000 )

      isym =  2     180 deg rotation - cart. axis [1,0,0]

[...]

      isym =  3     120 deg rotation - cryst. axis [0,0,1]

[...]

      isym =  6     180 deg rotation - cryst. axis [1,1,0]

[...]

      isym =  7     inversion

[...]

      isym =  8     inv. 180 deg rotation - cart. axis [1,0,0]

[...]

      isym =  9     inv. 120 deg rotation - cryst. axis [0,0,1]

 cryst.   s( 9) = (     1         -1          0      )
                  (     1          0          0      )
                  (     1          0         -1      )

 cart.    s( 9) = (  0.5000000  0.8660254 -0.0000000 )
                  ( -0.8660254  0.5000000 -0.0000000 )
                  (  0.0000000  0.0000000 -1.0000000 )

[...]

 cryst.   s(10) = (     0          1          0      )
                  (    -1          1          0      )
                  (     0          1         -1      )

 cart.    s(10) = (  0.5000000 -0.8660254  0.0000000 )
                  (  0.8660254  0.5000000 -0.0000000 )
                  (  0.0000000  0.0000000 -1.0000000 )

[...]

      isym = 12     inv. 180 deg rotation - cryst. axis [1,1,0]

 cryst.   s(12) = (     1         -1          0      )
                  (     0         -1          0      )
                  (     0         -1          1      )

 cart.    s(12) = (  0.5000000 -0.8660254  0.0000000 )
                  ( -0.8660254 -0.5000000  0.0000000 )
                  (  0.0000000  0.0000000  1.0000000 )

   Cartesian axes

     site n.     atom                  positions (alat units)
         1           Cs  tau(   1) = (   1.5000000   0.8660254   0.6123724  )
         2           Cs  tau(   2) = (   0.5000000   0.2886751   0.2041241  )
         3           Tl  tau(   3) = (   1.0000000   0.5773503   0.4082483  )
         4           Bi  tau(   4) = (   0.0000000   0.0000000   0.0000000  )
         5           Cl  tau(   5) = (   1.0000000   0.2714955   0.1919763  )
         6           Cl  tau(   6) = (   0.7351220   0.4244229   0.6245203  )
         7           Cl  tau(   7) = (   1.0000000   0.8832050   0.6245203  )
         8           Cl  tau(   8) = (   0.7351220   0.7302777   0.1919763  )
         9           Cl  tau(   9) = (   1.2648780   0.4244229   0.6245203  )
        10           Cl  tau(  10) = (   1.2648780   0.7302777   0.1919763  )

   Crystallographic axes

     site n.     atom                  positions (cryst. coord.)
         1           Cs  tau(   1) = (  0.7500000  0.7500000  0.7500000  )
         2           Cs  tau(   2) = (  0.2500000  0.2500000  0.2500000  )
         3           Tl  tau(   3) = (  0.5000000  0.5000000  0.5000000  )
         4           Bi  tau(   4) = (  0.0000000  0.0000000  0.0000000  )
         5           Cl  tau(   5) = (  0.7648780  0.2351220  0.2351220  )
         6           Cl  tau(   6) = (  0.2351220  0.2351220  0.7648780  )
         7           Cl  tau(   7) = (  0.2351220  0.7648780  0.7648780  )
         8           Cl  tau(   8) = (  0.2351220  0.7648780  0.2351220  )
         9           Cl  tau(   9) = (  0.7648780  0.2351220  0.7648780  )
        10           Cl  tau(  10) = (  0.7648780  0.7648780  0.2351220  )

     number of k points=     1  Methfessel-Paxton smearing, width (Ry)=  0.0010
                       cart. coord. in units 2pi/alat
        k(    1) = (   0.0000000   0.0000000   0.0000000), wk =   2.0000000

                       cryst. coord.
        k(    1) = (   0.0000000   0.0000000   0.0000000), wk =   2.0000000

     Check: negative core charge=   -0.000003

     Initial potential from superposition of free atoms

     starting charge      86.9163, renormalised to      88.0000

     negative rho (up, down):  1.819E-01 0.000E+00
     Starting wfcs are   68 randomized atomic wfcs

     Self-consistent Calculation

     iteration #  1     ecut=    30.00 Ry     beta= 0.70
     Davidson diagonalization with overlap

     ethr =  1.00E-02,  avg # of iterations =  2.0

     Threshold (ethr) on eigenvalues was too large:
     Diagonalizing with lowered threshold

     Davidson diagonalization with overlap

[...]

     negative rho (up, down):  1.796E-01 0.000E+00

     total energy              =    -656.78902575 Ry
     estimated scf accuracy    <       0.56732927 Ry

[...]

     total energy              =    -656.98647229 Ry
     estimated scf accuracy    <       0.00000157 Ry

     iteration #  8     ecut=    30.00 Ry     beta= 0.70
     Davidson diagonalization with overlap

     ethr =  1.78E-09,  avg # of iterations =  5.0

[...]

     End of self-consistent calculation

          k = 0.0000 0.0000 0.0000 (  3696 PWs)   bands (ev):

   -20.1850 -20.1850 -20.1627 -20.1627 -20.1627 -18.2065 -18.2035 -11.6498
   -11.0250 -11.0249 -11.0249 -10.8471 -10.8471  -7.2294  -7.2294  -7.2294
    -7.2193  -7.2192  -7.1808  -5.0228  -5.0227  -5.0227  -4.9889  -4.9889
    -4.9889  -1.8130  -1.1509  -1.1509  -1.1509   0.4439   0.4439   0.4439
     0.8162   0.8162   1.0321   1.0321   1.0321   1.0900   1.0900   1.0900
     1.4280   1.4281   1.4281   3.0777   5.2065   5.2065   5.2065   6.6274
     7.7016   7.7016   8.5497   8.5498   8.5498

     occupation numbers
     1.0000   1.0000   1.0000   1.0000   1.0000   1.0000   1.0000   1.0000
     1.0000   1.0000   1.0000   1.0000   1.0000   1.0000   1.0000   1.0000
     1.0000   1.0000   1.0000   1.0000   1.0000   1.0000   1.0000   1.0000
     1.0000   1.0000   1.0000   1.0000   1.0000   1.0000   1.0000   1.0000
     1.0000   1.0000   1.0000   1.0000   1.0000   1.0000   1.0000   1.0000
     1.0000   1.0000   1.0000   1.0000  -0.0000  -0.0000  -0.0000  -0.0000
    -0.0000  -0.0000  -0.0000  -0.0000  -0.0000

     the Fermi energy is     5.0600 ev

!    total energy              =    -656.98647284 Ry
     estimated scf accuracy    <       0.00000013 Ry
     smearing contrib. (-TS)   =       0.00000000 Ry
     internal energy E=F+TS    =    -656.98647284 Ry

     The total energy is F=E-TS. E is the sum of the following terms:
     one-electron contribution =    -230.99196565 Ry
     hartree contribution      =     153.00282840 Ry
     xc contribution           =    -244.15513424 Ry
     ewald contribution        =    -334.84220135 Ry

     convergence has been achieved in   8 iterations

     negative rho (up, down):  1.750E-01 0.000E+00

     Forces acting on atoms (cartesian axes, Ry/au):

     atom    1 type  1   force =     0.00000000   -0.00000000    0.00000058
     atom    2 type  1   force =    -0.00000000    0.00000000   -0.00000058
     atom    3 type  2   force =    -0.00000000    0.00000000   -0.00000000
     atom    4 type  3   force =     0.00000000    0.00000000    0.00000000
     atom    5 type  4   force =     0.00000000   -0.01050209   -0.00742912
     atom    6 type  4   force =    -0.00909507   -0.00525104    0.00742912
     atom    7 type  4   force =     0.00000000    0.01050209    0.00742912
     atom    8 type  4   force =    -0.00909507    0.00525104   -0.00742912
     atom    9 type  4   force =     0.00909507   -0.00525104    0.00742912
     atom   10 type  4   force =     0.00909507    0.00525104   -0.00742912
     The non-local contrib.  to forces
     atom    1 type  1   force =     0.00000000    0.00000000   -0.00000041
     atom    2 type  1   force =     0.00000000    0.00000000    0.00000041
     atom    3 type  2   force =     0.00000000    0.00000000   -0.00000000
     atom    4 type  3   force =     0.00000000    0.00000000    0.00000000
     atom    5 type  4   force =     0.00000000   -0.09250989   -0.06541328
     atom    6 type  4   force =    -0.08011592   -0.04625495    0.06541328
     atom    7 type  4   force =     0.00000000    0.09250989    0.06541328
     atom    8 type  4   force =    -0.08011592    0.04625495   -0.06541328
     atom    9 type  4   force =     0.08011592   -0.04625495    0.06541328
     atom   10 type  4   force =     0.08011592    0.04625495   -0.06541328
     The ionic contribution  to forces
     atom    1 type  1   force =    -0.00000000    0.00000000    0.00000000
     atom    2 type  1   force =    -0.00000000    0.00000000    0.00000000
     atom    3 type  2   force =    -0.00000000   -0.00000000   -0.00000000
     atom    4 type  3   force =     0.00000000   -0.00000000   -0.00000000
     atom    5 type  4   force =    -0.00000000    2.86380775    2.02501788
     atom    6 type  4   force =     2.48013027    1.43190388   -2.02501788
     atom    7 type  4   force =    -0.00000000   -2.86380775   -2.02501788
     atom    8 type  4   force =     2.48013027   -1.43190388    2.02501788
     atom    9 type  4   force =    -2.48013027    1.43190388   -2.02501788
     atom   10 type  4   force =    -2.48013027   -1.43190388    2.02501788
     The local contribution  to forces
     atom    1 type  1   force =    -0.00002617   -0.00000219   -0.00001845
     atom    2 type  1   force =     0.00000620   -0.00001955    0.00001618
     atom    3 type  2   force =    -0.00002431    0.00003412   -0.00001359
     atom    4 type  3   force =    -0.00008057   -0.00002281   -0.00001868
     atom    5 type  4   force =    -0.00000767   -2.78386057   -1.96847403
     atom    6 type  4   force =    -2.41086294   -1.39191502    1.96844303
     atom    7 type  4   force =     0.00000233    2.78385290    1.96847279
     atom    8 type  4   force =    -2.41086804    1.39191019   -1.96845966
     atom    9 type  4   force =     2.41089533   -1.39195551    1.96848956
     atom   10 type  4   force =     2.41087679    1.39193588   -1.96847143
     The core correction contribution to forces
     atom    1 type  1   force =    -0.00000981   -0.00000093   -0.00000217
     atom    2 type  1   force =    -0.00000482   -0.00000217   -0.00000506
     atom    3 type  2   force =    -0.00000008    0.00000191   -0.00000076
     atom    4 type  3   force =    -0.00000120   -0.00000141   -0.00000045
     atom    5 type  4   force =     0.00000047    0.00236926    0.00167451
     atom    6 type  4   force =     0.00205252    0.00118467   -0.00167564
     atom    7 type  4   force =     0.00000032   -0.00236906   -0.00167537
     atom    8 type  4   force =     0.00205222   -0.00118494    0.00167552
     atom    9 type  4   force =    -0.00205181    0.00118387   -0.00167536
     atom   10 type  4   force =    -0.00205152   -0.00118465    0.00167566
     The Hubbard contrib.    to forces
     atom    1 type  1   force =     0.00000000    0.00000000    0.00000000
     atom    2 type  1   force =     0.00000000    0.00000000    0.00000000
     atom    3 type  2   force =     0.00000000    0.00000000    0.00000000
     atom    4 type  3   force =     0.00000000    0.00000000    0.00000000
     atom    5 type  4   force =     0.00000000    0.00000000    0.00000000
     atom    6 type  4   force =     0.00000000    0.00000000    0.00000000
     atom    7 type  4   force =     0.00000000    0.00000000    0.00000000
     atom    8 type  4   force =     0.00000000    0.00000000    0.00000000
     atom    9 type  4   force =     0.00000000    0.00000000    0.00000000
     atom   10 type  4   force =     0.00000000    0.00000000    0.00000000
     The SCF correction term to forces
     atom    1 type  1   force =    -0.00000478   -0.00000072    0.00000840
     atom    2 type  1   force =    -0.00001903    0.00000735   -0.00002534
     atom    3 type  2   force =     0.00002538   -0.00003922    0.00000671
     atom    4 type  3   force =     0.00007927    0.00002706    0.00001591
     atom    5 type  4   force =     0.00001818   -0.00031541   -0.00024096
     atom    6 type  4   force =    -0.00028669   -0.00016561    0.00026028
     atom    7 type  4   force =     0.00000531    0.00031597    0.00024403
     atom    8 type  4   force =    -0.00028818    0.00016916   -0.00024479
     atom    9 type  4   force =     0.00026789   -0.00014238    0.00021841
     atom   10 type  4   force =     0.00029015    0.00014791   -0.00023544

     Total force =     0.031511     Total SCF correction =     0.000989

     Computing stress (Cartesian axis) and pressure

     negative rho (up, down):  1.750E-01 0.000E+00
          total   stress  (Ry/bohr**3)                   (kbar)     P=       26.33
   0.00017901   0.00000000   0.00000000           26.33        0.00        0.00
   0.00000000   0.00017901  -0.00000000            0.00       26.33       -0.00
   0.00000000  -0.00000000   0.00017900            0.00       -0.00       26.33

     kinetic stress (kbar)   4420.28     -0.00      0.00
                                0.00   4420.28     -0.00
                                0.00     -0.00   4420.28

     local   stress (kbar)  -4998.55      0.00     -0.00
                                0.00  -4998.54     -0.00
                               -0.00     -0.00  -4998.54

     nonloc. stress (kbar)   6203.81      0.00      0.00
                                0.00   6203.81     -0.00
                                0.00     -0.00   6203.80

     hartree stress (kbar)   2862.27     -0.00      0.00
                               -0.00   2862.27      0.00
                                0.00      0.00   2862.27

     exc-cor stress (kbar)   7155.10     -0.00     -0.00
                               -0.00   7155.10      0.00
                               -0.00      0.00   7155.10

     corecor stress (kbar)  -9352.59      0.00      0.00
                                0.00  -9352.59     -0.00
                                0.00     -0.00  -9352.59

     ewald   stress (kbar)  -6263.99     -0.00      0.00
                               -0.00  -6263.99     -0.00
                                0.00     -0.00  -6263.99

     hubbard stress (kbar)      0.00      0.00      0.00
                                0.00      0.00      0.00
                                0.00      0.00      0.00

     DFT-D   stress (kbar)      0.00      0.00      0.00
                                0.00      0.00      0.00
                                0.00      0.00      0.00

     XDM     stress (kbar)      0.00      0.00      0.00
                                0.00      0.00      0.00
                                0.00      0.00      0.00

     dft-nl  stress (kbar)      0.00      0.00      0.00
                                0.00      0.00      0.00
                                0.00      0.00      0.00

     TS-vdW  stress (kbar)      0.00      0.00      0.00
                                0.00      0.00      0.00
                                0.00      0.00      0.00

[...]

                                0.00      0.00      0.00

     Writing all to output data dir new_calculations/myprefix.save/

     General routines

     Parallel routines

   This run was terminated on:  16:47:11  21May2023

   JOB DONE.