     Program PWSCF v.7.0 starts on 20May2023 at  9:48:37

     Reading input from espresso_11253.pwi
Warning: card &CELL ignored
Warning: card / ignored

     Current dimensions of program PWSCF are:
     Max number of different atomic species (ntypx) = 10
     Max number of k-points (npk) =  40000
     Max angular momentum in pseudopotentials (lmaxx) =  4
     file O.pbe-n-kjpaw_psl.0.1.UPF: wavefunction(s)  2P renormalized

     gamma-point specific algorithms are used
     Message from routine setup:
     using ibrav=0 with symmetry is DISCOURAGED, use correct ibrav instead

     Subspace diagonalization in iterative solution of the eigenvalue problem:
     a serial algorithm will be used

     Using Slab Decomposition

     bravais-lattice index     =            0
     lattice parameter (alat)  =      10.9084  a.u.
     unit-cell volume          =    1298.0127 (a.u.)^3
     number of atoms/cell      =           16
     number of atomic types    =            3
     number of electrons       =       162.00
     number of Kohn-Sham states=           97
     kinetic-energy cutoff     =      30.0000  Ry
     charge density cutoff     =     240.0000  Ry
     scf convergence threshold =      1.0E-06
     mixing beta               =       0.7000
     number of iterations used =            8  plain     mixing
     Exchange-correlation= SLA  PW   PBX  PBC
                           (   1   4   3   4   0   0   0)

     celldm(1)=  10.908365  celldm(2)=   0.000000  celldm(3)=   0.000000
     celldm(4)=   0.000000  celldm(5)=   0.000000  celldm(6)=   0.000000

     crystal axes: (cart. coord. in units of alat)
               a(1) = (   1.000000   0.000000   0.000000 )
               a(2) = (   0.000000   1.000000   0.000000 )
               a(3) = (   0.000000   0.000000   1.000000 )

     reciprocal axes: (cart. coord. in units 2 pi/alat)
               b(1) = (  1.000000  0.000000  0.000000 )
               b(2) = (  0.000000  1.000000  0.000000 )
               b(3) = (  0.000000  0.000000  1.000000 )

     PseudoPot. # 1 for Na read from file:
     /home/pragov/projects/rrg-bengioy-ad/pragov/crystal_structure_design/SSSP/na_pbe_v1.5.uspp.F.UPF
     MD5 check sum: 44600605ef58000f06b90626533354dc
     Pseudo is Ultrasoft, Zval =  9.0
     Generated by new atomic code, or converted to UPF format
     Using radial grid of  819 points,  5 beta functions with:
                l(1) =   0
                l(2) =   0
                l(3) =   1
                l(4) =   1
                l(5) =   2
     Q(r) pseudized with  8 coefficients,  rinner =    1.250   1.250   1.250
                                                       1.250   1.250

     PseudoPot. # 2 for Pt read from file:
     /home/pragov/projects/rrg-bengioy-ad/pragov/crystal_structure_design/SSSP/pt_pbe_v1.4.uspp.F.UPF
     MD5 check sum: f09d6de1a584b5a045c4fc126da2d0c4
     Pseudo is Ultrasoft + core correction, Zval = 16.0
     Generated by new atomic code, or converted to UPF format
     Using radial grid of  985 points,  6 beta functions with:
                l(1) =   0
                l(2) =   0
                l(3) =   1
                l(4) =   1
                l(5) =   2
                l(6) =   2
     Q(r) pseudized with  8 coefficients,  rinner =    1.300   1.300   1.300
                                                       1.300   1.300

     PseudoPot. # 3 for O  read from file:
     /home/pragov/projects/rrg-bengioy-ad/pragov/crystal_structure_design/SSSP/O.pbe-n-kjpaw_psl.0.1.UPF
     MD5 check sum: 0234752ac141de4415c5fc33072bef88
     Pseudo is Projector augmented-wave + core cor, Zval =  6.0
     Generated using "atomic" code by A. Dal Corso  v.5.0.99 svn rev. 10869
     Shape of augmentation charge: BESSEL
     Using radial grid of 1095 points,  4 beta functions with:
                l(1) =   0
                l(2) =   0
                l(3) =   1
                l(4) =   1
     Q(r) pseudized with 0 coefficients

     atomic species   valence    mass     pseudopotential
        Na             9.00    22.98977     Na( 1.00)
        Pt            16.00   195.08400     Pt( 1.00)
        O              6.00    15.99900     O ( 1.00)

     48 Sym. Ops., with inversion, found (24 have fractional translation)

                                    s                        frac. trans.

      isym =  1     identity

 cryst.   s( 1) = (     1          0          0      )
                  (     0          1          0      )
                  (     0          0          1      )

 cart.    s( 1) = (  1.0000000  0.0000000  0.0000000 )
                  (  0.0000000  1.0000000  0.0000000 )
                  (  0.0000000  0.0000000  1.0000000 )

      isym =  2     180 deg rotation - cart. axis [0,0,1]

[...]

 cryst.   s( 4) = (     1          0          0      )
                  (     0         -1          0      )
                  (     0          0         -1      )

 cart.    s( 4) = (  1.0000000  0.0000000  0.0000000 )
                  (  0.0000000 -1.0000000  0.0000000 )
                  (  0.0000000  0.0000000 -1.0000000 )

[...]

 cryst.   s( 5) = (     0          1          0      )    f =(  0.5000000 )
                  (     1          0          0      )       (  0.5000000 )
                  (     0          0         -1      )       (  0.5000000 )

 cart.    s( 5) = (  0.0000000  1.0000000  0.0000000 )    f =(  0.5000000 )
                  (  1.0000000  0.0000000  0.0000000 )       (  0.5000000 )
                  (  0.0000000  0.0000000 -1.0000000 )       (  0.5000000 )

[...]

 cryst.   s( 9) = (     0          0          1      )    f =(  0.5000000 )
                  (     0         -1          0      )       (  0.5000000 )
                  (     1          0          0      )       (  0.5000000 )

 cart.    s( 9) = (  0.0000000  0.0000000  1.0000000 )    f =(  0.5000000 )
                  (  0.0000000 -1.0000000  0.0000000 )       (  0.5000000 )
                  (  1.0000000  0.0000000  0.0000000 )       (  0.5000000 )

[...]

 cryst.   s(10) = (     0          0         -1      )    f =(  0.5000000 )
                  (     0         -1          0      )       (  0.5000000 )
                  (    -1          0          0      )       (  0.5000000 )

 cart.    s(10) = (  0.0000000  0.0000000 -1.0000000 )    f =(  0.5000000 )
                  (  0.0000000 -1.0000000  0.0000000 )       (  0.5000000 )
                  ( -1.0000000  0.0000000  0.0000000 )       (  0.5000000 )

[...]

 cryst.   s(17) = (     0          0          1      )
                  (     1          0          0      )
                  (     0          1          0      )

 cart.    s(17) = (  0.0000000  1.0000000  0.0000000 )
                  (  0.0000000  0.0000000  1.0000000 )
                  (  1.0000000  0.0000000  0.0000000 )

[...]

      isym = 24     120 deg rotation - cart. axis [-1,-1,1]

[...]

      isym = 25     inversion

[...]

      isym = 26     inv. 180 deg rotation - cart. axis [0,0,1]

[...]

 cryst.   s(40) = (    -1          0          0      )    f =(  0.5000000 )
                  (     0          0         -1      )       (  0.5000000 )
                  (     0          1          0      )       (  0.5000000 )

 cart.    s(40) = ( -1.0000000  0.0000000  0.0000000 )    f =(  0.5000000 )
                  (  0.0000000  0.0000000  1.0000000 )       (  0.5000000 )
                  (  0.0000000 -1.0000000  0.0000000 )       (  0.5000000 )

[...]

      isym = 48     inv. 120 deg rotation - cart. axis [-1,-1,1]

 cryst.   s(48) = (     0         -1          0      )
                  (     0          0          1      )
                  (     1          0          0      )

 cart.    s(48) = (  0.0000000  0.0000000  1.0000000 )
                  ( -1.0000000  0.0000000  0.0000000 )
                  (  0.0000000  1.0000000  0.0000000 )

   Cartesian axes

     site n.     atom                  positions (alat units)
         1           Na  tau(   1) = (   0.5000000   0.5000000   0.5000000  )
         2           Na  tau(   2) = (   0.0000000   0.0000000   0.0000000  )
         3           Pt  tau(   3) = (   0.0000000   0.5000000   0.7500000  )
         4           Pt  tau(   4) = (   0.5000000   0.2500000   0.0000000  )
         5           Pt  tau(   5) = (   0.7500000   0.0000000   0.5000000  )
         6           Pt  tau(   6) = (   0.0000000   0.5000000   0.2500000  )
         7           Pt  tau(   7) = (   0.5000000   0.7500000   0.0000000  )
         8           Pt  tau(   8) = (   0.2500000   0.0000000   0.5000000  )
         9           O   tau(   9) = (   0.7500000   0.2500000   0.7500000  )
        10           O   tau(  10) = (   0.2500000   0.7500000   0.2500000  )
        11           O   tau(  11) = (   0.7500000   0.7500000   0.2500000  )
        12           O   tau(  12) = (   0.2500000   0.2500000   0.7500000  )
        13           O   tau(  13) = (   0.2500000   0.7500000   0.7500000  )
        14           O   tau(  14) = (   0.7500000   0.2500000   0.2500000  )
        15           O   tau(  15) = (   0.2500000   0.2500000   0.2500000  )
        16           O   tau(  16) = (   0.7500000   0.7500000   0.7500000  )

   Crystallographic axes

     site n.     atom                  positions (cryst. coord.)
         1           Na  tau(   1) = (  0.5000000  0.5000000  0.5000000  )
         2           Na  tau(   2) = (  0.0000000  0.0000000  0.0000000  )
         3           Pt  tau(   3) = (  0.0000000  0.5000000  0.7500000  )
         4           Pt  tau(   4) = (  0.5000000  0.2500000  0.0000000  )
         5           Pt  tau(   5) = (  0.7500000  0.0000000  0.5000000  )
         6           Pt  tau(   6) = (  0.0000000  0.5000000  0.2500000  )
         7           Pt  tau(   7) = (  0.5000000  0.7500000  0.0000000  )
         8           Pt  tau(   8) = (  0.2500000  0.0000000  0.5000000  )
         9           O   tau(   9) = (  0.7500000  0.2500000  0.7500000  )
        10           O   tau(  10) = (  0.2500000  0.7500000  0.2500000  )
        11           O   tau(  11) = (  0.7500000  0.7500000  0.2500000  )
        12           O   tau(  12) = (  0.2500000  0.2500000  0.7500000  )
        13           O   tau(  13) = (  0.2500000  0.7500000  0.7500000  )
        14           O   tau(  14) = (  0.7500000  0.2500000  0.2500000  )
        15           O   tau(  15) = (  0.2500000  0.2500000  0.2500000  )
        16           O   tau(  16) = (  0.7500000  0.7500000  0.7500000  )

     number of k points=     1  Methfessel-Paxton smearing, width (Ry)=  0.0010
                       cart. coord. in units 2pi/alat
        k(    1) = (   0.0000000   0.0000000   0.0000000), wk =   2.0000000

                       cryst. coord.
        k(    1) = (   0.0000000   0.0000000   0.0000000), wk =   2.0000000

     Check: negative core charge=   -0.000009

     Initial potential from superposition of free atoms

     starting charge     158.9873, renormalised to     162.0000

     negative rho (up, down):  1.102E+00 0.000E+00
     Starting wfcs are  114 randomized atomic wfcs
     Checking if some PAW data can be deallocated...

     Self-consistent Calculation

     iteration #  1     ecut=    30.00 Ry     beta= 0.70
     Davidson diagonalization with overlap

     ethr =  1.00E-02,  avg # of iterations =  2.0

     negative rho (up, down):  9.996E-01 0.000E+00

     total energy              =   -1781.70988167 Ry
     estimated scf accuracy    <       9.43373693 Ry

[...]

     total energy              =   -1786.92709697 Ry
     estimated scf accuracy    <       0.00042049 Ry

     iteration # 26     ecut=    30.00 Ry     beta= 0.70
     Davidson diagonalization with overlap

     ethr =  2.60E-07,  avg # of iterations =  1.0

[...]

     End of self-consistent calculation

          k = 0.0000 0.0000 0.0000 (  1848 PWs)   bands (ev):

   -39.4533 -39.4532 -39.4467 -39.2930 -39.2930 -39.2930 -39.2652 -39.2652
   -39.2652 -39.2441 -39.2441 -39.2441 -39.2410 -39.2410 -39.2410 -39.2342
   -39.2342 -39.2342 -37.2393 -37.2386  -9.1959  -9.1959  -9.1959  -9.1729
    -9.1729  -9.1729  -6.2031  -5.2443  -5.2443  -5.2443  -5.1979  -4.9815
    -4.9815  -4.9815   5.5353   5.5353   6.4182   6.4182   6.4182   6.7439
     6.7439   6.7575   7.2399   7.2399   7.2399   7.3582   7.3582   7.3582
     7.9023   8.2334   8.2334   9.1052   9.1052   9.1052  10.1589  10.1589
    10.1589  10.2302  10.2302  10.2302  10.5177  10.5177  10.5177  10.9732
    10.9732  10.9732  11.1154  11.1154  11.7386  11.7386  11.7386  11.8153
    12.9628  12.9628  12.9628  13.1413  13.1413  13.1413  13.7530  13.7601
    14.0441  14.0441  14.0441  15.4009  16.0170  16.0170  16.6394  16.6394
    16.6394  17.2987  17.2987  19.0909  19.1388  19.1388  19.1388  20.8935
    20.8935

     occupation numbers
     1.0000   1.0000   1.0000   1.0000   1.0000   1.0000   1.0000   1.0000
     1.0000   1.0000   1.0000   1.0000   1.0000   1.0000   1.0000   1.0000
     1.0000   1.0000   1.0000   1.0000   1.0000   1.0000   1.0000   1.0000
     1.0000   1.0000   1.0000   1.0000   1.0000   1.0000   1.0000   1.0000
     1.0000   1.0000   1.0000   1.0000   1.0000   1.0000   1.0000   1.0000
     1.0000   1.0000   1.0000   1.0000   1.0000   1.0000   1.0000   1.0000
     1.0000   1.0000   1.0000   1.0000   1.0000   1.0000   1.0000   1.0000
     1.0000   1.0000   1.0000   1.0000   1.0000   1.0000   1.0000   1.0000
     1.0000   1.0000   1.0000   1.0000   1.0000   1.0000   1.0000   1.0000
     1.0000   1.0000   1.0000   1.0000   1.0000   1.0000   1.0000   1.0000
     0.3338   0.3338   0.3324  -0.0000  -0.0000  -0.0000  -0.0000  -0.0000
    -0.0000  -0.0000  -0.0000  -0.0000  -0.0000  -0.0000  -0.0000  -0.0000
    -0.0000

     the Fermi energy is    14.0413 ev

!    total energy              =   -1786.92709680 Ry
     estimated scf accuracy    <       0.00000089 Ry
     smearing contrib. (-TS)   =      -0.00074672 Ry
     internal energy E=F+TS    =   -1786.92635008 Ry

     The total energy is F=E-TS. E is the sum of the following terms:
     one-electron contribution =    -419.10892042 Ry
     hartree contribution      =     320.79809197 Ry
     xc contribution           =    -429.73528086 Ry
     ewald contribution        =   -1182.70546608 Ry
     one-center paw contrib.   =     -76.17477470 Ry
      -> PAW hartree energy AE =     231.51321543 Ry
      -> PAW hartree energy PS =    -230.66818603 Ry
      -> PAW xc energy AE      =    -136.53614921 Ry
      -> PAW xc energy PS      =      59.51634511 Ry
      -> total E_H with PAW    =     321.64312137 Ry
      -> total E_XC with PAW   =    -506.75508496 Ry

     convergence has been achieved in  26 iterations

     negative rho (up, down):  1.037E+00 0.000E+00

     Forces acting on atoms (cartesian axes, Ry/au):

     atom    1 type  1   force =     0.00000000    0.00000000    0.00000000
     atom    2 type  1   force =     0.00000000    0.00000000    0.00000000
     atom    3 type  2   force =    -0.00000000    0.00000000    0.00000000
     atom    4 type  2   force =     0.00000000    0.00000000    0.00000000
     atom    5 type  2   force =     0.00000000    0.00000000   -0.00000000
     atom    6 type  2   force =     0.00000000    0.00000000   -0.00000000
     atom    7 type  2   force =    -0.00000000   -0.00000000    0.00000000
     atom    8 type  2   force =     0.00000000   -0.00000000   -0.00000000
     atom    9 type  3   force =     0.00000000    0.00000000   -0.00000000
     atom   10 type  3   force =    -0.00000000    0.00000000   -0.00000000
     atom   11 type  3   force =     0.00000000    0.00000000    0.00000000
     atom   12 type  3   force =    -0.00000000    0.00000000   -0.00000000
     atom   13 type  3   force =     0.00000000    0.00000000   -0.00000000
     atom   14 type  3   force =    -0.00000000    0.00000000   -0.00000000
     atom   15 type  3   force =     0.00000000    0.00000000    0.00000000
     atom   16 type  3   force =    -0.00000000    0.00000000   -0.00000000
     The non-local contrib.  to forces
     atom    1 type  1   force =     0.00000000    0.00000000    0.00000000
     atom    2 type  1   force =     0.00000000    0.00000000    0.00000000
     atom    3 type  2   force =     0.00000000    0.00000000   -0.00000000
     atom    4 type  2   force =     0.00000000    0.00000000    0.00000000
     atom    5 type  2   force =     0.00000000    0.00000000    0.00000000
     atom    6 type  2   force =     0.00000000    0.00000000    0.00000000
     atom    7 type  2   force =     0.00000000   -0.00000000    0.00000000
     atom    8 type  2   force =    -0.00000000   -0.00000000    0.00000000
     atom    9 type  3   force =     0.00000000   -0.00000000    0.00000000
     atom   10 type  3   force =    -0.00000000    0.00000000   -0.00000000
     atom   11 type  3   force =     0.00000000    0.00000000    0.00000000
     atom   12 type  3   force =     0.00000000    0.00000000    0.00000000
     atom   13 type  3   force =     0.00000000    0.00000000    0.00000000
     atom   14 type  3   force =    -0.00000000   -0.00000000   -0.00000000
     atom   15 type  3   force =    -0.00000000    0.00000000    0.00000000
     atom   16 type  3   force =     0.00000000   -0.00000000   -0.00000000
     The ionic contribution  to forces
     atom    1 type  1   force =     0.00000000    0.00000000    0.00000000
     atom    2 type  1   force =    -0.00000000   -0.00000000   -0.00000000
     atom    3 type  2   force =     0.00000000   -0.00000000   -0.00000000
     atom    4 type  2   force =     0.00000000   -0.00000000    0.00000000
     atom    5 type  2   force =    -0.00000000    0.00000000   -0.00000000
     atom    6 type  2   force =     0.00000000    0.00000000   -0.00000000
     atom    7 type  2   force =    -0.00000000   -0.00000000    0.00000000
     atom    8 type  2   force =    -0.00000000   -0.00000000    0.00000000
     atom    9 type  3   force =    -0.00000000   -0.00000000    0.00000000
     atom   10 type  3   force =    -0.00000000   -0.00000000   -0.00000000
     atom   11 type  3   force =    -0.00000000    0.00000000   -0.00000000
     atom   12 type  3   force =    -0.00000000   -0.00000000   -0.00000000
     atom   13 type  3   force =    -0.00000000    0.00000000    0.00000000
     atom   14 type  3   force =    -0.00000000   -0.00000000   -0.00000000
     atom   15 type  3   force =    -0.00000000   -0.00000000   -0.00000000
     atom   16 type  3   force =     0.00000000    0.00000000    0.00000000
     The local contribution  to forces
     atom    1 type  1   force =    -0.00000198   -0.00000144    0.00000044
     atom    2 type  1   force =     0.00000185    0.00000139   -0.00000031
     atom    3 type  2   force =     0.00000482   -0.00001008    0.00064985
     atom    4 type  2   force =    -0.00000763    0.00066453   -0.00000633
     atom    5 type  2   force =     0.00000036    0.00000105    0.00000048
     atom    6 type  2   force =     0.00000406    0.00000086   -0.00065023
     atom    7 type  2   force =    -0.00000087   -0.00066410    0.00000376
     atom    8 type  2   force =    -0.00000107    0.00000878    0.00000235
     atom    9 type  3   force =     0.00000885    0.00068610    0.00067669
     atom   10 type  3   force =    -0.00000821   -0.00068450   -0.00067642
     atom   11 type  3   force =     0.00000829   -0.00068583   -0.00067726
     atom   12 type  3   force =    -0.00000862    0.00068484    0.00067558
     atom   13 type  3   force =    -0.00000835   -0.00068732    0.00067851
     atom   14 type  3   force =     0.00000830    0.00068826   -0.00067949
     atom   15 type  3   force =    -0.00000820    0.00068705   -0.00067805
     atom   16 type  3   force =     0.00000806   -0.00068840    0.00067958
     The core correction contribution to forces
     atom    1 type  1   force =     0.00000000    0.00000000    0.00000000
     atom    2 type  1   force =     0.00000000    0.00000000    0.00000000
     atom    3 type  2   force =    -0.00000008   -0.00000039   -0.00000442
     atom    4 type  2   force =     0.00000000   -0.00000433   -0.00000040
     atom    5 type  2   force =    -0.00000013   -0.00000011    0.00000003
     atom    6 type  2   force =    -0.00000010    0.00000038    0.00000440
     atom    7 type  2   force =     0.00000015    0.00000434    0.00000032
     atom    8 type  2   force =     0.00000014    0.00000006    0.00000010
     atom    9 type  3   force =     0.00000002    0.00000113    0.00000112
     atom   10 type  3   force =    -0.00000001   -0.00000113   -0.00000113
     atom   11 type  3   force =     0.00000001   -0.00000114   -0.00000113
     atom   12 type  3   force =    -0.00000003    0.00000113    0.00000112
     atom   13 type  3   force =    -0.00000001   -0.00000116    0.00000115
     atom   14 type  3   force =     0.00000002    0.00000116   -0.00000115
     atom   15 type  3   force =    -0.00000003    0.00000117   -0.00000115
     atom   16 type  3   force =     0.00000001   -0.00000117    0.00000116
     The Hubbard contrib.    to forces
     atom    1 type  1   force =     0.00000000    0.00000000    0.00000000
     atom    2 type  1   force =     0.00000000    0.00000000    0.00000000
     atom    3 type  2   force =     0.00000000    0.00000000    0.00000000
     atom    4 type  2   force =     0.00000000    0.00000000    0.00000000
     atom    5 type  2   force =     0.00000000    0.00000000    0.00000000
     atom    6 type  2   force =     0.00000000    0.00000000    0.00000000
     atom    7 type  2   force =     0.00000000    0.00000000    0.00000000
     atom    8 type  2   force =     0.00000000    0.00000000    0.00000000
     atom    9 type  3   force =     0.00000000    0.00000000    0.00000000
     atom   10 type  3   force =     0.00000000    0.00000000    0.00000000
     atom   11 type  3   force =     0.00000000    0.00000000    0.00000000
     atom   12 type  3   force =     0.00000000    0.00000000    0.00000000
     atom   13 type  3   force =     0.00000000    0.00000000    0.00000000
     atom   14 type  3   force =     0.00000000    0.00000000    0.00000000
     atom   15 type  3   force =     0.00000000    0.00000000    0.00000000
     atom   16 type  3   force =     0.00000000    0.00000000    0.00000000
     The SCF correction term to forces
     atom    1 type  1   force =     0.00000374    0.00000252   -0.00000038
     atom    2 type  1   force =    -0.00000345   -0.00000253    0.00000024
     atom    3 type  2   force =    -0.00000631    0.00001091   -0.00062801
     atom    4 type  2   force =     0.00000947   -0.00064309    0.00000669
     atom    5 type  2   force =     0.00000054    0.00000025   -0.00000002
     atom    6 type  2   force =    -0.00000489   -0.00000153    0.00062863
     atom    7 type  2   force =     0.00000134    0.00064293   -0.00000396
     atom    8 type  2   force =    -0.00000017   -0.00000987   -0.00000241
     atom    9 type  3   force =    -0.00000751   -0.00061761   -0.00060869
     atom   10 type  3   force =     0.00000715    0.00061631    0.00060806
     atom   11 type  3   force =    -0.00000712    0.00061695    0.00060865
     atom   12 type  3   force =     0.00000708   -0.00061638   -0.00060733
     atom   13 type  3   force =     0.00000734    0.00061711   -0.00060830
     atom   14 type  3   force =    -0.00000711   -0.00061788    0.00060950
     atom   15 type  3   force =     0.00000662   -0.00061651    0.00060827
     atom   16 type  3   force =    -0.00000686    0.00061797   -0.00060946

     Total force =     0.000000     Total SCF correction =     0.002762

     Computing stress (Cartesian axis) and pressure

     negative rho (up, down):  1.037E+00 0.000E+00
          total   stress  (Ry/bohr**3)                   (kbar)     P=     -152.84
  -0.00103900   0.00000000   0.00000000         -152.84        0.00        0.00
   0.00000000  -0.00103900   0.00000000            0.00     -152.84        0.00
   0.00000000   0.00000000  -0.00103900            0.00        0.00     -152.84

     kinetic stress (kbar)  38981.73      0.00      0.00
                                0.00  38981.73      0.00
                                0.00      0.00  38981.73

     local   stress (kbar)  11307.82      0.00      0.00
                                0.00  11306.19      0.00
                                0.00      0.00  11306.17

     nonloc. stress (kbar)  -7512.27      0.00      0.00
                                0.00  -7512.27      0.00
                                0.00      0.00  -7512.27

     hartree stress (kbar)  12118.48     -0.00      0.00
                               -0.00  12118.94      0.00
                                0.00      0.00  12118.95

     exc-cor stress (kbar)  16223.41     -0.00     -0.00
                               -0.00  16223.42     -0.00
                               -0.00     -0.00  16223.42

     corecor stress (kbar) -26592.14      0.00      0.00
                                0.00 -26592.18      0.00
                                0.00      0.00 -26592.18

     ewald   stress (kbar) -44679.06      0.00      0.00
                                0.00 -44679.06      0.00
                                0.00      0.00 -44679.06

     hubbard stress (kbar)      0.00      0.00      0.00
                                0.00      0.00      0.00
                                0.00      0.00      0.00

     DFT-D   stress (kbar)      0.00      0.00      0.00
                                0.00      0.00      0.00
                                0.00      0.00      0.00

     XDM     stress (kbar)      0.00      0.00      0.00
                                0.00      0.00      0.00
                                0.00      0.00      0.00

     dft-nl  stress (kbar)      0.00      0.00      0.00
                                0.00      0.00      0.00
                                0.00      0.00      0.00

     TS-vdW  stress (kbar)      0.00      0.00      0.00
                                0.00      0.00      0.00
                                0.00      0.00      0.00

[...]

                                0.00      0.00      0.00

     Writing all to output data dir new_calculations/myprefix.save/

     General routines

     Parallel routines

     PAW routines

   This run was terminated on:   9:49: 8  20May2023

   JOB DONE.