     Program PWSCF v.7.0 starts on 21May2023 at  0:58:47

     Reading input from espresso_8938.pwi
Warning: card &CELL ignored
Warning: card / ignored

     Current dimensions of program PWSCF are:
     Max number of different atomic species (ntypx) = 10
     Max number of k-points (npk) =  40000
     Max angular momentum in pseudopotentials (lmaxx) =  4
     file O.pbe-n-kjpaw_psl.0.1.UPF: wavefunction(s)  2P renormalized

     gamma-point specific algorithms are used
     Message from routine setup:
     using ibrav=0 with symmetry is DISCOURAGED, use correct ibrav instead

     Subspace diagonalization in iterative solution of the eigenvalue problem:
     a serial algorithm will be used

     Using Slab Decomposition

     bravais-lattice index     =            0
     lattice parameter (alat)  =      11.0199  a.u.
     unit-cell volume          =     946.2828 (a.u.)^3
     number of atoms/cell      =           10
     number of atomic types    =            4
     number of electrons       =        82.00
     number of Kohn-Sham states=           49
     kinetic-energy cutoff     =      30.0000  Ry
     charge density cutoff     =     240.0000  Ry
     scf convergence threshold =      1.0E-06
     mixing beta               =       0.7000
     number of iterations used =            8  plain     mixing
     Exchange-correlation= SLA  PW   PBX  PBC
                           (   1   4   3   4   0   0   0)

     celldm(1)=  11.019925  celldm(2)=   0.000000  celldm(3)=   0.000000
     celldm(4)=   0.000000  celldm(5)=   0.000000  celldm(6)=   0.000000

     crystal axes: (cart. coord. in units of alat)
               a(1) = (   1.000000   0.000000   0.000000 )
               a(2) = (   0.500000   0.866025   0.000000 )
               a(3) = (   0.500000   0.288675   0.816497 )

     reciprocal axes: (cart. coord. in units 2 pi/alat)
               b(1) = (  1.000000 -0.577350 -0.408248 )
               b(2) = (  0.000000  1.154701 -0.408248 )
               b(3) = (  0.000000  0.000000  1.224745 )

     PseudoPot. # 1 for Sr read from file:
     /home/pragov/projects/rrg-bengioy-ad/pragov/crystal_structure_design/SSSP/Sr_pbe_v1.uspp.F.UPF
     MD5 check sum: 6b418c05fbe9db5448babca5e47b7a5b
     Pseudo is Ultrasoft + core correction, Zval = 10.0
     Generated by new atomic code, or converted to UPF format
     Using radial grid of  883 points,  6 beta functions with:
                l(1) =   0
                l(2) =   0
                l(3) =   1
                l(4) =   1
                l(5) =   2
                l(6) =   2
     Q(r) pseudized with  6 coefficients,  rinner =    1.400   1.400   1.400
                                                       1.400   1.400

     PseudoPot. # 2 for Hf read from file:
     /home/pragov/projects/rrg-bengioy-ad/pragov/crystal_structure_design/SSSP/Hf-sp.oncvpsp.upf
     MD5 check sum: 417ed15784afe83d2e06dacf143de3f8
     Pseudo is Norm-conserving + core correction, Zval = 12.0
     Generated using ONCVPSP code by D. R. Hamann
     Using radial grid of 1656 points,  8 beta functions with:
                l(1) =   0
                l(2) =   0
                l(3) =   1
                l(4) =   1
                l(5) =   2
                l(6) =   2
                l(7) =   3
                l(8) =   3

     PseudoPot. # 3 for Sn read from file:
     /home/pragov/projects/rrg-bengioy-ad/pragov/crystal_structure_design/SSSP/Sn_pbe_v1.uspp.F.UPF
     MD5 check sum: 4cf58ce39ec5d5d420df3dd08604eb00
     Pseudo is Ultrasoft + core correction, Zval = 14.0
     Generated by new atomic code, or converted to UPF format
     Using radial grid of  891 points,  6 beta functions with:
                l(1) =   0
                l(2) =   0
                l(3) =   1
                l(4) =   1
                l(5) =   2
                l(6) =   2
     Q(r) pseudized with  6 coefficients,  rinner =    1.200   1.200   1.200
                                                       1.200   1.200

     PseudoPot. # 4 for O  read from file:
     /home/pragov/projects/rrg-bengioy-ad/pragov/crystal_structure_design/SSSP/O.pbe-n-kjpaw_psl.0.1.UPF
     MD5 check sum: 0234752ac141de4415c5fc33072bef88
     Pseudo is Projector augmented-wave + core cor, Zval =  6.0
     Generated using "atomic" code by A. Dal Corso  v.5.0.99 svn rev. 10869
     Shape of augmentation charge: BESSEL
     Using radial grid of 1095 points,  4 beta functions with:
                l(1) =   0
                l(2) =   0
                l(3) =   1
                l(4) =   1
     Q(r) pseudized with 0 coefficients

     atomic species   valence    mass     pseudopotential
        Sr            10.00    87.62000     Sr( 1.00)
        Hf            12.00   178.49000     Hf( 1.00)
        Sn            14.00   118.71000     Sn( 1.00)
        O              6.00    15.99900     O ( 1.00)

     12 Sym. Ops., with inversion, found

                                    s                        frac. trans.

      isym =  1     identity

 cryst.   s( 1) = (     1          0          0      )
                  (     0          1          0      )
                  (     0          0          1      )

 cart.    s( 1) = (  1.0000000  0.0000000  0.0000000 )
                  (  0.0000000  1.0000000 -0.0000000 )
                  (  0.0000000  0.0000000  1.0000000 )

      isym =  2     180 deg rotation - cart. axis [1,0,0]

[...]

      isym =  3     120 deg rotation - cryst. axis [0,0,1]

[...]

      isym =  6     180 deg rotation - cryst. axis [1,1,0]

[...]

      isym =  7     inversion

[...]

      isym =  8     inv. 180 deg rotation - cart. axis [1,0,0]

[...]

      isym =  9     inv. 120 deg rotation - cryst. axis [0,0,1]

 cryst.   s( 9) = (     1         -1          0      )
                  (     1          0          0      )
                  (     1          0         -1      )

 cart.    s( 9) = (  0.5000000  0.8660254 -0.0000000 )
                  ( -0.8660254  0.5000000 -0.0000000 )
                  (  0.0000000  0.0000000 -1.0000000 )

[...]

 cryst.   s(10) = (     0          1          0      )
                  (    -1          1          0      )
                  (     0          1         -1      )

 cart.    s(10) = (  0.5000000 -0.8660254  0.0000000 )
                  (  0.8660254  0.5000000 -0.0000000 )
                  (  0.0000000  0.0000000 -1.0000000 )

[...]

      isym = 12     inv. 180 deg rotation - cryst. axis [1,1,0]

 cryst.   s(12) = (     1         -1          0      )
                  (     0         -1          0      )
                  (     0         -1          1      )

 cart.    s(12) = (  0.5000000 -0.8660254  0.0000000 )
                  ( -0.8660254 -0.5000000  0.0000000 )
                  (  0.0000000  0.0000000  1.0000000 )

   Cartesian axes

     site n.     atom                  positions (alat units)
         1           Sr  tau(   1) = (   0.5000000   0.2886751   0.2041241  )
         2           Sr  tau(   2) = (   1.5000000   0.8660254   0.6123724  )
         3           Hf  tau(   3) = (   0.0000000   0.0000000   0.0000000  )
         4           Sn  tau(   4) = (   1.0000000   0.5773503   0.4082483  )
         5           O   tau(   5) = (   1.0000000   0.2886277   0.2040906  )
         6           O   tau(   6) = (   1.0000000   0.8660728   0.6124060  )
         7           O   tau(   7) = (   1.2500411   0.4329890   0.6124060  )
         8           O   tau(   8) = (   0.7499589   0.7217115   0.2040906  )
         9           O   tau(   9) = (   1.2500411   0.7217115   0.2040906  )
        10           O   tau(  10) = (   0.7499589   0.4329890   0.6124060  )

   Crystallographic axes

     site n.     atom                  positions (cryst. coord.)
         1           Sr  tau(   1) = (  0.2500000  0.2500000  0.2500000  )
         2           Sr  tau(   2) = (  0.7500000  0.7500000  0.7500000  )
         3           Hf  tau(   3) = (  0.0000000  0.0000000  0.0000000  )
         4           Sn  tau(   4) = (  0.5000000  0.5000000  0.5000000  )
         5           O   tau(   5) = (  0.7500410  0.2499589  0.2499590  )
         6           O   tau(   6) = (  0.2499590  0.7500410  0.7500410  )
         7           O   tau(   7) = (  0.7500410  0.2499590  0.7500410  )
         8           O   tau(   8) = (  0.2499589  0.7500411  0.2499590  )
         9           O   tau(   9) = (  0.7500410  0.7500411  0.2499590  )
        10           O   tau(  10) = (  0.2499589  0.2499590  0.7500410  )

     number of k points=     1  Methfessel-Paxton smearing, width (Ry)=  0.0010
                       cart. coord. in units 2pi/alat
        k(    1) = (   0.0000000   0.0000000   0.0000000), wk =   2.0000000

                       cryst. coord.
        k(    1) = (   0.0000000   0.0000000   0.0000000), wk =   2.0000000

     Check: negative core charge=   -0.000011

     Initial potential from superposition of free atoms

     starting charge      80.9308, renormalised to      82.0000

     negative rho (up, down):  1.289E-01 0.000E+00
     Starting wfcs are   69 randomized atomic wfcs
     Checking if some PAW data can be deallocated...

     Self-consistent Calculation

     iteration #  1     ecut=    30.00 Ry     beta= 0.70
     Davidson diagonalization with overlap

     ethr =  1.00E-02,  avg # of iterations =  2.0

     negative rho (up, down):  1.293E-01 0.000E+00

     total energy              =    -665.09386477 Ry
     estimated scf accuracy    <       3.14253130 Ry

[...]

     total energy              =    -666.55291080 Ry
     estimated scf accuracy    <       0.00000126 Ry

     iteration #  9     ecut=    30.00 Ry     beta= 0.70
     Davidson diagonalization with overlap

     ethr =  1.54E-09,  avg # of iterations =  2.0

[...]

     End of self-consistent calculation

          k = 0.0000 0.0000 0.0000 (  1343 PWs)   bands (ev):

   -50.1925 -24.7673 -24.7422 -19.1287 -19.1287 -19.1287 -10.6336 -10.6336
   -10.1373 -10.1373 -10.1373  -7.6280  -6.8080  -6.8080  -6.8079  -6.6925
    -6.6925  -6.6925  -6.1483  -6.1481  -6.1480  -5.6692  -5.6691   2.7881
     6.4276   6.4277   6.4277   6.7485   6.7485   6.7486   7.4563   7.4564
     8.9366   8.9366   8.9367   9.3067   9.3067   9.3067  10.0098  10.0098
    10.0099  13.2982  14.0843  14.0843  14.5561  14.5561  14.5561  15.0277
    15.0277

     occupation numbers
     1.0000   1.0000   1.0000   1.0000   1.0000   1.0000   1.0000   1.0000
     1.0000   1.0000   1.0000   1.0000   1.0000   1.0000   1.0000   1.0000
     1.0000   1.0000   1.0000   1.0000   1.0000   1.0000   1.0000   1.0000
     1.0000   1.0000   1.0000   1.0000   1.0000   1.0000   1.0000   1.0000
     1.0000   1.0000   1.0000   1.0000   1.0000   1.0000   1.0000   1.0000
     1.0000  -0.0000  -0.0000  -0.0000  -0.0000  -0.0000  -0.0000  -0.0000
    -0.0000

     the Fermi energy is    11.0705 ev

!    total energy              =    -666.55291103 Ry
     estimated scf accuracy    <       0.00000004 Ry
     smearing contrib. (-TS)   =       0.00000000 Ry
     internal energy E=F+TS    =    -666.55291103 Ry

     The total energy is F=E-TS. E is the sum of the following terms:
     one-electron contribution =    -155.72476807 Ry
     hartree contribution      =     130.84781497 Ry
     xc contribution           =    -158.48669388 Ry
     ewald contribution        =    -426.15575501 Ry
     one-center paw contrib.   =     -57.03350904 Ry
      -> PAW hartree energy AE =     183.58443929 Ry
      -> PAW hartree energy PS =    -182.87381690 Ry
      -> PAW xc energy AE      =    -103.88261526 Ry
      -> PAW xc energy PS      =      46.13848383 Ry
      -> total E_H with PAW    =     131.55843736 Ry
      -> total E_XC with PAW   =    -216.23082531 Ry

     convergence has been achieved in   9 iterations

     negative rho (up, down):  1.360E-01 0.000E+00

     Forces acting on atoms (cartesian axes, Ry/au):

     atom    1 type  1   force =     0.00000000    0.00000000   -0.00000437
     atom    2 type  1   force =    -0.00000000   -0.00000000    0.00000437
     atom    3 type  2   force =     0.00000000    0.00000000    0.00000000
     atom    4 type  3   force =     0.00000000    0.00000000    0.00000000
     atom    5 type  4   force =     0.00000000   -0.00868537   -0.00614128
     atom    6 type  4   force =     0.00000000    0.00868537    0.00614128
     atom    7 type  4   force =     0.00752175   -0.00434268    0.00614128
     atom    8 type  4   force =    -0.00752175    0.00434268   -0.00614128
     atom    9 type  4   force =     0.00752175    0.00434268   -0.00614128
     atom   10 type  4   force =    -0.00752175   -0.00434268    0.00614128
     The non-local contrib.  to forces
     atom    1 type  1   force =    -0.00000000    0.00000000    0.00000038
     atom    2 type  1   force =     0.00000000    0.00000000   -0.00000038
     atom    3 type  2   force =     0.00000000    0.00000000   -0.00000000
     atom    4 type  3   force =    -0.00000000   -0.00000000    0.00000000
     atom    5 type  4   force =     0.00000000    0.30816822    0.21790625
     atom    6 type  4   force =     0.00000000   -0.30816822   -0.21790625
     atom    7 type  4   force =    -0.26688150    0.15408411   -0.21790625
     atom    8 type  4   force =     0.26688150   -0.15408411    0.21790625
     atom    9 type  4   force =    -0.26688150   -0.15408411    0.21790625
     atom   10 type  4   force =     0.26688150    0.15408411   -0.21790625
     The ionic contribution  to forces
     atom    1 type  1   force =     0.00000000   -0.00000000   -0.00000000
     atom    2 type  1   force =     0.00000000   -0.00000000    0.00000000
     atom    3 type  2   force =    -0.00000000   -0.00000000   -0.00000000
     atom    4 type  3   force =    -0.00000000    0.00000000   -0.00000000
     atom    5 type  4   force =     0.00000000   -0.99103291   -0.70076609
     atom    6 type  4   force =     0.00000000    0.99103291    0.70076609
     atom    7 type  4   force =     0.85825968   -0.49551646    0.70076609
     atom    8 type  4   force =    -0.85825968    0.49551646   -0.70076609
     atom    9 type  4   force =     0.85825968    0.49551646   -0.70076609
     atom   10 type  4   force =    -0.85825968   -0.49551646    0.70076609
     The local contribution  to forces
     atom    1 type  1   force =     0.00000289   -0.00004074   -0.00001363
     atom    2 type  1   force =     0.00002318    0.00006419    0.00003604
     atom    3 type  2   force =    -0.00000544   -0.00015454   -0.00008719
     atom    4 type  3   force =    -0.00002882    0.00006975    0.00004001
     atom    5 type  4   force =     0.00000282    0.67822155    0.47958706
     atom    6 type  4   force =    -0.00001021   -0.67825988   -0.47960983
     atom    7 type  4   force =    -0.58740796    0.33907839   -0.47958926
     atom    8 type  4   force =     0.58740559   -0.33913609    0.47957216
     atom    9 type  4   force =    -0.58741204   -0.33912702    0.47955248
     atom   10 type  4   force =     0.58741812    0.33909809   -0.47960720
     The core correction contribution to forces
     atom    1 type  1   force =     0.00000045   -0.00000009   -0.00000034
     atom    2 type  1   force =     0.00000115    0.00000013    0.00000045
     atom    3 type  2   force =    -0.00000037   -0.00000385   -0.00000197
     atom    4 type  3   force =     0.00000004   -0.00000288   -0.00000145
     atom    5 type  4   force =     0.00000003   -0.00422246   -0.00298577
     atom    6 type  4   force =     0.00000008    0.00422167    0.00298528
     atom    7 type  4   force =     0.00365636   -0.00211111    0.00298529
     atom    8 type  4   force =    -0.00365641    0.00211077   -0.00298553
     atom    9 type  4   force =     0.00365644    0.00211083   -0.00298561
     atom   10 type  4   force =    -0.00365644   -0.00211114    0.00298531
     The Hubbard contrib.    to forces
     atom    1 type  1   force =     0.00000000    0.00000000    0.00000000
     atom    2 type  1   force =     0.00000000    0.00000000    0.00000000
     atom    3 type  2   force =     0.00000000    0.00000000    0.00000000
     atom    4 type  3   force =     0.00000000    0.00000000    0.00000000
     atom    5 type  4   force =     0.00000000    0.00000000    0.00000000
     atom    6 type  4   force =     0.00000000    0.00000000    0.00000000
     atom    7 type  4   force =     0.00000000    0.00000000    0.00000000
     atom    8 type  4   force =     0.00000000    0.00000000    0.00000000
     atom    9 type  4   force =     0.00000000    0.00000000    0.00000000
     atom   10 type  4   force =     0.00000000    0.00000000    0.00000000
     The SCF correction term to forces
     atom    1 type  1   force =    -0.00000242    0.00004945    0.00001166
     atom    2 type  1   force =    -0.00002216   -0.00006439   -0.00002930
     atom    3 type  2   force =     0.00000522    0.00016720    0.00009923
     atom    4 type  3   force =     0.00003969   -0.00011696   -0.00006003
     atom    5 type  4   force =     0.00000036    0.00015444    0.00009241
     atom    6 type  4   force =     0.00001590   -0.00016848   -0.00010536
     atom    7 type  4   force =    -0.00010212    0.00012406   -0.00012709
     atom    8 type  4   force =     0.00009968   -0.00008464    0.00012715
     atom    9 type  4   force =    -0.00009380   -0.00008786    0.00014879
     atom   10 type  4   force =     0.00009057    0.00010038   -0.00010539

     Total force =     0.026056     Total SCF correction =     0.000529

     Computing stress (Cartesian axis) and pressure

     negative rho (up, down):  1.360E-01 0.000E+00
          total   stress  (Ry/bohr**3)                   (kbar)     P=     -212.47
  -0.00144434  -0.00000000  -0.00000000         -212.47       -0.00       -0.00
  -0.00000000  -0.00144434  -0.00000000           -0.00     -212.47       -0.00
   0.00000000   0.00000000  -0.00144433            0.00        0.00     -212.47

     kinetic stress (kbar)  20299.55     -0.00     -0.00
                               -0.00  20299.55     -0.00
                               -0.00     -0.00  20299.55

     local   stress (kbar)  -7780.05      0.04     -0.06
                                0.04  -7779.99      0.04
                               -0.06      0.04  -7780.02

     nonloc. stress (kbar)   8329.51     -0.00     -0.00
                               -0.00   8329.51     -0.00
                               -0.00     -0.00   8329.51

     hartree stress (kbar)   6780.37     -0.03      0.05
                               -0.03   6780.32     -0.04
                                0.05     -0.04   6780.35

     exc-cor stress (kbar)   4718.85      0.00     -0.00
                                0.00   4718.85     -0.00
                               -0.00     -0.00   4718.85

     corecor stress (kbar) -10477.92     -0.00      0.00
                               -0.00 -10477.92     -0.00
                                0.00     -0.00 -10477.92

     ewald   stress (kbar) -22082.78     -0.00     -0.00
                               -0.00 -22082.78      0.00
                               -0.00      0.00 -22082.78

     hubbard stress (kbar)      0.00      0.00      0.00
                                0.00      0.00      0.00
                                0.00      0.00      0.00

     DFT-D   stress (kbar)      0.00      0.00      0.00
                                0.00      0.00      0.00
                                0.00      0.00      0.00

     XDM     stress (kbar)      0.00      0.00      0.00
                                0.00      0.00      0.00
                                0.00      0.00      0.00

     dft-nl  stress (kbar)      0.00      0.00      0.00
                                0.00      0.00      0.00
                                0.00      0.00      0.00

     TS-vdW  stress (kbar)      0.00      0.00      0.00
                                0.00      0.00      0.00
                                0.00      0.00      0.00

[...]

                                0.00      0.00      0.00

     Writing all to output data dir new_calculations/myprefix.save/

     General routines

     Parallel routines

     PAW routines

   This run was terminated on:   0:59:34  21May2023

   JOB DONE.