     Program PWSCF v.7.0 starts on 20May2023 at 15:47:49

     Reading input from espresso_6410.pwi
Warning: card &CELL ignored
Warning: card / ignored

     Current dimensions of program PWSCF are:
     Max number of different atomic species (ntypx) = 10
     Max number of k-points (npk) =  40000
     Max angular momentum in pseudopotentials (lmaxx) =  4

     gamma-point specific algorithms are used
     Message from routine setup:
     using ibrav=0 with symmetry is DISCOURAGED, use correct ibrav instead

     Subspace diagonalization in iterative solution of the eigenvalue problem:
     a serial algorithm will be used

     Using Slab Decomposition

     bravais-lattice index     =            0
     lattice parameter (alat)  =      14.8758  a.u.
     unit-cell volume          =    1726.2409 (a.u.)^3
     number of atoms/cell      =           20
     number of atomic types    =            3
     number of electrons       =       156.00
     number of Kohn-Sham states=           94
     kinetic-energy cutoff     =      30.0000  Ry
     charge density cutoff     =     240.0000  Ry
     scf convergence threshold =      1.0E-06
     mixing beta               =       0.7000
     number of iterations used =            8  plain     mixing
     Exchange-correlation=  SLA  PW   PBX  PBC
                           (   1   4   3   4   0   0   0)

     celldm(1)=  14.875754  celldm(2)=   0.000000  celldm(3)=   0.000000
     celldm(4)=   0.000000  celldm(5)=   0.000000  celldm(6)=   0.000000

     crystal axes: (cart. coord. in units of alat)
               a(1) = (   1.000000   0.000000   0.000000 )
               a(2) = (   0.567658   0.823264   0.000000 )
               a(3) = (   0.165280   0.086798   0.636979 )

     reciprocal axes: (cart. coord. in units 2 pi/alat)
               b(1) = (  1.000000 -0.689522 -0.165518 )
               b(2) = (  0.000000  1.214677 -0.165518 )
               b(3) = (  0.000000  0.000000  1.569910 )

     PseudoPot. # 1 for Li read from file:
     /home/pragov/projects/rrg-bengioy-ad/pragov/crystal_structure_design/SSSP/li_pbe_v1.4.uspp.F.UPF
     MD5 check sum: e912e257baa3777c20ea3d68f190483c
     Pseudo is Ultrasoft, Zval =  3.0
     Generated by new atomic code, or converted to UPF format
     Using radial grid of  751 points,  5 beta functions with:
                l(1) =   0
                l(2) =   0
                l(3) =   0
                l(4) =   1
                l(5) =   1
     Q(r) pseudized with 10 coefficients,  rinner =    1.150   1.150   1.150

     PseudoPot. # 2 for V  read from file:
     /home/pragov/projects/rrg-bengioy-ad/pragov/crystal_structure_design/SSSP/v_pbe_v1.4.uspp.F.UPF
     MD5 check sum: 22b79981416ebb76fdaf5b1b8640f6fb
     Pseudo is Ultrasoft + core correction, Zval = 13.0
     Generated by new atomic code, or converted to UPF format
     Using radial grid of  853 points,  6 beta functions with:
                l(1) =   0
                l(2) =   0
                l(3) =   1
                l(4) =   1
                l(5) =   2
                l(6) =   2
     Q(r) pseudized with  8 coefficients,  rinner =    1.100   1.100   1.100
                                                       1.100   1.100

     PseudoPot. # 3 for F  read from file:
     /home/pragov/projects/rrg-bengioy-ad/pragov/crystal_structure_design/SSSP/f_pbe_v1.4.uspp.F.UPF
     MD5 check sum: 4c38b6a325caf53ec0e86aed9459de46
     Pseudo is Ultrasoft, Zval =  7.0
     Generated by new atomic code, or converted to UPF format
     Using radial grid of  799 points,  4 beta functions with:
                l(1) =   0
                l(2) =   0
                l(3) =   1
                l(4) =   1
     Q(r) pseudized with  8 coefficients,  rinner =    0.950   0.950   0.950

     atomic species   valence    mass     pseudopotential
        Li             3.00     6.94000     Li( 1.00)
        V             13.00    50.94150     V ( 1.00)
        F              7.00    18.99840     F ( 1.00)

      2 Sym. Ops., with inversion, found

                                    s                        frac. trans.

      isym =  1     identity

 cryst.   s( 1) = (     1          0          0      )
                  (     0          1          0      )
                  (     0          0          1      )

 cart.    s( 1) = (  1.0000000  0.0000000 -0.0000000 )
                  (  0.0000000  1.0000000 -0.0000000 )
                  (  0.0000000  0.0000000  1.0000000 )

      isym =  2     inversion

 cryst.   s( 2) = (    -1          0          0      )
                  (     0         -1          0      )
                  (     0          0         -1      )

 cart.    s( 2) = ( -1.0000000 -0.0000000  0.0000000 )
                  (  0.0000000 -1.0000000  0.0000000 )
                  (  0.0000000  0.0000000 -1.0000000 )

   Cartesian axes

     site n.     atom                  positions (alat units)
         1           Li  tau(   1) = (   0.8338770   0.4167123   0.1592448  )
         2           Li  tau(   2) = (   0.8990619   0.4933497   0.4777344  )
         3           V   tau(   3) = (   0.7817188   0.0756238   0.4724418  )
         4           V   tau(   4) = (   0.4233675   0.5572336   0.1539521  )
         5           V   tau(   5) = (   0.9512201   0.8344382   0.1645375  )
         6           V   tau(   6) = (   1.3095715   0.3528284   0.4830271  )
         7           F   tau(   7) = (   0.8630576   0.2765692   0.3532502  )
         8           F   tau(   8) = (   0.6349712   0.5101286   0.0347606  )
         9           F   tau(   9) = (   1.4748152   0.7414600   0.3126033  )
        10           F   tau(  10) = (   1.5302490   0.8366653   0.6310929  )
        11           F   tau(  11) = (   0.5259113   0.1557339   0.0053130  )
        12           F   tau(  12) = (   0.5093884   0.3879592   0.3238027  )
        13           F   tau(  13) = (   0.5826402   0.0433990   0.3184896  )
        14           F   tau(  14) = (   0.2838292   0.4116321   0.0000000  )
        15           F   tau(  15) = (   1.2235505   0.5221028   0.3131766  )
        16           F   tau(  16) = (   1.2070276   0.7543281   0.6316662  )
        17           F   tau(  17) = (   0.2581237   0.1686020   0.3243759  )
        18           F   tau(  18) = (   0.2026899   0.0733967   0.0058863  )
        19           F   tau(  19) = (   0.8698813   0.6334929   0.2837290  )
        20           F   tau(  20) = (   1.0979677   0.3999334   0.6022186  )

   Crystallographic axes

     site n.     atom                  positions (cryst. coord.)
         1           Li  tau(   1) = (  0.5201870  0.4798130  0.2500000  )
         2           Li  tau(   2) = (  0.4798130  0.5201870  0.7500000  )
         3           V   tau(   3) = (  0.6513770  0.0136610  0.7416910  )
         4           V   tau(   4) = (  0.0136610  0.6513770  0.2416910  )
         5           V   tau(   5) = (  0.3486230  0.9863390  0.2583090  )
         6           V   tau(   6) = (  0.9863390  0.3486230  0.7583090  )
         7           F   tau(   7) = (  0.6138880  0.2774730  0.5545710  )
         8           F   tau(   8) = (  0.2774730  0.6138880  0.0545710  )
         9           F   tau(   9) = (  0.9118210  0.8488930  0.4907590  )
        10           F   tau(  10) = (  0.8488930  0.9118210  0.9907590  )
        11           F   tau(  11) = (  0.4176500  0.1882870  0.0083410  )
        12           F   tau(  12) = (  0.1882870  0.4176500  0.5083410  )
        13           F   tau(  13) = (  0.5000000  0.0000000  0.5000000  )
        14           F   tau(  14) = ( -0.0000000  0.5000000  0.0000000  )
        15           F   tau(  15) = (  0.8117130  0.5823500  0.4916590  )
        16           F   tau(  16) = (  0.5823500  0.8117130  0.9916590  )
        17           F   tau(  17) = (  0.0881790  0.1511070  0.5092410  )
        18           F   tau(  18) = (  0.1511070  0.0881790  0.0092410  )
        19           F   tau(  19) = (  0.3861120  0.7225270  0.4454290  )
        20           F   tau(  20) = (  0.7225270  0.3861120  0.9454290  )

     number of k points=     1  Methfessel-Paxton smearing, width (Ry)=  0.0010
                       cart. coord. in units 2pi/alat
        k(    1) = (   0.0000000   0.0000000   0.0000000), wk =   2.0000000

                       cryst. coord.
        k(    1) = (   0.0000000   0.0000000   0.0000000), wk =   2.0000000

     Check: negative core charge=   -0.000004

     Initial potential from superposition of free atoms

     starting charge     155.0936, renormalised to     156.0000

     negative rho (up, down):  5.239E-03 0.000E+00
     Starting wfcs are  106 randomized atomic wfcs

     Self-consistent Calculation

     iteration #  1     ecut=    30.00 Ry     beta= 0.70
     Davidson diagonalization with overlap

     ethr =  1.00E-02,  avg # of iterations =  2.0

     negative rho (up, down):  6.866E-03 0.000E+00

     total energy              =   -1289.64794306 Ry
     estimated scf accuracy    <       2.95341534 Ry

[...]

     total energy              =   -1291.26180367 Ry
     estimated scf accuracy    <       0.00002125 Ry

     iteration # 32     ecut=    30.00 Ry     beta= 0.70
     Davidson diagonalization with overlap

     ethr =  7.70E-09,  avg # of iterations =  1.0

[...]

     End of self-consistent calculation

          k = 0.0000 0.0000 0.0000 (  2386 PWs)   bands (ev):

   -60.3211 -60.3198 -60.3162 -60.3151 -40.1787 -40.1408 -34.3296 -34.3254
   -34.3217 -34.3185 -34.1541 -34.1497 -34.1398 -34.1376 -34.0520 -34.0473
   -33.9843 -33.9823 -19.6013 -19.1957 -19.1802 -19.0542 -19.0126 -18.9807
   -18.9454 -18.9318 -18.9252 -18.8290 -18.7896 -18.7826 -18.7558 -18.6968
    -2.6212  -2.2263  -2.1735  -1.9361  -1.8978  -1.8372  -1.7552  -1.7466
    -1.7025  -1.5569  -1.5515  -1.5159  -1.5049  -1.4098  -1.3018  -1.2470
    -1.0788  -0.9808  -0.8944  -0.8131  -0.6649  -0.4897  -0.4829  -0.4397
    -0.2702  -0.2430   0.0641   0.2135   0.2163   0.2187   0.2594   0.2864
     0.3296   0.3426   0.3625   0.4359   0.4731   0.5643   0.6644   0.7074
     0.7096   0.8569   5.2831   5.3636   5.3699   5.5156   5.5257   5.5919
     5.6172   5.7628   5.7754   5.8286   5.9300   6.0717   6.5021   6.8752
     6.9695   7.0311   7.4758   7.4903   7.7294   8.2110

     occupation numbers
     1.0000   1.0000   1.0000   1.0000   1.0000   1.0000   1.0000   1.0000
     1.0000   1.0000   1.0000   1.0000   1.0000   1.0000   1.0000   1.0000
     1.0000   1.0000   1.0000   1.0000   1.0000   1.0000   1.0000   1.0000
     1.0000   1.0000   1.0000   1.0000   1.0000   1.0000   1.0000   1.0000
     1.0000   1.0000   1.0000   1.0000   1.0000   1.0000   1.0000   1.0000
     1.0000   1.0000   1.0000   1.0000   1.0000   1.0000   1.0000   1.0000
     1.0000   1.0000   1.0000   1.0000   1.0000   1.0000   1.0000   1.0000
     1.0000   1.0000   1.0000   1.0000   1.0000   1.0000   1.0000   1.0000
     1.0000   1.0000   1.0000   1.0000   1.0000   1.0000   1.0000   1.0000
     1.0000   1.0000   1.0000   1.0000   1.0000   0.7924   0.2076  -0.0000
    -0.0000  -0.0000  -0.0000  -0.0000  -0.0000  -0.0000  -0.0000  -0.0000
    -0.0000  -0.0000  -0.0000  -0.0000  -0.0000  -0.0000

     the Fermi energy is     5.5207 ev

!    total energy              =   -1291.26180350 Ry
     estimated scf accuracy    <       0.00000086 Ry
     smearing contrib. (-TS)   =      -0.00035464 Ry
     internal energy E=F+TS    =   -1291.26144886 Ry

     The total energy is F=E-TS. E is the sum of the following terms:
     one-electron contribution =    -831.95506186 Ry
     hartree contribution      =     477.16804688 Ry
     xc contribution           =    -215.81648286 Ry
     ewald contribution        =    -720.65795101 Ry

     convergence has been achieved in  32 iterations

     negative rho (up, down):  6.051E-03 0.000E+00

     Forces acting on atoms (cartesian axes, Ry/au):

     atom    1 type  1   force =    -0.00023102    0.00043563   -0.00000654
     atom    2 type  1   force =     0.00023102   -0.00043563    0.00000654
     atom    3 type  2   force =     0.00845671   -0.01236537   -0.02105829
     atom    4 type  2   force =    -0.00536890    0.01391222   -0.02110030
     atom    5 type  2   force =    -0.00845671    0.01236537    0.02105829
     atom    6 type  2   force =     0.00536890   -0.01391222    0.02110030
     atom    7 type  3   force =    -0.00387220   -0.00987721    0.01017368
     atom    8 type  3   force =    -0.01023722    0.00242688    0.01011609
     atom    9 type  3   force =    -0.02682400   -0.00884101    0.00105753
     atom   10 type  3   force =    -0.02257060   -0.01701380    0.00098199
     atom   11 type  3   force =    -0.00248555   -0.01877417   -0.00082707
     atom   12 type  3   force =    -0.01682283    0.00862169   -0.00081181
     atom   13 type  3   force =     0.00000000    0.00000000    0.00000000
     atom   14 type  3   force =     0.00000000    0.00000000    0.00000000
     atom   15 type  3   force =     0.01682283   -0.00862169    0.00081181
     atom   16 type  3   force =     0.00248555    0.01877417    0.00082707
     atom   17 type  3   force =     0.02682400    0.00884101   -0.00105753
     atom   18 type  3   force =     0.02257060    0.01701380   -0.00098199
     atom   19 type  3   force =     0.00387220    0.00987721   -0.01017368
     atom   20 type  3   force =     0.01023722   -0.00242688   -0.01011609
     The non-local contrib.  to forces
     atom    1 type  1   force =    -0.00462268    0.00880464    0.00000087
     atom    2 type  1   force =     0.00462268   -0.00880464   -0.00000087
     atom    3 type  2   force =    -0.00910063   -0.03566954   -0.01526371
     atom    4 type  2   force =    -0.03453925    0.01277358   -0.01527078
     atom    5 type  2   force =     0.00910063    0.03566954    0.01526371
     atom    6 type  2   force =     0.03453925   -0.01277358    0.01527078
     atom    7 type  3   force =    -0.30268731   -0.25364855    0.32113684
     atom    8 type  3   force =    -0.38054354   -0.10517710    0.32107592
     atom    9 type  3   force =    -0.61924887   -0.21956412   -0.07438794
     atom   10 type  3   force =    -0.53235043   -0.38510795   -0.07446100
     atom   11 type  3   force =    -0.13198528   -0.95913679   -0.08088533
     atom   12 type  3   force =    -0.86444560    0.43578945   -0.08084684
     atom   13 type  3   force =     0.00000000    0.00000000    0.00000000
     atom   14 type  3   force =     0.00000000    0.00000000    0.00000000
     atom   15 type  3   force =     0.86444560   -0.43578945    0.08084684
     atom   16 type  3   force =     0.13198528    0.95913679    0.08088533
     atom   17 type  3   force =     0.61924887    0.21956412    0.07438794
     atom   18 type  3   force =     0.53235043    0.38510795    0.07446100
     atom   19 type  3   force =     0.30268731    0.25364855   -0.32113684
     atom   20 type  3   force =     0.38054354    0.10517710   -0.32107592
     The ionic contribution  to forces
     atom    1 type  1   force =     0.34203707   -0.65130652    0.00000000
     atom    2 type  1   force =    -0.34203707    0.65130652   -0.00000000
     atom    3 type  2   force =     7.34246021    4.39450773   -5.70956820
     atom    4 type  2   force =     7.78585040    3.55020474   -5.70956820
     atom    5 type  2   force =    -7.34246021   -4.39450773    5.70956820
     atom    6 type  2   force =    -7.78585040   -3.55020474    5.70956820
     atom    7 type  3   force =     5.54647822    6.80177878   -6.21542174
     atom    8 type  3   force =     8.74816597    0.70512935   -6.21542174
     atom    9 type  3   force =    11.53588555    4.98858521   -1.00570458
     atom   10 type  3   force =    10.65536650    6.66526838   -1.00570458
     atom   11 type  3   force =     5.57029965   12.35416572    0.03646803
     atom   12 type  3   force =    13.33276953   -2.42711878    0.03646803
     atom   13 type  3   force =    -0.00000000    0.00000000   -0.00000000
     atom   14 type  3   force =     0.00000000    0.00000000    0.00000000
     atom   15 type  3   force =   -13.33276953    2.42711878   -0.03646803
     atom   16 type  3   force =    -5.57029965  -12.35416572   -0.03646803
     atom   17 type  3   force =   -11.53588555   -4.98858521    1.00570459
     atom   18 type  3   force =   -10.65536650   -6.66526838    1.00570459
     atom   19 type  3   force =    -5.54647822   -6.80177878    6.21542174
     atom   20 type  3   force =    -8.74816597   -0.70512935    6.21542174
     The local contribution  to forces
     atom    1 type  1   force =    -0.33770685    0.64288701   -0.00001630
     atom    2 type  1   force =     0.33761168   -0.64298205    0.00006015
     atom    3 type  2   force =    -7.32490636   -4.37333948    5.70322206
     atom    4 type  2   force =    -7.75844669   -3.54790493    5.70321799
     atom    5 type  2   force =     7.32543274    4.37322351   -5.70345549
     atom    6 type  2   force =     7.75842996    3.54847306   -5.70332444
     atom    7 type  3   force =    -5.24770215   -6.55816542    5.90459840
     atom    8 type  3   force =    -8.37816380   -0.59748855    5.90464113
     atom    9 type  3   force =   -10.94359781   -4.77782707    1.08110698
     atom   10 type  3   force =   -10.14553940   -6.29723383    1.08117206
     atom   11 type  3   force =    -5.44022119  -11.41357674    0.04317157
     atom   12 type  3   force =   -12.48507936    2.00026020    0.04337466
     atom   13 type  3   force =     0.00071533    0.00005403    0.00031015
     atom   14 type  3   force =     0.00017742    0.00038585    0.00008699
     atom   15 type  3   force =    12.48546375   -1.99979529   -0.04370978
     atom   16 type  3   force =     5.44115114   11.41350079   -0.04412752
     atom   17 type  3   force =    10.94306941    4.77801876   -1.08076015
     atom   18 type  3   force =    10.14506236    6.29710557   -1.08149423
     atom   19 type  3   force =     5.24731234    6.55746134   -5.90416923
     atom   20 type  3   force =     8.37768531    0.59749766   -5.90447454
     The core correction contribution to forces
     atom    1 type  1   force =     0.00000000    0.00000000    0.00000000
     atom    2 type  1   force =     0.00000000    0.00000000    0.00000000
     atom    3 type  2   force =     0.00036868    0.00214057    0.00046670
     atom    4 type  2   force =     0.00197592   -0.00091925    0.00046522
     atom    5 type  2   force =    -0.00036944   -0.00213857   -0.00046707
     atom    6 type  2   force =    -0.00197522    0.00091688   -0.00046197
     atom    7 type  3   force =     0.00000000    0.00000000    0.00000000
     atom    8 type  3   force =     0.00000000    0.00000000    0.00000000
     atom    9 type  3   force =     0.00000000    0.00000000    0.00000000
     atom   10 type  3   force =     0.00000000    0.00000000    0.00000000
     atom   11 type  3   force =     0.00000000    0.00000000    0.00000000
     atom   12 type  3   force =     0.00000000    0.00000000    0.00000000
     atom   13 type  3   force =     0.00000000    0.00000000    0.00000000
     atom   14 type  3   force =     0.00000000    0.00000000    0.00000000
     atom   15 type  3   force =     0.00000000    0.00000000    0.00000000
     atom   16 type  3   force =     0.00000000    0.00000000    0.00000000
     atom   17 type  3   force =     0.00000000    0.00000000    0.00000000
     atom   18 type  3   force =     0.00000000    0.00000000    0.00000000
     atom   19 type  3   force =     0.00000000    0.00000000    0.00000000
     atom   20 type  3   force =     0.00000000    0.00000000    0.00000000
     The Hubbard contrib.    to forces
     atom    1 type  1   force =     0.00000000    0.00000000    0.00000000
     atom    2 type  1   force =     0.00000000    0.00000000    0.00000000
     atom    3 type  2   force =     0.00000000    0.00000000    0.00000000
     atom    4 type  2   force =     0.00000000    0.00000000    0.00000000
     atom    5 type  2   force =     0.00000000    0.00000000    0.00000000
     atom    6 type  2   force =     0.00000000    0.00000000    0.00000000
     atom    7 type  3   force =     0.00000000    0.00000000    0.00000000
     atom    8 type  3   force =     0.00000000    0.00000000    0.00000000
     atom    9 type  3   force =     0.00000000    0.00000000    0.00000000
     atom   10 type  3   force =     0.00000000    0.00000000    0.00000000
     atom   11 type  3   force =     0.00000000    0.00000000    0.00000000
     atom   12 type  3   force =     0.00000000    0.00000000    0.00000000
     atom   13 type  3   force =     0.00000000    0.00000000    0.00000000
     atom   14 type  3   force =     0.00000000    0.00000000    0.00000000
     atom   15 type  3   force =     0.00000000    0.00000000    0.00000000
     atom   16 type  3   force =     0.00000000    0.00000000    0.00000000
     atom   17 type  3   force =     0.00000000    0.00000000    0.00000000
     atom   18 type  3   force =     0.00000000    0.00000000    0.00000000
     atom   19 type  3   force =     0.00000000    0.00000000    0.00000000
     atom   20 type  3   force =     0.00000000    0.00000000    0.00000000
     The SCF correction term to forces
     atom    1 type  1   force =     0.00005405    0.00004133    0.00001269
     atom    2 type  1   force =     0.00002632    0.00003538   -0.00004894
     atom    3 type  2   force =    -0.00036250   -0.00000014    0.00007876
     atom    4 type  2   force =    -0.00020445   -0.00024538    0.00007027
     atom    5 type  2   force =    -0.00015774    0.00012313    0.00014284
     atom    6 type  2   force =     0.00023013   -0.00032731    0.00006252
     atom    7 type  3   force =     0.00004302    0.00015905   -0.00014071
     atom    8 type  3   force =     0.00031146   -0.00004233   -0.00017371
     atom    9 type  3   force =     0.00013935   -0.00003109    0.00003267
     atom   10 type  3   force =    -0.00004799    0.00006193   -0.00002126
     atom   11 type  3   force =    -0.00058193   -0.00022154    0.00042358
     atom   12 type  3   force =    -0.00007097   -0.00031366    0.00018581
     atom   13 type  3   force =    -0.00070909   -0.00006050   -0.00030970
     atom   14 type  3   force =    -0.00018974   -0.00039604   -0.00007192
     atom   15 type  3   force =    -0.00032058   -0.00016022    0.00013623
     atom   16 type  3   force =    -0.00035442    0.00030712    0.00054220
     atom   17 type  3   force =     0.00039351   -0.00015273   -0.00040032
     atom   18 type  3   force =     0.00052360    0.00007097    0.00034986
     atom   19 type  3   force =     0.00035473    0.00054718   -0.00029024
     atom   20 type  3   force =     0.00018164    0.00002219    0.00001815

     Total force =     0.090342     Total SCF correction =     0.002033

     Computing stress (Cartesian axis) and pressure

     negative rho (up, down):  6.051E-03 0.000E+00
          total   stress  (Ry/bohr**3)                   (kbar)     P=     -219.29
  -0.00152343   0.00001570  -0.00005913         -224.10        2.31       -8.70
   0.00001570  -0.00154408  -0.00003097            2.31     -227.14       -4.56
  -0.00005913  -0.00003097  -0.00140456           -8.70       -4.56     -206.62

     kinetic stress (kbar)  22823.73    -17.71     -1.10
                              -17.71  22848.00     -0.56
                               -1.10     -0.56  22839.66

     local   stress (kbar)  -1786.29   7748.30  -2138.78
                             7748.30 -12470.97  -1123.15
                            -2138.78  -1123.15 -19196.16

     nonloc. stress (kbar)    809.76      2.67     -1.03
                                2.67    806.06     -0.55
                               -1.03     -0.55    828.37

     hartree stress (kbar)   9426.21  -3538.22   1117.75
                            -3538.22  14305.30    586.95
                             1117.75    586.95  16931.33

     exc-cor stress (kbar)  -4922.43     -1.41     -0.61
                               -1.41  -4920.48     -0.32
                               -0.61     -0.32  -4915.52

     corecor stress (kbar)   -883.28      0.34      0.14
                                0.34   -883.75      0.08
                                0.14      0.08   -885.08

     ewald   stress (kbar) -25691.79  -4191.67   1014.92
                            -4191.67 -19911.31    532.99
                             1014.92    532.99 -15809.21

     hubbard stress (kbar)      0.00      0.00      0.00
                                0.00      0.00      0.00
                                0.00      0.00      0.00

     DFT-D   stress (kbar)      0.00      0.00      0.00
                                0.00      0.00      0.00
                                0.00      0.00      0.00

     XDM     stress (kbar)      0.00      0.00      0.00
                                0.00      0.00      0.00
                                0.00      0.00      0.00

     dft-nl  stress (kbar)      0.00      0.00      0.00
                                0.00      0.00      0.00
                                0.00      0.00      0.00

     TS-vdW  stress (kbar)      0.00      0.00      0.00
                                0.00      0.00      0.00
                                0.00      0.00      0.00

[...]

                                0.00      0.00      0.00

     Writing all to output data dir new_calculations/myprefix.save/

     General routines

     Parallel routines

   This run was terminated on:  15:49: 3  20May2023

   JOB DONE.