     Program PWSCF v.7.0 starts on 21May2023 at  6:11:45

     Reading input from espresso_13985.pwi
Warning: card &CELL ignored
Warning: card / ignored

     Current dimensions of program PWSCF are:
     Max number of different atomic species (ntypx) = 10
     Max number of k-points (npk) =  40000
     Max angular momentum in pseudopotentials (lmaxx) =  4
     file Nb.pbe-spn-kjpaw_psl.0.3.0.UPF: wavefunction(s)  4S 4P renormalized
     file Ga.pbe-dn-kjpaw_psl.1.0.0.UPF: wavefunction(s)  4S renormalized
     file C.pbe-n-kjpaw_psl.1.0.0.UPF: wavefunction(s)  2S 2P renormalized

     gamma-point specific algorithms are used
     Message from routine setup:
     using ibrav=0 with symmetry is DISCOURAGED, use correct ibrav instead

     Subspace diagonalization in iterative solution of the eigenvalue problem:
     a serial algorithm will be used

     Using Slab Decomposition

     bravais-lattice index     =            0
     lattice parameter (alat)  =       5.9760  a.u.
     unit-cell volume          =     796.0228 (a.u.)^3
     number of atoms/cell      =            8
     number of atomic types    =            3
     number of electrons       =        86.00
     number of Kohn-Sham states=           52
     kinetic-energy cutoff     =      30.0000  Ry
     charge density cutoff     =     240.0000  Ry
     scf convergence threshold =      1.0E-06
     mixing beta               =       0.7000
     number of iterations used =            8  plain     mixing
     Exchange-correlation= SLA  PW   PBX  PBC
                           (   1   4   3   4   0   0   0)

     celldm(1)=   5.975954  celldm(2)=   0.000000  celldm(3)=   0.000000
     celldm(4)=   0.000000  celldm(5)=   0.000000  celldm(6)=   0.000000

     crystal axes: (cart. coord. in units of alat)
               a(1) = (   1.000000   0.000000   0.000000 )
               a(2) = (  -0.500000   0.866025   0.000000 )
               a(3) = (   0.000000   0.000000   4.306983 )

     reciprocal axes: (cart. coord. in units 2 pi/alat)
               b(1) = (  1.000000  0.577351  0.000000 )
               b(2) = (  0.000000  1.154701  0.000000 )
               b(3) = (  0.000000  0.000000  0.232181 )

     PseudoPot. # 1 for Nb read from file:
     /home/pragov/projects/rrg-bengioy-ad/pragov/crystal_structure_design/SSSP/Nb.pbe-spn-kjpaw_psl.0.3.0.UPF
     MD5 check sum: 411d72ad547312f8017e2943ceca08cc
     Pseudo is Projector augmented-wave + core cor, Zval = 13.0
     Generated using "atomic" code by A. Dal Corso  v.5.0.99 svn rev. 10869
     Shape of augmentation charge: PSQ
     Using radial grid of 1227 points,  6 beta functions with:
                l(1) =   0
                l(2) =   0
                l(3) =   1
                l(4) =   1
                l(5) =   2
                l(6) =   2
     Q(r) pseudized with 0 coefficients

     PseudoPot. # 2 for Ga read from file:
     /home/pragov/projects/rrg-bengioy-ad/pragov/crystal_structure_design/SSSP/Ga.pbe-dn-kjpaw_psl.1.0.0.UPF
     MD5 check sum: a27b4342b1af7e5f338de752e9ed7044
     Pseudo is Projector augmented-wave + core cor, Zval = 13.0
     Generated using "atomic" code by A. Dal Corso  v.5.1
     Shape of augmentation charge: PSQ
     Using radial grid of 1205 points,  6 beta functions with:
                l(1) =   0
                l(2) =   0
                l(3) =   1
                l(4) =   1
                l(5) =   2
                l(6) =   2
     Q(r) pseudized with 0 coefficients

     PseudoPot. # 3 for C  read from file:
     /home/pragov/projects/rrg-bengioy-ad/pragov/crystal_structure_design/SSSP/C.pbe-n-kjpaw_psl.1.0.0.UPF
     MD5 check sum: 5d2aebdfa2cae82b50a7e79e9516da0f
     Pseudo is Projector augmented-wave + core cor, Zval =  4.0
     Generated using "atomic" code by A. Dal Corso  v.5.1
     Shape of augmentation charge: PSQ
     Using radial grid of 1073 points,  4 beta functions with:
                l(1) =   0
                l(2) =   0
                l(3) =   1
                l(4) =   1
     Q(r) pseudized with 0 coefficients

     atomic species   valence    mass     pseudopotential
        Nb            13.00    92.90637     Nb( 1.00)
        Ga            13.00    69.72300     Ga( 1.00)
        C              4.00    12.01100     C ( 1.00)

     24 Sym. Ops., with inversion, found (12 have fractional translation)

                                    s                        frac. trans.

      isym =  1     identity

 cryst.   s( 1) = (     1          0          0      )
                  (     0          1          0      )
                  (     0          0          1      )

 cart.    s( 1) = (  1.0000000 -0.0000000  0.0000000 )
                  (  0.0000000  1.0000000  0.0000000 )
                  (  0.0000000  0.0000000  1.0000000 )

      isym =  2     180 deg rotation - cart. axis [0,0,1]

 cryst.   s( 2) = (    -1          0          0      )    f =( -0.0000000 )
                  (     0         -1          0      )       (  0.0000000 )
                  (     0          0          1      )       (  0.5000000 )

 cart.    s( 2) = ( -1.0000000  0.0000000  0.0000000 )    f =( -0.0000000 )
                  (  0.0000000 -1.0000000  0.0000000 )       (  0.0000000 )
                  (  0.0000000  0.0000000  1.0000000 )       (  2.1534916 )

[...]

      isym =  4     180 deg rotation - cart. axis [1,0,0]

[...]

      isym =  5      60 deg rotation - cryst. axis [0,0,1]

[...]

 cryst.   s( 8) = (    -1         -1          0      )
                  (     1          0          0      )
                  (     0          0          1      )

 cart.    s( 8) = ( -0.4999997  0.8660256  0.0000000 )
                  ( -0.8660253 -0.5000003  0.0000000 )
                  (  0.0000000  0.0000000  1.0000000 )

[...]

 cryst.   s( 9) = (     0         -1          0      )    f =(  0.0000000 )
                  (    -1          0          0      )       (  0.0000000 )
                  (     0          0         -1      )       (  0.5000000 )

 cart.    s( 9) = (  0.5000003 -0.8660253  0.0000000 )    f =(  0.0000000 )
                  ( -0.8660253 -0.5000003  0.0000000 )       (  0.0000000 )
                  (  0.0000000  0.0000000 -1.0000000 )       (  2.1534916 )

[...]

 cryst.   s(10) = (     1          1          0      )    f =(  0.0000000 )
                  (     0         -1          0      )       ( -0.0000010 )
                  (     0          0         -1      )       (  0.5000000 )

 cart.    s(10) = (  0.4999997  0.8660259  0.0000000 )    f =(  0.0000005 )
                  (  0.8660253 -0.4999997  0.0000000 )       ( -0.0000009 )
                  (  0.0000000  0.0000000 -1.0000000 )       (  2.1534916 )

[...]

 cryst.   s(11) = (    -1         -1          0      )
                  (     0          1          0      )
                  (     0          0         -1      )

 cart.    s(11) = ( -0.4999997 -0.8660259  0.0000000 )
                  ( -0.8660253  0.4999997  0.0000000 )
                  (  0.0000000  0.0000000 -1.0000000 )

      isym = 12     180 deg rotation - cryst. axis [1,1,0]

[...]

      isym = 13     inversion

[...]

      isym = 14     inv. 180 deg rotation - cart. axis [0,0,1]

[...]

      isym = 16     inv. 180 deg rotation - cart. axis [1,0,0]

[...]

      isym = 17     inv.  60 deg rotation - cryst. axis [0,0,1]

[...]

 cryst.   s(22) = (    -1         -1          0      )    f =( -0.0000000 )
                  (     0          1          0      )       ( -0.0000010 )
                  (     0          0          1      )       (  0.5000000 )

 cart.    s(22) = ( -0.4999997 -0.8660259  0.0000000 )    f =(  0.0000005 )
                  ( -0.8660253  0.4999997  0.0000000 )       ( -0.0000009 )
                  (  0.0000000  0.0000000  1.0000000 )       (  2.1534916 )

[...]

      isym = 24     inv. 180 deg rotation - cryst. axis [1,1,0]

 cryst.   s(24) = (     0         -1          0      )
                  (    -1          0          0      )
                  (     0          0          1      )

 cart.    s(24) = (  0.5000003 -0.8660253  0.0000000 )
                  ( -0.8660253 -0.5000003  0.0000000 )
                  (  0.0000000  0.0000000  1.0000000 )

   Cartesian axes

     site n.     atom                  positions (alat units)
         1           Nb  tau(   1) = (  -0.0000007   0.5773505   1.7683482  )
         2           Nb  tau(   2) = (   0.5000004   0.2886748   2.5386349  )
         3           Nb  tau(   3) = (   0.5000004   0.2886748   3.9218398  )
         4           Nb  tau(   4) = (  -0.0000007   0.5773505   0.3851434  )
         5           Ga  tau(   5) = (  -0.0000007   0.5773505   3.2302373  )
         6           Ga  tau(   6) = (   0.5000004   0.2886748   1.0767458  )
         7           C   tau(   7) = (   0.0000000   0.0000000   2.1534916  )
         8           C   tau(   8) = (   0.0000000   0.0000000   0.0000000  )

   Crystallographic axes

     site n.     atom                  positions (cryst. coord.)
         1           Nb  tau(   1) = (  0.3333330  0.6666670  0.4105770  )
         2           Nb  tau(   2) = (  0.6666670  0.3333330  0.5894230  )
         3           Nb  tau(   3) = (  0.6666670  0.3333330  0.9105770  )
         4           Nb  tau(   4) = (  0.3333330  0.6666670  0.0894230  )
         5           Ga  tau(   5) = (  0.3333330  0.6666670  0.7500000  )
         6           Ga  tau(   6) = (  0.6666670  0.3333330  0.2500000  )
         7           C   tau(   7) = (  0.0000000  0.0000000  0.5000000  )
         8           C   tau(   8) = (  0.0000000  0.0000000  0.0000000  )

     number of k points=     1  Methfessel-Paxton smearing, width (Ry)=  0.0010
                       cart. coord. in units 2pi/alat
        k(    1) = (   0.0000000   0.0000000   0.0000000), wk =   2.0000000

                       cryst. coord.
        k(    1) = (   0.0000000   0.0000000   0.0000000), wk =   2.0000000

     Check: negative core charge=   -0.000020

     Initial potential from superposition of free atoms

     starting charge      85.9855, renormalised to      86.0000
     Starting wfcs are   66 randomized atomic wfcs
     Checking if some PAW data can be deallocated...

     Self-consistent Calculation

     iteration #  1     ecut=    30.00 Ry     beta= 0.70
     Davidson diagonalization with overlap

     ethr =  1.00E-02,  avg # of iterations =  2.0

     total energy              =   -1927.99784617 Ry
     estimated scf accuracy    <       3.12242465 Ry

[...]

     total energy              =   -1929.81300739 Ry
     estimated scf accuracy    <       0.00050574 Ry

     iteration # 24     ecut=    30.00 Ry     beta= 0.70
     Davidson diagonalization with overlap

     ethr =  5.88E-07,  avg # of iterations =  1.0

     End of self-consistent calculation

          k = 0.0000 0.0000 0.0000 (  1097 PWs)   bands (ev):

   -37.3889 -37.3882 -37.3016 -37.3014 -14.2320 -14.2156 -13.6427 -13.6250
   -13.1537 -13.1537 -13.1535 -13.1534 -13.0852 -13.0852 -13.0846 -13.0846
    -1.7897  -1.7897  -1.7883  -1.7883  -1.4940  -1.4921  -1.4738  -1.4738
    -1.4720  -1.4720   4.3450   5.0922   5.2275   6.2905  10.3373  11.3261
    12.6724  13.2155  13.2156  13.2698  13.2699  13.7158  15.8467  16.2370
    16.9456  16.9457  17.0140  17.0141  17.8580  17.8580  18.3440  18.3440
    19.2430  19.2430  19.3218  19.3218

     occupation numbers
     1.0000   1.0000   1.0000   1.0000   1.0000   1.0000   1.0000   1.0000
     1.0000   1.0000   1.0000   1.0000   1.0000   1.0000   1.0000   1.0000
     1.0000   1.0000   1.0000   1.0000   1.0000   1.0000   1.0000   1.0000
     1.0000   1.0000   1.0000   1.0000   1.0000   1.0000   1.0000   1.0000
     1.0000   1.0000   1.0000   1.0000   1.0000   1.0000   1.0000   1.0000
     1.0000   1.0000   0.5008   0.4992  -0.0000  -0.0000  -0.0000  -0.0000
    -0.0000  -0.0000  -0.0000  -0.0000

     the Fermi energy is    17.0140 ev

!    total energy              =   -1929.81301206 Ry

     total all-electron energy =    -38488.498433 Ry
     estimated scf accuracy    <       0.00000077 Ry
     smearing contrib. (-TS)   =      -0.00056419 Ry
     internal energy E=F+TS    =   -1929.81244787 Ry

     The total energy is F=E-TS. E is the sum of the following terms:
     one-electron contribution =    -228.13396878 Ry
     hartree contribution      =     183.52166607 Ry
     xc contribution           =    -201.67630626 Ry
     ewald contribution        =    -615.43668152 Ry
     one-center paw contrib.   =   -1068.08715738 Ry
      -> PAW hartree energy AE =     577.85326296 Ry
      -> PAW hartree energy PS =    -571.82782432 Ry
      -> PAW xc energy AE      =   -1266.31894485 Ry
      -> PAW xc energy PS      =     192.20634883 Ry
      -> total E_H with PAW    =     189.54710472 Ry
      -> total E_XC with PAW   =   -1275.78890228 Ry

     convergence has been achieved in  24 iterations

     Forces acting on atoms (cartesian axes, Ry/au):

     atom    1 type  1   force =     0.00000000   -0.00000000    0.39349812
     atom    2 type  1   force =     0.00000000    0.00000000   -0.39349812
     atom    3 type  1   force =     0.00000000   -0.00000000    0.39349812
     atom    4 type  1   force =    -0.00000000   -0.00000000   -0.39349812
     atom    5 type  2   force =     0.00000000    0.00000000    0.00000000
     atom    6 type  2   force =    -0.00000000   -0.00000000    0.00000000
     atom    7 type  3   force =     0.00000000    0.00000000    0.00000000
     atom    8 type  3   force =    -0.00000000    0.00000000   -0.00000000
     The non-local contrib.  to forces
     atom    1 type  1   force =     0.00000000   -0.00000000    0.29162790
     atom    2 type  1   force =    -0.00000000    0.00000000   -0.29162790
     atom    3 type  1   force =    -0.00000000   -0.00000000    0.29162790
     atom    4 type  1   force =     0.00000000    0.00000000   -0.29162790
     atom    5 type  2   force =    -0.00000000   -0.00000000    0.00000000
     atom    6 type  2   force =     0.00000000    0.00000000   -0.00000000
     atom    7 type  3   force =    -0.00000000    0.00000000    0.00000000
     atom    8 type  3   force =     0.00000000   -0.00000000    0.00000000
     The ionic contribution  to forces
     atom    1 type  1   force =     0.00001215   -0.00000701   -5.94316317
     atom    2 type  1   force =    -0.00001215    0.00000701    5.94316317
     atom    3 type  1   force =    -0.00001215    0.00000701   -5.94316317
     atom    4 type  1   force =     0.00001215   -0.00000701    5.94316317
     atom    5 type  2   force =     0.00001132   -0.00000654   -0.00000000
     atom    6 type  2   force =    -0.00001132    0.00000654   -0.00000000
     atom    7 type  3   force =     0.00000000   -0.00000000   -0.00000000
     atom    8 type  3   force =     0.00000000   -0.00000000    0.00000000
     The local contribution  to forces
     atom    1 type  1   force =     0.00011569    0.00003270    6.06941178
     atom    2 type  1   force =    -0.00014978   -0.00008503   -6.06844144
     atom    3 type  1   force =     0.00005798    0.00003155    6.06983238
     atom    4 type  1   force =    -0.00009392   -0.00008676   -6.06842942
     atom    5 type  2   force =     0.00006392   -0.00001841   -0.00116307
     atom    6 type  2   force =    -0.00003407    0.00002318   -0.00016962
     atom    7 type  3   force =     0.00001245   -0.00001444    0.00027139
     atom    8 type  3   force =    -0.00003205    0.00000474    0.00022804
     The core correction contribution to forces
     atom    1 type  1   force =     0.00001413    0.00000494   -0.02493264
     atom    2 type  1   force =    -0.00001853   -0.00000837    0.02491929
     atom    3 type  1   force =     0.00000440    0.00000692   -0.02490533
     atom    4 type  1   force =    -0.00000684   -0.00000684    0.02494775
     atom    5 type  2   force =     0.00000025   -0.00000051   -0.00000048
     atom    6 type  2   force =     0.00000117    0.00000090    0.00000353
     atom    7 type  3   force =     0.00000009   -0.00000030   -0.00000785
     atom    8 type  3   force =    -0.00000001    0.00000054    0.00000461
     The Hubbard contrib.    to forces
     atom    1 type  1   force =     0.00000000    0.00000000    0.00000000
     atom    2 type  1   force =     0.00000000    0.00000000    0.00000000
     atom    3 type  1   force =     0.00000000    0.00000000    0.00000000
     atom    4 type  1   force =     0.00000000    0.00000000    0.00000000
     atom    5 type  2   force =     0.00000000    0.00000000    0.00000000
     atom    6 type  2   force =     0.00000000    0.00000000    0.00000000
     atom    7 type  3   force =     0.00000000    0.00000000    0.00000000
     atom    8 type  3   force =     0.00000000    0.00000000    0.00000000
     The SCF correction term to forces
     atom    1 type  1   force =     0.00010674    0.00005859    0.00041134
     atom    2 type  1   force =    -0.00009167   -0.00004328   -0.00171695
     atom    3 type  1   force =     0.00002756    0.00002442    0.00059268
     atom    4 type  1   force =    -0.00000250   -0.00005439   -0.00100255
     atom    5 type  2   force =    -0.00006024    0.00001215    0.00116298
     atom    6 type  2   force =    -0.00002061   -0.00001635    0.00033781
     atom    7 type  3   force =     0.00000497    0.00000676   -0.00038491
     atom    8 type  3   force =     0.00001562    0.00000725   -0.00014712

     Total force =     0.786996     Total SCF correction =     0.002479

     Computing stress (Cartesian axis) and pressure

          total   stress  (Ry/bohr**3)                   (kbar)     P=       27.11
  -0.00063876  -0.00000000   0.00000000          -93.96       -0.00        0.00
  -0.00000000  -0.00063876   0.00000000           -0.00      -93.96        0.00
   0.00000000   0.00000000   0.00183041            0.00        0.00      269.26

     kinetic stress (kbar)  27188.61      0.01      0.00
                                0.01  27188.62      0.00
                                0.00      0.00  26248.79

     local   stress (kbar)  -1162.38     -0.03      1.81
                               -0.03  -1162.41      1.20
                                1.81      1.20  -3992.17

     nonloc. stress (kbar)   9408.67      0.00      0.00
                                0.00   9408.67      0.00
                                0.00      0.00  10192.68

     hartree stress (kbar)  10970.14     -0.07     -0.49
                               -0.07  10970.14     -0.33
                               -0.49     -0.33  11974.54

     exc-cor stress (kbar)   9208.33      0.00     -0.01
                                0.00   9208.33     -0.01
                               -0.01     -0.01   9202.72

     corecor stress (kbar) -17002.58     -0.00      0.02
                               -0.00 -17002.58      0.01
                                0.02      0.01 -17034.05

     ewald   stress (kbar) -38704.75      0.01      0.00
                                0.01 -38704.74      0.00
                                0.00      0.00 -36323.25

     hubbard stress (kbar)      0.00      0.00      0.00
                                0.00      0.00      0.00
                                0.00      0.00      0.00

     DFT-D   stress (kbar)      0.00      0.00      0.00
                                0.00      0.00      0.00
                                0.00      0.00      0.00

     XDM     stress (kbar)      0.00      0.00      0.00
                                0.00      0.00      0.00
                                0.00      0.00      0.00

     dft-nl  stress (kbar)      0.00      0.00      0.00
                                0.00      0.00      0.00
                                0.00      0.00      0.00

     TS-vdW  stress (kbar)      0.00      0.00      0.00
                                0.00      0.00      0.00
                                0.00      0.00      0.00

[...]

                                0.00      0.00      0.00

     Writing all to output data dir new_calculations/myprefix.save/

     General routines

     Parallel routines

     PAW routines

   This run was terminated on:   6:12: 9  21May2023

   JOB DONE.