     Program PWSCF v.7.0 starts on 20May2023 at  6:57:25

     Reading input from espresso_1211.pwi
Warning: card &CELL ignored
Warning: card / ignored

     Current dimensions of program PWSCF are:
     Max number of different atomic species (ntypx) = 10
     Max number of k-points (npk) =  40000
     Max angular momentum in pseudopotentials (lmaxx) =  4
     file In.pbe-dn-rrkjus_psl.0.2.2.UPF: wavefunction(s)  5S renormalized

     gamma-point specific algorithms are used
     Message from routine setup:
     using ibrav=0 with symmetry is DISCOURAGED, use correct ibrav instead

     Subspace diagonalization in iterative solution of the eigenvalue problem:
     a serial algorithm will be used

     Using Slab Decomposition

     bravais-lattice index     =            0
     lattice parameter (alat)  =      11.1068  a.u.
     unit-cell volume          =    1293.9964 (a.u.)^3
     number of atoms/cell      =            8
     number of atomic types    =            3
     number of electrons       =       138.00
     number of Kohn-Sham states=           83
     kinetic-energy cutoff     =      30.0000  Ry
     charge density cutoff     =     240.0000  Ry
     scf convergence threshold =      1.0E-06
     mixing beta               =       0.7000
     number of iterations used =            8  plain     mixing
     Exchange-correlation= PBE
                           (   1   4   3   4   0   0   0)

     celldm(1)=  11.106766  celldm(2)=   0.000000  celldm(3)=   0.000000
     celldm(4)=   0.000000  celldm(5)=   0.000000  celldm(6)=   0.000000

     crystal axes: (cart. coord. in units of alat)
               a(1) = (   1.000000   0.000000   0.000000 )
               a(2) = (  -0.695205   0.718812   0.000000 )
               a(3) = (   0.000000   0.000000   1.313878 )

     reciprocal axes: (cart. coord. in units 2 pi/alat)
               b(1) = (  1.000000  0.967158  0.000000 )
               b(2) = (  0.000000  1.391185  0.000000 )
               b(3) = (  0.000000  0.000000  0.761106 )

     PseudoPot. # 1 for Yb read from file:
     /home/pragov/projects/rrg-bengioy-ad/pragov/crystal_structure_design/SSSP/Yb.GGA-PBE-paw-v1.0.UPF
     MD5 check sum: 43b6465ad8021f06e3edb42ae292e187
     Pseudo is Projector augmented-wave + core cor, Zval = 24.0
     Generated using ATOMPAW code
     Shape of augmentation charge: BESSEL
     Using radial grid of 1117 points,  8 beta functions with:
                l(1) =   0
                l(2) =   0
                l(3) =   1
                l(4) =   1
                l(5) =   2
                l(6) =   2
                l(7) =   3
                l(8) =   3
     Q(r) pseudized with 0 coefficients

     PseudoPot. # 2 for In read from file:
     /home/pragov/projects/rrg-bengioy-ad/pragov/crystal_structure_design/SSSP/In.pbe-dn-rrkjus_psl.0.2.2.UPF
     MD5 check sum: 25e7c42c3b55b68f4bf926be2e7201a4
     Pseudo is Ultrasoft + core correction, Zval = 13.0
     Generated using "atomic" code by A. Dal Corso  v.5.0.99 svn rev. 10869
     Using radial grid of 1241 points,  6 beta functions with:
                l(1) =   0
                l(2) =   0
                l(3) =   1
                l(4) =   1
                l(5) =   2
                l(6) =   2
     Q(r) pseudized with 0 coefficients

     PseudoPot. # 3 for Au read from file:
     /home/pragov/projects/rrg-bengioy-ad/pragov/crystal_structure_design/SSSP/Au_ONCV_PBE-1.0.oncvpsp.upf
     MD5 check sum: d14007822ba0e19f0206237467fc06c2
     Pseudo is Norm-conserving, Zval = 19.0
     Generated using ONCVPSP code by D. R. Hamann
     Using radial grid of 1278 points,  8 beta functions with:
                l(1) =   0
                l(2) =   0
                l(3) =   1
                l(4) =   1
                l(5) =   2
                l(6) =   2
                l(7) =   3
                l(8) =   3

     atomic species   valence    mass     pseudopotential
        Yb            24.00   173.05400     Yb( 1.00)
        In            13.00   114.81800     In( 1.00)
        Au            19.00   196.96657     Au( 1.00)

      4 Sym. Ops., with inversion, found ( 2 have fractional translation)

                                    s                        frac. trans.

      isym =  1     identity

 cryst.   s( 1) = (     1          0          0      )
                  (     0          1          0      )
                  (     0          0          1      )

 cart.    s( 1) = (  1.0000000 -0.0000000  0.0000000 )
                  (  0.0000000  1.0000000  0.0000000 )
                  (  0.0000000  0.0000000  1.0000000 )

      isym =  2     180 deg rotation - cart. axis [0,0,1]

 cryst.   s( 2) = (    -1          0          0      )    f =(  0.0000000 )
                  (     0         -1          0      )       ( -0.0000000 )
                  (     0          0          1      )       ( -0.5000000 )

 cart.    s( 2) = ( -1.0000000  0.0000000  0.0000000 )    f =(  0.0000000 )
                  (  0.0000000 -1.0000000  0.0000000 )       ( -0.0000000 )
                  (  0.0000000  0.0000000  1.0000000 )       ( -0.6569390 )

      isym =  3     inversion

 cryst.   s( 3) = (    -1          0          0      )
                  (     0         -1          0      )
                  (     0          0         -1      )

 cart.    s( 3) = ( -1.0000000  0.0000000  0.0000000 )
                  (  0.0000000 -1.0000000  0.0000000 )
                  (  0.0000000  0.0000000 -1.0000000 )

      isym =  4     inv. 180 deg rotation - cart. axis [0,0,1]

 cryst.   s( 4) = (     1          0          0      )    f =(  0.0000000 )
                  (     0          1          0      )       (  0.0000000 )
                  (     0          0         -1      )       (  0.5000000 )

 cart.    s( 4) = (  1.0000000 -0.0000000  0.0000000 )    f =(  0.0000000 )
                  (  0.0000000  1.0000000  0.0000000 )       (  0.0000000 )
                  (  0.0000000  0.0000000 -1.0000000 )       (  0.6569390 )

   Cartesian axes

     site n.     atom                  positions (alat units)
         1           Yb  tau(   1) = (  -0.5666235   0.6642899   0.3284695  )
         2           Yb  tau(   2) = (   0.8714187   0.0545219   0.9854085  )
         3           In  tau(   3) = (   0.3797720   0.2629931   0.7226066  )
         4           In  tau(   4) = (  -0.0749768   0.4558187   0.5912714  )
         5           In  tau(   5) = (   0.3797720   0.2629931   1.2482104  )
         6           In  tau(   6) = (  -0.0749768   0.4558187   0.0656676  )
         7           Au  tau(   7) = (  -0.3374064   0.5670957   0.9854085  )
         8           Au  tau(   8) = (   0.6422016   0.1517160   0.3284695  )

   Crystallographic axes

     site n.     atom                  positions (cryst. coord.)
         1           Yb  tau(   1) = (  0.0758500  0.9241500  0.2500000  )
         2           Yb  tau(   2) = (  0.9241500  0.0758500  0.7500000  )
         3           In  tau(   3) = (  0.6341280  0.3658720  0.5499800  )
         4           In  tau(   4) = (  0.3658720  0.6341280  0.4500200  )
         5           In  tau(   5) = (  0.6341280  0.3658720  0.9500200  )
         6           In  tau(   6) = (  0.3658720  0.6341280  0.0499800  )
         7           Au  tau(   7) = (  0.2110650  0.7889350  0.7500000  )
         8           Au  tau(   8) = (  0.7889350  0.2110650  0.2500000  )

     number of k points=     1  Methfessel-Paxton smearing, width (Ry)=  0.0010
                       cart. coord. in units 2pi/alat
        k(    1) = (   0.0000000   0.0000000   0.0000000), wk =   2.0000000

                       cryst. coord.
        k(    1) = (   0.0000000   0.0000000   0.0000000), wk =   2.0000000

     Initial potential from superposition of free atoms

     starting charge     137.9769, renormalised to     138.0000
     Starting wfcs are  120 randomized atomic wfcs
     Checking if some PAW data can be deallocated...

     Self-consistent Calculation

     iteration #  1     ecut=    30.00 Ry     beta= 0.70
     Davidson diagonalization with overlap

     ethr =  1.00E-02,  avg # of iterations =  3.0

     Threshold (ethr) on eigenvalues was too large:
     Diagonalizing with lowered threshold

     Davidson diagonalization with overlap

[...]

     total energy              =   -3149.55887896 Ry
     estimated scf accuracy    <       0.83174974 Ry

[...]

     total energy              =   -3150.46305055 Ry
     estimated scf accuracy    <       0.00000109 Ry

     iteration # 28     ecut=    30.00 Ry     beta= 0.70
     Davidson diagonalization with overlap

     ethr =  7.89E-10,  avg # of iterations =  4.0

     End of self-consistent calculation

          k = 0.0000 0.0000 0.0000 (  1802 PWs)   bands (ev):

   -93.5217 -93.5212 -44.7162 -44.7158 -44.5102 -44.5056 -44.3715 -44.3707
   -38.1922 -38.1913 -10.7173 -10.6731 -10.4840 -10.4793 -10.4212 -10.4176
    -0.7192  -0.6772  -0.6563  -0.6528  -0.6338  -0.6224  -0.6045  -0.5757
    -0.5283  -0.5147  -0.4997  -0.4746  -0.4711  -0.4491  -0.4384  -0.4298
    -0.4101  -0.4009  -0.3499  -0.2709   4.3760   6.6326   7.2464   8.3308
     8.3689   8.4407   8.6336   8.6377   8.7020   8.8014   8.8763   8.9430
     9.1951  11.0297  11.0760  12.5322  12.7434  13.1789  13.2127  13.3623
    13.3873  13.4370  13.4743  13.5199  13.5686  13.5719  13.6108  13.6623
    13.6684  13.7136  13.7440  13.7608  13.8596  14.2786  14.6170  14.8609
    14.8910  15.9396  15.9881  16.0908  16.3228  16.7401  17.6802  17.6806
    17.9811  19.0285  19.0680

     occupation numbers
     1.0000   1.0000   1.0000   1.0000   1.0000   1.0000   1.0000   1.0000
     1.0000   1.0000   1.0000   1.0000   1.0000   1.0000   1.0000   1.0000
     1.0000   1.0000   1.0000   1.0000   1.0000   1.0000   1.0000   1.0000
     1.0000   1.0000   1.0000   1.0000   1.0000   1.0000   1.0000   1.0000
     1.0000   1.0000   1.0000   1.0000   1.0000   1.0000   1.0000   1.0000
     1.0000   1.0000   1.0000   1.0000   1.0000   1.0000   1.0000   1.0000
     1.0000   1.0000   1.0000   1.0000   1.0000   1.0000   1.0000   1.0000
     1.0000   1.0000   1.0000   1.0000   1.0000   1.0000   1.0000   1.0000
     1.0000   1.0000   1.0000   1.0000   1.0000  -0.0000  -0.0000  -0.0000
    -0.0000  -0.0000  -0.0000  -0.0000  -0.0000  -0.0000  -0.0000  -0.0000
    -0.0000  -0.0000  -0.0000

     the Fermi energy is    14.1341 ev

!    total energy              =   -3150.46305067 Ry
     estimated scf accuracy    <       0.00000009 Ry
     smearing contrib. (-TS)   =       0.00000000 Ry
     internal energy E=F+TS    =   -3150.46305067 Ry

     The total energy is F=E-TS. E is the sum of the following terms:
     one-electron contribution =   -1166.38863983 Ry
     hartree contribution      =     600.96973125 Ry
     xc contribution           =    -317.93232720 Ry
     ewald contribution        =   -1298.86523458 Ry
     one-center paw contrib.   =    -968.24658031 Ry
      -> PAW hartree energy AE =     902.52765929 Ry
      -> PAW hartree energy PS =    -775.42335310 Ry
      -> PAW xc energy AE      =   -1169.85715229 Ry
      -> PAW xc energy PS      =      74.50626579 Ry
      -> total E_H with PAW    =     728.07403744 Ry
      -> total E_XC with PAW   =   -1413.28321370 Ry

     convergence has been achieved in  28 iterations

     Forces acting on atoms (cartesian axes, Ry/au):

     atom    1 type  1   force =     0.02669038   -0.01122241    0.00000000
     atom    2 type  1   force =    -0.02669038    0.01122241    0.00000000
     atom    3 type  2   force =    -0.00599956    0.00253492   -0.03772266
     atom    4 type  2   force =     0.00599956   -0.00253492    0.03772266
     atom    5 type  2   force =    -0.00599956    0.00253492    0.03772266
     atom    6 type  2   force =     0.00599956   -0.00253492   -0.03772266
     atom    7 type  3   force =     0.02333927   -0.00990015    0.00000000
     atom    8 type  3   force =    -0.02333927    0.00990015    0.00000000
     The non-local contrib.  to forces
     atom    1 type  1   force =     0.01011388   -0.00420695    0.00000000
     atom    2 type  1   force =    -0.01011388    0.00420695    0.00000000
     atom    3 type  2   force =     0.11876197   -0.05035979    0.16564846
     atom    4 type  2   force =    -0.11876197    0.05035979   -0.16564846
     atom    5 type  2   force =     0.11876197   -0.05035979   -0.16564846
     atom    6 type  2   force =    -0.11876197    0.05035979    0.16564846
     atom    7 type  3   force =    -0.13323762    0.05649434    0.00000000
     atom    8 type  3   force =     0.13323762   -0.05649434    0.00000000
     The ionic contribution  to forces
     atom    1 type  1   force =    -4.29656680    1.82185820   -0.00000000
     atom    2 type  1   force =     4.29656680   -1.82185820   -0.00000000
     atom    3 type  2   force =    -5.27583125    2.23709228   -0.67426804
     atom    4 type  2   force =     5.27583125   -2.23709228    0.67426804
     atom    5 type  2   force =    -5.27583125    2.23709228    0.67426804
     atom    6 type  2   force =     5.27583125   -2.23709228   -0.67426804
     atom    7 type  3   force =    -1.53825391    0.65226043   -0.00000000
     atom    8 type  3   force =     1.53825391   -0.65226043   -0.00000000
     The local contribution  to forces
     atom    1 type  1   force =     4.31370105   -1.82918938    0.00064801
     atom    2 type  1   force =    -4.31302508    1.82896676   -0.00091952
     atom    3 type  2   force =     5.14802663   -2.18289204    0.47246114
     atom    4 type  2   force =    -5.14805406    2.18288991   -0.47220721
     atom    5 type  2   force =     5.14791957   -2.18284719   -0.47268177
     atom    6 type  2   force =    -5.14794524    2.18285476    0.47246841
     atom    7 type  3   force =     1.69457440   -0.71856502   -0.00054146
     atom    8 type  3   force =    -1.69485960    0.71869799    0.00045794
     The core correction contribution to forces
     atom    1 type  1   force =    -0.00000047    0.00000020    0.00000000
     atom    2 type  1   force =     0.00000047   -0.00000020   -0.00000000
     atom    3 type  2   force =     0.00309033   -0.00131087   -0.00149152
     atom    4 type  2   force =    -0.00309079    0.00130989    0.00149431
     atom    5 type  2   force =     0.00308753   -0.00130845    0.00148832
     atom    6 type  2   force =    -0.00308737    0.00130970   -0.00149080
     atom    7 type  3   force =     0.00000000    0.00000000    0.00000000
     atom    8 type  3   force =     0.00000000    0.00000000    0.00000000
     The Hubbard contrib.    to forces
     atom    1 type  1   force =     0.00000000    0.00000000    0.00000000
     atom    2 type  1   force =     0.00000000    0.00000000    0.00000000
     atom    3 type  2   force =     0.00000000    0.00000000    0.00000000
     atom    4 type  2   force =     0.00000000    0.00000000    0.00000000
     atom    5 type  2   force =     0.00000000    0.00000000    0.00000000
     atom    6 type  2   force =     0.00000000    0.00000000    0.00000000
     atom    7 type  3   force =     0.00000000    0.00000000    0.00000000
     atom    8 type  3   force =     0.00000000    0.00000000    0.00000000
     The SCF correction term to forces
     atom    1 type  1   force =    -0.00055381    0.00031189   -0.00060965
     atom    2 type  1   force =    -0.00011523   -0.00009654    0.00089919
     atom    3 type  2   force =    -0.00004849   -0.00000618   -0.00009912
     atom    4 type  2   force =     0.00008254   -0.00001193   -0.00022610
     atom    5 type  2   force =     0.00007165   -0.00003334    0.00032132
     atom    6 type  2   force =    -0.00003674    0.00003988   -0.00007156
     atom    7 type  3   force =     0.00028165   -0.00010168    0.00063650
     atom    8 type  3   force =     0.00005405   -0.00005485   -0.00056770

     Total force =     0.093935     Total SCF correction =     0.001618

     Computing stress (Cartesian axis) and pressure

          total   stress  (Ry/bohr**3)                   (kbar)     P=     -125.13
   0.00024338  -0.00091380   0.00000000           35.80     -134.43        0.00
  -0.00091380  -0.00152421   0.00000000         -134.43     -224.22        0.00
   0.00000000   0.00000000  -0.00127102            0.00        0.00     -186.97

     kinetic stress (kbar)  24637.54   -256.57      0.00
                             -256.57  24141.26      0.00
                                0.00      0.00  24233.70

     local   stress (kbar)  -1711.75    358.55      0.01
                              358.55  -1018.21     -0.00
                                0.01     -0.00   6237.90

     nonloc. stress (kbar)   8915.86    -29.05      0.00
                              -29.05   8859.68      0.00
                                0.00      0.00   8792.87

     hartree stress (kbar)  24134.68   -198.22     -0.00
                             -198.22  23751.25      0.00
                               -0.00      0.00  20433.96

     exc-cor stress (kbar)   5264.13     -0.77     -0.00
                               -0.77   5262.64     -0.00
                               -0.00     -0.00   5261.28

     corecor stress (kbar) -13306.96      2.51     -0.00
                                2.51 -13302.10     -0.00
                               -0.00     -0.00 -13304.53

     ewald   stress (kbar) -47897.69    -10.88      0.00
                              -10.88 -47918.74     -0.00
                                0.00     -0.00 -51842.15

     hubbard stress (kbar)      0.00      0.00      0.00
                                0.00      0.00      0.00
                                0.00      0.00      0.00

     DFT-D   stress (kbar)      0.00      0.00      0.00
                                0.00      0.00      0.00
                                0.00      0.00      0.00

     XDM     stress (kbar)      0.00      0.00      0.00
                                0.00      0.00      0.00
                                0.00      0.00      0.00

     dft-nl  stress (kbar)      0.00      0.00      0.00
                                0.00      0.00      0.00
                                0.00      0.00      0.00

     TS-vdW  stress (kbar)      0.00      0.00      0.00
                                0.00      0.00      0.00
                                0.00      0.00      0.00

[...]

                                0.00      0.00      0.00

     Writing all to output data dir new_calculations/myprefix.save/

     General routines

     Parallel routines

     PAW routines

   This run was terminated on:   6:58:28  20May2023

   JOB DONE.