     Program PWSCF v.7.0 starts on 20May2023 at 20: 6:47

     Reading input from espresso_11584.pwi
Warning: card &CELL ignored
Warning: card / ignored

     Current dimensions of program PWSCF are:
     Max number of different atomic species (ntypx) = 10
     Max number of k-points (npk) =  40000
     Max angular momentum in pseudopotentials (lmaxx) =  4
     file Al.pbe-n-kjpaw_psl.1.0.0.UPF: wavefunction(s)  3S 3P renormalized

     gamma-point specific algorithms are used
     Message from routine setup:
     using ibrav=0 with symmetry is DISCOURAGED, use correct ibrav instead

     Subspace diagonalization in iterative solution of the eigenvalue problem:
     a serial algorithm will be used

     Using Slab Decomposition

     bravais-lattice index     =            0
     lattice parameter (alat)  =       5.5536  a.u.
     unit-cell volume          =     471.6334 (a.u.)^3
     number of atoms/cell      =            8
     number of atomic types    =            3
     number of electrons       =        57.00
     number of Kohn-Sham states=           35
     kinetic-energy cutoff     =      30.0000  Ry
     charge density cutoff     =     240.0000  Ry
     scf convergence threshold =      1.0E-06
     mixing beta               =       0.7000
     number of iterations used =            8  plain     mixing
     Exchange-correlation=  SLA  PW   PBX  PBC
                           (   1   4   3   4   0   0   0)

     celldm(1)=   5.553576  celldm(2)=   0.000000  celldm(3)=   0.000000
     celldm(4)=   0.000000  celldm(5)=   0.000000  celldm(6)=   0.000000

     crystal axes: (cart. coord. in units of alat)
               a(1) = (   1.000000   0.000000   0.000000 )
               a(2) = (   0.000000   1.001376   0.000000 )
               a(3) = (   0.000000   0.000000   2.749725 )

     reciprocal axes: (cart. coord. in units 2 pi/alat)
               b(1) = (  1.000000  0.000000  0.000000 )
               b(2) = (  0.000000  0.998626  0.000000 )
               b(3) = (  0.000000  0.000000  0.363673 )

     PseudoPot. # 1 for Al read from file:
     /home/pragov/projects/rrg-bengioy-ad/pragov/crystal_structure_design/SSSP/Al.pbe-n-kjpaw_psl.1.0.0.UPF
     MD5 check sum: cfc449ca30b5f3223ec38ddd88ac046d
     Pseudo is Projector augmented-wave + core cor, Zval =  3.0
     Generated using "atomic" code by A. Dal Corso  v.5.1
     Shape of augmentation charge: PSQ
     Using radial grid of 1135 points,  6 beta functions with:
                l(1) =   0
                l(2) =   0
                l(3) =   1
                l(4) =   1
                l(5) =   2
                l(6) =   2
     Q(r) pseudized with 0 coefficients

     PseudoPot. # 2 for Cr read from file:
     /home/pragov/projects/rrg-bengioy-ad/pragov/crystal_structure_design/SSSP/cr_pbe_v1.5.uspp.F.UPF
     MD5 check sum: 0d52af634a40206e4dee301ad30da4bf
     Pseudo is Ultrasoft + core correction, Zval = 14.0
     Generated by new atomic code, or converted to UPF format
     Using radial grid of  857 points,  6 beta functions with:
                l(1) =   0
                l(2) =   0
                l(3) =   1
                l(4) =   1
                l(5) =   2
                l(6) =   2
     Q(r) pseudized with  8 coefficients,  rinner =    0.950   0.950   0.950
                                                       0.950   0.950

     PseudoPot. # 3 for B  read from file:
     /home/pragov/projects/rrg-bengioy-ad/pragov/crystal_structure_design/SSSP/b_pbe_v1.4.uspp.F.UPF
     MD5 check sum: cc6de2960df11db49a60e589f9ebb39b
     Pseudo is Ultrasoft + core correction, Zval =  3.0
     Generated by new atomic code, or converted to UPF format
     Using radial grid of  781 points,  4 beta functions with:
                l(1) =   0
                l(2) =   0
                l(3) =   1
                l(4) =   1
     Q(r) pseudized with  8 coefficients,  rinner =    1.100   1.100   1.100

     atomic species   valence    mass     pseudopotential
        Al             3.00    26.98154     Al( 1.00)
        Cr            14.00    51.99610     Cr( 1.00)
        B              3.00    10.81000     B ( 1.00)

      8 Sym. Ops., with inversion, found

                                    s                        frac. trans.

      isym =  1     identity

 cryst.   s( 1) = (     1          0          0      )
                  (     0          1          0      )
                  (     0          0          1      )

 cart.    s( 1) = (  1.0000000  0.0000000  0.0000000 )
                  (  0.0000000  1.0000000  0.0000000 )
                  (  0.0000000  0.0000000  1.0000000 )

      isym =  2     180 deg rotation - cart. axis [0,0,1]

[...]

      isym =  4     180 deg rotation - cart. axis [1,0,0]

[...]

      isym =  5     inversion

[...]

      isym =  6     inv. 180 deg rotation - cart. axis [0,0,1]

[...]

      isym =  8     inv. 180 deg rotation - cart. axis [1,0,0]

 cryst.   s( 8) = (    -1          0          0      )
                  (     0          1          0      )
                  (     0          0          1      )

 cart.    s( 8) = ( -1.0000000  0.0000000  0.0000000 )
                  (  0.0000000  1.0000000  0.0000000 )
                  (  0.0000000  0.0000000  1.0000000 )

   Cartesian axes

     site n.     atom                  positions (alat units)
         1           Al  tau(   1) = (   0.5000000   0.5006879   1.3748626  )
         2           Cr  tau(   2) = (   0.0000000   0.0000000   1.9305436  )
         3           Cr  tau(   3) = (   0.0000000   0.0000000   0.8191816  )
         4           Cr  tau(   4) = (   0.0000000   0.5006879   0.0000000  )
         5           B   tau(   5) = (   0.5000000   0.0000000   0.2968191  )
         6           B   tau(   6) = (   0.5000000   0.5006879   0.6133592  )
         7           B   tau(   7) = (   0.5000000   0.0000000   2.4529061  )
         8           B   tau(   8) = (   0.5000000   0.5006879   2.1363660  )

   Crystallographic axes

     site n.     atom                  positions (cryst. coord.)
         1           Al  tau(   1) = (  0.5000000  0.5000000  0.5000000  )
         2           Cr  tau(   2) = (  0.0000000  0.0000000  0.7020860  )
         3           Cr  tau(   3) = (  0.0000000  0.0000000  0.2979140  )
         4           Cr  tau(   4) = (  0.0000000  0.5000000  0.0000000  )
         5           B   tau(   5) = (  0.5000000  0.0000000  0.1079450  )
         6           B   tau(   6) = (  0.5000000  0.5000000  0.2230620  )
         7           B   tau(   7) = (  0.5000000  0.0000000  0.8920550  )
         8           B   tau(   8) = (  0.5000000  0.5000000  0.7769380  )

     number of k points=     1  Methfessel-Paxton smearing, width (Ry)=  0.0010
                       cart. coord. in units 2pi/alat
        k(    1) = (   0.0000000   0.0000000   0.0000000), wk =   2.0000000

                       cryst. coord.
        k(    1) = (   0.0000000   0.0000000   0.0000000), wk =   2.0000000

     Check: negative core charge=   -0.000010

     Initial potential from superposition of free atoms

     starting charge      53.9965, renormalised to      57.0000

     negative rho (up, down):  4.836E-03 0.000E+00
     Starting wfcs are   50 randomized atomic wfcs
     Checking if some PAW data can be deallocated...

     Self-consistent Calculation

     iteration #  1     ecut=    30.00 Ry     beta= 0.70
     Davidson diagonalization with overlap

     ethr =  1.00E-02,  avg # of iterations =  3.0

     negative rho (up, down):  1.420E-02 0.000E+00

     total energy              =    -584.32491146 Ry
     estimated scf accuracy    <       9.84572331 Ry

[...]

     total energy              =    -590.89610705 Ry
     estimated scf accuracy    <       0.00001954 Ry

     iteration # 58     ecut=    30.00 Ry     beta= 0.70
     Davidson diagonalization with overlap

     ethr =  4.18E-09,  avg # of iterations =  1.0

[...]

     End of self-consistent calculation

          k = 0.0000 0.0000 0.0000 (   652 PWs)   bands (ev):

   -54.9185 -54.0102 -54.0085 -27.0876 -26.1245 -25.6434 -25.6318 -25.5892
   -25.3400 -25.3204 -25.3169 -25.3110   2.2597   4.1343   5.3431   9.3761
     9.9843  12.8428  12.8687  13.2790  13.4710  13.6511  13.7427  14.1496
    14.2126  17.1283  17.2147  17.3959  17.4085  17.4143  17.5520  17.6596
    17.6836  18.1843  18.3055

     occupation numbers
     1.0000   1.0000   1.0000   1.0000   1.0000   1.0000   1.0000   1.0000
     1.0000   1.0000   1.0000   1.0000   1.0000   1.0000   1.0000   1.0000
     1.0000   1.0000   1.0000   1.0000   1.0000   1.0000   1.0000   1.0000
     1.0000   1.0000   1.0000   0.9923   0.4012   0.1065  -0.0000  -0.0000
    -0.0000  -0.0000  -0.0000

     the Fermi energy is    17.4069 ev

!    total energy              =    -590.89610713 Ry
     estimated scf accuracy    <       0.00000013 Ry
     smearing contrib. (-TS)   =      -0.00031067 Ry
     internal energy E=F+TS    =    -590.89579647 Ry

     The total energy is F=E-TS. E is the sum of the following terms:
     one-electron contribution =    -267.90662342 Ry
     hartree contribution      =     167.31682786 Ry
     xc contribution           =     -82.80851470 Ry
     ewald contribution        =    -372.80301287 Ry
     one-center paw contrib.   =     -34.69447334 Ry
      -> PAW hartree energy AE =       1.70879436 Ry
      -> PAW hartree energy PS =      -1.70348876 Ry
      -> PAW xc energy AE      =     -36.74284817 Ry
      -> PAW xc energy PS      =       2.04306923 Ry
      -> total E_H with PAW    =     167.32213347 Ry
      -> total E_XC with PAW   =    -117.50829365 Ry

     convergence has been achieved in  58 iterations

     negative rho (up, down):  4.756E-03 0.000E+00

     Forces acting on atoms (cartesian axes, Ry/au):

     atom    1 type  1   force =     0.00000000    0.00000000    0.00000000
     atom    2 type  2   force =     0.00000000    0.00000000    0.24003117
     atom    3 type  2   force =     0.00000000    0.00000000   -0.24003117
     atom    4 type  2   force =     0.00000000    0.00000000    0.00000000
     atom    5 type  3   force =     0.00000000    0.00000000    0.20934009
     atom    6 type  3   force =     0.00000000    0.00000000   -0.27676755
     atom    7 type  3   force =     0.00000000    0.00000000   -0.20934009
     atom    8 type  3   force =     0.00000000    0.00000000    0.27676755
     The non-local contrib.  to forces
     atom    1 type  1   force =     0.00000000    0.00000000    0.00000000
     atom    2 type  2   force =     0.00000000    0.00000000    0.11641554
     atom    3 type  2   force =     0.00000000    0.00000000   -0.11641554
     atom    4 type  2   force =     0.00000000    0.00000000    0.00000000
     atom    5 type  3   force =     0.00000000    0.00000000   -0.00957081
     atom    6 type  3   force =     0.00000000    0.00000000   -0.07239906
     atom    7 type  3   force =     0.00000000    0.00000000    0.00957081
     atom    8 type  3   force =     0.00000000    0.00000000    0.07239906
     The ionic contribution  to forces
     atom    1 type  1   force =     0.00000000    0.00000000   -0.00000000
     atom    2 type  2   force =    -0.00000000   -0.00000000  -26.29370431
     atom    3 type  2   force =    -0.00000000    0.00000000   26.29370431
     atom    4 type  2   force =    -0.00000000    0.00000000    0.00000000
     atom    5 type  3   force =     0.00000000   -0.00000000    1.48471902
     atom    6 type  3   force =    -0.00000000   -0.00000000    4.65147792
     atom    7 type  3   force =    -0.00000000   -0.00000000   -1.48471902
     atom    8 type  3   force =     0.00000000    0.00000000   -4.65147792
     The local contribution  to forces
     atom    1 type  1   force =    -0.00005757    0.00001843   -0.00012114
     atom    2 type  2   force =     0.00009280   -0.00001140   26.42208570
     atom    3 type  2   force =    -0.00000350   -0.00000655  -26.42208956
     atom    4 type  2   force =    -0.00012794    0.00000108    0.00025621
     atom    5 type  3   force =     0.00003085    0.00000884   -1.26998382
     atom    6 type  3   force =    -0.00000907   -0.00001222   -4.85301479
     atom    7 type  3   force =     0.00002457    0.00000753    1.27011171
     atom    8 type  3   force =     0.00000113   -0.00001574    4.85310361
     The core correction contribution to forces
     atom    1 type  1   force =    -0.00000259    0.00000021   -0.00000038
     atom    2 type  2   force =    -0.00000616    0.00000026   -0.00419373
     atom    3 type  2   force =    -0.00000288    0.00000127    0.00419143
     atom    4 type  2   force =    -0.00000178   -0.00000032   -0.00000214
     atom    5 type  3   force =     0.00000047    0.00000000    0.00418533
     atom    6 type  3   force =    -0.00000029    0.00000002   -0.00288450
     atom    7 type  3   force =     0.00000010    0.00000007   -0.00418541
     atom    8 type  3   force =     0.00000010    0.00000004    0.00288414
     The Hubbard contrib.    to forces
     atom    1 type  1   force =     0.00000000    0.00000000    0.00000000
     atom    2 type  2   force =     0.00000000    0.00000000    0.00000000
     atom    3 type  2   force =     0.00000000    0.00000000    0.00000000
     atom    4 type  2   force =     0.00000000    0.00000000    0.00000000
     atom    5 type  3   force =     0.00000000    0.00000000    0.00000000
     atom    6 type  3   force =     0.00000000    0.00000000    0.00000000
     atom    7 type  3   force =     0.00000000    0.00000000    0.00000000
     atom    8 type  3   force =     0.00000000    0.00000000    0.00000000
     The SCF correction term to forces
     atom    1 type  1   force =     0.00001067   -0.00000493    0.00010044
     atom    2 type  2   force =    -0.00012419    0.00001323   -0.00059668
     atom    3 type  2   force =    -0.00001298    0.00000876    0.00055353
     atom    4 type  2   force =     0.00008014    0.00000167   -0.00022028
     atom    5 type  3   force =    -0.00000757   -0.00000525   -0.00000919
     atom    6 type  3   force =    -0.00000081    0.00000637    0.00005340
     atom    7 type  3   force =    -0.00001137   -0.00000343   -0.00011774
     atom    8 type  3   force =     0.00000069    0.00000454   -0.00014083

     Total force =     0.596722     Total SCF correction =     0.000883

     Computing stress (Cartesian axis) and pressure

     negative rho (up, down):  4.756E-03 0.000E+00
          total   stress  (Ry/bohr**3)                   (kbar)     P=       81.82
  -0.00163257   0.00000000   0.00000000         -240.16        0.00        0.00
   0.00000000   0.00207521   0.00000000            0.00      305.27        0.00
   0.00000000   0.00000000   0.00122596            0.00        0.00      180.35

     kinetic stress (kbar)  28318.91      0.00      0.00
                                0.00  29104.27      0.00
                                0.00      0.00  28292.11

     local   stress (kbar) -18697.60      0.15      0.36
                                0.15 -18398.13      0.04
                                0.36      0.04  15418.47

     nonloc. stress (kbar)   7994.72      0.00      0.00
                                0.00   7991.63      0.00
                                0.00      0.00   7761.52

     hartree stress (kbar)  22541.01     -0.04     -0.11
                               -0.04  22611.53     -0.01
                               -0.11     -0.01   7034.51

     exc-cor stress (kbar)  -4133.50     -0.00     -0.00
                               -0.00  -4124.61     -0.00
                               -0.00     -0.00  -4138.46

     corecor stress (kbar)  -3673.88      0.00      0.00
                                0.00  -3701.43      0.00
                                0.00      0.00  -3676.28

     ewald   stress (kbar) -32589.81      0.00     -0.00
                                0.00 -33177.99      0.00
                               -0.00      0.00 -50511.53

     hubbard stress (kbar)      0.00      0.00      0.00
                                0.00      0.00      0.00
                                0.00      0.00      0.00

     DFT-D   stress (kbar)      0.00      0.00      0.00
                                0.00      0.00      0.00
                                0.00      0.00      0.00

     XDM     stress (kbar)      0.00      0.00      0.00
                                0.00      0.00      0.00
                                0.00      0.00      0.00

     dft-nl  stress (kbar)      0.00      0.00      0.00
                                0.00      0.00      0.00
                                0.00      0.00      0.00

     TS-vdW  stress (kbar)      0.00      0.00      0.00
                                0.00      0.00      0.00
                                0.00      0.00      0.00

[...]

                                0.00      0.00      0.00

     Writing all to output data dir new_calculations/myprefix.save/

     General routines

     Parallel routines

     PAW routines

   This run was terminated on:  20: 7: 8  20May2023

   JOB DONE.