     Program PWSCF v.7.0 starts on 21May2023 at  6:22:25

     Reading input from espresso_18942.pwi
Warning: card &CELL ignored
Warning: card / ignored

     Current dimensions of program PWSCF are:
     Max number of different atomic species (ntypx) = 10
     Max number of k-points (npk) =  40000
     Max angular momentum in pseudopotentials (lmaxx) =  4

     gamma-point specific algorithms are used

     Subspace diagonalization in iterative solution of the eigenvalue problem:
     a serial algorithm will be used

     Using Slab Decomposition

     bravais-lattice index     =            0
     lattice parameter (alat)  =       8.7601  a.u.
     unit-cell volume          =    1919.6992 (a.u.)^3
     number of atoms/cell      =           12
     number of atomic types    =            3
     number of electrons       =       176.00
     number of Kohn-Sham states=          106
     kinetic-energy cutoff     =      30.0000  Ry
     charge density cutoff     =     240.0000  Ry
     scf convergence threshold =      1.0E-06
     mixing beta               =       0.7000
     number of iterations used =            8  plain     mixing
     Exchange-correlation=  SLA  PW   PBX  PBC
                           (   1   4   3   4   0   0   0)

     celldm(1)=   8.760093  celldm(2)=   0.000000  celldm(3)=   0.000000
     celldm(4)=   0.000000  celldm(5)=   0.000000  celldm(6)=   0.000000

     crystal axes: (cart. coord. in units of alat)
               a(1) = (   1.000000   0.000000   0.000000 )
               a(2) = (  -0.364153   0.972228   0.000000 )
               a(3) = (   0.052470   0.091280   2.937237 )

     reciprocal axes: (cart. coord. in units 2 pi/alat)
               b(1) = (  1.000000  0.374555 -0.029504 )
               b(2) = (  0.000000  1.028566 -0.031964 )
               b(3) = (  0.000000  0.000000  0.340456 )

     PseudoPot. # 1 for Ag read from file:
     /home/pragov/projects/rrg-bengioy-ad/pragov/crystal_structure_design/SSSP/Ag_ONCV_PBE-1.0.oncvpsp.upf
     MD5 check sum: 94f47bd0669c641108e45594df92fabc
     Pseudo is Norm-conserving, Zval = 19.0
     Generated using ONCVPSP code by D. R. Hamann
     Using radial grid of 1398 points,  6 beta functions with:
                l(1) =   0
                l(2) =   0
                l(3) =   1
                l(4) =   1
                l(5) =   2
                l(6) =   2

     PseudoPot. # 2 for Au read from file:
     /home/pragov/projects/rrg-bengioy-ad/pragov/crystal_structure_design/SSSP/Au_ONCV_PBE-1.0.oncvpsp.upf
     MD5 check sum: d14007822ba0e19f0206237467fc06c2
     Pseudo is Norm-conserving, Zval = 19.0
     Generated using ONCVPSP code by D. R. Hamann
     Using radial grid of 1278 points,  8 beta functions with:
                l(1) =   0
                l(2) =   0
                l(3) =   1
                l(4) =   1
                l(5) =   2
                l(6) =   2
                l(7) =   3
                l(8) =   3

     PseudoPot. # 3 for S  read from file:
     /home/pragov/projects/rrg-bengioy-ad/pragov/crystal_structure_design/SSSP/s_pbe_v1.4.uspp.F.UPF
     MD5 check sum: 88d86576ff6df21479756cfb9bdac1df
     Pseudo is Ultrasoft + core correction, Zval =  6.0
     Generated by new atomic code, or converted to UPF format
     Using radial grid of  907 points,  6 beta functions with:
                l(1) =   0
                l(2) =   0
                l(3) =   1
                l(4) =   1
                l(5) =   2
                l(6) =   2
     Q(r) pseudized with  8 coefficients,  rinner =    1.300   1.300   1.300
                                                       1.300   1.300

     atomic species   valence    mass     pseudopotential
        Ag            19.00   107.86820     Ag( 1.00)
        Au            19.00   196.96657     Au( 1.00)
        S              6.00    32.06000     S ( 1.00)

     No symmetry found

                                    s                        frac. trans.

      isym =  1     identity

 cryst.   s( 1) = (     1          0          0      )
                  (     0          1          0      )
                  (     0          0          1      )

 cart.    s( 1) = (  1.0000000  0.0000000 -0.0000000 )
                  (  0.0000000  1.0000000 -0.0000000 )
                  (  0.0000000  0.0000000  1.0000000 )

   Cartesian axes

     site n.     atom                  positions (alat units)
         1           Ag  tau(   1) = (   0.8214232   0.3232140   0.7144448  )
         2           Ag  tau(   2) = (   0.3225698   0.1029162   2.1735116  )
         3           Ag  tau(   3) = (   0.1714657   0.9045545   1.1635631  )
         4           Ag  tau(   4) = (   0.5575028   0.2647302   0.0420583  )
         5           Ag  tau(   5) = (   0.7123375   0.5049031   1.3216540  )
         6           Au  tau(   6) = (   0.4966452   0.7650959   0.4089633  )
         7           Au  tau(   7) = (   0.4835917   0.8311009   1.8221446  )
         8           Au  tau(   8) = (   0.5285012   0.8472507   2.5843371  )
         9           S   tau(   9) = (   0.0510525   0.0507082   0.0183548  )
        10           S   tau(  10) = (   0.0416563   0.0753203   1.4113132  )
        11           S   tau(  11) = (   0.3142378   0.5056207   0.8031435  )
        12           S   tau(  12) = (   0.2585245   0.6282364   2.2226986  )

   Crystallographic axes

     site n.     atom                  positions (cryst. coord.)
         1           Ag  tau(   1) = (  0.9214060  0.3096100  0.2432370  )
         2           Ag  tau(   2) = (  0.2969910  0.0363810  0.7399850  )
         3           Ag  tau(   3) = (  0.4759420  0.8932010  0.3961420  )
         4           Ag  tau(   4) = (  0.6554180  0.2709480  0.0143190  )
         5           Ag  tau(   5) = (  0.8624580  0.4770800  0.4499650  )
         6           Au  tau(   6) = (  0.7711500  0.7738790  0.1392340  )
         7           Au  tau(   7) = (  0.7411250  0.7965980  0.6203600  )
         8           Au  tau(   8) = (  0.7695960  0.7888460  0.8798530  )
         9           S   tau(   9) = (  0.0695040  0.0515700  0.0062490  )
        10           S   tau(  10) = (  0.0282290  0.0323600  0.4804900  )
        11           S   tau(  11) = (  0.4799250  0.4943920  0.2734350  )
        12           S   tau(  12) = (  0.4282560  0.5751350  0.7567310  )

     number of k points=     1  Methfessel-Paxton smearing, width (Ry)=  0.0010
                       cart. coord. in units 2pi/alat
        k(    1) = (   0.0000000   0.0000000   0.0000000), wk =   2.0000000

                       cryst. coord.
        k(    1) = (   0.0000000   0.0000000   0.0000000), wk =   2.0000000

     Initial potential from superposition of free atoms

     starting charge     175.9981, renormalised to     176.0000
     Starting wfcs are   96 randomized atomic wfcs +   10 random wfcs

     Self-consistent Calculation

     iteration #  1     ecut=    30.00 Ry     beta= 0.70
     Davidson diagonalization with overlap

     ethr =  1.00E-02,  avg # of iterations =  5.0

     Threshold (ethr) on eigenvalues was too large:
     Diagonalizing with lowered threshold

     Davidson diagonalization with overlap

[...]

     total energy              =   -2354.68804344 Ry
     estimated scf accuracy    <       0.70967440 Ry

[...]

     total energy              =   -2354.92131098 Ry
     estimated scf accuracy    <       0.00000230 Ry

     iteration # 16     ecut=    30.00 Ry     beta= 0.70
     Davidson diagonalization with overlap

     ethr =  1.31E-09,  avg # of iterations =  2.0

     End of self-consistent calculation

          k = 0.0000 0.0000 0.0000 (  2658 PWs)   bands (ev):

   -97.0448 -97.0343 -97.0062 -83.3815 -83.0332 -82.9103 -82.8983 -82.7865
   -48.3478 -48.3073 -48.3014 -47.9936 -47.9027 -47.8785 -47.8566 -47.8545
   -47.8451 -46.4882 -46.4343 -46.3397 -46.1633 -46.0780 -46.0272 -46.0132
   -45.9918 -45.9701 -45.9610 -45.8977 -45.8922 -45.8848 -45.8732 -45.7567
    -3.7017  -3.3045  -3.1251  -2.5784   2.9733   3.4774   3.6939   4.0173
     4.1091   4.1273   4.2835   4.4886   4.5658   4.6377   4.8029   4.8250
     4.8916   4.9242   4.9421   5.0764   5.1643   5.2093   5.2381   5.3430
     5.3692   5.3934   5.4174   5.5532   5.6357   5.6455   5.8434   5.9058
     6.0326   6.0522   6.0852   6.1454   6.2294   6.2412   6.2725   6.3040
     6.3673   6.4187   6.4680   6.6040   6.7637   6.8279   7.0043   7.5797
     8.1395   8.2748   8.3900   8.5758   8.7764   9.0878   9.3206   9.6499
    10.1193  10.3468  11.0637  12.0225  12.5945  13.2477  13.3429  13.7393
    13.8555  14.0471  14.8795  15.2531  15.4617  15.8062  16.1200  16.3416
    16.5542  16.7978

     occupation numbers
     1.0000   1.0000   1.0000   1.0000   1.0000   1.0000   1.0000   1.0000
     1.0000   1.0000   1.0000   1.0000   1.0000   1.0000   1.0000   1.0000
     1.0000   1.0000   1.0000   1.0000   1.0000   1.0000   1.0000   1.0000
     1.0000   1.0000   1.0000   1.0000   1.0000   1.0000   1.0000   1.0000
     1.0000   1.0000   1.0000   1.0000   1.0000   1.0000   1.0000   1.0000
     1.0000   1.0000   1.0000   1.0000   1.0000   1.0000   1.0000   1.0000
     1.0000   1.0000   1.0000   1.0000   1.0000   1.0000   1.0000   1.0000
     1.0000   1.0000   1.0000   1.0000   1.0000   1.0000   1.0000   1.0000
     1.0000   1.0000   1.0000   1.0000   1.0000   1.0000   1.0000   1.0000
     1.0000   1.0000   1.0000   1.0000   1.0000   1.0000   1.0000   1.0000
     1.0000   1.0000   1.0000   1.0000   1.0000   1.0000   1.0000   1.0000
    -0.0000  -0.0000  -0.0000  -0.0000  -0.0000  -0.0000  -0.0000  -0.0000
    -0.0000  -0.0000  -0.0000  -0.0000  -0.0000  -0.0000  -0.0000  -0.0000
    -0.0000  -0.0000

     the Fermi energy is     9.8017 ev

!    total energy              =   -2354.92131087 Ry
     estimated scf accuracy    <       0.00000072 Ry
     smearing contrib. (-TS)   =       0.00000000 Ry
     internal energy E=F+TS    =   -2354.92131087 Ry

     The total energy is F=E-TS. E is the sum of the following terms:
     one-electron contribution =   -1467.51171677 Ry
     hartree contribution      =     771.22989709 Ry
     xc contribution           =    -245.03939093 Ry
     ewald contribution        =   -1413.60010027 Ry

     convergence has been achieved in  16 iterations

     Forces acting on atoms (cartesian axes, Ry/au):

     atom    1 type  1   force =    -0.00158748    0.02231208   -0.01540440
     atom    2 type  1   force =     0.06192830    0.02596985   -0.00531308
     atom    3 type  1   force =     0.00526054    0.00260678   -0.01688215
     atom    4 type  1   force =    -0.00399955   -0.00889693    0.00595825
     atom    5 type  1   force =     0.04581383    0.01524046    0.01533236
     atom    6 type  2   force =     0.00733763   -0.01218140   -0.00558441
     atom    7 type  2   force =    -0.02071407   -0.00050993   -0.01474438
     atom    8 type  2   force =    -0.00957671    0.00882250    0.02035494
     atom    9 type  3   force =     0.00789395   -0.00021796   -0.00657814
     atom   10 type  3   force =    -0.04403246   -0.01433645    0.02481730
     atom   11 type  3   force =    -0.01098193   -0.01596166    0.00145613
     atom   12 type  3   force =    -0.03734203   -0.02284735   -0.00341242
     The non-local contrib.  to forces
     atom    1 type  1   force =    -0.06734810   -0.09384488   -0.02100911
     atom    2 type  1   force =     0.01918289   -0.01872933   -0.01549529
     atom    3 type  1   force =    -0.16864702    0.14549153    0.08085603
     atom    4 type  1   force =    -0.13731359    0.07088324    0.02468366
     atom    5 type  1   force =     0.01424651   -0.04673134    0.02948307
     atom    6 type  2   force =    -0.02201308    0.02488586   -0.02137475
     atom    7 type  2   force =     0.01653577    0.00701729    0.03233206
     atom    8 type  2   force =     0.01033013    0.00805121   -0.00620033
     atom    9 type  3   force =    -0.27033048   -0.20556295   -0.01192510
     atom   10 type  3   force =    -0.39026554   -0.25700104   -0.09217170
     atom   11 type  3   force =     0.14368478    0.08049771   -0.10887142
     atom   12 type  3   force =     0.33265038    0.19586985   -0.09054681
     The ionic contribution  to forces
     atom    1 type  1   force =     8.66166771    0.54028807   -9.09042025
     atom    2 type  1   force =     1.43213836    7.55831854    2.20356484
     atom    3 type  1   force =    -6.25217756   -1.82400938    5.51106966
     atom    4 type  1   force =    -5.05081320   -1.97743534  -15.99658165
     atom    5 type  1   force =     1.12036214   -1.92508272   20.52964481
     atom    6 type  2   force =    -1.03301959    0.75182283  -10.70013463
     atom    7 type  2   force =    -1.78213970   -2.00811967   12.31676971
     atom    8 type  2   force =    -0.50695164   -2.26875950   -6.72207690
     atom    9 type  3   force =     6.17198290    3.73367276   -4.51449466
     atom   10 type  3   force =     4.77339814    5.40857519    4.81759460
     atom   11 type  3   force =    -2.72203281   -2.58471998   -0.22552222
     atom   12 type  3   force =    -4.81241475   -5.40455081    1.87058669
     The local contribution  to forces
     atom    1 type  1   force =    -8.59563434   -0.42439193    9.09286186
     atom    2 type  1   force =    -1.38906676   -7.51336463   -2.19057988
     atom    3 type  1   force =     6.42603827    1.68117029   -5.61131750
     atom    4 type  1   force =     5.18378363    1.89796169   15.97861128
     atom    5 type  1   force =    -1.08889816    1.98732221  -20.54531308
     atom    6 type  2   force =     1.06227342   -0.78878939   10.71441231
     atom    7 type  2   force =     1.74430007    2.00011906  -12.36238239
     atom    8 type  2   force =     0.48629813    2.26930867    6.75177768
     atom    9 type  3   force =    -5.90845911   -3.53979299    4.51936762
     atom   10 type  3   force =    -4.44857211   -5.18005773   -4.70637911
     atom   11 type  3   force =     2.57543596    2.49282351    0.32884815
     atom   12 type  3   force =     4.46103720    5.19663687   -1.78753727
     The core correction contribution to forces
     atom    1 type  1   force =     0.00000000    0.00000000    0.00000000
     atom    2 type  1   force =     0.00000000    0.00000000    0.00000000
     atom    3 type  1   force =     0.00000000    0.00000000    0.00000000
     atom    4 type  1   force =     0.00000000    0.00000000    0.00000000
     atom    5 type  1   force =     0.00000000    0.00000000    0.00000000
     atom    6 type  2   force =     0.00000000    0.00000000    0.00000000
     atom    7 type  2   force =     0.00000000    0.00000000    0.00000000
     atom    8 type  2   force =     0.00000000    0.00000000    0.00000000
     atom    9 type  3   force =     0.01463622    0.01133894    0.00079185
     atom   10 type  3   force =     0.02158163    0.01417896    0.00550365
     atom   11 type  3   force =    -0.00800955   -0.00442057    0.00596480
     atom   12 type  3   force =    -0.01861892   -0.01082863    0.00500574
     The Hubbard contrib.    to forces
     atom    1 type  1   force =     0.00000000    0.00000000    0.00000000
     atom    2 type  1   force =     0.00000000    0.00000000    0.00000000
     atom    3 type  1   force =     0.00000000    0.00000000    0.00000000
     atom    4 type  1   force =     0.00000000    0.00000000    0.00000000
     atom    5 type  1   force =     0.00000000    0.00000000    0.00000000
     atom    6 type  2   force =     0.00000000    0.00000000    0.00000000
     atom    7 type  2   force =     0.00000000    0.00000000    0.00000000
     atom    8 type  2   force =     0.00000000    0.00000000    0.00000000
     atom    9 type  3   force =     0.00000000    0.00000000    0.00000000
     atom   10 type  3   force =     0.00000000    0.00000000    0.00000000
     atom   11 type  3   force =     0.00000000    0.00000000    0.00000000
     atom   12 type  3   force =     0.00000000    0.00000000    0.00000000
     The SCF correction term to forces
     atom    1 type  1   force =    -0.00026018    0.00026123    0.00317422
     atom    2 type  1   force =    -0.00031362   -0.00025432   -0.00279163
     atom    3 type  1   force =     0.00005942   -0.00004525    0.00252077
     atom    4 type  1   force =     0.00035618   -0.00030610   -0.00074392
     atom    5 type  1   force =     0.00011591   -0.00026727    0.00152869
     atom    6 type  2   force =     0.00010945   -0.00010029    0.00152379
     atom    7 type  2   force =     0.00060236    0.00047381   -0.00145264
     atom    8 type  2   force =     0.00075924    0.00022254   -0.00313439
     atom    9 type  3   force =     0.00007699    0.00012670   -0.00030673
     atom   10 type  3   force =    -0.00016202   -0.00003141    0.00028097
     atom   11 type  3   force =    -0.00004773   -0.00014192    0.00104794
     atom   12 type  3   force =     0.00001663    0.00002580   -0.00090965

     Total force =     0.122177     Total SCF correction =     0.006737

     Computing stress (Cartesian axis) and pressure

          total   stress  (Ry/bohr**3)                   (kbar)     P=     -659.89
  -0.00411955   0.00005666  -0.00001841         -606.01        8.34       -2.71
   0.00005666  -0.00457756   0.00001373            8.34     -673.38        2.02
  -0.00001841   0.00001373  -0.00476050           -2.71        2.02     -700.29

     kinetic stress (kbar)  38957.88    -88.61     73.55
                              -88.61  38859.33     69.16
                               73.55     69.16  38587.77

     local   stress (kbar)  -9742.36   3187.00   1580.48
                             3187.00 -23433.51  -3011.79
                             1580.48  -3011.79 -22607.00

     nonloc. stress (kbar)   1226.13    -17.56    -10.05
                              -17.56   1194.40     -3.72
                              -10.05     -3.72   1146.26

     hartree stress (kbar)  15983.60  -1472.70   -526.01
                            -1472.70  21804.70   1335.77
                             -526.01   1335.77  21310.46

     exc-cor stress (kbar)  -4454.78      0.48     -2.15
                                0.48  -4451.44     -0.03
                               -2.15     -0.03  -4453.29

     corecor stress (kbar)  -1196.93      1.51      0.04
                                1.51  -1196.52     -0.17
                                0.04     -0.17  -1191.28

     ewald   stress (kbar) -41379.55  -1601.78  -1118.57
                            -1601.78 -33450.33   1612.80
                            -1118.57   1612.80 -33493.21

     hubbard stress (kbar)      0.00      0.00      0.00
                                0.00      0.00      0.00
                                0.00      0.00      0.00

     DFT-D   stress (kbar)      0.00      0.00      0.00
                                0.00      0.00      0.00
                                0.00      0.00      0.00

     XDM     stress (kbar)      0.00      0.00      0.00
                                0.00      0.00      0.00
                                0.00      0.00      0.00

     dft-nl  stress (kbar)      0.00      0.00      0.00
                                0.00      0.00      0.00
                                0.00      0.00      0.00

     TS-vdW  stress (kbar)      0.00      0.00      0.00
                                0.00      0.00      0.00
                                0.00      0.00      0.00

[...]

                                0.00      0.00      0.00

     Writing all to output data dir new_calculations/myprefix.save/

     General routines

     Parallel routines

   This run was terminated on:   6:22:53  21May2023

   JOB DONE.