     Program PWSCF v.7.0 starts on 20May2023 at 21:33:25

     Reading input from espresso_26117.pwi
Warning: card &CELL ignored
Warning: card / ignored

     Current dimensions of program PWSCF are:
     Max number of different atomic species (ntypx) = 10
     Max number of k-points (npk) =  40000
     Max angular momentum in pseudopotentials (lmaxx) =  4
     file Ba.pbe-spn-kjpaw_psl.1.0.0.UPF: wavefunction(s)  5S 6S renormalized
     file O.pbe-n-kjpaw_psl.0.1.UPF: wavefunction(s)  2P renormalized

     gamma-point specific algorithms are used
     Message from routine setup:
     using ibrav=0 with symmetry is DISCOURAGED, use correct ibrav instead

     Subspace diagonalization in iterative solution of the eigenvalue problem:
     a serial algorithm will be used

     Using Slab Decomposition

     bravais-lattice index     =            0
     lattice parameter (alat)  =      13.0532  a.u.
     unit-cell volume          =    1324.6814 (a.u.)^3
     number of atoms/cell      =           10
     number of atomic types    =            3
     number of electrons       =       120.00
     number of Kohn-Sham states=           72
     kinetic-energy cutoff     =      30.0000  Ry
     charge density cutoff     =     240.0000  Ry
     scf convergence threshold =      1.0E-06
     mixing beta               =       0.7000
     number of iterations used =            8  plain     mixing
     Exchange-correlation= SLA  PW   PBX  PBC
                           (   1   4   3   4   0   0   0)

     celldm(1)=  13.053182  celldm(2)=   0.000000  celldm(3)=   0.000000
     celldm(4)=   0.000000  celldm(5)=   0.000000  celldm(6)=   0.000000

     crystal axes: (cart. coord. in units of alat)
               a(1) = (   1.000000   0.000000   0.000000 )
               a(2) = (   0.245136   0.969489   0.000000 )
               a(3) = (  -0.622568  -0.484744   0.614355 )

     reciprocal axes: (cart. coord. in units 2 pi/alat)
               b(1) = (  1.000000 -0.252850  0.813862 )
               b(2) = (  0.000000  1.031471  0.813862 )
               b(3) = (  0.000000  0.000000  1.627723 )

     PseudoPot. # 1 for Ba read from file:
     /home/pragov/projects/rrg-bengioy-ad/pragov/crystal_structure_design/SSSP/Ba.pbe-spn-kjpaw_psl.1.0.0.UPF
     MD5 check sum: c432291d3e53af55f19d5e8866385beb
     Pseudo is Projector augmented-wave + core cor, Zval = 10.0
     Generated using "atomic" code by A. Dal Corso  v.5.1
     Shape of augmentation charge: PSQ
     Using radial grid of 1251 points,  7 beta functions with:
                l(1) =   0
                l(2) =   0
                l(3) =   0
                l(4) =   1
                l(5) =   1
                l(6) =   2
                l(7) =   2
     Q(r) pseudized with 0 coefficients

     PseudoPot. # 2 for Ag read from file:
     /home/pragov/projects/rrg-bengioy-ad/pragov/crystal_structure_design/SSSP/Ag_ONCV_PBE-1.0.oncvpsp.upf
     MD5 check sum: 94f47bd0669c641108e45594df92fabc
     Pseudo is Norm-conserving, Zval = 19.0
     Generated using ONCVPSP code by D. R. Hamann
     Using radial grid of 1398 points,  6 beta functions with:
                l(1) =   0
                l(2) =   0
                l(3) =   1
                l(4) =   1
                l(5) =   2
                l(6) =   2

     PseudoPot. # 3 for O  read from file:
     /home/pragov/projects/rrg-bengioy-ad/pragov/crystal_structure_design/SSSP/O.pbe-n-kjpaw_psl.0.1.UPF
     MD5 check sum: 0234752ac141de4415c5fc33072bef88
     Pseudo is Projector augmented-wave + core cor, Zval =  6.0
     Generated using "atomic" code by A. Dal Corso  v.5.0.99 svn rev. 10869
     Shape of augmentation charge: BESSEL
     Using radial grid of 1095 points,  4 beta functions with:
                l(1) =   0
                l(2) =   0
                l(3) =   1
                l(4) =   1
     Q(r) pseudized with 0 coefficients

     atomic species   valence    mass     pseudopotential
        Ba            10.00   137.32700     Ba( 1.00)
        Ag            19.00   107.86820     Ag( 1.00)
        O              6.00    15.99900     O ( 1.00)

      4 Sym. Ops., with inversion, found ( 2 have fractional translation)

                                    s                        frac. trans.

      isym =  1     identity

 cryst.   s( 1) = (     1          0          0      )
                  (     0          1          0      )
                  (     0          0          1      )

 cart.    s( 1) = (  1.0000000 -0.0000000  0.0000000 )
                  (  0.0000000  1.0000000  0.0000000 )
                  (  0.0000000  0.0000000  1.0000000 )

      isym =  2     180 deg rotation - cart. axis [0,0,1]

 cryst.   s( 2) = (    -1          0          0      )
                  (     0         -1          0      )
                  (     1          1          1      )

 cart.    s( 2) = ( -1.0000000  0.0000000 -0.0000000 )
                  (  0.0000000 -1.0000000 -0.0000000 )
                  (  0.0000000  0.0000000  1.0000000 )

      isym =  3     inversion

 cryst.   s( 3) = (    -1          0          0      )    f =(  0.2500000 )
                  (     0         -1          0      )       ( -0.2500000 )
                  (     0          0         -1      )       ( -0.5000000 )

 cart.    s( 3) = ( -1.0000000  0.0000000 -0.0000000 )    f =(  0.5000000 )
                  (  0.0000000 -1.0000000 -0.0000000 )       (  0.0000000 )
                  (  0.0000000  0.0000000 -1.0000000 )       ( -0.3071776 )

      isym =  4     inv. 180 deg rotation - cart. axis [0,0,1]

 cryst.   s( 4) = (     1          0          0      )    f =(  0.2500000 )
                  (     0          1          0      )       ( -0.2500000 )
                  (    -1         -1         -1      )       ( -0.5000000 )

 cart.    s( 4) = (  1.0000000 -0.0000000  0.0000000 )    f =(  0.5000000 )
                  (  0.0000000  1.0000000  0.0000000 )       (  0.0000000 )
                  (  0.0000000  0.0000000 -1.0000000 )       ( -0.3071776 )

   Cartesian axes

     site n.     atom                  positions (alat units)
         1           Ba  tau(   1) = (   0.6225678   0.4847444   0.0000000  )
         2           Ba  tau(   2) = (   0.1225678   0.4847444   0.3071776  )
         3           Ag  tau(   3) = (   0.2500000  -0.0000000   0.1535888  )
         4           Ag  tau(   4) = (   0.7500000  -0.0000000   0.1535888  )
         5           Ag  tau(   5) = (   0.5612839   0.2423722   0.4607663  )
         6           Ag  tau(   6) = (   0.4387161  -0.2423722   0.4607663  )
         7           O   tau(   7) = (  -0.1762398   0.2520865   0.3071776  )
         8           O   tau(   8) = (   0.3237602   0.2520865   0.0000000  )
         9           O   tau(   9) = (   0.9213754   0.7174023   0.0000000  )
        10           O   tau(  10) = (   0.4213754   0.7174023   0.3071776  )

   Crystallographic axes

     site n.     atom                  positions (cryst. coord.)
         1           Ba  tau(   1) = (  0.5000000  0.5000000  0.0000000  )
         2           Ba  tau(   2) = (  0.2500000  0.7500000  0.5000000  )
         3           Ag  tau(   3) = (  0.3750000  0.1250000  0.2500000  )
         4           Ag  tau(   4) = (  0.8750000  0.1250000  0.2500000  )
         5           Ag  tau(   5) = (  0.8750000  0.6250000  0.7500000  )
         6           Ag  tau(   6) = (  0.8750000  0.1250000  0.7500000  )
         7           O   tau(   7) = (  0.0100200  0.5100200  0.5000000  )
         8           O   tau(   8) = (  0.2600200  0.2600200  0.0000000  )
         9           O   tau(   9) = (  0.7399800  0.7399800  0.0000000  )
        10           O   tau(  10) = (  0.4899800  0.9899800  0.5000000  )

     number of k points=     1  Methfessel-Paxton smearing, width (Ry)=  0.0010
                       cart. coord. in units 2pi/alat
        k(    1) = (   0.0000000   0.0000000   0.0000000), wk =   2.0000000

                       cryst. coord.
        k(    1) = (   0.0000000   0.0000000   0.0000000), wk =   2.0000000

     Check: negative core charge=   -0.000008

     Initial potential from superposition of free atoms

     starting charge     119.9648, renormalised to     120.0000
     Starting wfcs are   66 randomized atomic wfcs +    6 random wfcs
     Checking if some PAW data can be deallocated...

     Self-consistent Calculation

     iteration #  1     ecut=    30.00 Ry     beta= 0.70
     Davidson diagonalization with overlap

     ethr =  1.00E-02,  avg # of iterations =  7.0

     negative rho (up, down):  2.614E-02 0.000E+00

     total energy              =   -2185.34379079 Ry
     estimated scf accuracy    <       1.89694955 Ry

[...]

     total energy              =   -2186.30371730 Ry
     estimated scf accuracy    <       0.00000491 Ry

     iteration # 20     ecut=    30.00 Ry     beta= 0.70
     Davidson diagonalization with overlap

     ethr =  1.86E-09,  avg # of iterations =  4.0

[...]

     End of self-consistent calculation

          k = 0.0000 0.0000 0.0000 (  1845 PWs)   bands (ev):

   -84.5362 -83.2779 -83.1345 -82.9288 -45.9480 -45.8897 -45.8212 -45.7671
   -45.6885 -45.6382 -45.4542 -45.3847 -45.2457 -45.0584 -44.6158 -43.3941
   -16.0735 -15.9408  -8.7420  -7.7157  -7.3267  -7.0115  -3.3000  -2.9915
    -1.8150  -1.7002  -1.5271  -1.0337   4.5559   4.6139   4.6381   4.9006
     5.3772   5.6892   5.7664   6.0727   6.1257   6.2321   6.3543   6.4180
     6.7304   6.8636   6.9201   7.0397   7.0602   7.3019   7.3299   7.4811
     7.5984   7.6250   7.7133   7.8216   8.0757   8.1517   8.2654   8.9619
     9.2714   9.3944   9.5314  10.0909  11.4131  11.9246  12.0208  13.9074
    14.0411  14.4986  14.5565  14.7952  15.0396  15.7137  15.9664  15.9992

     occupation numbers
     1.0000   1.0000   1.0000   1.0000   1.0000   1.0000   1.0000   1.0000
     1.0000   1.0000   1.0000   1.0000   1.0000   1.0000   1.0000   1.0000
     1.0000   1.0000   1.0000   1.0000   1.0000   1.0000   1.0000   1.0000
     1.0000   1.0000   1.0000   1.0000   1.0000   1.0000   1.0000   1.0000
     1.0000   1.0000   1.0000   1.0000   1.0000   1.0000   1.0000   1.0000
     1.0000   1.0000   1.0000   1.0000   1.0000   1.0000   1.0000   1.0000
     1.0000   1.0000   1.0000   1.0000   1.0000   1.0000   1.0000   1.0000
     1.0000   1.0000   1.0000   1.0000  -0.0000  -0.0000  -0.0000  -0.0000
    -0.0000  -0.0000  -0.0000  -0.0000  -0.0000  -0.0000  -0.0000  -0.0000

     the Fermi energy is    10.6223 ev

!    total energy              =   -2186.30371749 Ry
     estimated scf accuracy    <       0.00000045 Ry
     smearing contrib. (-TS)   =       0.00000000 Ry
     internal energy E=F+TS    =   -2186.30371749 Ry

     The total energy is F=E-TS. E is the sum of the following terms:
     one-electron contribution =    -797.69692273 Ry
     hartree contribution      =     447.02436223 Ry
     xc contribution           =    -178.19204641 Ry
     ewald contribution        =    -869.30119673 Ry
     one-center paw contrib.   =    -788.13791384 Ry
      -> PAW hartree energy AE =     165.54189883 Ry
      -> PAW hartree energy PS =    -164.86442542 Ry
      -> PAW xc energy AE      =    -855.51820002 Ry
      -> PAW xc energy PS      =      66.70281277 Ry
      -> total E_H with PAW    =     447.70183564 Ry
      -> total E_XC with PAW   =    -967.00743366 Ry

     convergence has been achieved in  20 iterations

     negative rho (up, down):  1.043E-01 0.000E+00

     Forces acting on atoms (cartesian axes, Ry/au):

     atom    1 type  1   force =     0.00000000    0.00000000   -0.00686462
     atom    2 type  1   force =     0.00000000    0.00000000    0.00686462
     atom    3 type  2   force =     0.00000000    0.00000000    0.00000000
     atom    4 type  2   force =     0.00000000    0.00000000    0.00000000
     atom    5 type  2   force =     0.00000000    0.00000000    0.00000000
     atom    6 type  2   force =     0.00000000    0.00000000   -0.00000000
     atom    7 type  3   force =    -0.03440708   -0.01201388    0.00454927
     atom    8 type  3   force =    -0.03440708   -0.01201388   -0.00454927
     atom    9 type  3   force =     0.03440708    0.01201388   -0.00454927
     atom   10 type  3   force =     0.03440708    0.01201388    0.00454927
     The non-local contrib.  to forces
     atom    1 type  1   force =     0.00000000    0.00000000   -0.01536833
     atom    2 type  1   force =     0.00000000    0.00000000    0.01536833
     atom    3 type  2   force =    -0.00000000    0.00000000   -0.00000000
     atom    4 type  2   force =     0.00000000   -0.00000000    0.00000000
     atom    5 type  2   force =     0.00000000    0.00000000    0.00000000
     atom    6 type  2   force =     0.00000000    0.00000000    0.00000000
     atom    7 type  3   force =    -0.79318638   -0.58794047   -0.00956013
     atom    8 type  3   force =    -0.79318638   -0.58794047    0.00956013
     atom    9 type  3   force =     0.79318638    0.58794047    0.00956013
     atom   10 type  3   force =     0.79318638    0.58794047   -0.00956013
     The ionic contribution  to forces
     atom    1 type  1   force =     0.00000000   -0.00000000   -0.00000000
     atom    2 type  1   force =    -0.00000000    0.00000000    0.00000000
     atom    3 type  2   force =     0.00000000   -0.00000000    0.00000000
     atom    4 type  2   force =    -0.00000000   -0.00000000    0.00000000
     atom    5 type  2   force =     0.00000000   -0.00000000    0.00000000
     atom    6 type  2   force =    -0.00000000    0.00000000   -0.00000000
     atom    7 type  3   force =     9.19354774    7.15828998    0.00000000
     atom    8 type  3   force =     9.19354774    7.15828997    0.00000000
     atom    9 type  3   force =    -9.19354774   -7.15828998   -0.00000000
     atom   10 type  3   force =    -9.19354774   -7.15828997   -0.00000000
     The local contribution  to forces
     atom    1 type  1   force =     0.00138454    0.00048479    0.01141230
     atom    2 type  1   force =    -0.00299439   -0.00218928   -0.00312986
     atom    3 type  2   force =     0.01027040   -0.05792900   -0.02846444
     atom    4 type  2   force =     0.03204117   -0.05106832    0.04379507
     atom    5 type  2   force =    -0.03399314    0.04497523   -0.06071290
     atom    6 type  2   force =    -0.00826583    0.05172509    0.01949202
     atom    7 type  3   force =    -8.41264742   -6.56004019    0.01896922
     atom    8 type  3   force =    -8.44489317   -6.58006690   -0.03430501
     atom    9 type  3   force =     8.46078704    6.58813823    0.00881351
     atom   10 type  3   force =     8.46013087    6.63104747    0.01110889
     The core correction contribution to forces
     atom    1 type  1   force =     0.00037364    0.00044560    0.00187320
     atom    2 type  1   force =    -0.00044293    0.00221931   -0.00045882
     atom    3 type  2   force =     0.00000000    0.00000000    0.00000000
     atom    4 type  2   force =     0.00000000    0.00000000    0.00000000
     atom    5 type  2   force =     0.00000000    0.00000000    0.00000000
     atom    6 type  2   force =     0.00000000    0.00000000    0.00000000
     atom    7 type  3   force =     0.01013726    0.00777062    0.00039147
     atom    8 type  3   force =     0.00972399    0.00736372   -0.00038182
     atom    9 type  3   force =    -0.00973733   -0.00762893    0.00003715
     atom   10 type  3   force =    -0.00981838   -0.00700557    0.00006900
     The Hubbard contrib.    to forces
     atom    1 type  1   force =     0.00000000    0.00000000    0.00000000
     atom    2 type  1   force =     0.00000000    0.00000000    0.00000000
     atom    3 type  2   force =     0.00000000    0.00000000    0.00000000
     atom    4 type  2   force =     0.00000000    0.00000000    0.00000000
     atom    5 type  2   force =     0.00000000    0.00000000    0.00000000
     atom    6 type  2   force =     0.00000000    0.00000000    0.00000000
     atom    7 type  3   force =     0.00000000    0.00000000    0.00000000
     atom    8 type  3   force =     0.00000000    0.00000000    0.00000000
     atom    9 type  3   force =     0.00000000    0.00000000    0.00000000
     atom   10 type  3   force =     0.00000000    0.00000000    0.00000000
     The SCF correction term to forces
     atom    1 type  1   force =    -0.00011088   -0.00010200    0.00010807
     atom    2 type  1   force =     0.00002655   -0.00003175   -0.00002518
     atom    3 type  2   force =     0.00020498    0.00017770   -0.00015499
     atom    4 type  2   force =    -0.00015604   -0.00011211    0.00004991
     atom    5 type  2   force =    -0.00004106   -0.00009221   -0.00000158
     atom    6 type  2   force =     0.00032139    0.00006688    0.00001550
     atom    7 type  3   force =    -0.00011993   -0.00007200    0.00001717
     atom    8 type  3   force =     0.00008645    0.00009522   -0.00004244
     atom    9 type  3   force =     0.00008046    0.00006207    0.00001077
     atom   10 type  3   force =    -0.00008171   -0.00010924    0.00001401

     Total force =     0.074093     Total SCF correction =     0.000600

     Computing stress (Cartesian axis) and pressure

     negative rho (up, down):  1.043E-01 0.000E+00
          total   stress  (Ry/bohr**3)                   (kbar)     P=     -623.41
  -0.00431787   0.00003310  -0.00000000         -635.18        4.87       -0.00
   0.00003310  -0.00448577  -0.00000000            4.87     -659.88       -0.00
  -0.00000000  -0.00000000  -0.00390992           -0.00       -0.00     -575.17

     kinetic stress (kbar)  35858.31    -79.71      0.00
                              -79.71  35881.17      0.00
                                0.00      0.00  36038.92

     local   stress (kbar) -18436.37  -4080.61    -36.70
                            -4080.61 -16369.68     30.30
                              -36.70     30.30 -13215.52

     nonloc. stress (kbar)    788.29     64.80      0.00
                               64.80    747.43      0.00
                                0.00      0.00    716.57

     hartree stress (kbar)  17588.07   1743.55    -18.87
                             1743.55  16705.80     23.38
                              -18.87     23.38  15347.92

     exc-cor stress (kbar)  -2581.16      3.63     -0.80
                                3.63  -2582.49      0.46
                               -0.80      0.46  -2585.50

     corecor stress (kbar)  -3077.57      0.65      0.44
                                0.65  -3077.67     -0.07
                                0.44     -0.07  -3081.37

     ewald   stress (kbar) -30774.74   2352.57      0.00
                             2352.57 -31964.44      0.00
                                0.00      0.00 -33796.20

     hubbard stress (kbar)      0.00      0.00      0.00
                                0.00      0.00      0.00
                                0.00      0.00      0.00

     DFT-D   stress (kbar)      0.00      0.00      0.00
                                0.00      0.00      0.00
                                0.00      0.00      0.00

     XDM     stress (kbar)      0.00      0.00      0.00
                                0.00      0.00      0.00
                                0.00      0.00      0.00

     dft-nl  stress (kbar)      0.00      0.00      0.00
                                0.00      0.00      0.00
                                0.00      0.00      0.00

     TS-vdW  stress (kbar)      0.00      0.00      0.00
                                0.00      0.00      0.00
                                0.00      0.00      0.00

[...]

                                0.00      0.00      0.00

     Writing all to output data dir new_calculations/myprefix.save/

     General routines

     Parallel routines

     PAW routines

   This run was terminated on:  21:33:56  20May2023

   JOB DONE.