     Program PWSCF v.7.0 starts on 20May2023 at 20:52:54

     Reading input from espresso_18587.pwi
Warning: card &CELL ignored
Warning: card / ignored

     Current dimensions of program PWSCF are:
     Max number of different atomic species (ntypx) = 10
     Max number of k-points (npk) =  40000
     Max angular momentum in pseudopotentials (lmaxx) =  4

     gamma-point specific algorithms are used

     Subspace diagonalization in iterative solution of the eigenvalue problem:
     a serial algorithm will be used

     Using Slab Decomposition

     bravais-lattice index     =            0
     lattice parameter (alat)  =      11.0349  a.u.
     unit-cell volume          =    1343.6444 (a.u.)^3
     number of atoms/cell      =            8
     number of atomic types    =            4
     number of electrons       =        94.00
     number of Kohn-Sham states=           56
     kinetic-energy cutoff     =      30.0000  Ry
     charge density cutoff     =     240.0000  Ry
     scf convergence threshold =      1.0E-06
     mixing beta               =       0.7000
     number of iterations used =            8  plain     mixing
     Exchange-correlation= SLA  PW   PBE  PBE
                           (   1   4   3   4   0   0   0)

     celldm(1)=  11.034949  celldm(2)=   0.000000  celldm(3)=   0.000000
     celldm(4)=   0.000000  celldm(5)=   0.000000  celldm(6)=   0.000000

     crystal axes: (cart. coord. in units of alat)
               a(1) = (   1.000000   0.000000   0.000000 )
               a(2) = (   0.006414   0.999979   0.000000 )
               a(3) = (   0.006414   0.006373   0.999959 )

     reciprocal axes: (cart. coord. in units 2 pi/alat)
               b(1) = (  1.000000 -0.006415 -0.006374 )
               b(2) = (  0.000000  1.000021 -0.006374 )
               b(3) = (  0.000000  0.000000  1.000041 )

     PseudoPot. # 1 for V  read from file:
     /home/pragov/projects/rrg-bengioy-ad/pragov/crystal_structure_design/SSSP/v_pbe_v1.4.uspp.F.UPF
     MD5 check sum: 22b79981416ebb76fdaf5b1b8640f6fb
     Pseudo is Ultrasoft + core correction, Zval = 13.0
     Generated by new atomic code, or converted to UPF format
     Using radial grid of  853 points,  6 beta functions with:
                l(1) =   0
                l(2) =   0
                l(3) =   1
                l(4) =   1
                l(5) =   2
                l(6) =   2
     Q(r) pseudized with  8 coefficients,  rinner =    1.100   1.100   1.100
                                                       1.100   1.100

     PseudoPot. # 2 for Cu read from file:
     /home/pragov/projects/rrg-bengioy-ad/pragov/crystal_structure_design/SSSP/Cu_pbe_v1.2.uspp.F.UPF
     MD5 check sum: 6e991ff952a84172a2a52a1c1e996048
     Pseudo is Ultrasoft + core correction, Zval = 19.0
     Generated by new atomic code, or converted to UPF format
     Using radial grid of  867 points,  6 beta functions with:
                l(1) =   0
                l(2) =   0
                l(3) =   1
                l(4) =   1
                l(5) =   2
                l(6) =   2
     Q(r) pseudized with  8 coefficients,  rinner =    1.150   1.150   1.150
                                                       1.150   1.150

     PseudoPot. # 3 for Te read from file:
     /home/pragov/projects/rrg-bengioy-ad/pragov/crystal_structure_design/SSSP/Te_pbe_v1.uspp.F.UPF
     MD5 check sum: c319670d6894cc26e93307826a071b75
     Pseudo is Ultrasoft + core correction, Zval =  6.0
     Generated by new atomic code, or converted to UPF format
     Using radial grid of  891 points,  5 beta functions with:
                l(1) =   0
                l(2) =   0
                l(3) =   1
                l(4) =   1
                l(5) =   2
     Q(r) pseudized with  6 coefficients,  rinner =    1.800   1.800   1.800
                                                       1.800   1.800

     PseudoPot. # 4 for Se read from file:
     /home/pragov/projects/rrg-bengioy-ad/pragov/crystal_structure_design/SSSP/Se_pbe_v1.uspp.F.UPF
     MD5 check sum: 1b3568f3a8ae88f9a2a0ad0698632c85
     Pseudo is Ultrasoft + core correction, Zval =  6.0
     Generated by new atomic code, or converted to UPF format
     Using radial grid of  877 points,  6 beta functions with:
                l(1) =   0
                l(2) =   0
                l(3) =   1
                l(4) =   1
                l(5) =   2
                l(6) =   2
     Q(r) pseudized with  8 coefficients,  rinner =    1.300   1.300   1.300
                                                       1.300   1.300

     atomic species   valence    mass     pseudopotential
        V             13.00    50.94150     V ( 1.00)
        Cu            19.00    63.54600     Cu( 1.00)
        Te             6.00   127.60000     Te( 1.00)
        Se             6.00    78.97100     Se( 1.00)

     No symmetry found

                                    s                        frac. trans.

      isym =  1     identity

 cryst.   s( 1) = (     1          0          0      )
                  (     0          1          0      )
                  (     0          0          1      )

 cart.    s( 1) = (  1.0000000  0.0000000  0.0000000 )
                  (  0.0000000  1.0000000  0.0000000 )
                  (  0.0000000  0.0000000  1.0000000 )

   Cartesian axes

     site n.     atom                  positions (alat units)
         1           V   tau(   1) = (   0.0033970   0.0033753   0.0033539  )
         2           Cu  tau(   2) = (   0.0098492   0.4951221   0.0066307  )
         3           Cu  tau(   3) = (   0.0098492   0.0097862   0.4950698  )
         4           Cu  tau(   4) = (   0.4951751   0.0066731   0.0066307  )
         5           Te  tau(   5) = (   0.2666320   0.7522144   0.7474354  )
         6           Te  tau(   6) = (   0.7539093   0.7490888   0.2570325  )
         7           Te  tau(   7) = (   0.7539092   0.2618015   0.7474354  )
         8           Se  tau(   8) = (   0.2393517   0.2378213   0.2363103  )

   Crystallographic axes

     site n.     atom                  positions (cryst. coord.)
         1           V   tau(   1) = (  0.0033540  0.0033540  0.0033540  )
         2           Cu  tau(   2) = (  0.0066310  0.4950900  0.0066310  )
         3           Cu  tau(   3) = (  0.0066310  0.0066310  0.4950900  )
         4           Cu  tau(   4) = (  0.4950900  0.0066310  0.0066310  )
         5           Te  tau(   5) = (  0.2570430  0.7474660  0.7474660  )
         6           Te  tau(   6) = (  0.7474660  0.7474660  0.2570430  )
         7           Te  tau(   7) = (  0.7474660  0.2570430  0.7474660  )
         8           Se  tau(   8) = (  0.2363200  0.2363200  0.2363200  )

     number of k points=     1  Methfessel-Paxton smearing, width (Ry)=  0.0010
                       cart. coord. in units 2pi/alat
        k(    1) = (   0.0000000   0.0000000   0.0000000), wk =   2.0000000

                       cryst. coord.
        k(    1) = (   0.0000000   0.0000000   0.0000000), wk =   2.0000000

     Initial potential from superposition of free atoms

     starting charge      90.9980, renormalised to      94.0000

     negative rho (up, down):  1.005E-03 0.000E+00
     Starting wfcs are   65 randomized atomic wfcs

     Self-consistent Calculation

     iteration #  1     ecut=    30.00 Ry     beta= 0.70
     Davidson diagonalization with overlap

     ethr =  1.00E-02,  avg # of iterations =  2.0

     negative rho (up, down):  2.331E-03 0.000E+00

     total energy              =   -1477.43942423 Ry
     estimated scf accuracy    <       2.97572166 Ry

[...]

     total energy              =   -1479.27901219 Ry
     estimated scf accuracy    <       0.00000100 Ry

     iteration # 13     ecut=    30.00 Ry     beta= 0.70
     Davidson diagonalization with overlap

     ethr =  1.06E-09,  avg # of iterations =  2.0

[...]

     End of self-consistent calculation

          k = 0.0000 0.0000 0.0000 (  1878 PWs)   bands (ev):

  -105.5474-105.5462-105.5459 -62.9576 -62.9572 -62.9551 -62.9494 -62.9478
   -62.9476 -62.8641 -62.8636 -62.8635 -57.0052 -30.8711 -30.8710 -30.8709
    -6.1286  -4.5637  -3.6223  -3.6223   1.7388   1.7388   2.2788   3.2940
     3.2941   3.4876   3.8174   3.8174   3.8734   4.1881   4.1883   4.2054
     4.2690   4.2690   4.4529   4.4531   4.4764   4.6783   5.0168   5.0169
     5.0994   5.4038   5.4039   5.5690   6.6885   6.6886   6.7348   8.1293
     8.1293   8.6040   8.7167   8.7167   9.7457  10.8656  10.8656  11.2357

     occupation numbers
     1.0000   1.0000   1.0000   1.0000   1.0000   1.0000   1.0000   1.0000
     1.0000   1.0000   1.0000   1.0000   1.0000   1.0000   1.0000   1.0000
     1.0000   1.0000   1.0000   1.0000   1.0000   1.0000   1.0000   1.0000
     1.0000   1.0000   1.0000   1.0000   1.0000   1.0000   1.0000   1.0000
     1.0000   1.0000   1.0000   1.0000   1.0000   1.0000   1.0000   1.0000
     1.0000   1.0000   1.0000   1.0000   1.0000   1.0000   1.0000  -0.0000
    -0.0000  -0.0000  -0.0000  -0.0000  -0.0000  -0.0000  -0.0000  -0.0000

     the Fermi energy is     7.7138 ev

!    total energy              =   -1479.27901238 Ry
     estimated scf accuracy    <       0.00000003 Ry
     smearing contrib. (-TS)   =       0.00000000 Ry
     internal energy E=F+TS    =   -1479.27901238 Ry

     The total energy is F=E-TS. E is the sum of the following terms:
     one-electron contribution =   -1461.79206174 Ry
     hartree contribution      =     760.56916996 Ry
     xc contribution           =    -209.18885838 Ry
     ewald contribution        =    -568.86726222 Ry

     convergence has been achieved in  13 iterations

     negative rho (up, down):  1.204E-03 0.000E+00

     Forces acting on atoms (cartesian axes, Ry/au):

     atom    1 type  1   force =    -0.00189404   -0.00190005   -0.00186421
     atom    2 type  2   force =     0.00131447   -0.00211798    0.00122910
     atom    3 type  2   force =     0.00130279    0.00128113   -0.00215264
     atom    4 type  2   force =    -0.00220350    0.00130928    0.00130088
     atom    5 type  3   force =    -0.02147291    0.02664002    0.02649248
     atom    6 type  3   force =     0.02651325    0.02633413   -0.02181088
     atom    7 type  3   force =     0.02651180   -0.02165717    0.02649316
     atom    8 type  4   force =    -0.03007187   -0.02988936   -0.02968788
     The non-local contrib.  to forces
     atom    1 type  1   force =    -0.03249006   -0.03227712   -0.03206862
     atom    2 type  2   force =     0.01080446    0.05709528    0.01034701
     atom    3 type  2   force =     0.01081307    0.01072956    0.05701693
     atom    4 type  2   force =     0.05712935    0.01043961    0.01038451
     atom    5 type  3   force =    -0.02617285    0.01545232    0.01533668
     atom    6 type  3   force =     0.01526106    0.01518206   -0.02638599
     atom    7 type  3   force =     0.01525074   -0.02629705    0.01533737
     atom    8 type  4   force =    -0.09252339   -0.09193491   -0.09136250
     The ionic contribution  to forces
     atom    1 type  1   force =    -2.12428991   -2.11070724   -2.09729525
     atom    2 type  2   force =    -0.86378353    3.15931779   -0.87841782
     atom    3 type  2   force =    -0.86378383   -0.85826081    3.16484766
     atom    4 type  2   force =     3.15371212   -0.88403096   -0.87841782
     atom    5 type  3   force =     7.14788529   -7.30557676   -7.25915915
     atom    6 type  3   force =    -7.25957553   -7.21315792    7.24071850
     atom    7 type  3   force =    -7.25957690    7.19459931   -7.25915915
     atom    8 type  4   force =     8.06941229    8.01781660    7.96688303
     The local contribution  to forces
     atom    1 type  1   force =     2.15385649    2.14012801    2.12653811
     atom    2 type  2   force =     0.85416831   -3.21840364    0.86929937
     atom    3 type  2   force =     0.85417635    0.84875480   -3.22386972
     atom    4 type  2   force =    -3.21276982    0.87478248    0.86922492
     atom    5 type  3   force =    -7.14886614    7.32402152    7.27753287
     atom    6 type  3   force =     7.27805244    7.23148248   -7.24194812
     atom    7 type  3   force =     7.27806272   -7.19566650    7.27753951
     atom    8 type  4   force =    -8.01578668   -7.96448214   -7.91391825
     The core correction contribution to forces
     atom    1 type  1   force =     0.00099985    0.00099395    0.00098751
     atom    2 type  2   force =     0.00000974   -0.00011490    0.00001040
     atom    3 type  2   force =     0.00000965    0.00000960   -0.00011490
     atom    4 type  2   force =    -0.00011483    0.00001053    0.00001041
     atom    5 type  3   force =     0.00573356   -0.00728011   -0.00723555
     atom    6 type  3   force =    -0.00724517   -0.00719735    0.00582506
     atom    7 type  3   force =    -0.00724624    0.00577808   -0.00723577
     atom    8 type  4   force =     0.00886009    0.00880458    0.00875062
     The Hubbard contrib.    to forces
     atom    1 type  1   force =     0.00000000    0.00000000    0.00000000
     atom    2 type  2   force =     0.00000000    0.00000000    0.00000000
     atom    3 type  2   force =     0.00000000    0.00000000    0.00000000
     atom    4 type  2   force =     0.00000000    0.00000000    0.00000000
     atom    5 type  3   force =     0.00000000    0.00000000    0.00000000
     atom    6 type  3   force =     0.00000000    0.00000000    0.00000000
     atom    7 type  3   force =     0.00000000    0.00000000    0.00000000
     atom    8 type  4   force =     0.00000000    0.00000000    0.00000000
     The SCF correction term to forces
     atom    1 type  1   force =     0.00004119   -0.00001298   -0.00002028
     atom    2 type  2   force =     0.00012709    0.00001216   -0.00000418
     atom    3 type  2   force =     0.00009916    0.00007265   -0.00002693
     atom    4 type  2   force =    -0.00014871    0.00013230    0.00010454
     atom    5 type  3   force =    -0.00004116    0.00004772    0.00002330
     atom    6 type  3   force =     0.00003205    0.00004952   -0.00001466
     atom    7 type  3   force =     0.00003308   -0.00004633    0.00001688
     atom    8 type  4   force =    -0.00002258   -0.00006884   -0.00003510

     Total force =     0.091281     Total SCF correction =     0.000321

     Computing stress (Cartesian axis) and pressure

     negative rho (up, down):  1.204E-03 0.000E+00
          total   stress  (Ry/bohr**3)                   (kbar)     P=     -173.79
  -0.00118125   0.00000572   0.00000568         -173.77        0.84        0.84
   0.00000572  -0.00118144   0.00000565            0.84     -173.80        0.83
   0.00000568   0.00000565  -0.00118146            0.84        0.83     -173.80

     kinetic stress (kbar)  13341.22      9.71      9.65
                                9.71  13341.09      9.59
                                9.65      9.59  13340.97

     local   stress (kbar) -19467.91    272.35    270.62
                              272.35 -19471.49    268.90
                              270.62    268.90 -19474.80

     nonloc. stress (kbar)   4594.50     11.03     10.95
                               11.03   4594.35     10.88
                               10.95     10.88   4594.21

     hartree stress (kbar)  27754.75   -116.69   -115.95
                             -116.69  27756.32   -115.22
                             -115.95   -115.22  27757.68

     exc-cor stress (kbar)   1120.66     -0.22     -0.22
                               -0.22   1120.66     -0.21
                               -0.22     -0.21   1120.66

     corecor stress (kbar)  -6754.47      0.02      0.01
                                0.02  -6754.47      0.01
                                0.01      0.01  -6754.47

     ewald   stress (kbar) -20762.51   -175.35   -174.23
                             -175.35 -20760.26   -173.12
                             -174.23   -173.12 -20758.05

     hubbard stress (kbar)      0.00      0.00      0.00
                                0.00      0.00      0.00
                                0.00      0.00      0.00

     DFT-D   stress (kbar)      0.00      0.00      0.00
                                0.00      0.00      0.00
                                0.00      0.00      0.00

     XDM     stress (kbar)      0.00      0.00      0.00
                                0.00      0.00      0.00
                                0.00      0.00      0.00

     dft-nl  stress (kbar)      0.00      0.00      0.00
                                0.00      0.00      0.00
                                0.00      0.00      0.00

     TS-vdW  stress (kbar)      0.00      0.00      0.00
                                0.00      0.00      0.00
                                0.00      0.00      0.00

[...]

                                0.00      0.00      0.00

     Writing all to output data dir new_calculations/myprefix.save/

     General routines

     Parallel routines

   This run was terminated on:  20:53:27  20May2023

   JOB DONE.