     Program PWSCF v.7.0 starts on 21May2023 at  0: 8:36

     Reading input from espresso_5774.pwi
Warning: card &CELL ignored
Warning: card / ignored

     Current dimensions of program PWSCF are:
     Max number of different atomic species (ntypx) = 10
     Max number of k-points (npk) =  40000
     Max angular momentum in pseudopotentials (lmaxx) =  4
     file O.pbe-n-kjpaw_psl.0.1.UPF: wavefunction(s)  2P renormalized

     gamma-point specific algorithms are used
     Message from routine setup:
     using ibrav=0 with symmetry is DISCOURAGED, use correct ibrav instead

     Subspace diagonalization in iterative solution of the eigenvalue problem:
     a serial algorithm will be used

     Using Slab Decomposition

     bravais-lattice index     =            0
     lattice parameter (alat)  =      10.5416  a.u.
     unit-cell volume          =    1569.7727 (a.u.)^3
     number of atoms/cell      =           20
     number of atomic types    =            4
     number of electrons       =       166.00
     number of Kohn-Sham states=          100
     kinetic-energy cutoff     =      30.0000  Ry
     charge density cutoff     =     240.0000  Ry
     scf convergence threshold =      1.0E-06
     mixing beta               =       0.7000
     number of iterations used =            8  plain     mixing
     Exchange-correlation= SLA  PW   PBX  PBC
                           (   1   4   3   4   0   0   0)

     celldm(1)=  10.541633  celldm(2)=   0.000000  celldm(3)=   0.000000
     celldm(4)=   0.000000  celldm(5)=   0.000000  celldm(6)=   0.000000

     crystal axes: (cart. coord. in units of alat)
               a(1) = (   1.000000   0.000000   0.000000 )
               a(2) = (   0.000000   0.968453   0.000000 )
               a(3) = (   0.000000   0.971330   1.383677 )

     reciprocal axes: (cart. coord. in units 2 pi/alat)
               b(1) = (  1.000000  0.000000  0.000000 )
               b(2) = (  0.000000  1.032575 -0.724860 )
               b(3) = (  0.000000  0.000000  0.722712 )

     PseudoPot. # 1 for Ca read from file:
     /home/pragov/projects/rrg-bengioy-ad/pragov/crystal_structure_design/SSSP/Ca_pbe_v1.uspp.F.UPF
     MD5 check sum: 403a4c14b9e4d4dfdc3024c9a3812218
     Pseudo is Ultrasoft + core correction, Zval = 10.0
     Generated by new atomic code, or converted to UPF format
     Using radial grid of  845 points,  6 beta functions with:
                l(1) =   0
                l(2) =   0
                l(3) =   1
                l(4) =   1
                l(5) =   2
                l(6) =   2
     Q(r) pseudized with  8 coefficients,  rinner =    1.500   1.500   1.500
                                                       1.500   1.500

     PseudoPot. # 2 for Ti read from file:
     /home/pragov/projects/rrg-bengioy-ad/pragov/crystal_structure_design/SSSP/ti_pbe_v1.4.uspp.F.UPF
     MD5 check sum: 88a00a6731bd790ddea75d31a80cb452
     Pseudo is Ultrasoft + core correction, Zval = 12.0
     Generated by new atomic code, or converted to UPF format
     Using radial grid of  851 points,  6 beta functions with:
                l(1) =   0
                l(2) =   0
                l(3) =   1
                l(4) =   1
                l(5) =   2
                l(6) =   2
     Q(r) pseudized with  6 coefficients,  rinner =    1.000   1.000   1.000
                                                       1.000   1.000

     PseudoPot. # 3 for Ir read from file:
     /home/pragov/projects/rrg-bengioy-ad/pragov/crystal_structure_design/SSSP/Ir_pbe_v1.2.uspp.F.UPF
     MD5 check sum: 8836f839c3459d2b385c504ce6d91f2c
     Pseudo is Ultrasoft + core correction, Zval = 15.0
     Generated by new atomic code, or converted to UPF format
     Using radial grid of  983 points,  7 beta functions with:
                l(1) =   0
                l(2) =   0
                l(3) =   1
                l(4) =   1
                l(5) =   1
                l(6) =   2
                l(7) =   2
     Q(r) pseudized with  8 coefficients,  rinner =    1.400   1.400   1.400
                                                       1.400   1.400

     PseudoPot. # 4 for O  read from file:
     /home/pragov/projects/rrg-bengioy-ad/pragov/crystal_structure_design/SSSP/O.pbe-n-kjpaw_psl.0.1.UPF
     MD5 check sum: 0234752ac141de4415c5fc33072bef88
     Pseudo is Projector augmented-wave + core cor, Zval =  6.0
     Generated using "atomic" code by A. Dal Corso  v.5.0.99 svn rev. 10869
     Shape of augmentation charge: BESSEL
     Using radial grid of 1095 points,  4 beta functions with:
                l(1) =   0
                l(2) =   0
                l(3) =   1
                l(4) =   1
     Q(r) pseudized with 0 coefficients

     atomic species   valence    mass     pseudopotential
        Ca            10.00    40.07800     Ca( 1.00)
        Ti            12.00    47.86700     Ti( 1.00)
        Ir            15.00   192.21700     Ir( 1.00)
        O              6.00    15.99900     O ( 1.00)

      4 Sym. Ops., with inversion, found ( 2 have fractional translation)

                                    s                        frac. trans.

      isym =  1     identity

 cryst.   s( 1) = (     1          0          0      )
                  (     0          1          0      )
                  (     0          0          1      )

 cart.    s( 1) = (  1.0000000  0.0000000  0.0000000 )
                  (  0.0000000  1.0000000  0.0000000 )
                  (  0.0000000  0.0000000  1.0000000 )

      isym =  2     180 deg rotation - cart. axis [1,0,0]

 cryst.   s( 2) = (     1          0          0      )    f =( -0.5000000 )
                  (     0         -1          0      )       (  0.0000000 )
                  (     0          0         -1      )       (  0.5000000 )

 cart.    s( 2) = (  1.0000000  0.0000000  0.0000000 )    f =( -0.5000000 )
                  (  0.0000000 -1.0000000 -0.0000000 )       (  0.4856652 )
                  (  0.0000000  0.0000000 -1.0000000 )       (  0.6918385 )

      isym =  3     inversion

 cryst.   s( 3) = (    -1          0          0      )
                  (     0         -1          0      )
                  (     0          0         -1      )

 cart.    s( 3) = ( -1.0000000  0.0000000  0.0000000 )
                  (  0.0000000 -1.0000000 -0.0000000 )
                  (  0.0000000  0.0000000 -1.0000000 )

      isym =  4     inv. 180 deg rotation - cart. axis [1,0,0]

 cryst.   s( 4) = (    -1          0          0      )    f =(  0.5000000 )
                  (     0          1          0      )       (  0.0000000 )
                  (     0          0          1      )       ( -0.5000000 )

 cart.    s( 4) = ( -1.0000000  0.0000000  0.0000000 )    f =(  0.5000000 )
                  (  0.0000000  1.0000000  0.0000000 )       ( -0.4856652 )
                  (  0.0000000  0.0000000  1.0000000 )       ( -0.6918385 )

   Cartesian axes

     site n.     atom                  positions (alat units)
         1           Ca  tau(   1) = (   0.9455670   0.9569548   1.0377273  )
         2           Ca  tau(   2) = (   0.4455670   1.4684935   1.0377882  )
         3           Ca  tau(   3) = (   0.5544330   0.4712895   0.3458888  )
         4           Ca  tau(   4) = (   0.0544330   0.9828282   0.3459497  )
         5           Ti  tau(   5) = (   0.5000000   0.0000000   0.0000000  )
         6           Ti  tau(   6) = (   0.0000000   0.4856652   0.6918385  )
         7           Ir  tau(   7) = (   0.5000000   0.9698915   0.6918385  )
         8           Ir  tau(   8) = (   0.0000000   0.4842263   0.0000000  )
         9           O   tau(   9) = (   0.4763790   0.8853009   0.3425542  )
        10           O   tau(  10) = (   0.2101020   1.7457666   1.3196529  )
        11           O   tau(  11) = (   0.2027440   0.7716906   0.7531299  )
        12           O   tau(  12) = (   0.7027440   1.6537577   1.3223857  )
        13           O   tau(  13) = (   0.7101020   0.6796816   0.7558626  )
        14           O   tau(  14) = (   0.9763790   0.5688169   0.3492844  )
        15           O   tau(  15) = (   0.0236210   1.3709661   1.0343927  )
        16           O   tau(  16) = (   0.2898980   1.2601014   0.6278144  )
        17           O   tau(  17) = (   0.2972560   0.2860253   0.0612914  )
        18           O   tau(  18) = (   0.7898980   0.1940164   0.0640241  )
        19           O   tau(  19) = (   0.7972560   1.1680925   0.6305472  )
        20           O   tau(  20) = (   0.5236210   1.0544821   1.0411229  )

   Crystallographic axes

     site n.     atom                  positions (cryst. coord.)
         1           Ca  tau(   1) = (  0.9455670  0.2359210  0.7499780  )
         2           Ca  tau(   2) = (  0.4455670  0.7640790  0.7500220  )
         3           Ca  tau(   3) = (  0.5544330  0.2359210  0.2499780  )
         4           Ca  tau(   4) = (  0.0544330  0.7640790  0.2500220  )
         5           Ti  tau(   5) = (  0.5000000  0.0000000  0.0000000  )
         6           Ti  tau(   6) = (  0.0000000 -0.0000000  0.5000000  )
         7           Ir  tau(   7) = (  0.5000000  0.5000000  0.5000000  )
         8           Ir  tau(   8) = (  0.0000000  0.5000000  0.0000000  )
         9           O   tau(   9) = (  0.4763790  0.6658360  0.2475680  )
        10           O   tau(  10) = (  0.2101020  0.8460720  0.9537290  )
        11           O   tau(  11) = (  0.2027440  0.2509150  0.5442960  )
        12           O   tau(  12) = (  0.7027440  0.7490850  0.9557040  )
        13           O   tau(  13) = (  0.7101020  0.1539280  0.5462710  )
        14           O   tau(  14) = (  0.9763790  0.3341640  0.2524320  )
        15           O   tau(  15) = (  0.0236210  0.6658360  0.7475680  )
        16           O   tau(  16) = (  0.2898980  0.8460720  0.4537290  )
        17           O   tau(  17) = (  0.2972560  0.2509150  0.0442960  )
        18           O   tau(  18) = (  0.7898980  0.1539280  0.0462710  )
        19           O   tau(  19) = (  0.7972560  0.7490850  0.4557040  )
        20           O   tau(  20) = (  0.5236210  0.3341640  0.7524320  )

     number of k points=     1  Methfessel-Paxton smearing, width (Ry)=  0.0010
                       cart. coord. in units 2pi/alat
        k(    1) = (   0.0000000   0.0000000   0.0000000), wk =   2.0000000

                       cryst. coord.
        k(    1) = (   0.0000000   0.0000000   0.0000000), wk =   2.0000000

     Check: negative core charge=   -0.000014

     Initial potential from superposition of free atoms

     starting charge     162.9780, renormalised to     166.0000

     negative rho (up, down):  7.485E-01 0.000E+00
     Starting wfcs are  132 randomized atomic wfcs
     Checking if some PAW data can be deallocated...

     Self-consistent Calculation

     iteration #  1     ecut=    30.00 Ry     beta= 0.70
     Davidson diagonalization with overlap

     ethr =  1.00E-02,  avg # of iterations =  2.0

     negative rho (up, down):  4.387E-01 0.000E+00

     total energy              =   -1367.96337316 Ry
     estimated scf accuracy    <      46.09035833 Ry

[...]

     total energy              =   -1402.60529591 Ry
[...]

[...]

     End of self-consistent calculation

          k = 0.0000 0.0000 0.0000 (  2172 PWs)   bands (ev):

   -46.4149 -46.4138 -39.3637 -39.3628 -39.2622 -39.2613 -38.9515 -38.9505
   -28.2339 -28.2269 -28.2170 -28.2110 -22.7253 -22.7241 -22.6983 -22.6971
   -22.6750 -22.6738  -9.7649  -9.6119  -9.6090  -9.5897  -9.5367  -9.4080
    -9.3242  -9.3061  -9.2786  -9.2781  -9.2746  -9.2407  -7.9682  -7.2785
    -6.9301  -6.8151  -6.7835  -6.7731  -6.7720  -6.6055  -6.5020  -6.4039
    -6.2440  -6.1844   4.1308   4.3244   4.5266   4.5391   4.5880   4.5981
     4.8574   5.1964   5.2222   5.3829   6.0259   6.1032   6.5122   6.7515
     6.7587   6.9580   7.0667   7.2587   7.3948   7.4142   7.4981   7.5838
     8.0802   8.0938   8.5213   8.5663   8.7703   8.8008   8.8460   8.9215
     8.9632   9.0819   9.1933   9.2033   9.2083   9.2238   9.7237   9.7347
     9.9150   9.9325  10.9675  10.9845  12.3614  12.4074  12.4931  13.2343
    13.5723  13.6031  13.8206  13.9805  14.0685  14.1012  15.4770  15.6673
    16.3513  16.4008  16.4828  16.6145

     occupation numbers
     1.0000   1.0000   1.0000   1.0000   1.0000   1.0000   1.0000   1.0000
     1.0000   1.0000   1.0000   1.0000   1.0000   1.0000   1.0000   1.0000
     1.0000   1.0000   1.0000   1.0000   1.0000   1.0000   1.0000   1.0000
     1.0000   1.0000   1.0000   1.0000   1.0000   1.0000   1.0000   1.0000
     1.0000   1.0000   1.0000   1.0000   1.0000   1.0000   1.0000   1.0000
     1.0000   1.0000   1.0000   1.0000   1.0000   1.0000   1.0000   1.0000
     1.0000   1.0000   1.0000   1.0000   1.0000   1.0000   1.0000   1.0000
     1.0000   1.0000   1.0000   1.0000   1.0000   1.0000   1.0000   1.0000
     1.0000   1.0000   1.0000   1.0000   1.0000   1.0000   1.0000   1.0000
     1.0000   1.0000   1.0000   1.0000   1.0000   1.0000   1.0000   1.0000
     1.0000   1.0000   0.9305   0.0695  -0.0000  -0.0000  -0.0000  -0.0000
    -0.0000  -0.0000  -0.0000  -0.0000  -0.0000  -0.0000  -0.0000  -0.0000
    -0.0000  -0.0000  -0.0000  -0.0000

     the Fermi energy is    10.9760 ev

!    total energy              =   -1402.60529590 Ry
     estimated scf accuracy    <       0.00000042 Ry
     smearing contrib. (-TS)   =      -0.00008453 Ry
     internal energy E=F+TS    =   -1402.60521137 Ry

     The total energy is F=E-TS. E is the sum of the following terms:
     one-electron contribution =    -327.24634556 Ry
     hartree contribution      =     258.55720760 Ry
     xc contribution           =    -274.11640050 Ry
     ewald contribution        =    -945.59597390 Ry
     one-center paw contrib.   =    -114.20369902 Ry
      -> PAW hartree energy AE =     356.74211818 Ry
      -> PAW hartree energy PS =    -355.44822530 Ry
      -> PAW xc energy AE      =    -206.17945397 Ry
      -> PAW xc energy PS      =      90.68186208 Ry
      -> total E_H with PAW    =     259.85110048 Ry
      -> total E_XC with PAW   =    -389.61399239 Ry

     convergence has been achieved in  19 iterations

     negative rho (up, down):  6.313E-01 0.000E+00

     Forces acting on atoms (cartesian axes, Ry/au):

     atom    1 type  1   force =    -0.00671353   -0.00717388   -0.00210631
     atom    2 type  1   force =    -0.00671353    0.00717388    0.00210631
     atom    3 type  1   force =     0.00671353   -0.00717388   -0.00210631
     atom    4 type  1   force =     0.00671353    0.00717388    0.00210631
     atom    5 type  2   force =     0.00000000    0.00000000   -0.00000000
     atom    6 type  2   force =     0.00000000    0.00000000    0.00000000
     atom    7 type  3   force =     0.00000000    0.00000000    0.00000000
     atom    8 type  3   force =     0.00000000    0.00000000   -0.00000000
     atom    9 type  4   force =    -0.00425638   -0.02014709    0.03173787
     atom   10 type  4   force =    -0.02100115   -0.01986868   -0.01535605
     atom   11 type  4   force =     0.01806839    0.02890338    0.00827177
     atom   12 type  4   force =     0.01806839   -0.02890338   -0.00827177
     atom   13 type  4   force =    -0.02100115    0.01986868    0.01535605
     atom   14 type  4   force =    -0.00425638    0.02014709   -0.03173787
     atom   15 type  4   force =     0.00425638   -0.02014709    0.03173787
     atom   16 type  4   force =     0.02100115   -0.01986868   -0.01535605
     atom   17 type  4   force =    -0.01806839    0.02890338    0.00827177
     atom   18 type  4   force =     0.02100115    0.01986868    0.01535605
     atom   19 type  4   force =    -0.01806839   -0.02890338   -0.00827177
     atom   20 type  4   force =     0.00425638    0.02014709   -0.03173787
     The non-local contrib.  to forces
     atom    1 type  1   force =    -0.00108433   -0.00940288   -0.00171748
     atom    2 type  1   force =    -0.00108433    0.00940288    0.00171748
     atom    3 type  1   force =     0.00108433   -0.00940288   -0.00171748
     atom    4 type  1   force =     0.00108433    0.00940288    0.00171748
     atom    5 type  2   force =     0.00000000    0.00000000    0.00000000
     atom    6 type  2   force =     0.00000000    0.00000000    0.00000000
     atom    7 type  3   force =     0.00000000    0.00000000    0.00000000
     atom    8 type  3   force =     0.00000000    0.00000000   -0.00000000
     atom    9 type  4   force =     0.01896136    0.36252918    0.48614288
     atom   10 type  4   force =    -0.18523775   -0.53521629    0.18842846
     atom   11 type  4   force =     0.51550708    0.13466621   -0.15380321
     atom   12 type  4   force =     0.51550708   -0.13466621    0.15380321
     atom   13 type  4   force =    -0.18523775    0.53521629   -0.18842846
     atom   14 type  4   force =     0.01896136   -0.36252918   -0.48614288
     atom   15 type  4   force =    -0.01896136    0.36252918    0.48614288
     atom   16 type  4   force =     0.18523775   -0.53521629    0.18842846
     atom   17 type  4   force =    -0.51550708    0.13466621   -0.15380321
     atom   18 type  4   force =     0.18523775    0.53521629   -0.18842846
     atom   19 type  4   force =    -0.51550708   -0.13466621    0.15380321
     atom   20 type  4   force =    -0.01896136   -0.36252918   -0.48614288
     The ionic contribution  to forces
     atom    1 type  1   force =     2.15493605    0.93160227    0.10240598
     atom    2 type  1   force =     2.15493605   -0.93160227   -0.10240598
     atom    3 type  1   force =    -2.15493605    0.93160227    0.10240598
     atom    4 type  1   force =    -2.15493605   -0.93160227   -0.10240598
     atom    5 type  2   force =     0.00000000    0.00000000   -0.00000000
     atom    6 type  2   force =     0.00000000    0.00000000    0.00000000
     atom    7 type  3   force =     0.00000000   -0.00000000    0.00000000
     atom    8 type  3   force =     0.00000000    0.00000000   -0.00000000
     atom    9 type  4   force =     0.44892004   -2.65333332   -1.16253728
     atom   10 type  4   force =    -0.36153010    2.26984068   -1.22297832
     atom   11 type  4   force =    -1.87758366    0.73212836    1.17686428
     atom   12 type  4   force =    -1.87758366   -0.73212836   -1.17686428
     atom   13 type  4   force =    -0.36153010   -2.26984068    1.22297832
     atom   14 type  4   force =     0.44892004    2.65333332    1.16253728
     atom   15 type  4   force =    -0.44892004   -2.65333332   -1.16253728
     atom   16 type  4   force =     0.36153010    2.26984068   -1.22297832
     atom   17 type  4   force =     1.87758366    0.73212836    1.17686428
     atom   18 type  4   force =     0.36153010   -2.26984068    1.22297832
     atom   19 type  4   force =     1.87758366   -0.73212836   -1.17686428
     atom   20 type  4   force =    -0.44892004    2.65333332    1.16253728
     The local contribution  to forces
     atom    1 type  1   force =    -2.16049290   -0.92955648   -0.10334895
     atom    2 type  1   force =    -2.16029774    0.92970745    0.10277155
     atom    3 type  1   force =     2.16045396   -0.92960807   -0.10274483
     atom    4 type  1   force =     2.16044430    0.92945695    0.10332509
     atom    5 type  2   force =    -0.00000045   -0.00008926    0.00065359
     atom    6 type  2   force =    -0.00015656   -0.00003688   -0.00069720
     atom    7 type  3   force =     0.00015375   -0.00002746   -0.00082145
     atom    8 type  3   force =    -0.00006417    0.00007584    0.00083332
     atom    9 type  4   force =    -0.47179806    2.27508764    0.71474898
     atom   10 type  4   force =     0.52327518   -1.76101366    1.02162871
     atom   11 type  4   force =     1.38705080   -0.83545033   -1.01674960
     atom   12 type  4   force =     1.38645225    0.83599677    1.01688332
     atom   13 type  4   force =     0.52274519    1.76154602   -1.02178144
     atom   14 type  4   force =    -0.47168169   -2.27491340   -0.71440160
     atom   15 type  4   force =     0.47166884    2.27484759    0.71431101
     atom   16 type  4   force =    -0.52275229   -1.76155260    1.02134074
     atom   17 type  4   force =    -1.38645180   -0.83599009   -1.01645204
     atom   18 type  4   force =    -0.52329465    1.76100264   -1.02114237
     atom   19 type  4   force =    -1.38705838    0.83544715    1.01627825
     atom   20 type  4   force =     0.47181279   -2.27506194   -0.71468357
     The core correction contribution to forces
     atom    1 type  1   force =    -0.00016991    0.00020416    0.00021771
     atom    2 type  1   force =    -0.00016926   -0.00020388   -0.00021763
     atom    3 type  1   force =     0.00016948    0.00020447    0.00021791
     atom    4 type  1   force =     0.00016940   -0.00020536   -0.00021848
     atom    5 type  2   force =    -0.00000009   -0.00000020    0.00000472
     atom    6 type  2   force =    -0.00000152   -0.00000126   -0.00000527
     atom    7 type  3   force =     0.00000329   -0.00000067   -0.00001084
     atom    8 type  3   force =    -0.00000200   -0.00000009    0.00000998
     atom    9 type  4   force =    -0.00041589   -0.00431029   -0.00641831
     atom   10 type  4   force =     0.00276788    0.00678015   -0.00229888
     atom   11 type  4   force =    -0.00664357   -0.00215155    0.00183685
     atom   12 type  4   force =    -0.00664308    0.00215034   -0.00183441
     atom   13 type  4   force =     0.00276940   -0.00678111    0.00229815
     atom   14 type  4   force =    -0.00041325    0.00430904    0.00641806
     atom   15 type  4   force =     0.00041386   -0.00430994   -0.00641920
     atom   16 type  4   force =    -0.00276943    0.00678121   -0.00229755
     atom   17 type  4   force =     0.00664301   -0.00215030    0.00183377
     atom   18 type  4   force =    -0.00276798   -0.00678030    0.00229862
     atom   19 type  4   force =     0.00664344    0.00215131   -0.00183641
     atom   20 type  4   force =     0.00041566    0.00431094    0.00641920
     The Hubbard contrib.    to forces
     atom    1 type  1   force =     0.00000000    0.00000000    0.00000000
     atom    2 type  1   force =     0.00000000    0.00000000    0.00000000
     atom    3 type  1   force =     0.00000000    0.00000000    0.00000000
     atom    4 type  1   force =     0.00000000    0.00000000    0.00000000
     atom    5 type  2   force =     0.00000000    0.00000000    0.00000000
     atom    6 type  2   force =     0.00000000    0.00000000    0.00000000
     atom    7 type  3   force =     0.00000000    0.00000000    0.00000000
     atom    8 type  3   force =     0.00000000    0.00000000    0.00000000
     atom    9 type  4   force =     0.00000000    0.00000000    0.00000000
     atom   10 type  4   force =     0.00000000    0.00000000    0.00000000
     atom   11 type  4   force =     0.00000000    0.00000000    0.00000000
     atom   12 type  4   force =     0.00000000    0.00000000    0.00000000
     atom   13 type  4   force =     0.00000000    0.00000000    0.00000000
     atom   14 type  4   force =     0.00000000    0.00000000    0.00000000
     atom   15 type  4   force =     0.00000000    0.00000000    0.00000000
     atom   16 type  4   force =     0.00000000    0.00000000    0.00000000
     atom   17 type  4   force =     0.00000000    0.00000000    0.00000000
     atom   18 type  4   force =     0.00000000    0.00000000    0.00000000
     atom   19 type  4   force =     0.00000000    0.00000000    0.00000000
     atom   20 type  4   force =     0.00000000    0.00000000    0.00000000
     The SCF correction term to forces
     atom    1 type  1   force =     0.00009145   -0.00000705    0.00034757
     atom    2 type  1   force =    -0.00009389   -0.00012681    0.00025651
     atom    3 type  1   force =    -0.00004142    0.00001614   -0.00028140
     atom    4 type  1   force =    -0.00006699    0.00011785   -0.00032980
     atom    5 type  2   force =     0.00001440    0.00009290   -0.00062670
     atom    6 type  2   force =     0.00014355    0.00002299    0.00066915
     atom    7 type  3   force =    -0.00014720    0.00004835    0.00088275
     atom    8 type  3   force =     0.00005323   -0.00010352   -0.00089712
     atom    9 type  4   force =     0.00000392   -0.00013496   -0.00019632
     atom   10 type  4   force =    -0.00033243   -0.00029644   -0.00018588
     atom   11 type  4   force =    -0.00030957   -0.00034424    0.00024111
     atom   12 type  4   force =     0.00037965   -0.00030354   -0.00019949
     atom   13 type  4   force =     0.00029856   -0.00030035    0.00029221
     atom   14 type  4   force =     0.00004056   -0.00011751   -0.00018768
     atom   15 type  4   force =    -0.00000982    0.00013250    0.00023448
     atom   16 type  4   force =    -0.00029343    0.00030939    0.00020766
     atom   17 type  4   force =    -0.00037947    0.00029797   -0.00029557
     atom   18 type  4   force =     0.00033479    0.00029342   -0.00034562
     atom   19 type  4   force =     0.00030979    0.00033418    0.00028047
     atom   20 type  4   force =    -0.00001463    0.00015721    0.00016715

     Total force =     0.123842     Total SCF correction =     0.002313

     Computing stress (Cartesian axis) and pressure

     negative rho (up, down):  6.313E-01 0.000E+00
          total   stress  (Ry/bohr**3)                   (kbar)     P=     -375.54
  -0.00231993   0.00000000   0.00000000         -341.27        0.00        0.00
   0.00000000  -0.00246467   0.00002091            0.00     -362.56        3.08
   0.00000000   0.00002091  -0.00287401            0.00        3.08     -422.78

     kinetic stress (kbar)  26947.08      0.00      0.00
                                0.00  27175.32    -35.13
                                0.00    -35.13  26777.38

     local   stress (kbar)  -4556.03     -0.30      0.01
                               -0.30  -4586.75    215.14
                                0.01    215.14  -5392.15

     nonloc. stress (kbar)   5782.80      0.00      0.00
                                0.00   5791.49      1.99
                                0.00      1.99   5773.50

     hartree stress (kbar)   7983.86      0.13     -0.00
                                0.13   7918.44    -78.07
                               -0.00    -78.07   8327.37

     exc-cor stress (kbar)   1370.18      0.00     -0.00
                                0.00   1371.63     -0.27
                               -0.00     -0.27   1370.46

     corecor stress (kbar)  -8185.79     -0.01      0.00
                               -0.01  -8196.22      1.60
                                0.00      1.60  -8186.38

     ewald   stress (kbar) -29683.37      0.00      0.00
                                0.00 -29836.47   -102.19
                                0.00   -102.19 -29092.97

     hubbard stress (kbar)      0.00      0.00      0.00
                                0.00      0.00      0.00
                                0.00      0.00      0.00

     DFT-D   stress (kbar)      0.00      0.00      0.00
                                0.00      0.00      0.00
                                0.00      0.00      0.00

     XDM     stress (kbar)      0.00      0.00      0.00
                                0.00      0.00      0.00
                                0.00      0.00      0.00

     dft-nl  stress (kbar)      0.00      0.00      0.00
                                0.00      0.00      0.00
                                0.00      0.00      0.00

     TS-vdW  stress (kbar)      0.00      0.00      0.00
                                0.00      0.00      0.00
                                0.00      0.00      0.00

[...]

                                0.00      0.00      0.00

     Writing all to output data dir new_calculations/myprefix.save/

     General routines

     Parallel routines

     PAW routines

   This run was terminated on:   0: 9:16  21May2023

   JOB DONE.