     Program PWSCF v.7.0 starts on 21May2023 at  4:19:34

     Reading input from espresso_9003.pwi
Warning: card &CELL ignored
Warning: card / ignored

     Current dimensions of program PWSCF are:
     Max number of different atomic species (ntypx) = 10
     Max number of k-points (npk) =  40000
     Max angular momentum in pseudopotentials (lmaxx) =  4

     gamma-point specific algorithms are used
     Message from routine setup:
     using ibrav=0 with symmetry is DISCOURAGED, use correct ibrav instead

     Subspace diagonalization in iterative solution of the eigenvalue problem:
     a serial algorithm will be used

     Using Slab Decomposition

     bravais-lattice index     =            0
     lattice parameter (alat)  =      13.0090  a.u.
     unit-cell volume          =    1556.7568 (a.u.)^3
     number of atoms/cell      =           14
     number of atomic types    =            3
     number of electrons       =       152.00
     number of Kohn-Sham states=           91
     kinetic-energy cutoff     =      30.0000  Ry
     charge density cutoff     =     240.0000  Ry
     scf convergence threshold =      1.0E-06
     mixing beta               =       0.7000
     number of iterations used =            8  plain     mixing
     Exchange-correlation=  SLA  PW   PBX  PBC
                           (   1   4   3   4   0   0   0)

     celldm(1)=  13.009040  celldm(2)=   0.000000  celldm(3)=   0.000000
     celldm(4)=   0.000000  celldm(5)=   0.000000  celldm(6)=   0.000000

     crystal axes: (cart. coord. in units of alat)
               a(1) = (   1.000000   0.000000   0.000000 )
               a(2) = (   0.500000   0.866025   0.000000 )
               a(3) = (   0.500000   0.288675   0.816497 )

     reciprocal axes: (cart. coord. in units 2 pi/alat)
               b(1) = (  1.000000 -0.577350 -0.408248 )
               b(2) = (  0.000000  1.154701 -0.408248 )
               b(3) = (  0.000000  0.000000  1.224745 )

     PseudoPot. # 1 for Ni read from file:
     /home/pragov/projects/rrg-bengioy-ad/pragov/crystal_structure_design/SSSP/ni_pbe_v1.4.uspp.F.UPF
     MD5 check sum: 1ee80287db30b12d2bc1f57a5b5d6409
     Pseudo is Ultrasoft + core correction, Zval = 18.0
     Generated by new atomic code, or converted to UPF format
     Using radial grid of  865 points,  6 beta functions with:
                l(1) =   0
                l(2) =   0
                l(3) =   1
                l(4) =   1
                l(5) =   2
                l(6) =   2
     Q(r) pseudized with 10 coefficients,  rinner =    0.980   0.980   0.980
                                                       0.980   0.980

     PseudoPot. # 2 for Rh read from file:
     /home/pragov/projects/rrg-bengioy-ad/pragov/crystal_structure_design/SSSP/Rh_ONCV_PBE-1.0.oncvpsp.upf
     MD5 check sum: ba07c69523b14cacd10683cd4c4284c1
     Pseudo is Norm-conserving, Zval = 17.0
     Generated using ONCVPSP code by D. R. Hamann
     Using radial grid of 1442 points,  6 beta functions with:
                l(1) =   0
                l(2) =   0
                l(3) =   1
                l(4) =   1
                l(5) =   2
                l(6) =   2

     PseudoPot. # 3 for S  read from file:
     /home/pragov/projects/rrg-bengioy-ad/pragov/crystal_structure_design/SSSP/s_pbe_v1.4.uspp.F.UPF
     MD5 check sum: 88d86576ff6df21479756cfb9bdac1df
     Pseudo is Ultrasoft + core correction, Zval =  6.0
     Generated by new atomic code, or converted to UPF format
     Using radial grid of  907 points,  6 beta functions with:
                l(1) =   0
                l(2) =   0
                l(3) =   1
                l(4) =   1
                l(5) =   2
                l(6) =   2
     Q(r) pseudized with  8 coefficients,  rinner =    1.300   1.300   1.300
                                                       1.300   1.300

     atomic species   valence    mass     pseudopotential
        Ni            18.00    58.69340     Ni( 1.00)
        Rh            17.00   102.90550     Rh( 1.00)
        S              6.00    32.06000     S ( 1.00)

     12 Sym. Ops., with inversion, found ( 8 have fractional translation)

                                    s                        frac. trans.

      isym =  1     identity

 cryst.   s( 1) = (     1          0          0      )
                  (     0          1          0      )
                  (     0          0          1      )

 cart.    s( 1) = (  1.0000000  0.0000000  0.0000000 )
                  (  0.0000000  1.0000000 -0.0000000 )
                  (  0.0000000  0.0000000  1.0000000 )

      isym =  2     180 deg rotation - cart. axis [1,0,0]

 cryst.   s( 2) = (     1          0          0      )    f =(  0.5000000 )
                  (     1         -1          0      )       (  0.0000000 )
                  (     1          0         -1      )       (  0.0000000 )

 cart.    s( 2) = (  1.0000000  0.0000000  0.0000000 )    f =(  0.5000000 )
                  (  0.0000000 -1.0000000  0.0000000 )       (  0.0000000 )
                  (  0.0000000  0.0000000 -1.0000000 )       (  0.0000000 )

      isym =  3     120 deg rotation - cryst. axis [0,0,1]

[...]

      isym =  6     180 deg rotation - cryst. axis [1,1,0]

[...]

      isym =  7     inversion

 cryst.   s( 7) = (    -1          0          0      )
                  (     0         -1          0      )
                  (     0          0         -1      )

 cart.    s( 7) = ( -1.0000000  0.0000000  0.0000000 )
                  (  0.0000000 -1.0000000  0.0000000 )
                  (  0.0000000  0.0000000 -1.0000000 )

      isym =  8     inv. 180 deg rotation - cart. axis [1,0,0]

[...]

      isym =  9     inv. 120 deg rotation - cryst. axis [0,0,1]

 cryst.   s( 9) = (     1         -1          0      )    f =(  0.5000000 )
                  (     1          0          0      )       (  0.0000000 )
                  (     1          0         -1      )       (  0.0000000 )

 cart.    s( 9) = (  0.5000000  0.8660254 -0.0000000 )    f =(  0.5000000 )
                  ( -0.8660254  0.5000000 -0.0000000 )       (  0.0000000 )
                  (  0.0000000  0.0000000 -1.0000000 )       (  0.0000000 )

[...]

 cryst.   s(10) = (     0          1          0      )    f =( -0.0000000 )
                  (    -1          1          0      )       ( -0.5000000 )
                  (     0          1         -1      )       (  0.0000000 )

 cart.    s(10) = (  0.5000000 -0.8660254  0.0000000 )    f =( -0.2500000 )
                  (  0.8660254  0.5000000 -0.0000000 )       ( -0.4330127 )
                  (  0.0000000  0.0000000 -1.0000000 )       (  0.0000000 )

[...]

 cryst.   s(11) = (     0          1          0      )
                  (     1          0          0      )
                  (     0          0          1      )

 cart.    s(11) = (  0.5000000  0.8660254 -0.0000000 )
                  (  0.8660254 -0.5000000  0.0000000 )
                  (  0.0000000  0.0000000  1.0000000 )

      isym = 12     inv. 180 deg rotation - cryst. axis [1,1,0]

 cryst.   s(12) = (     1         -1          0      )    f =(  0.0000000 )
                  (     0         -1          0      )       ( -0.5000000 )
                  (     0         -1          1      )       (  0.0000000 )

 cart.    s(12) = (  0.5000000 -0.8660254  0.0000000 )    f =( -0.2500000 )
                  ( -0.8660254 -0.5000000  0.0000000 )       ( -0.4330127 )
                  (  0.0000000  0.0000000  1.0000000 )       (  0.0000000 )

   Cartesian axes

     site n.     atom                  positions (alat units)
         1           Ni  tau(   1) = (   0.7500000   0.4330127   0.3061862  )
         2           Ni  tau(   2) = (   1.2500000   0.7216878   0.5103104  )
         3           Rh  tau(   3) = (   0.2500000   0.1443376   0.4082483  )
         4           Rh  tau(   4) = (   0.2500000   0.4330127   0.0000000  )
         5           Rh  tau(   5) = (   0.5000000   0.0000000   0.0000000  )
         6           Rh  tau(   6) = (   0.0000000   0.0000000   0.0000000  )
         7           S   tau(   7) = (   0.7499995   0.4330124   0.6254813  )
         8           S   tau(   8) = (   0.7499995   0.7340469   0.1997543  )
         9           S   tau(   9) = (   1.0107030   0.2824952   0.1997543  )
        10           S   tau(  10) = (   0.4892960   0.2824952   0.1997543  )
        11           S   tau(  11) = (   1.2500005   0.7216881   0.1910153  )
        12           S   tau(  12) = (   1.2500005   0.4206537   0.6167423  )
        13           S   tau(  13) = (   0.9892970   0.8722054   0.6167423  )
        14           S   tau(  14) = (   1.5107040   0.8722054   0.6167423  )

   Crystallographic axes

     site n.     atom                  positions (cryst. coord.)
         1           Ni  tau(   1) = (  0.3750000  0.3750000  0.3750000  )
         2           Ni  tau(   2) = (  0.6250000  0.6250000  0.6250000  )
         3           Rh  tau(   3) = ( -0.0000000 -0.0000000  0.5000000  )
         4           Rh  tau(   4) = (  0.0000000  0.5000000  0.0000000  )
         5           Rh  tau(   5) = (  0.5000000  0.0000000  0.0000000  )
         6           Rh  tau(   6) = (  0.0000000  0.0000000  0.0000000  )
         7           S   tau(   7) = (  0.2446480  0.2446480  0.7660550  )
         8           S   tau(   8) = (  0.2446480  0.7660550  0.2446480  )
         9           S   tau(   9) = (  0.7660550  0.2446480  0.2446480  )
        10           S   tau(  10) = (  0.2446480  0.2446480  0.2446480  )
        11           S   tau(  11) = (  0.7553520  0.7553520  0.2339450  )
        12           S   tau(  12) = (  0.7553520  0.2339450  0.7553520  )
        13           S   tau(  13) = (  0.2339450  0.7553520  0.7553520  )
        14           S   tau(  14) = (  0.7553520  0.7553520  0.7553520  )

     number of k points=     1  Methfessel-Paxton smearing, width (Ry)=  0.0010
                       cart. coord. in units 2pi/alat
        k(    1) = (   0.0000000   0.0000000   0.0000000), wk =   2.0000000

                       cryst. coord.
        k(    1) = (   0.0000000   0.0000000   0.0000000), wk =   2.0000000

     Check: negative core charge=   -0.000002

     Initial potential from superposition of free atoms

     starting charge     147.9980, renormalised to     152.0000
     Starting wfcs are   98 randomized atomic wfcs

     Self-consistent Calculation

     iteration #  1     ecut=    30.00 Ry     beta= 0.70
     Davidson diagonalization with overlap

     ethr =  1.00E-02,  avg # of iterations =  3.0

     total energy              =   -1734.44561720 Ry
     estimated scf accuracy    <      18.84020097 Ry

[...]

     total energy              =   -1747.21219787 Ry
     estimated scf accuracy    <       0.00000101 Ry

     iteration # 24     ecut=    30.00 Ry     beta= 0.70
     Davidson diagonalization with overlap

     ethr =  6.61E-10,  avg # of iterations =  1.0

     End of self-consistent calculation

          k = 0.0000 0.0000 0.0000 (  2143 PWs)   bands (ev):

   -92.2144 -92.2126 -66.5836 -66.5812 -66.5810 -66.5808 -52.5459 -52.5457
   -52.5456 -52.5415 -52.5414 -52.5413 -34.5127 -34.5126 -34.5125 -34.5094
   -34.5093 -34.4943 -34.4942 -34.4941 -34.4745 -34.4288 -34.4287 -34.4285
    -3.2935  -1.6422  -1.6149  -1.6149  -1.6148  -1.4778  -1.4778  -1.4777
     4.1884   5.0217   5.0217   5.0217   5.4637   6.2279   6.2280   6.6062
     6.6062   6.8387   6.8388   6.8388   7.0727   7.0727   7.0728   7.8349
     7.8350   7.8350   8.8297   8.8297   9.1741   9.1741   9.1741   9.3679
     9.4491   9.4492   9.4492   9.6701   9.6702   9.7071   9.7072   9.7073
    10.0291  10.0291  10.3187  10.3187  10.3188  10.5785  10.5786  10.5787
    10.9810  10.9810  10.9811  11.8159  11.8159  11.8160  14.0617  14.0618
    14.0618  14.2750  14.2750  14.6735  14.6736  14.6736  15.9354  15.9829
    15.9829  15.9830  16.8243

     occupation numbers
     1.0000   1.0000   1.0000   1.0000   1.0000   1.0000   1.0000   1.0000
     1.0000   1.0000   1.0000   1.0000   1.0000   1.0000   1.0000   1.0000
     1.0000   1.0000   1.0000   1.0000   1.0000   1.0000   1.0000   1.0000
     1.0000   1.0000   1.0000   1.0000   1.0000   1.0000   1.0000   1.0000
     1.0000   1.0000   1.0000   1.0000   1.0000   1.0000   1.0000   1.0000
     1.0000   1.0000   1.0000   1.0000   1.0000   1.0000   1.0000   1.0000
     1.0000   1.0000   1.0000   1.0000   1.0000   1.0000   1.0000   1.0000
     1.0000   1.0000   1.0000   1.0000   1.0000   1.0000   1.0000   1.0000
     1.0000   1.0000   1.0000   1.0000   1.0000   1.0000   1.0000   1.0000
     1.0000   1.0000   1.0000   0.3358   0.3338   0.3304  -0.0000  -0.0000
    -0.0000  -0.0000  -0.0000  -0.0000  -0.0000  -0.0000  -0.0000  -0.0000
    -0.0000  -0.0000  -0.0000

     the Fermi energy is    11.8132 ev

!    total energy              =   -1747.21219754 Ry
     estimated scf accuracy    <       0.00000072 Ry
     smearing contrib. (-TS)   =      -0.00074670 Ry
     internal energy E=F+TS    =   -1747.21145084 Ry

     The total energy is F=E-TS. E is the sum of the following terms:
     one-electron contribution =   -1004.35760562 Ry
     hartree contribution      =     568.70746889 Ry
     xc contribution           =    -226.84753544 Ry
     ewald contribution        =   -1084.71377867 Ry

     convergence has been achieved in  24 iterations

     Forces acting on atoms (cartesian axes, Ry/au):

     atom    1 type  1   force =     0.00000000   -0.00000000   -0.00030831
     atom    2 type  1   force =    -0.00000000    0.00000000    0.00030831
     atom    3 type  2   force =     0.00000000   -0.00000000   -0.00000000
     atom    4 type  2   force =    -0.00000000   -0.00000000    0.00000000
     atom    5 type  2   force =     0.00000000    0.00000000   -0.00000000
     atom    6 type  2   force =     0.00000000    0.00000000    0.00000000
     atom    7 type  3   force =     0.00000000   -0.00000000    0.03283080
     atom    8 type  3   force =     0.00000000    0.03093538   -0.01095624
     atom    9 type  3   force =     0.02679082   -0.01546769   -0.01095624
     atom   10 type  3   force =    -0.02679082   -0.01546769   -0.01095624
     atom   11 type  3   force =     0.00000000   -0.00000000   -0.03283080
     atom   12 type  3   force =     0.00000000   -0.03093538    0.01095624
     atom   13 type  3   force =    -0.02679082    0.01546769    0.01095624
     atom   14 type  3   force =     0.02679082    0.01546769    0.01095624
     The non-local contrib.  to forces
     atom    1 type  1   force =     0.00000000    0.00000000   -0.00047132
     atom    2 type  1   force =     0.00000000   -0.00000000    0.00047132
     atom    3 type  2   force =     0.00000000    0.00000000    0.00000000
     atom    4 type  2   force =    -0.00000000   -0.00000000    0.00000000
     atom    5 type  2   force =    -0.00000000    0.00000000   -0.00000000
     atom    6 type  2   force =    -0.00000000   -0.00000000    0.00000000
     atom    7 type  3   force =    -0.00000000    0.00000000    0.10839108
     atom    8 type  3   force =     0.00000000    0.10221072   -0.03613358
     atom    9 type  3   force =     0.08851708   -0.05110536   -0.03613358
     atom   10 type  3   force =    -0.08851708   -0.05110536   -0.03613358
     atom   11 type  3   force =     0.00000000   -0.00000000   -0.10839108
     atom   12 type  3   force =     0.00000000   -0.10221072    0.03613358
     atom   13 type  3   force =    -0.08851708    0.05110536    0.03613358
     atom   14 type  3   force =     0.08851708    0.05110536    0.03613358
     The ionic contribution  to forces
     atom    1 type  1   force =     0.00000000    0.00000000   -0.00000000
     atom    2 type  1   force =    -0.00000000   -0.00000000   -0.00000000
     atom    3 type  2   force =    -0.00000000   -0.00000000   -0.00000000
     atom    4 type  2   force =    -0.00000000    0.00000000    0.00000000
     atom    5 type  2   force =    -0.00000000   -0.00000000    0.00000000
     atom    6 type  2   force =     0.00000000   -0.00000000    0.00000000
     atom    7 type  3   force =     0.00002558    0.00001477   -3.05800765
     atom    8 type  3   force =     0.00002558   -2.88311234    1.01934980
     atom    9 type  3   force =    -2.49683574    1.44157832    1.01934980
     atom   10 type  3   force =     2.49691228    1.44159298    1.01936017
     atom   11 type  3   force =    -0.00002558   -0.00001477    3.05800765
     atom   12 type  3   force =    -0.00002558    2.88311234   -1.01934981
     atom   13 type  3   force =     2.49683574   -1.44157832   -1.01934980
     atom   14 type  3   force =    -2.49691228   -1.44159298   -1.01936017
     The local contribution  to forces
     atom    1 type  1   force =     0.00053851    0.00136078    0.00056848
     atom    2 type  1   force =    -0.00049090   -0.00135378   -0.00058400
     atom    3 type  2   force =    -0.00002807    0.00001291   -0.00004232
     atom    4 type  2   force =    -0.00002058   -0.00000566    0.00003581
     atom    5 type  2   force =    -0.00004015   -0.00002759    0.00000254
     atom    6 type  2   force =     0.00002641    0.00001803    0.00003546
     atom    7 type  3   force =    -0.00002528   -0.00014630    2.98869423
     atom    8 type  3   force =    -0.00009190    2.81768761   -0.99639126
     atom    9 type  3   force =     2.44004379   -1.40898007   -0.99629267
     atom   10 type  3   force =    -2.44012588   -1.40891949   -0.99632838
     atom   11 type  3   force =     0.00004034    0.00013063   -2.98867560
     atom   12 type  3   force =     0.00008993   -2.81767979    0.99636850
     atom   13 type  3   force =    -2.44002665    1.40898486    0.99630505
     atom   14 type  3   force =     2.44008868    1.40892354    0.99631848
     The core correction contribution to forces
     atom    1 type  1   force =     0.00001267    0.00003083    0.00001294
     atom    2 type  1   force =    -0.00001235   -0.00003076   -0.00001300
     atom    3 type  2   force =     0.00000000    0.00000000    0.00000000
     atom    4 type  2   force =     0.00000000    0.00000000    0.00000000
     atom    5 type  2   force =     0.00000000    0.00000000    0.00000000
     atom    6 type  2   force =     0.00000000    0.00000000    0.00000000
     atom    7 type  3   force =     0.00000015   -0.00000191   -0.00611590
     atom    8 type  3   force =    -0.00000236   -0.00576564    0.00203722
     atom    9 type  3   force =    -0.00499716    0.00288119    0.00203945
     atom   10 type  3   force =     0.00499772    0.00288410    0.00203890
     atom   11 type  3   force =     0.00000057    0.00000139    0.00611608
     atom   12 type  3   force =     0.00000224    0.00576538   -0.00203797
     atom   13 type  3   force =     0.00499744   -0.00288074   -0.00203882
     atom   14 type  3   force =    -0.00499856   -0.00288376   -0.00203904
     The Hubbard contrib.    to forces
     atom    1 type  1   force =     0.00000000    0.00000000    0.00000000
     atom    2 type  1   force =     0.00000000    0.00000000    0.00000000
     atom    3 type  2   force =     0.00000000    0.00000000    0.00000000
     atom    4 type  2   force =     0.00000000    0.00000000    0.00000000
     atom    5 type  2   force =     0.00000000    0.00000000    0.00000000
     atom    6 type  2   force =     0.00000000    0.00000000    0.00000000
     atom    7 type  3   force =     0.00000000    0.00000000    0.00000000
     atom    8 type  3   force =     0.00000000    0.00000000    0.00000000
     atom    9 type  3   force =     0.00000000    0.00000000    0.00000000
     atom   10 type  3   force =     0.00000000    0.00000000    0.00000000
     atom   11 type  3   force =     0.00000000    0.00000000    0.00000000
     atom   12 type  3   force =     0.00000000    0.00000000    0.00000000
     atom   13 type  3   force =     0.00000000    0.00000000    0.00000000
     atom   14 type  3   force =     0.00000000    0.00000000    0.00000000
     The SCF correction term to forces
     atom    1 type  1   force =    -0.00038210   -0.00097904   -0.00042459
     atom    2 type  1   force =     0.00033772    0.00098888    0.00042784
     atom    3 type  2   force =     0.00002032    0.00000361    0.00004429
     atom    4 type  2   force =     0.00003120    0.00001529   -0.00001961
     atom    5 type  2   force =     0.00003685    0.00002320   -0.00001234
     atom    6 type  2   force =    -0.00002369   -0.00002798   -0.00003557
     atom    7 type  3   force =    -0.00000059    0.00008586   -0.00013073
     atom    8 type  3   force =     0.00001777   -0.00004642    0.00015365
     atom    9 type  3   force =     0.00002398    0.00009218    0.00010161
     atom   10 type  3   force =    -0.00001309    0.00007567    0.00011221
     atom   11 type  3   force =    -0.00000154   -0.00008279    0.00011237
     atom   12 type  3   force =    -0.00001961    0.00003255   -0.00014618
     atom   13 type  3   force =    -0.00003497   -0.00008688   -0.00009860
     atom   14 type  3   force =     0.00003419   -0.00006821   -0.00010520

     Total force =     0.092834     Total SCF correction =     0.001654

     Computing stress (Cartesian axis) and pressure

          total   stress  (Ry/bohr**3)                   (kbar)     P=     -261.50
  -0.00177782   0.00000000   0.00000000         -261.53        0.00        0.00
   0.00000000  -0.00177782   0.00000000            0.00     -261.53        0.00
   0.00000000   0.00000000  -0.00177735            0.00        0.00     -261.46

     kinetic stress (kbar)  27476.68     -0.00     -0.00
                               -0.00  27476.68     -0.00
                               -0.00     -0.00  27477.21

     local   stress (kbar) -13656.73      0.53      0.39
                                0.53 -13659.29      0.91
                                0.39      0.91 -13659.15

     nonloc. stress (kbar)   8230.19      0.00     -0.00
                                0.00   8230.19     -0.00
                                0.00     -0.00   8230.58

     hartree stress (kbar)  17912.82     -0.13     -0.14
                               -0.13  17913.51     -0.27
                               -0.14     -0.27  17913.45

     exc-cor stress (kbar)  -2774.80     -0.00     -0.00
                               -0.00  -2774.78     -0.00
                               -0.00     -0.00  -2774.78

     corecor stress (kbar)  -3282.21      0.01      0.00
                                0.01  -3282.25      0.01
                                0.00      0.01  -3282.24

     ewald   stress (kbar) -34166.54     -0.02     -0.01
                               -0.02 -34166.52     -0.01
                               -0.01     -0.01 -34166.52

     hubbard stress (kbar)      0.00      0.00      0.00
                                0.00      0.00      0.00
                                0.00      0.00      0.00

     DFT-D   stress (kbar)      0.00      0.00      0.00
                                0.00      0.00      0.00
                                0.00      0.00      0.00

     XDM     stress (kbar)      0.00      0.00      0.00
                                0.00      0.00      0.00
                                0.00      0.00      0.00

     dft-nl  stress (kbar)      0.00      0.00      0.00
                                0.00      0.00      0.00
                                0.00      0.00      0.00

     TS-vdW  stress (kbar)      0.00      0.00      0.00
                                0.00      0.00      0.00
                                0.00      0.00      0.00

[...]

                                0.00      0.00      0.00

     Writing all to output data dir new_calculations/myprefix.save/

     General routines

     Parallel routines

   This run was terminated on:   4:20:34  21May2023

   JOB DONE.