     Program PWSCF v.7.0 starts on 20May2023 at 14: 2:26

     Reading input from espresso_11382.pwi
Warning: card &CELL ignored
Warning: card / ignored

     Current dimensions of program PWSCF are:
     Max number of different atomic species (ntypx) = 10
     Max number of k-points (npk) =  40000
     Max angular momentum in pseudopotentials (lmaxx) =  4
     file Mg.pbe-n-kjpaw_psl.0.3.0.UPF: wavefunction(s)  3S renormalized

     gamma-point specific algorithms are used
     Message from routine setup:
     using ibrav=0 with symmetry is DISCOURAGED, use correct ibrav instead

     Subspace diagonalization in iterative solution of the eigenvalue problem:
     a serial algorithm will be used

     Using Slab Decomposition

     bravais-lattice index     =            0
     lattice parameter (alat)  =      11.0712  a.u.
     unit-cell volume          =     966.0448 (a.u.)^3
     number of atoms/cell      =            8
     number of atomic types    =            2
     number of electrons       =       118.00
     number of Kohn-Sham states=           71
     kinetic-energy cutoff     =      30.0000  Ry
     charge density cutoff     =     240.0000  Ry
     scf convergence threshold =      1.0E-06
     mixing beta               =       0.7000
     number of iterations used =            8  plain     mixing
     Exchange-correlation= PBE
                           (   1   4   3   4   0   0   0)

     celldm(1)=  11.071222  celldm(2)=   0.000000  celldm(3)=   0.000000
     celldm(4)=   0.000000  celldm(5)=   0.000000  celldm(6)=   0.000000

     crystal axes: (cart. coord. in units of alat)
               a(1) = (   1.000000   0.000000   0.000000 )
               a(2) = (  -0.500000   0.866025   0.000000 )
               a(3) = (   0.000000   0.000000   0.822015 )

     reciprocal axes: (cart. coord. in units 2 pi/alat)
               b(1) = (  1.000000  0.577350  0.000000 )
               b(2) = (  0.000000  1.154701  0.000000 )
               b(3) = (  0.000000  0.000000  1.216522 )

     PseudoPot. # 1 for Mg read from file:
     /home/pragov/projects/rrg-bengioy-ad/pragov/crystal_structure_design/SSSP/Mg.pbe-n-kjpaw_psl.0.3.0.UPF
     MD5 check sum: 24ecedc7f3e3cbe212e682f4413594e4
     Pseudo is Projector augmented-wave + core cor, Zval =  2.0
     Generated using "atomic" code by A. Dal Corso  v.5.0.99 svn rev. 10869
     Shape of augmentation charge: PSQ
     Using radial grid of 1129 points,  4 beta functions with:
                l(1) =   0
                l(2) =   0
                l(3) =   1
                l(4) =   1
     Q(r) pseudized with 0 coefficients

     PseudoPot. # 2 for Au read from file:
     /home/pragov/projects/rrg-bengioy-ad/pragov/crystal_structure_design/SSSP/Au_ONCV_PBE-1.0.oncvpsp.upf
     MD5 check sum: d14007822ba0e19f0206237467fc06c2
     Pseudo is Norm-conserving, Zval = 19.0
     Generated using ONCVPSP code by D. R. Hamann
     Using radial grid of 1278 points,  8 beta functions with:
                l(1) =   0
                l(2) =   0
                l(3) =   1
                l(4) =   1
                l(5) =   2
                l(6) =   2
                l(7) =   3
                l(8) =   3

     atomic species   valence    mass     pseudopotential
        Mg             2.00    24.30500     Mg( 1.00)
        Au            19.00   196.96657     Au( 1.00)

     24 Sym. Ops., with inversion, found (12 have fractional translation)

                                    s                        frac. trans.

      isym =  1     identity

 cryst.   s( 1) = (     1          0          0      )
                  (     0          1          0      )
                  (     0          0          1      )

 cart.    s( 1) = (  1.0000000 -0.0000000  0.0000000 )
                  (  0.0000000  1.0000000  0.0000000 )
                  (  0.0000000  0.0000000  1.0000000 )

      isym =  2     180 deg rotation - cart. axis [0,0,1]

 cryst.   s( 2) = (    -1          0          0      )    f =(  0.0000000 )
                  (     0         -1          0      )       (  0.0000000 )
                  (     0          0          1      )       ( -0.5000000 )

 cart.    s( 2) = ( -1.0000000  0.0000000  0.0000000 )    f =(  0.0000000 )
                  (  0.0000000 -1.0000000  0.0000000 )       (  0.0000000 )
                  (  0.0000000  0.0000000  1.0000000 )       ( -0.4110077 )

[...]

      isym =  4     180 deg rotation - cart. axis [1,0,0]

[...]

      isym =  5      60 deg rotation - cryst. axis [0,0,1]

[...]

 cryst.   s( 8) = (    -1         -1          0      )
                  (     1          0          0      )
                  (     0          0          1      )

 cart.    s( 8) = ( -0.4999999  0.8660255  0.0000000 )
                  ( -0.8660253 -0.5000001  0.0000000 )
                  (  0.0000000  0.0000000  1.0000000 )

[...]

 cryst.   s( 9) = (     0         -1          0      )    f =(  0.0000000 )
                  (    -1          0          0      )       (  0.0000000 )
                  (     0          0         -1      )       (  0.5000000 )

 cart.    s( 9) = (  0.5000001 -0.8660253  0.0000000 )    f =(  0.0000000 )
                  ( -0.8660253 -0.5000001  0.0000000 )       (  0.0000000 )
                  (  0.0000000  0.0000000 -1.0000000 )       (  0.4110077 )

[...]

 cryst.   s(10) = (     1          1          0      )    f =(  0.0000000 )
                  (     0         -1          0      )       (  0.0000010 )
                  (     0          0         -1      )       (  0.5000000 )

 cart.    s(10) = (  0.4999999  0.8660256  0.0000000 )    f =( -0.0000005 )
                  (  0.8660253 -0.4999999  0.0000000 )       (  0.0000009 )
                  (  0.0000000  0.0000000 -1.0000000 )       (  0.4110077 )

[...]

 cryst.   s(11) = (    -1         -1          0      )
                  (     0          1          0      )
                  (     0          0         -1      )

 cart.    s(11) = ( -0.4999999 -0.8660256  0.0000000 )
                  ( -0.8660253  0.4999999  0.0000000 )
                  (  0.0000000  0.0000000 -1.0000000 )

      isym = 12     180 deg rotation - cryst. axis [1,1,0]

[...]

      isym = 13     inversion

[...]

      isym = 14     inv. 180 deg rotation - cart. axis [0,0,1]

[...]

      isym = 16     inv. 180 deg rotation - cart. axis [1,0,0]

[...]

      isym = 17     inv.  60 deg rotation - cryst. axis [0,0,1]

[...]

 cryst.   s(22) = (    -1         -1          0      )    f =(  0.0000000 )
                  (     0          1          0      )       (  0.0000010 )
                  (     0          0          1      )       ( -0.5000000 )

 cart.    s(22) = ( -0.4999999 -0.8660256  0.0000000 )    f =( -0.0000005 )
                  ( -0.8660253  0.4999999  0.0000000 )       (  0.0000009 )
                  (  0.0000000  0.0000000  1.0000000 )       ( -0.4110077 )

[...]

      isym = 24     inv. 180 deg rotation - cryst. axis [1,1,0]

 cryst.   s(24) = (     0         -1          0      )
                  (    -1          0          0      )
                  (     0          0          1      )

 cart.    s(24) = (  0.5000001 -0.8660253  0.0000000 )
                  ( -0.8660253 -0.5000001  0.0000000 )
                  (  0.0000000  0.0000000  1.0000000 )

   Cartesian axes

     site n.     atom                  positions (alat units)
         1           Mg  tau(   1) = (   0.5000005   0.2886748   0.2055038  )
         2           Mg  tau(   2) = (  -0.0000006   0.5773505   0.6165115  )
         3           Au  tau(   3) = (  -0.0000005   0.2914115   0.2055038  )
         4           Au  tau(   4) = (   0.2476299   0.7203200   0.2055038  )
         5           Au  tau(   5) = (  -0.2476311   0.7203200   0.2055038  )
         6           Au  tau(   6) = (   0.7476310   0.1457053   0.6165115  )
         7           Au  tau(   7) = (   0.2523700   0.1457053   0.6165115  )
         8           Au  tau(   8) = (   0.5000004   0.5746139   0.6165115  )

   Crystallographic axes

     site n.     atom                  positions (cryst. coord.)
         1           Mg  tau(   1) = (  0.6666670  0.3333330  0.2500000  )
         2           Mg  tau(   2) = (  0.3333330  0.6666670  0.7500000  )
         3           Au  tau(   3) = (  0.1682460  0.3364930  0.2500000  )
         4           Au  tau(   4) = (  0.6635070  0.8317540  0.2500000  )
         5           Au  tau(   5) = (  0.1682460  0.8317540  0.2500000  )
         6           Au  tau(   6) = (  0.8317540  0.1682460  0.7500000  )
         7           Au  tau(   7) = (  0.3364930  0.1682460  0.7500000  )
         8           Au  tau(   8) = (  0.8317540  0.6635070  0.7500000  )

     number of k points=     1  Methfessel-Paxton smearing, width (Ry)=  0.0010
                       cart. coord. in units 2pi/alat
        k(    1) = (   0.0000000   0.0000000   0.0000000), wk =   2.0000000

                       cryst. coord.
        k(    1) = (   0.0000000   0.0000000   0.0000000), wk =   2.0000000

     Initial potential from superposition of free atoms

     starting charge     117.9976, renormalised to     118.0000
     Starting wfcs are   68 randomized atomic wfcs +    3 random wfcs
     Checking if some PAW data can be deallocated...

     Self-consistent Calculation

     iteration #  1     ecut=    30.00 Ry     beta= 0.70
     Davidson diagonalization with overlap

     ethr =  1.00E-02,  avg # of iterations =  3.0

     Threshold (ethr) on eigenvalues was too large:
     Diagonalizing with lowered threshold

     Davidson diagonalization with overlap

[...]

     total energy              =   -1713.90014267 Ry
     estimated scf accuracy    <       0.16603454 Ry

[...]

     total energy              =   -1713.94350008 Ry
     estimated scf accuracy    <       0.00000186 Ry

     iteration # 15     ecut=    30.00 Ry     beta= 0.70
     Davidson diagonalization with overlap

     ethr =  1.58E-09,  avg # of iterations =  5.0

     End of self-consistent calculation

          k = 0.0000 0.0000 0.0000 (  1346 PWs)   bands (ev):

   -90.9446 -90.9394 -90.9387 -90.9387 -90.9361 -90.9361 -42.1021 -42.0803
   -42.0184 -42.0026 -42.0025 -41.9889 -41.9888 -41.9743 -41.9743 -41.9215
   -41.9214 -41.9041 -41.8943 -41.8942 -41.8680 -41.8679 -41.8625 -41.8247
     6.6409   9.0676   9.3724   9.5109   9.5373   9.5683   9.5683   9.6867
     9.6867  10.4293  10.4294  11.0781  11.1606  11.1606  11.2580  11.3781
    11.3849  11.3849  11.8026  11.8026  12.1596  12.1596  12.3033  12.3034
    12.5421  12.5421  12.6107  12.6108  13.4257  13.5451  13.6078  14.6986
    14.8325  15.3715  15.3715  15.3749  16.1746  16.1746  18.6094  20.8783
    20.8783  21.6381  21.6381  21.8419  22.2252  22.2252  22.2664

     occupation numbers
     1.0000   1.0000   1.0000   1.0000   1.0000   1.0000   1.0000   1.0000
     1.0000   1.0000   1.0000   1.0000   1.0000   1.0000   1.0000   1.0000
     1.0000   1.0000   1.0000   1.0000   1.0000   1.0000   1.0000   1.0000
     1.0000   1.0000   1.0000   1.0000   1.0000   1.0000   1.0000   1.0000
     1.0000   1.0000   1.0000   1.0000   1.0000   1.0000   1.0000   1.0000
     1.0000   1.0000   1.0000   1.0000   1.0000   1.0000   1.0000   1.0000
     1.0000   1.0000   1.0000   1.0000   1.0000   1.0000   1.0000   1.0000
     1.0000   0.7338   0.7333   0.5329  -0.0000  -0.0000  -0.0000  -0.0000
    -0.0000  -0.0000  -0.0000  -0.0000  -0.0000  -0.0000  -0.0000

     the Fermi energy is    15.3755 ev

!    total energy              =   -1713.94349999 Ry
     estimated scf accuracy    <       0.00000090 Ry
     smearing contrib. (-TS)   =      -0.00071316 Ry
     internal energy E=F+TS    =   -1713.94278683 Ry

     The total energy is F=E-TS. E is the sum of the following terms:
     one-electron contribution =    -778.89280745 Ry
     hartree contribution      =     424.13700362 Ry
     xc contribution           =    -155.08249308 Ry
     ewald contribution        =   -1141.53657758 Ry
     one-center paw contrib.   =     -62.56791234 Ry
      -> PAW hartree energy AE =       1.47002364 Ry
      -> PAW hartree energy PS =      -1.46685327 Ry
      -> PAW xc energy AE      =     -65.13561788 Ry
      -> PAW xc energy PS      =       2.56453518 Ry
      -> total E_H with PAW    =     424.14017398 Ry
      -> total E_XC with PAW   =    -217.65357579 Ry

     convergence has been achieved in  15 iterations

     Forces acting on atoms (cartesian axes, Ry/au):

     atom    1 type  1   force =    -0.00000000   -0.00000000   -0.00000000
     atom    2 type  1   force =     0.00000000    0.00000000    0.00000000
     atom    3 type  2   force =     0.00000000    0.00330743    0.00000000
     atom    4 type  2   force =    -0.00286431   -0.00165371    0.00000000
     atom    5 type  2   force =     0.00286431   -0.00165371    0.00000000
     atom    6 type  2   force =    -0.00286431    0.00165371   -0.00000000
     atom    7 type  2   force =     0.00286431    0.00165371   -0.00000000
     atom    8 type  2   force =    -0.00000000   -0.00330743    0.00000000
     The non-local contrib.  to forces
     atom    1 type  1   force =    -0.00000000    0.00000000   -0.00000000
     atom    2 type  1   force =     0.00000000   -0.00000000    0.00000000
     atom    3 type  2   force =     0.00000000   -0.11469855   -0.00000000
     atom    4 type  2   force =     0.09933186    0.05734929    0.00000000
     atom    5 type  2   force =    -0.09933186    0.05734927    0.00000000
     atom    6 type  2   force =     0.09933186   -0.05734927    0.00000000
     atom    7 type  2   force =    -0.09933186   -0.05734929    0.00000000
     atom    8 type  2   force =    -0.00000000    0.11469855    0.00000000
     The ionic contribution  to forces
     atom    1 type  1   force =    -0.00002455    0.00001417    0.00000000
     atom    2 type  1   force =     0.00002455   -0.00001417   -0.00000000
     atom    3 type  2   force =     0.00009015   11.39749900    0.00000000
     atom    4 type  2   force =    -9.87047795   -5.69882868    0.00000000
     atom    5 type  2   force =     9.87048960   -5.69872909    0.00000000
     atom    6 type  2   force =    -9.87048960    5.69872908    0.00000000
     atom    7 type  2   force =     9.87047795    5.69882868   -0.00000000
     atom    8 type  2   force =    -0.00009015  -11.39749899    0.00000000
     The local contribution  to forces
     atom    1 type  1   force =     0.00001937   -0.00000954   -0.00000013
     atom    2 type  1   force =    -0.00000284    0.00000566   -0.00000002
     atom    3 type  2   force =    -0.00067755  -11.27556708    0.00000006
     atom    4 type  2   force =     9.76534217    5.63829879   -0.00000394
     atom    5 type  2   force =    -9.76493550    5.63723244   -0.00000087
     atom    6 type  2   force =     9.76502707   -5.63833780    0.00000197
     atom    7 type  2   force =    -9.76470406   -5.63724703    0.00000003
     atom    8 type  2   force =    -0.00073737   11.27564903    0.00000259
     The core correction contribution to forces
     atom    1 type  1   force =    -0.00000236   -0.00000025   -0.00000001
     atom    2 type  1   force =    -0.00000115   -0.00000068   -0.00000000
     atom    3 type  2   force =     0.00000000    0.00000000    0.00000000
     atom    4 type  2   force =     0.00000000    0.00000000    0.00000000
     atom    5 type  2   force =     0.00000000    0.00000000    0.00000000
     atom    6 type  2   force =     0.00000000    0.00000000    0.00000000
     atom    7 type  2   force =     0.00000000    0.00000000    0.00000000
     atom    8 type  2   force =     0.00000000    0.00000000    0.00000000
     The Hubbard contrib.    to forces
     atom    1 type  1   force =     0.00000000    0.00000000    0.00000000
     atom    2 type  1   force =     0.00000000    0.00000000    0.00000000
     atom    3 type  2   force =     0.00000000    0.00000000    0.00000000
     atom    4 type  2   force =     0.00000000    0.00000000    0.00000000
     atom    5 type  2   force =     0.00000000    0.00000000    0.00000000
     atom    6 type  2   force =     0.00000000    0.00000000    0.00000000
     atom    7 type  2   force =     0.00000000    0.00000000    0.00000000
     atom    8 type  2   force =     0.00000000    0.00000000    0.00000000
     The SCF correction term to forces
     atom    1 type  1   force =    -0.00001426   -0.00000275    0.00000012
     atom    2 type  1   force =    -0.00001699    0.00000135   -0.00000004
     atom    3 type  2   force =     0.00049381   -0.00390031    0.00000036
     atom    4 type  2   force =     0.00302067    0.00156979    0.00000348
     atom    5 type  2   force =    -0.00337144    0.00239848    0.00000072
     atom    6 type  2   force =     0.00329679   -0.00153731   -0.00000175
     atom    7 type  2   force =    -0.00352408   -0.00242533   -0.00000005
     atom    8 type  2   force =     0.00061098    0.00383611   -0.00000232

     Total force =     0.008102     Total SCF correction =     0.009528
     SCF correction compared to forces is large: reduce conv_thr to get better values

     Computing stress (Cartesian axis) and pressure

          total   stress  (Ry/bohr**3)                   (kbar)     P=     -647.67
  -0.00388004  -0.00000000   0.00000000         -570.77       -0.00        0.00
  -0.00000000  -0.00388004   0.00000000           -0.00     -570.77        0.00
   0.00000000   0.00000000  -0.00544828            0.00        0.00     -801.47

     kinetic stress (kbar)  51048.91      0.01      0.00
                                0.01  51048.92      0.00
                                0.00      0.00  50901.17

     local   stress (kbar) -12666.18      0.26      0.00
                                0.26 -12666.04     -0.00
                                0.00     -0.00 -15574.22

     nonloc. stress (kbar)   5784.96      0.00      0.00
                                0.00   5784.96      0.00
                                0.00      0.00   5809.82

     hartree stress (kbar)  20994.23     -0.08     -0.00
                               -0.08  20994.18      0.00
                               -0.00      0.00  22597.32

     exc-cor stress (kbar)  -7170.52     -0.00     -0.00
                               -0.00  -7170.52     -0.00
                               -0.00     -0.00  -7165.17

     corecor stress (kbar)   -220.65      0.00      0.00
                                0.00   -220.65      0.00
                                0.00      0.00   -225.35

     ewald   stress (kbar) -58341.58     -0.00     -0.00
                               -0.00 -58341.58      0.00
                               -0.00      0.00 -57145.03

     hubbard stress (kbar)      0.00      0.00      0.00
                                0.00      0.00      0.00
                                0.00      0.00      0.00

     DFT-D   stress (kbar)      0.00      0.00      0.00
                                0.00      0.00      0.00
                                0.00      0.00      0.00

     XDM     stress (kbar)      0.00      0.00      0.00
                                0.00      0.00      0.00
                                0.00      0.00      0.00

     dft-nl  stress (kbar)      0.00      0.00      0.00
                                0.00      0.00      0.00
                                0.00      0.00      0.00

     TS-vdW  stress (kbar)      0.00      0.00      0.00
                                0.00      0.00      0.00
                                0.00      0.00      0.00

[...]

                                0.00      0.00      0.00

     Writing all to output data dir new_calculations/myprefix.save/

     General routines

     Parallel routines

     PAW routines

   This run was terminated on:  14: 2:41  20May2023

   JOB DONE.