     Program PWSCF v.7.0 starts on 20May2023 at  9:25:37

     Reading input from espresso_4285.pwi
Warning: card &CELL ignored
Warning: card / ignored

     Current dimensions of program PWSCF are:
     Max number of different atomic species (ntypx) = 10
     Max number of k-points (npk) =  40000
     Max angular momentum in pseudopotentials (lmaxx) =  4
     file O.pbe-n-kjpaw_psl.0.1.UPF: wavefunction(s)  2P renormalized

     gamma-point specific algorithms are used

     Subspace diagonalization in iterative solution of the eigenvalue problem:
     a serial algorithm will be used

     Using Slab Decomposition

     bravais-lattice index     =            0
     lattice parameter (alat)  =      17.1858  a.u.
     unit-cell volume          =    1611.2213 (a.u.)^3
     number of atoms/cell      =           18
     number of atomic types    =            4
     number of electrons       =       120.00
     number of Kohn-Sham states=           72
     kinetic-energy cutoff     =      30.0000  Ry
     charge density cutoff     =     240.0000  Ry
     scf convergence threshold =      1.0E-06
     mixing beta               =       0.7000
     number of iterations used =            8  plain     mixing
     Exchange-correlation= SLA  PW   PBX  PBC
                           (   1   4   3   4   0   0   0)

     celldm(1)=  17.185789  celldm(2)=   0.000000  celldm(3)=   0.000000
     celldm(4)=   0.000000  celldm(5)=   0.000000  celldm(6)=   0.000000

     crystal axes: (cart. coord. in units of alat)
               a(1) = (   1.000000   0.000000   0.000000 )
               a(2) = (  -0.592437   0.805617   0.000000 )
               a(3) = (   0.035887   0.070938   0.394020 )

     reciprocal axes: (cart. coord. in units 2 pi/alat)
               b(1) = (  1.000000  0.735383 -0.223475 )
               b(2) = (  0.000000  1.241285 -0.223475 )
               b(3) = (  0.000000  0.000000  2.537943 )

     PseudoPot. # 1 for Ca read from file:
     /home/pragov/projects/rrg-bengioy-ad/pragov/crystal_structure_design/SSSP/Ca_pbe_v1.uspp.F.UPF
     MD5 check sum: 403a4c14b9e4d4dfdc3024c9a3812218
     Pseudo is Ultrasoft + core correction, Zval = 10.0
     Generated by new atomic code, or converted to UPF format
     Using radial grid of  845 points,  6 beta functions with:
                l(1) =   0
                l(2) =   0
                l(3) =   1
                l(4) =   1
                l(5) =   2
                l(6) =   2
     Q(r) pseudized with  8 coefficients,  rinner =    1.500   1.500   1.500
                                                       1.500   1.500

     PseudoPot. # 2 for La read from file:
     /home/pragov/projects/rrg-bengioy-ad/pragov/crystal_structure_design/SSSP/La.GGA-PBE-paw-v1.0.UPF
     MD5 check sum: 436541e95c1ad8901025bd0b0ed42ae2
     Pseudo is Projector augmented-wave + core cor, Zval = 11.0
     Generated using ATOMPAW code
     Shape of augmentation charge: BESSEL
     Using radial grid of 1101 points,  8 beta functions with:
                l(1) =   0
                l(2) =   0
                l(3) =   1
                l(4) =   1
                l(5) =   2
                l(6) =   2
                l(7) =   3
                l(8) =   3
     Q(r) pseudized with 0 coefficients

     PseudoPot. # 3 for B  read from file:
     /home/pragov/projects/rrg-bengioy-ad/pragov/crystal_structure_design/SSSP/b_pbe_v1.4.uspp.F.UPF
     MD5 check sum: cc6de2960df11db49a60e589f9ebb39b
     Pseudo is Ultrasoft + core correction, Zval =  3.0
     Generated by new atomic code, or converted to UPF format
     Using radial grid of  781 points,  4 beta functions with:
                l(1) =   0
                l(2) =   0
                l(3) =   1
                l(4) =   1
     Q(r) pseudized with  8 coefficients,  rinner =    1.100   1.100   1.100

     PseudoPot. # 4 for O  read from file:
     /home/pragov/projects/rrg-bengioy-ad/pragov/crystal_structure_design/SSSP/O.pbe-n-kjpaw_psl.0.1.UPF
     MD5 check sum: 0234752ac141de4415c5fc33072bef88
     Pseudo is Projector augmented-wave + core cor, Zval =  6.0
     Generated using "atomic" code by A. Dal Corso  v.5.0.99 svn rev. 10869
     Shape of augmentation charge: BESSEL
     Using radial grid of 1095 points,  4 beta functions with:
                l(1) =   0
                l(2) =   0
                l(3) =   1
                l(4) =   1
     Q(r) pseudized with 0 coefficients

     atomic species   valence    mass     pseudopotential
        Ca            10.00    40.07800     Ca( 1.00)
        La            11.00   138.90547     La( 1.00)
        B              3.00    10.81000     B ( 1.00)
        O              6.00    15.99900     O ( 1.00)

     No symmetry found

                                    s                        frac. trans.

      isym =  1     identity

 cryst.   s( 1) = (     1          0          0      )
                  (     0          1          0      )
                  (     0          0          1      )

 cart.    s( 1) = (  1.0000000  0.0000000 -0.0000000 )
                  (  0.0000000  1.0000000 -0.0000000 )
                  (  0.0000000  0.0000000  1.0000000 )

   Cartesian axes

     site n.     atom                  positions (alat units)
         1           Ca  tau(   1) = (   0.6067077   0.4833974   0.2642829  )
         2           Ca  tau(   2) = (   0.0299972   0.7751564   0.2642829  )
         3           Ca  tau(   3) = (  -0.0273433   0.3974755   0.1315321  )
         4           Ca  tau(   4) = (   0.3364122   0.2134508   0.1315321  )
         5           La  tau(   5) = (   0.4058059   0.8021432   0.0004074  )
         6           B   tau(   6) = (   0.7065617   0.1954403   0.0350244  )
         7           B   tau(   7) = (  -0.2611430   0.6850041   0.0350244  )
         8           B   tau(   8) = (   0.2741198   0.5418437   0.2796694  )
         9           O   tau(   9) = (   0.5896529   0.2609555   0.1075690  )
        10           O   tau(  10) = (  -0.3950090   0.6098097   0.0378897  )
        11           O   tau(  11) = (  -0.1391019   0.6296340   0.1075690  )
        12           O   tau(  12) = (   0.3799930   0.0813339   0.3512715  )
        13           O   tau(  13) = (  -0.1595978   0.3543140   0.3512715  )
        14           O   tau(  14) = (   0.0857850   0.1695684   0.1646562  )
        15           O   tau(  15) = (   0.3598926   0.4169277   0.2983097  )
        16           O   tau(  16) = (   0.1226704   0.5369388   0.2983097  )
        17           O   tau(  17) = (   0.3412414   0.6745207   0.2421122  )
        18           O   tau(  18) = (   0.7252909   0.0430477   0.0378897  )

   Crystallographic axes

     site n.     atom                  positions (cryst. coord.)
         1           Ca  tau(   1) = (  0.9031290  0.5409730  0.6707350  )
         2           Ca  tau(   2) = (  0.5409730  0.9031290  0.6707350  )
         3           Ca  tau(   3) = (  0.2355590  0.4639860  0.3338210  )
         4           Ca  tau(   4) = (  0.4639860  0.2355590  0.3338210  )
         5           La  tau(   5) = (  0.9955970  0.9955970  0.0010340  )
         6           B   tau(   6) = (  0.8424580  0.2347700  0.0888900  )
         7           B   tau(   7) = (  0.2347700  0.8424580  0.0888900  )
         8           B   tau(   8) = (  0.6100830  0.6100830  0.7097850  )
         9           O   tau(   9) = (  0.7575160  0.2998810  0.2730040  )
        10           O   tau(  10) = (  0.0449670  0.7484800  0.0961620  )
        11           O   tau(  11) = (  0.2998810  0.7575160  0.2730040  )
        12           O   tau(  12) = (  0.3613040  0.0224580  0.8915070  )
        13           O   tau(  13) = (  0.0224580  0.3613040  0.8915070  )
        14           O   tau(  14) = (  0.1736860  0.1736860  0.4178880  )
        15           O   tau(  15) = (  0.5998290  0.4508610  0.7570930  )
        16           O   tau(  16) = (  0.4508610  0.5998290  0.7570930  )
        17           O   tau(  17) = (  0.7831660  0.7831660  0.6144670  )
        18           O   tau(  18) = (  0.7484800  0.0449670  0.0961620  )

     number of k points=     1  Methfessel-Paxton smearing, width (Ry)=  0.0010
                       cart. coord. in units 2pi/alat
        k(    1) = (   0.0000000   0.0000000   0.0000000), wk =   2.0000000

                       cryst. coord.
        k(    1) = (   0.0000000   0.0000000   0.0000000), wk =   2.0000000

     Check: negative core charge=   -0.000012

     Initial potential from superposition of free atoms

     starting charge     119.9688, renormalised to     120.0000
     Starting wfcs are  124 randomized atomic wfcs
     Checking if some PAW data can be deallocated...

     Self-consistent Calculation

     iteration #  1     ecut=    30.00 Ry     beta= 0.70
     Davidson diagonalization with overlap

     ethr =  1.00E-02,  avg # of iterations =  2.0

     total energy              =   -1193.75275770 Ry
     estimated scf accuracy    <       3.78532954 Ry

[...]

     total energy              =   -1195.43431133 Ry
     estimated scf accuracy    <       0.00000290 Ry

     iteration # 10     ecut=    30.00 Ry     beta= 0.70
     Davidson diagonalization with overlap

     ethr =  2.42E-09,  avg # of iterations =  5.0

     End of self-consistent calculation

          k = 0.0000 0.0000 0.0000 (  2223 PWs)   bands (ev):

   -32.0229 -32.0218 -31.7061 -31.7001 -23.4168 -13.6087 -13.5210 -13.3583
   -13.2480 -13.0548 -13.0463 -12.9570 -12.9321 -12.9191 -12.7886 -12.6262
   -12.6186 -12.2023 -11.7780 -11.7117 -10.9173 -10.9108 -10.5536 -10.5145
   -10.4434 -10.4175  -9.7053  -7.0807  -6.8089  -6.0617   0.6314   1.0551
     1.0596   1.6826   1.9465   1.9872   2.0609   2.2417   2.5326   2.9068
     2.9552   3.1732   4.0154   4.0390   4.3062   4.5257   4.6257   4.6427
     4.7912   4.8453   4.9059   5.1545   5.1936   5.2523   5.4082   5.4532
     5.6261   5.6757   5.9631   6.3619  10.5748  11.2171  11.3099  11.5249
    11.6430  11.6484  11.7349  11.7794  11.9188  12.1180  12.2105  12.2168

     occupation numbers
     1.0000   1.0000   1.0000   1.0000   1.0000   1.0000   1.0000   1.0000
     1.0000   1.0000   1.0000   1.0000   1.0000   1.0000   1.0000   1.0000
     1.0000   1.0000   1.0000   1.0000   1.0000   1.0000   1.0000   1.0000
     1.0000   1.0000   1.0000   1.0000   1.0000   1.0000   1.0000   1.0000
     1.0000   1.0000   1.0000   1.0000   1.0000   1.0000   1.0000   1.0000
     1.0000   1.0000   1.0000   1.0000   1.0000   1.0000   1.0000   1.0000
     1.0000   1.0000   1.0000   1.0000   1.0000   1.0000   1.0000   1.0000
     1.0000   1.0000   1.0000   1.0000  -0.0000  -0.0000  -0.0000  -0.0000
    -0.0000  -0.0000  -0.0000  -0.0000  -0.0000  -0.0000  -0.0000  -0.0000

     the Fermi energy is     6.7889 ev

!    total energy              =   -1195.43431183 Ry
     estimated scf accuracy    <       0.00000065 Ry
     smearing contrib. (-TS)   =       0.00000000 Ry
     internal energy E=F+TS    =   -1195.43431183 Ry

     The total energy is F=E-TS. E is the sum of the following terms:
     one-electron contribution =    -216.05369534 Ry
     hartree contribution      =     171.50858231 Ry
     xc contribution           =    -141.06775284 Ry
     ewald contribution        =    -516.58071966 Ry
     one-center paw contrib.   =    -493.24072631 Ry
      -> PAW hartree energy AE =     346.12503210 Ry
      -> PAW hartree energy PS =    -345.06181280 Ry
      -> PAW xc energy AE      =    -579.27193335 Ry
      -> PAW xc energy PS      =      84.96798774 Ry
      -> total E_H with PAW    =     172.57180161 Ry
      -> total E_XC with PAW   =    -635.37169844 Ry

     convergence has been achieved in  10 iterations

     Forces acting on atoms (cartesian axes, Ry/au):

     atom    1 type  1   force =     0.00687339    0.02242144   -0.00338308
     atom    2 type  1   force =     0.01398724    0.01882529   -0.00339431
     atom    3 type  1   force =    -0.00495866    0.00944848   -0.00048055
     atom    4 type  1   force =     0.01055114    0.00159536   -0.00046132
     atom    5 type  2   force =     0.01997269    0.03939192   -0.01010282
     atom    6 type  3   force =    -0.00616691    0.00672470    0.00774197
     atom    7 type  3   force =     0.00906435   -0.00098302    0.00774224
     atom    8 type  3   force =    -0.00293098   -0.00579045    0.00190000
     atom    9 type  4   force =     0.03804866    0.00889504   -0.00739964
     atom   10 type  4   force =     0.01317985   -0.03523416    0.00253182
     atom   11 type  4   force =    -0.01537576    0.03592069   -0.00739879
     atom   12 type  4   force =     0.00330629   -0.00071736   -0.00524666
     atom   13 type  4   force =    -0.00254451    0.00224045   -0.00524891
     atom   14 type  4   force =    -0.04343371   -0.08584570    0.02072767
     atom   15 type  4   force =    -0.00511403   -0.02431868    0.00538340
     atom   16 type  4   force =    -0.01657971   -0.01853183    0.00537974
     atom   17 type  4   force =     0.01831843    0.03619574   -0.01082900
     atom   18 type  4   force =    -0.03619776   -0.01023793    0.00253823
     The non-local contrib.  to forces
     atom    1 type  1   force =     0.03049318    0.02630083   -0.00233045
     atom    2 type  1   force =     0.00312559    0.04014568   -0.00233274
     atom    3 type  1   force =     0.00020501    0.00681140   -0.00986623
     atom    4 type  1   force =     0.00536908    0.00418244   -0.00985446
     atom    5 type  2   force =    -0.01573266   -0.03106661    0.01650619
     atom    6 type  3   force =     0.01899109   -0.02248014    0.00382851
     atom    7 type  3   force =    -0.02936963    0.00198376    0.00383145
     atom    8 type  3   force =     0.00820490    0.01623517   -0.00429283
     atom    9 type  4   force =     0.87920505   -0.50490781   -0.60872457
     atom   10 type  4   force =     0.97802011    0.57138149   -0.01020063
     atom   11 type  4   force =    -0.92762216    0.40918715   -0.60873711
     atom   12 type  4   force =    -0.08520237   -1.02070258    0.59262896
     atom   13 type  4   force =    -0.77181725   -0.67336437    0.59262864
     atom   14 type  4   force =    -0.04769953   -0.09432064    0.01611488
     atom   15 type  4   force =    -0.57853916    0.96699700   -0.15169419
     atom   16 type  4   force =     1.12176674    0.10681244   -0.15169719
     atom   17 type  4   force =    -0.48648188   -0.96158612    0.30410216
     atom   18 type  4   force =    -0.11910739    1.12642247   -0.01017580
     The ionic contribution  to forces
     atom    1 type  1   force =    -0.18486356    1.50451886   -0.36866283
     atom    2 type  1   force =     1.32158593    0.74240296   -0.36866283
     atom    3 type  1   force =     1.53533452   -1.18257230   -0.10647011
     atom    4 type  1   force =    -1.86228887    0.53629237   -0.10647011
     atom    5 type  2   force =    -0.33179164   -0.65584166   -0.01263899
     atom    6 type  3   force =     0.43526863   -0.50080834    0.16631705
     atom    7 type  3   force =    -0.66132882    0.05396257    0.16631705
     atom    8 type  3   force =     0.05406670    0.10687186   -0.04346078
     atom    9 type  4   force =    -2.31675904    0.86267519    2.67609574
     atom   10 type  4   force =    -4.23271494   -0.85901040   -0.31233879
     atom   11 type  4   force =     2.06751888   -1.35534003    2.67609574
     atom   12 type  4   force =    -0.70744459    3.11411439   -1.97499016
     atom   13 type  4   force =     2.92789964    1.27498627   -1.97499016
     atom   14 type  4   force =     0.29839923    0.58983596    0.03524773
     atom   15 type  4   force =     0.13854920   -1.83733648    0.48488977
     atom   16 type  4   force =    -1.56227114   -0.97688798    0.48488977
     atom   17 type  4   force =     1.26525759    2.50099317   -1.10882928
     atom   18 type  4   force =     1.81558228   -3.91885641   -0.31233879
     The local contribution  to forces
     atom    1 type  1   force =     0.16147023   -1.50779336    0.36745855
     atom    2 type  1   force =    -1.31037228   -0.76317444    0.36745285
     atom    3 type  1   force =    -1.54148548    1.18574570    0.11573648
     atom    4 type  1   force =     1.86851933   -0.53943618    0.11577664
     atom    5 type  2   force =     0.36736320    0.72582031   -0.01381316
     atom    6 type  3   force =    -0.45953112    0.52865171   -0.16253450
     atom    7 type  3   force =     0.69812419   -0.05700489   -0.16254190
     atom    8 type  3   force =    -0.06488200   -0.12822908    0.04936023
     atom    9 type  4   force =     1.48337036   -0.35350549   -2.07986296
     atom   10 type  4   force =     3.27639412    0.25746590    0.32488103
     atom   11 type  4   force =    -1.16355177    0.98561364   -2.07985270
     atom   12 type  4   force =     0.79537399   -2.10325437    1.38218224
     atom   13 type  4   force =    -2.16562871   -0.60529161    1.38219547
     atom   14 type  4   force =    -0.29459241   -0.58226179   -0.03043238
     atom   15 type  4   force =     0.43004602    0.85429466   -0.32908164
     atom   16 type  4   force =     0.43344376    0.85258849   -0.32910450
     atom   17 type  4   force =    -0.76468798   -1.51156346    0.79645130
     atom   18 type  4   force =    -1.73370338    2.79208703    0.32486238
     The core correction contribution to forces
     atom    1 type  1   force =     0.00025091   -0.00064058    0.00016490
     atom    2 type  1   force =    -0.00066466   -0.00017633    0.00016441
     atom    3 type  1   force =     0.00037664   -0.00011837    0.00007699
     atom    4 type  1   force =    -0.00031783    0.00023243    0.00007781
     atom    5 type  2   force =     0.00007573    0.00014955   -0.00004132
     atom    6 type  3   force =    -0.00092002    0.00135038    0.00012589
     atom    7 type  3   force =     0.00163302    0.00005884    0.00012564
     atom    8 type  3   force =    -0.00034936   -0.00069133    0.00031380
     atom    9 type  4   force =    -0.00765405    0.00448435    0.00511286
     atom   10 type  4   force =    -0.00846592   -0.00497542    0.00011398
     atom   11 type  4   force =     0.00814707   -0.00350970    0.00511311
     atom   12 type  4   force =     0.00075557    0.00894751   -0.00509094
     atom   13 type  4   force =     0.00676050    0.00590982   -0.00509099
     atom   14 type  4   force =     0.00020896    0.00041377   -0.00015515
     atom   15 type  4   force =     0.00501051   -0.00838416    0.00129574
     atom   16 type  4   force =    -0.00972273   -0.00093059    0.00129567
     atom   17 type  4   force =     0.00441722    0.00873092   -0.00258747
     atom   18 type  4   force =     0.00100722   -0.00976792    0.00011348
     The Hubbard contrib.    to forces
     atom    1 type  1   force =     0.00000000    0.00000000    0.00000000
     atom    2 type  1   force =     0.00000000    0.00000000    0.00000000
     atom    3 type  1   force =     0.00000000    0.00000000    0.00000000
     atom    4 type  1   force =     0.00000000    0.00000000    0.00000000
     atom    5 type  2   force =     0.00000000    0.00000000    0.00000000
     atom    6 type  3   force =     0.00000000    0.00000000    0.00000000
     atom    7 type  3   force =     0.00000000    0.00000000    0.00000000
     atom    8 type  3   force =     0.00000000    0.00000000    0.00000000
     atom    9 type  4   force =     0.00000000    0.00000000    0.00000000
     atom   10 type  4   force =     0.00000000    0.00000000    0.00000000
     atom   11 type  4   force =     0.00000000    0.00000000    0.00000000
     atom   12 type  4   force =     0.00000000    0.00000000    0.00000000
     atom   13 type  4   force =     0.00000000    0.00000000    0.00000000
     atom   14 type  4   force =     0.00000000    0.00000000    0.00000000
     atom   15 type  4   force =     0.00000000    0.00000000    0.00000000
     atom   16 type  4   force =     0.00000000    0.00000000    0.00000000
     atom   17 type  4   force =     0.00000000    0.00000000    0.00000000
     atom   18 type  4   force =     0.00000000    0.00000000    0.00000000
     The SCF correction term to forces
     atom    1 type  1   force =    -0.00047606    0.00003053   -0.00000787
     atom    2 type  1   force =     0.00031395   -0.00037774   -0.00001063
     atom    3 type  1   force =     0.00061194   -0.00042311    0.00004769
     atom    4 type  1   force =    -0.00072927    0.00031915    0.00001417
     atom    5 type  2   force =     0.00005937    0.00032517   -0.00011017
     atom    6 type  3   force =     0.00002582    0.00000592    0.00001039
     atom    7 type  3   force =     0.00000691    0.00001154    0.00001538
     atom    8 type  3   force =     0.00003009    0.00001777   -0.00001504
     atom    9 type  4   force =    -0.00011237    0.00014366   -0.00001535
     atom   10 type  4   force =    -0.00005223   -0.00010088    0.00008161
     atom   11 type  4   force =     0.00013352   -0.00003552   -0.00001245
     atom   12 type  4   force =    -0.00017501    0.00017254    0.00002861
     atom   13 type  4   force =     0.00024261   -0.00000481    0.00001350
     atom   14 type  4   force =     0.00025136    0.00048184   -0.00004203
     atom   15 type  4   force =    -0.00017930    0.00010514   -0.00002091
     atom   16 type  4   force =     0.00020496   -0.00011934    0.00000137
     atom   17 type  4   force =    -0.00018522   -0.00038393    0.00003966
     atom   18 type  4   force =     0.00002481   -0.00012825    0.00008233

     Total force =     0.150208     Total SCF correction =     0.001606

     Computing stress (Cartesian axis) and pressure

          total   stress  (Ry/bohr**3)                   (kbar)     P=     -294.99
  -0.00228328  -0.00018572   0.00012722         -335.88      -27.32       18.72
  -0.00018572  -0.00255645   0.00025147          -27.32     -376.07       36.99
   0.00012722   0.00025147  -0.00117612           18.72       36.99     -173.01

     kinetic stress (kbar)  17211.38    -21.71     75.90
                              -21.71  17179.45    150.04
                               75.90    150.04  17812.99

     local   stress (kbar)  -8637.35   -543.99   1109.53
                             -543.99  -9437.45   2193.17
                             1109.53   2193.17  -5225.82

     nonloc. stress (kbar)   4538.17     -2.02     -6.33
                               -2.02   4535.21    -12.50
                               -6.33    -12.50   4496.30

     hartree stress (kbar)   5486.71    194.41   -371.05
                              194.41   5772.65   -733.45
                             -371.05   -733.45   4399.43

     exc-cor stress (kbar)  -2722.24      1.37     -3.13
                                1.37  -2720.23     -6.18
                               -3.13     -6.18  -2735.36

     corecor stress (kbar)  -1226.55     -0.11      1.05
                               -0.11  -1226.71      2.07
                                1.05      2.07  -1221.54

     ewald   stress (kbar) -14986.01    344.73   -787.26
                              344.73 -14478.99  -1556.16
                             -787.26  -1556.16 -17699.01

     hubbard stress (kbar)      0.00      0.00      0.00
                                0.00      0.00      0.00
                                0.00      0.00      0.00

     DFT-D   stress (kbar)      0.00      0.00      0.00
                                0.00      0.00      0.00
                                0.00      0.00      0.00

     XDM     stress (kbar)      0.00      0.00      0.00
                                0.00      0.00      0.00
                                0.00      0.00      0.00

     dft-nl  stress (kbar)      0.00      0.00      0.00
                                0.00      0.00      0.00
                                0.00      0.00      0.00

     TS-vdW  stress (kbar)      0.00      0.00      0.00
                                0.00      0.00      0.00
                                0.00      0.00      0.00

[...]

                                0.00      0.00      0.00

     Writing all to output data dir new_calculations/myprefix.save/

     General routines

     Parallel routines

     PAW routines

   This run was terminated on:   9:26: 2  20May2023

   JOB DONE.