     Program PWSCF v.7.0 starts on 21May2023 at  2:11:39

     Reading input from espresso_26332.pwi
Warning: card &CELL ignored
Warning: card / ignored

     Current dimensions of program PWSCF are:
     Max number of different atomic species (ntypx) = 10
     Max number of k-points (npk) =  40000
     Max angular momentum in pseudopotentials (lmaxx) =  4

     gamma-point specific algorithms are used
     Message from routine setup:
     using ibrav=0 with symmetry is DISCOURAGED, use correct ibrav instead

     Subspace diagonalization in iterative solution of the eigenvalue problem:
     a serial algorithm will be used

     Using Slab Decomposition

     bravais-lattice index     =            0
     lattice parameter (alat)  =      18.1297  a.u.
     unit-cell volume          =    1928.1945 (a.u.)^3
     number of atoms/cell      =           14
     number of atomic types    =            3
     number of electrons       =       144.00
     number of Kohn-Sham states=           86
     kinetic-energy cutoff     =      30.0000  Ry
     charge density cutoff     =     240.0000  Ry
     scf convergence threshold =      1.0E-06
     mixing beta               =       0.7000
     number of iterations used =            8  plain     mixing
     Exchange-correlation=  SLA  PW   PBX  PBC
                           (   1   4   3   4   0   0   0)

     celldm(1)=  18.129692  celldm(2)=   0.000000  celldm(3)=   0.000000
     celldm(4)=   0.000000  celldm(5)=   0.000000  celldm(6)=   0.000000

     crystal axes: (cart. coord. in units of alat)
               a(1) = (   1.000000   0.000000   0.000000 )
               a(2) = (  -0.892434   0.451178   0.000000 )
               a(3) = (   0.000000   0.000000   0.717186 )

     reciprocal axes: (cart. coord. in units 2 pi/alat)
               b(1) = (  1.000000  1.978011  0.000000 )
               b(2) = (  0.000000  2.216423  0.000000 )
               b(3) = (  0.000000  0.000000  1.394338 )

     PseudoPot. # 1 for Li read from file:
     /home/pragov/projects/rrg-bengioy-ad/pragov/crystal_structure_design/SSSP/li_pbe_v1.4.uspp.F.UPF
     MD5 check sum: e912e257baa3777c20ea3d68f190483c
     Pseudo is Ultrasoft, Zval =  3.0
     Generated by new atomic code, or converted to UPF format
     Using radial grid of  751 points,  5 beta functions with:
                l(1) =   0
                l(2) =   0
                l(3) =   0
                l(4) =   1
                l(5) =   1
     Q(r) pseudized with 10 coefficients,  rinner =    1.150   1.150   1.150

     PseudoPot. # 2 for Ce read from file:
     /home/pragov/projects/rrg-bengioy-ad/pragov/crystal_structure_design/SSSP/Ce.GGA-PBE-paw-v1.0.UPF
     MD5 check sum: f2b950f613061344c13339c8d844425d
     Pseudo is Projector augmented-wave + core cor, Zval = 12.0
     Generated using ATOMPAW code
     Shape of augmentation charge: BESSEL
     Using radial grid of 1102 points,  8 beta functions with:
                l(1) =   0
                l(2) =   0
                l(3) =   1
                l(4) =   1
                l(5) =   2
                l(6) =   2
                l(7) =   3
                l(8) =   3
     Q(r) pseudized with 0 coefficients

     PseudoPot. # 3 for Ge read from file:
     /home/pragov/projects/rrg-bengioy-ad/pragov/crystal_structure_design/SSSP/ge_pbe_v1.4.uspp.F.UPF
     MD5 check sum: 9c9eaa91e581c3f09632fb3098b2c6b2
     Pseudo is Ultrasoft + core correction, Zval = 14.0
     Generated by new atomic code, or converted to UPF format
     Using radial grid of  873 points,  6 beta functions with:
                l(1) =   0
                l(2) =   0
                l(3) =   1
                l(4) =   1
                l(5) =   2
                l(6) =   2
     Q(r) pseudized with  8 coefficients,  rinner =    1.400   1.400   1.400
                                                       1.400   1.400

     atomic species   valence    mass     pseudopotential
        Li             3.00     6.94000     Li( 1.00)
        Ce            12.00   140.11600     Ce( 1.00)
        Ge            14.00    72.63000     Ge( 1.00)

      4 Sym. Ops., with inversion, found ( 2 have fractional translation)

                                    s                        frac. trans.

      isym =  1     identity

 cryst.   s( 1) = (     1          0          0      )
                  (     0          1          0      )
                  (     0          0          1      )

 cart.    s( 1) = (  1.0000000  0.0000000  0.0000000 )
                  (  0.0000000  1.0000000  0.0000000 )
                  (  0.0000000  0.0000000  1.0000000 )

      isym =  2     180 deg rotation - cart. axis [0,0,1]

 cryst.   s( 2) = (    -1          0          0      )    f =( -0.0000000 )
                  (     0         -1          0      )       (  0.0000000 )
                  (     0          0          1      )       ( -0.5000000 )

 cart.    s( 2) = ( -1.0000000 -0.0000000  0.0000000 )    f =( -0.0000000 )
                  (  0.0000000 -1.0000000  0.0000000 )       (  0.0000000 )
                  (  0.0000000  0.0000000  1.0000000 )       ( -0.3585932 )

      isym =  3     inversion

 cryst.   s( 3) = (    -1          0          0      )
                  (     0         -1          0      )
                  (     0          0         -1      )

 cart.    s( 3) = ( -1.0000000 -0.0000000  0.0000000 )
                  (  0.0000000 -1.0000000  0.0000000 )
                  (  0.0000000  0.0000000 -1.0000000 )

      isym =  4     inv. 180 deg rotation - cart. axis [0,0,1]

 cryst.   s( 4) = (     1          0          0      )    f =(  0.0000000 )
                  (     0          1          0      )       (  0.0000000 )
                  (     0          0         -1      )       (  0.5000000 )

 cart.    s( 4) = (  1.0000000  0.0000000  0.0000000 )    f =(  0.0000000 )
                  (  0.0000000  1.0000000  0.0000000 )       (  0.0000000 )
                  (  0.0000000  0.0000000 -1.0000000 )       (  0.3585932 )

   Cartesian axes

     site n.     atom                  positions (alat units)
         1           Li  tau(   1) = (   0.4152416   0.1394129   0.0447718  )
         2           Li  tau(   2) = (  -0.3076758   0.3117646   0.6724147  )
         3           Li  tau(   3) = (  -0.3076758   0.3117646   0.4033650  )
         4           Li  tau(   4) = (   0.4152416   0.1394129   0.3138214  )
         5           Ce  tau(   5) = (  -0.5962721   0.3805691   0.5378899  )
         6           Ce  tau(   6) = (   0.7038378   0.0706084   0.1792966  )
         7           Ce  tau(   7) = (   0.9045532   0.0227556   0.5378899  )
         8           Ce  tau(   8) = (  -0.7969874   0.4284219   0.1792966  )
         9           Ge  tau(   9) = (  -0.4753871   0.3517488   0.1792966  )
        10           Ge  tau(  10) = (   0.5829529   0.0994287   0.5378899  )
        11           Ge  tau(  11) = (   0.1731671   0.1971262   0.4050641  )
        12           Ge  tau(  12) = (  -0.0656013   0.2540513   0.3121224  )
        13           Ge  tau(  13) = (  -0.0656013   0.2540513   0.0464708  )
        14           Ge  tau(  14) = (   0.1731671   0.1971262   0.6707157  )

   Crystallographic axes

     site n.     atom                  positions (cryst. coord.)
         1           Li  tau(   1) = (  0.6910020  0.3089980  0.0624270  )
         2           Li  tau(   2) = (  0.3089980  0.6910020  0.9375730  )
         3           Li  tau(   3) = (  0.3089980  0.6910020  0.5624270  )
         4           Li  tau(   4) = (  0.6910020  0.3089980  0.4375730  )
         5           Ce  tau(   5) = (  0.1564980  0.8435020  0.7500000  )
         6           Ce  tau(   6) = (  0.8435020  0.1564980  0.2500000  )
         7           Ce  tau(   7) = (  0.9495640  0.0504360  0.7500000  )
         8           Ce  tau(   8) = (  0.0504360  0.9495640  0.2500000  )
         9           Ge  tau(   9) = (  0.2203760  0.7796240  0.2500000  )
        10           Ge  tau(  10) = (  0.7796240  0.2203760  0.7500000  )
        11           Ge  tau(  11) = (  0.5630850  0.4369150  0.5647960  )
        12           Ge  tau(  12) = (  0.4369150  0.5630850  0.4352040  )
        13           Ge  tau(  13) = (  0.4369150  0.5630850  0.0647960  )
        14           Ge  tau(  14) = (  0.5630850  0.4369150  0.9352040  )

     number of k points=     1  Methfessel-Paxton smearing, width (Ry)=  0.0010
                       cart. coord. in units 2pi/alat
        k(    1) = (   0.0000000   0.0000000   0.0000000), wk =   2.0000000

                       cryst. coord.
        k(    1) = (   0.0000000   0.0000000   0.0000000), wk =   2.0000000

     Initial potential from superposition of free atoms

     starting charge     142.1638, renormalised to     144.0000
     Starting wfcs are  202 randomized atomic wfcs
     Checking if some PAW data can be deallocated...

     Self-consistent Calculation

     iteration #  1     ecut=    30.00 Ry     beta= 0.70
     Davidson diagonalization with overlap

     ethr =  1.00E-02,  avg # of iterations =  2.0

     total energy              =   -3245.71664733 Ry
     estimated scf accuracy    <      26.71282688 Ry

[...]

     negative rho (up, down):  1.153E-01 0.000E+00

[...]

     negative rho (up, down):  1.506E-03 0.000E+00

[...]

     c_bands:  4 eigenvalues not converged
     ethr =  8.23E-05,  avg # of iterations = 20.0

[...]

     c_bands:  1 eigenvalues not converged
     ethr =  1.09E-06,  avg # of iterations = 20.0

[...]

     total energy              =   -3268.25634121 Ry
     estimated scf accuracy    <       0.00000960 Ry

     iteration # 72     ecut=    30.00 Ry     beta= 0.70
     Davidson diagonalization with overlap

     ethr =  8.23E-10,  avg # of iterations = 10.0

     End of self-consistent calculation

          k = 0.0000 0.0000 0.0000 (  2680 PWs)   bands (ev):

   -35.8024 -35.7984 -35.7833 -35.7802 -24.1310 -24.1277 -23.9650 -23.9371
   -13.7763 -13.7409 -13.7075 -13.6706 -13.6520 -13.6410 -13.6358 -13.6195
   -13.6048 -13.5919 -13.5863 -13.5695 -13.5439 -13.5406 -13.5401 -13.5326
   -13.5312 -13.5226 -13.5192 -13.5010 -13.4708 -13.4686 -13.4637 -13.4630
   -13.4348 -13.4345 -13.4113 -13.4066 -13.4034 -13.4022  -7.2147  -7.1562
    -7.1431  -7.1133  -6.8582  -6.8046  -6.7367  -6.7208  -6.6969  -6.5891
    -6.5667  -6.5356   0.0944   2.0923   2.1356   2.5501   2.7361   4.9702
     6.5546   6.8188   7.4874   8.4593   8.5844   8.6805   8.6876   8.7091
     8.9070   9.1694   9.3080   9.8317  10.0432  10.2431  10.3224  10.5479
    10.5551  10.6429  10.7221  10.7234  10.7290  10.7680  10.7798  10.7950
    10.7961  10.8077  10.8373  10.8622  10.8629  10.8776

     occupation numbers
     1.0000   1.0000   1.0000   1.0000   1.0000   1.0000   1.0000   1.0000
     1.0000   1.0000   1.0000   1.0000   1.0000   1.0000   1.0000   1.0000
     1.0000   1.0000   1.0000   1.0000   1.0000   1.0000   1.0000   1.0000
     1.0000   1.0000   1.0000   1.0000   1.0000   1.0000   1.0000   1.0000
     1.0000   1.0000   1.0000   1.0000   1.0000   1.0000   1.0000   1.0000
     1.0000   1.0000   1.0000   1.0000   1.0000   1.0000   1.0000   1.0000
     1.0000   1.0000   1.0000   1.0000   1.0000   1.0000   1.0000   1.0000
     1.0000   1.0000   1.0000   1.0000   1.0000   1.0000   1.0000   1.0000
     1.0000   1.0000   1.0000   1.0000   1.0000   1.0000   1.0000   0.7150
     0.2850  -0.0000  -0.0000  -0.0000  -0.0000  -0.0000  -0.0000  -0.0000
    -0.0000  -0.0000  -0.0000  -0.0000  -0.0000  -0.0000

     the Fermi energy is    10.5515 ev

!    total energy              =   -3268.25634128 Ry
     estimated scf accuracy    <       0.00000014 Ry
     smearing contrib. (-TS)   =      -0.00045291 Ry
     internal energy E=F+TS    =   -3268.25588837 Ry

     The total energy is F=E-TS. E is the sum of the following terms:
     one-electron contribution =    -894.56976606 Ry
     hartree contribution      =     559.94708514 Ry
     xc contribution           =    -404.81802958 Ry
     ewald contribution        =    -895.60425837 Ry
     one-center paw contrib.   =   -1633.21091949 Ry
      -> PAW hartree energy AE =     175.42457485 Ry
      -> PAW hartree energy PS =    -174.32517624 Ry
      -> PAW xc energy AE      =   -1668.49313230 Ry
      -> PAW xc energy PS      =      34.18281420 Ry
      -> total E_H with PAW    =     561.04648374 Ry
      -> total E_XC with PAW   =   -2039.12834768 Ry

     convergence has been achieved in  72 iterations

     Forces acting on atoms (cartesian axes, Ry/au):

     atom    1 type  1   force =    -0.00070867    0.00016933    0.00435279
     atom    2 type  1   force =     0.00070867   -0.00016933   -0.00435279
     atom    3 type  1   force =     0.00070867   -0.00016933    0.00435279
     atom    4 type  1   force =    -0.00070867    0.00016933   -0.00435279
     atom    5 type  2   force =    -0.03299148    0.00786297    0.00000000
     atom    6 type  2   force =     0.03299148   -0.00786297    0.00000000
     atom    7 type  2   force =     0.00644016   -0.00153651    0.00000000
     atom    8 type  2   force =    -0.00644016    0.00153651    0.00000000
     atom    9 type  3   force =     0.01274093   -0.00303281    0.00000000
     atom   10 type  3   force =    -0.01274093    0.00303281    0.00000000
     atom   11 type  3   force =     0.02602515   -0.00620413    0.00208193
     atom   12 type  3   force =    -0.02602515    0.00620413   -0.00208193
     atom   13 type  3   force =    -0.02602515    0.00620413    0.00208193
     atom   14 type  3   force =     0.02602515   -0.00620413   -0.00208193
     The non-local contrib.  to forces
     atom    1 type  1   force =     0.04671643   -0.01113800    0.06821387
     atom    2 type  1   force =    -0.04671643    0.01113800   -0.06821387
     atom    3 type  1   force =    -0.04671643    0.01113800    0.06821387
     atom    4 type  1   force =     0.04671643   -0.01113800   -0.06821387
     atom    5 type  2   force =     0.19724239   -0.04702816    0.00000000
     atom    6 type  2   force =    -0.19724239    0.04702816    0.00000000
     atom    7 type  2   force =     0.11306270   -0.02695422    0.00000000
     atom    8 type  2   force =    -0.11306270    0.02695422    0.00000000
     atom    9 type  3   force =    -0.04405571    0.01050809    0.00000000
     atom   10 type  3   force =     0.04405571   -0.01050809    0.00000000
     atom   11 type  3   force =    -0.28756885    0.06855844    0.10852445
     atom   12 type  3   force =     0.28756885   -0.06855844   -0.10852445
     atom   13 type  3   force =     0.28756885   -0.06855844    0.10852445
     atom   14 type  3   force =    -0.28756885    0.06855844   -0.10852445
     The ionic contribution  to forces
     atom    1 type  1   force =     1.12321064   -0.26778599    0.49435152
     atom    2 type  1   force =    -1.12321064    0.26778599   -0.49435152
     atom    3 type  1   force =    -1.12321064    0.26778599    0.49435152
     atom    4 type  1   force =     1.12321064   -0.26778599   -0.49435152
     atom    5 type  2   force =     8.22215987   -1.96025498    0.00000000
     atom    6 type  2   force =    -8.22215988    1.96025498    0.00000000
     atom    7 type  2   force =    -6.61767340    1.57772744    0.00000000
     atom    8 type  2   force =     6.61767340   -1.57772744    0.00000000
     atom    9 type  3   force =     0.70289193   -0.16757731    0.00000000
     atom   10 type  3   force =    -0.70289193    0.16757731    0.00000000
     atom   11 type  3   force =    11.52162212   -2.74688373   -5.34101114
     atom   12 type  3   force =   -11.52162211    2.74688373    5.34101114
     atom   13 type  3   force =   -11.52162211    2.74688373   -5.34101114
     atom   14 type  3   force =    11.52162212   -2.74688373    5.34101114
     The local contribution  to forces
     atom    1 type  1   force =    -1.17065216    0.27909682   -0.55825495
     atom    2 type  1   force =     1.17061561   -0.27908821    0.55819032
     atom    3 type  1   force =     1.17055457   -0.27907594   -0.55814119
     atom    4 type  1   force =    -1.17062036    0.27908710    0.55821715
     atom    5 type  2   force =    -8.45227506    2.01511292    0.00068321
     atom    6 type  2   force =     8.45221603   -2.01510339   -0.00087303
     atom    7 type  2   force =     6.51103645   -1.55229582    0.00088668
     atom    8 type  2   force =    -6.51109992    1.55232841   -0.00069348
     atom    9 type  3   force =    -0.64781460    0.15444648   -0.00018196
     atom   10 type  3   force =     0.64748254   -0.15435526    0.00025275
     atom   11 type  3   force =   -11.21214050    2.67310131    5.23514806
     atom   12 type  3   force =    11.21239193   -2.67315714   -5.23517149
     atom   13 type  3   force =    11.21232838   -2.67314857    5.23485625
     atom   14 type  3   force =   -11.21219615    2.67312446   -5.23492908
     The core correction contribution to forces
     atom    1 type  1   force =     0.00000000    0.00000000    0.00000000
     atom    2 type  1   force =     0.00000000    0.00000000    0.00000000
     atom    3 type  1   force =     0.00000000    0.00000000    0.00000000
     atom    4 type  1   force =     0.00000000    0.00000000    0.00000000
     atom    5 type  2   force =    -0.00001752    0.00000417    0.00000034
     atom    6 type  2   force =     0.00001746   -0.00000416   -0.00000042
     atom    7 type  2   force =    -0.00005408    0.00001290    0.00000034
     atom    8 type  2   force =     0.00005395   -0.00001286   -0.00000024
     atom    9 type  3   force =     0.00152149   -0.00036282   -0.00000047
     atom   10 type  3   force =    -0.00152228    0.00036314    0.00000096
     atom   11 type  3   force =     0.00422446   -0.00100723   -0.00052055
     atom   12 type  3   force =    -0.00422498    0.00100740    0.00051862
     atom   13 type  3   force =    -0.00422526    0.00100731   -0.00051834
     atom   14 type  3   force =     0.00422465   -0.00100709    0.00051997
     The Hubbard contrib.    to forces
     atom    1 type  1   force =     0.00000000    0.00000000    0.00000000
     atom    2 type  1   force =     0.00000000    0.00000000    0.00000000
     atom    3 type  1   force =     0.00000000    0.00000000    0.00000000
     atom    4 type  1   force =     0.00000000    0.00000000    0.00000000
     atom    5 type  2   force =     0.00000000    0.00000000    0.00000000
     atom    6 type  2   force =     0.00000000    0.00000000    0.00000000
     atom    7 type  2   force =     0.00000000    0.00000000    0.00000000
     atom    8 type  2   force =     0.00000000    0.00000000    0.00000000
     atom    9 type  3   force =     0.00000000    0.00000000    0.00000000
     atom   10 type  3   force =     0.00000000    0.00000000    0.00000000
     atom   11 type  3   force =     0.00000000    0.00000000    0.00000000
     atom   12 type  3   force =     0.00000000    0.00000000    0.00000000
     atom   13 type  3   force =     0.00000000    0.00000000    0.00000000
     atom   14 type  3   force =     0.00000000    0.00000000    0.00000000
     The SCF correction term to forces
     atom    1 type  1   force =     0.00001018   -0.00000204    0.00003134
     atom    2 type  1   force =     0.00002310   -0.00000562    0.00001900
     atom    3 type  1   force =     0.00006985   -0.00001567   -0.00005787
     atom    4 type  1   force =    -0.00001747    0.00000598    0.00000127
     atom    5 type  2   force =    -0.00012193    0.00003180   -0.00038777
     atom    6 type  2   force =     0.00013948   -0.00003577    0.00048536
     atom    7 type  2   force =     0.00001260   -0.00000891   -0.00056513
     atom    8 type  2   force =    -0.00006080    0.00001209    0.00047251
     atom    9 type  3   force =     0.00018213   -0.00004861    0.00018652
     atom   10 type  3   force =     0.00011933   -0.00004565   -0.00025015
     atom   11 type  3   force =    -0.00011412    0.00002605   -0.00007758
     atom   12 type  3   force =    -0.00012929    0.00002842    0.00008780
     atom   13 type  3   force =    -0.00008869    0.00001954    0.00024077
     atom   14 type  3   force =    -0.00005873    0.00000409   -0.00017170

     Total force =     0.075430     Total SCF correction =     0.001128

     Computing stress (Cartesian axis) and pressure

          total   stress  (Ry/bohr**3)                   (kbar)     P=      -88.94
  -0.00075053   0.00024617   0.00000000         -110.41       36.21        0.00
   0.00024617   0.00022334   0.00000000           36.21       32.85        0.00
   0.00000000   0.00000000  -0.00128654            0.00        0.00     -189.26

     kinetic stress (kbar)   9686.99     82.10      0.00
                               82.10  10011.78      0.00
                                0.00      0.00   9580.70

     local   stress (kbar)   1672.94   -416.25      0.15
                             -416.25     26.25     -0.03
                                0.15     -0.03  -3470.77

     nonloc. stress (kbar)   5263.43     22.18      0.00
                               22.18   5351.18      0.00
                                0.00      0.00   5214.33

     hartree stress (kbar)  13148.07    169.69     -0.02
                              169.69  13819.35      0.00
                               -0.02      0.00  15751.86

     exc-cor stress (kbar)   8095.94      1.14      0.00
                                1.14   8100.46     -0.00
                                0.00     -0.00   8094.14

     corecor stress (kbar) -14095.04     -0.59     -0.00
                               -0.59 -14097.38      0.00
                               -0.00      0.00 -14093.94

     ewald   stress (kbar) -23882.73    177.94     -0.00
                              177.94 -23178.79      0.00
                               -0.00      0.00 -21265.58

     hubbard stress (kbar)      0.00      0.00      0.00
                                0.00      0.00      0.00
                                0.00      0.00      0.00

     DFT-D   stress (kbar)      0.00      0.00      0.00
                                0.00      0.00      0.00
                                0.00      0.00      0.00

     XDM     stress (kbar)      0.00      0.00      0.00
                                0.00      0.00      0.00
                                0.00      0.00      0.00

     dft-nl  stress (kbar)      0.00      0.00      0.00
                                0.00      0.00      0.00
                                0.00      0.00      0.00

     TS-vdW  stress (kbar)      0.00      0.00      0.00
                                0.00      0.00      0.00
                                0.00      0.00      0.00

[...]

                                0.00      0.00      0.00

     Writing all to output data dir new_calculations/myprefix.save/

     General routines

     Parallel routines

     PAW routines

   This run was terminated on:   2:15:28  21May2023

   JOB DONE.