     Program PWSCF v.7.0 starts on 20May2023 at 18:54:40

     Reading input from espresso_11541.pwi
Warning: card &CELL ignored
Warning: card / ignored

     Current dimensions of program PWSCF are:
     Max number of different atomic species (ntypx) = 10
     Max number of k-points (npk) =  40000
     Max angular momentum in pseudopotentials (lmaxx) =  4
     file K.pbe-spn-kjpaw_psl.1.0.0.UPF: wavefunction(s)  3S renormalized

     gamma-point specific algorithms are used
     Message from routine setup:
     using ibrav=0 with symmetry is DISCOURAGED, use correct ibrav instead

     Subspace diagonalization in iterative solution of the eigenvalue problem:
     a serial algorithm will be used

     Using Slab Decomposition

     bravais-lattice index     =            0
     lattice parameter (alat)  =      12.3393  a.u.
     unit-cell volume          =    1328.4688 (a.u.)^3
     number of atoms/cell      =           10
     number of atomic types    =            3
     number of electrons       =        83.00
     number of Kohn-Sham states=           50
     kinetic-energy cutoff     =      30.0000  Ry
     charge density cutoff     =     240.0000  Ry
     scf convergence threshold =      1.0E-06
     mixing beta               =       0.7000
     number of iterations used =            8  plain     mixing
     Exchange-correlation=  SLA  PW   PBX  PBC
                           (   1   4   3   4   0   0   0)

     celldm(1)=  12.339251  celldm(2)=   0.000000  celldm(3)=   0.000000
     celldm(4)=   0.000000  celldm(5)=   0.000000  celldm(6)=   0.000000

     crystal axes: (cart. coord. in units of alat)
               a(1) = (   1.000000   0.000000   0.000000 )
               a(2) = (   0.500000   0.866025   0.000000 )
               a(3) = (   0.500000   0.288675   0.816497 )

     reciprocal axes: (cart. coord. in units 2 pi/alat)
               b(1) = (  1.000000 -0.577350 -0.408248 )
               b(2) = (  0.000000  1.154701 -0.408248 )
               b(3) = (  0.000000  0.000000  1.224745 )

     PseudoPot. # 1 for K  read from file:
     /home/pragov/projects/rrg-bengioy-ad/pragov/crystal_structure_design/SSSP/K.pbe-spn-kjpaw_psl.1.0.0.UPF
     MD5 check sum: 7d58810084cac21f60fbe77ea2b688fd
     Pseudo is Projector augmented-wave + core cor, Zval =  9.0
     Generated using "atomic" code by A. Dal Corso  v.5.1
     Shape of augmentation charge: PSQ
     Using radial grid of 1165 points,  6 beta functions with:
                l(1) =   0
                l(2) =   0
                l(3) =   1
                l(4) =   1
                l(5) =   2
                l(6) =   2
     Q(r) pseudized with 0 coefficients

     PseudoPot. # 2 for W  read from file:
     /home/pragov/projects/rrg-bengioy-ad/pragov/crystal_structure_design/SSSP/W_pbe_v1.2.uspp.F.UPF
     MD5 check sum: 9c083fa34c2a2ea0f02f1f893e16e1c8
     Pseudo is Ultrasoft + core correction, Zval = 14.0
     Generated by new atomic code, or converted to UPF format
     Using radial grid of  923 points,  8 beta functions with:
                l(1) =   0
                l(2) =   0
                l(3) =   0
                l(4) =   1
                l(5) =   1
                l(6) =   2
                l(7) =   2
                l(8) =   3
     Q(r) pseudized with  6 coefficients,  rinner =    1.350   1.350   1.350
                                                       1.350   1.350   1.350
                                                       1.350

     PseudoPot. # 3 for F  read from file:
     /home/pragov/projects/rrg-bengioy-ad/pragov/crystal_structure_design/SSSP/f_pbe_v1.4.uspp.F.UPF
     MD5 check sum: 4c38b6a325caf53ec0e86aed9459de46
     Pseudo is Ultrasoft, Zval =  7.0
     Generated by new atomic code, or converted to UPF format
     Using radial grid of  799 points,  4 beta functions with:
                l(1) =   0
                l(2) =   0
                l(3) =   1
                l(4) =   1
     Q(r) pseudized with  8 coefficients,  rinner =    0.950   0.950   0.950

     atomic species   valence    mass     pseudopotential
        K              9.00    39.09830     K ( 1.00)
        W             14.00   183.84000     W ( 1.00)
        F              7.00    18.99840     F ( 1.00)

     12 Sym. Ops., with inversion, found

                                    s                        frac. trans.

      isym =  1     identity

 cryst.   s( 1) = (     1          0          0      )
                  (     0          1          0      )
                  (     0          0          1      )

 cart.    s( 1) = (  1.0000000  0.0000000  0.0000000 )
                  (  0.0000000  1.0000000  0.0000000 )
                  (  0.0000000  0.0000000  1.0000000 )

      isym =  2     180 deg rotation - cart. axis [1,0,0]

[...]

      isym =  3     120 deg rotation - cryst. axis [0,0,1]

[...]

      isym =  6     180 deg rotation - cryst. axis [1,1,0]

[...]

      isym =  7     inversion

[...]

      isym =  8     inv. 180 deg rotation - cart. axis [1,0,0]

[...]

      isym =  9     inv. 120 deg rotation - cryst. axis [0,0,1]

 cryst.   s( 9) = (     1         -1          0      )
                  (     1          0          0      )
                  (     1          0         -1      )

 cart.    s( 9) = (  0.5000000  0.8660254  0.0000000 )
                  ( -0.8660254  0.5000000  0.0000000 )
                  (  0.0000000  0.0000000 -1.0000000 )

[...]

 cryst.   s(10) = (     0          1          0      )
                  (    -1          1          0      )
                  (     0          1         -1      )

 cart.    s(10) = (  0.5000000 -0.8660254  0.0000000 )
                  (  0.8660254  0.5000000 -0.0000000 )
                  (  0.0000000  0.0000000 -1.0000000 )

[...]

      isym = 12     inv. 180 deg rotation - cryst. axis [1,1,0]

 cryst.   s(12) = (     1         -1          0      )
                  (     0         -1          0      )
                  (     0         -1          1      )

 cart.    s(12) = (  0.5000000 -0.8660254  0.0000000 )
                  ( -0.8660254 -0.5000000  0.0000000 )
                  (  0.0000000  0.0000000  1.0000000 )

   Cartesian axes

     site n.     atom                  positions (alat units)
         1           K   tau(   1) = (   1.5000000   0.8660254   0.6123724  )
         2           K   tau(   2) = (   0.5000000   0.2886751   0.2041241  )
         3           K   tau(   3) = (   1.0000000   0.5773503   0.4082483  )
         4           W   tau(   4) = (   0.0000000   0.0000000   0.0000000  )
         5           F   tau(   5) = (   0.7285540   0.7340697   0.1866136  )
         6           F   tau(   6) = (   1.2714460   0.7340697   0.1866136  )
         7           F   tau(   7) = (   0.7285540   0.4206308   0.6298830  )
         8           F   tau(   8) = (   1.0000000   0.8907891   0.6298830  )
         9           F   tau(   9) = (   1.2714460   0.4206308   0.6298830  )
        10           F   tau(  10) = (   1.0000000   0.2639114   0.1866136  )

   Crystallographic axes

     site n.     atom                  positions (cryst. coord.)
         1           K   tau(   1) = (  0.7500000  0.7500000  0.7500000  )
         2           K   tau(   2) = (  0.2500000  0.2500000  0.2500000  )
         3           K   tau(   3) = (  0.5000000  0.5000000  0.5000000  )
         4           W   tau(   4) = (  0.0000000  0.0000000  0.0000000  )
         5           F   tau(   5) = (  0.2285540  0.7714460  0.2285540  )
         6           F   tau(   6) = (  0.7714460  0.7714460  0.2285540  )
         7           F   tau(   7) = (  0.2285540  0.2285540  0.7714460  )
         8           F   tau(   8) = (  0.2285540  0.7714460  0.7714460  )
         9           F   tau(   9) = (  0.7714460  0.2285540  0.7714460  )
        10           F   tau(  10) = (  0.7714460  0.2285540  0.2285540  )

     number of k points=     1  Methfessel-Paxton smearing, width (Ry)=  0.0010
                       cart. coord. in units 2pi/alat
        k(    1) = (   0.0000000   0.0000000   0.0000000), wk =   2.0000000

                       cryst. coord.
        k(    1) = (   0.0000000   0.0000000   0.0000000), wk =   2.0000000

     Check: negative core charge=   -0.000004

     Initial potential from superposition of free atoms

     starting charge      82.8432, renormalised to      83.0000

     negative rho (up, down):  6.386E-02 0.000E+00
     Starting wfcs are   61 randomized atomic wfcs
     Checking if some PAW data can be deallocated...

     Self-consistent Calculation

     iteration #  1     ecut=    30.00 Ry     beta= 0.70
     Davidson diagonalization with overlap

     ethr =  1.00E-02,  avg # of iterations =  4.0
     Minimization algorithm failed to find Fermi energy: reverting to bisection
     Possible cause: smearing is larger than the electronic band-gap.

     negative rho (up, down):  6.070E-02 0.000E+00

     total energy              =    -789.02955859 Ry
     estimated scf accuracy    <       2.11704374 Ry

[...]

     ethr =  2.55E-03,  avg # of iterations =  3.0

[...]

     ethr =  7.25E-07,  avg # of iterations =  1.0
     Minimization algorithm failed to find Fermi energy: reverting to bisection
     Possible cause: smearing is larger than the electronic band-gap.

[...]

     total energy              =    -790.42433308 Ry
     estimated scf accuracy    <       0.00061624 Ry

     iteration # 44     ecut=    30.00 Ry     beta= 0.70
     Davidson diagonalization with overlap

     ethr =  2.49E-08,  avg # of iterations =  1.0

[...]

     End of self-consistent calculation

          k = 0.0000 0.0000 0.0000 (  1848 PWs)   bands (ev):

   -68.7970 -33.0463 -33.0463 -33.0463 -25.9402 -25.9346 -24.1597 -18.5281
   -18.3582 -18.3582 -18.2282 -18.2282 -18.2282  -9.4290  -9.4290  -9.4290
    -9.3959  -9.3959  -9.3959  -7.7249  -7.7249  -7.7249  -1.5150  -1.1459
    -1.1459  -0.6140  -0.6140  -0.6140  -0.1491  -0.1491  -0.1491   0.5226
     0.5226   0.5226   0.5828   0.5828   0.5828   0.9024   0.9024   0.9024
     6.7008   6.7008   6.7008   6.7111   9.3607   9.3607  10.5181  10.5181
    10.5182  10.5259

     occupation numbers
     1.0000   1.0000   1.0000   1.0000   1.0000   1.0000   1.0000   1.0000
     1.0000   1.0000   1.0000   1.0000   1.0000   1.0000   1.0000   1.0000
     1.0000   1.0000   1.0000   1.0000   1.0000   1.0000   1.0000   1.0000
     1.0000   1.0000   1.0000   1.0000   1.0000   1.0000   1.0000   1.0000
     1.0000   1.0000   1.0000   1.0000   1.0000   1.0000   1.0000   1.0000
     0.4938   0.4936   0.4934   0.0192  -0.0000  -0.0000  -0.0000  -0.0000
    -0.0000  -0.0000

     the Fermi energy is     6.7007 ev

!    total energy              =    -790.42433599 Ry
     estimated scf accuracy    <       0.00000004 Ry
     smearing contrib. (-TS)   =      -0.00081890 Ry
     internal energy E=F+TS    =    -790.42351709 Ry

     The total energy is F=E-TS. E is the sum of the following terms:
     one-electron contribution =    -333.17262764 Ry
     hartree contribution      =     202.73158503 Ry
     xc contribution           =    -131.28682319 Ry
     ewald contribution        =    -362.44186974 Ry
     one-center paw contrib.   =    -166.25378155 Ry
      -> PAW hartree energy AE =     113.29598196 Ry
      -> PAW hartree energy PS =    -112.66429495 Ry
      -> PAW xc energy AE      =    -198.68811431 Ry
      -> PAW xc energy PS      =      31.80264576 Ry
      -> total E_H with PAW    =     203.36327203 Ry
      -> total E_XC with PAW   =    -298.17229174 Ry

     convergence has been achieved in  44 iterations

     negative rho (up, down):  6.372E-02 0.000E+00

     Forces acting on atoms (cartesian axes, Ry/au):

     atom    1 type  1   force =     0.00000000    0.00000000    0.00000298
     atom    2 type  1   force =     0.00000000    0.00000000   -0.00000298
     atom    3 type  1   force =    -0.00000000    0.00000000   -0.00000000
     atom    4 type  2   force =    -0.00000000   -0.00000000    0.00000000
     atom    5 type  3   force =    -0.02450209    0.01414629   -0.01998370
     atom    6 type  3   force =     0.02450209    0.01414629   -0.01998370
     atom    7 type  3   force =    -0.02450209   -0.01414629    0.01998370
     atom    8 type  3   force =     0.00000000    0.02829257    0.01998370
     atom    9 type  3   force =     0.02450209   -0.01414629    0.01998370
     atom   10 type  3   force =     0.00000000   -0.02829257   -0.01998370
     The non-local contrib.  to forces
     atom    1 type  1   force =     0.00000000    0.00000000    0.00000324
     atom    2 type  1   force =     0.00000000    0.00000000   -0.00000324
     atom    3 type  1   force =     0.00000000    0.00000000    0.00000000
     atom    4 type  2   force =     0.00000000    0.00000000    0.00000000
     atom    5 type  3   force =    -0.52049229    0.30050636   -0.42493991
     atom    6 type  3   force =     0.52049229    0.30050636   -0.42493991
     atom    7 type  3   force =    -0.52049229   -0.30050636    0.42493991
     atom    8 type  3   force =     0.00000000    0.60101272    0.42493991
     atom    9 type  3   force =     0.52049229   -0.30050636    0.42493991
     atom   10 type  3   force =     0.00000000   -0.60101272   -0.42493991
     The ionic contribution  to forces
     atom    1 type  1   force =    -0.00000000   -0.00000000   -0.00000000
     atom    2 type  1   force =     0.00000000   -0.00000000    0.00000000
     atom    3 type  1   force =     0.00000000    0.00000000    0.00000000
     atom    4 type  2   force =    -0.00000000   -0.00000000    0.00000000
     atom    5 type  3   force =     6.07568206   -3.50779667    4.96077363
     atom    6 type  3   force =    -6.07568206   -3.50779667    4.96077363
     atom    7 type  3   force =     6.07568206    3.50779667   -4.96077363
     atom    8 type  3   force =     0.00000000   -7.01559335   -4.96077363
     atom    9 type  3   force =    -6.07568206    3.50779667   -4.96077363
     atom   10 type  3   force =    -0.00000000    7.01559335    4.96077363
     The local contribution  to forces
     atom    1 type  1   force =    -0.00001525   -0.00000493    0.00001415
     atom    2 type  1   force =     0.00001525    0.00000482   -0.00001381
     atom    3 type  1   force =    -0.00000081    0.00000038   -0.00000066
     atom    4 type  2   force =     0.00000170   -0.00000040    0.00000035
     atom    5 type  3   force =    -5.57956369    3.22133690   -4.55577090
     atom    6 type  3   force =     5.57954715    3.22135146   -4.55573944
     atom    7 type  3   force =    -5.57954750   -3.22135168    4.55573943
     atom    8 type  3   force =     0.00002109    6.44268171    4.55575048
     atom    9 type  3   force =     5.57956348   -3.22133673    4.55577052
     atom   10 type  3   force =    -0.00002089   -6.44268116   -4.55575119
     The core correction contribution to forces
     atom    1 type  1   force =    -0.00000004    0.00000002   -0.00000007
     atom    2 type  1   force =     0.00000005   -0.00000002    0.00000007
     atom    3 type  1   force =     0.00000001   -0.00000001    0.00000000
     atom    4 type  2   force =     0.00000001    0.00000001    0.00000000
     atom    5 type  3   force =     0.00000000    0.00000000    0.00000000
     atom    6 type  3   force =     0.00000000    0.00000000    0.00000000
     atom    7 type  3   force =     0.00000000    0.00000000    0.00000000
     atom    8 type  3   force =     0.00000000    0.00000000    0.00000000
     atom    9 type  3   force =     0.00000000    0.00000000    0.00000000
     atom   10 type  3   force =     0.00000000    0.00000000    0.00000000
     The Hubbard contrib.    to forces
     atom    1 type  1   force =     0.00000000    0.00000000    0.00000000
     atom    2 type  1   force =     0.00000000    0.00000000    0.00000000
     atom    3 type  1   force =     0.00000000    0.00000000    0.00000000
     atom    4 type  2   force =     0.00000000    0.00000000    0.00000000
     atom    5 type  3   force =     0.00000000    0.00000000    0.00000000
     atom    6 type  3   force =     0.00000000    0.00000000    0.00000000
     atom    7 type  3   force =     0.00000000    0.00000000    0.00000000
     atom    8 type  3   force =     0.00000000    0.00000000    0.00000000
     atom    9 type  3   force =     0.00000000    0.00000000    0.00000000
     atom   10 type  3   force =     0.00000000    0.00000000    0.00000000
     The SCF correction term to forces
     atom    1 type  1   force =     0.00001299    0.00000493   -0.00001432
     atom    2 type  1   force =    -0.00001299   -0.00000482    0.00001405
     atom    3 type  1   force =     0.00000092   -0.00000050    0.00000075
     atom    4 type  2   force =    -0.00000204    0.00000061   -0.00000080
     atom    5 type  3   force =    -0.00013012    0.00009522   -0.00004621
     atom    6 type  3   force =     0.00014730    0.00008354   -0.00007585
     atom    7 type  3   force =    -0.00014689   -0.00008334    0.00007578
     atom    8 type  3   force =    -0.00001882    0.00019109    0.00006950
     atom    9 type  3   force =     0.00012969   -0.00009522    0.00004617
     atom   10 type  3   force =     0.00001856   -0.00019135   -0.00006908

     Total force =     0.084846     Total SCF correction =     0.000457

     Computing stress (Cartesian axis) and pressure

     negative rho (up, down):  6.372E-02 0.000E+00
          total   stress  (Ry/bohr**3)                   (kbar)     P=      -86.76
  -0.00058989  -0.00000000  -0.00000000          -86.78       -0.00       -0.00
  -0.00000000  -0.00058989  -0.00000000           -0.00      -86.78       -0.00
  -0.00000000  -0.00000000  -0.00058954           -0.00       -0.00      -86.72

     kinetic stress (kbar)  16412.55      0.00      0.00
                                0.00  16412.55     -0.00
                                0.00     -0.00  16412.46

     local   stress (kbar)  -7264.40      0.09     -0.01
                                0.09  -7264.35      0.08
                               -0.01      0.08  -7264.24

     nonloc. stress (kbar)    633.51     -0.00     -0.00
                               -0.00    633.51     -0.00
                               -0.00     -0.00    633.55

     hartree stress (kbar)   7483.04     -0.04      0.02
                               -0.04   7483.01     -0.04
                                0.02     -0.04   7482.98

     exc-cor stress (kbar)   -181.82     -0.00     -0.00
                               -0.00   -181.82     -0.00
                               -0.00     -0.00   -181.82

     corecor stress (kbar)  -3791.59      0.00      0.00
                                0.00  -3791.59      0.00
                                0.00      0.00  -3791.59

     ewald   stress (kbar) -13378.07      0.00      0.00
                                0.00 -13378.07     -0.00
                                0.00     -0.00 -13378.07

     hubbard stress (kbar)      0.00      0.00      0.00
                                0.00      0.00      0.00
                                0.00      0.00      0.00

     DFT-D   stress (kbar)      0.00      0.00      0.00
                                0.00      0.00      0.00
                                0.00      0.00      0.00

     XDM     stress (kbar)      0.00      0.00      0.00
                                0.00      0.00      0.00
                                0.00      0.00      0.00

     dft-nl  stress (kbar)      0.00      0.00      0.00
                                0.00      0.00      0.00
                                0.00      0.00      0.00

     TS-vdW  stress (kbar)      0.00      0.00      0.00
                                0.00      0.00      0.00
                                0.00      0.00      0.00

[...]

                                0.00      0.00      0.00

     Writing all to output data dir new_calculations/myprefix.save/

     General routines

     Parallel routines

     PAW routines

   This run was terminated on:  18:55:38  20May2023

   JOB DONE.