     Program PWSCF v.7.0 starts on 20May2023 at  8:15:27

     Reading input from espresso_7177.pwi
Warning: card &CELL ignored
Warning: card / ignored

     Current dimensions of program PWSCF are:
     Max number of different atomic species (ntypx) = 10
     Max number of k-points (npk) =  40000
     Max angular momentum in pseudopotentials (lmaxx) =  4
     file Mg.pbe-n-kjpaw_psl.0.3.0.UPF: wavefunction(s)  3S renormalized
     file Ga.pbe-dn-kjpaw_psl.1.0.0.UPF: wavefunction(s)  4S renormalized

     gamma-point specific algorithms are used
     Message from routine setup:
     using ibrav=0 with symmetry is DISCOURAGED, use correct ibrav instead

     Subspace diagonalization in iterative solution of the eigenvalue problem:
     a serial algorithm will be used

     Using Slab Decomposition

     bravais-lattice index     =            0
     lattice parameter (alat)  =      10.1044  a.u.
     unit-cell volume          =     561.5964 (a.u.)^3
     number of atoms/cell      =            4
     number of atomic types    =            2
     number of electrons       =        19.00
     number of Kohn-Sham states=           14
     kinetic-energy cutoff     =      30.0000  Ry
     charge density cutoff     =     240.0000  Ry
     scf convergence threshold =      1.0E-06
     mixing beta               =       0.7000
     number of iterations used =            8  plain     mixing
     Exchange-correlation= SLA  PW   PBX  PBC
                           (   1   4   3   4   0   0   0)

     celldm(1)=  10.104383  celldm(2)=   0.000000  celldm(3)=   0.000000
     celldm(4)=   0.000000  celldm(5)=   0.000000  celldm(6)=   0.000000

     crystal axes: (cart. coord. in units of alat)
               a(1) = (   1.000000   0.000000   0.000000 )
               a(2) = (   0.333268   0.942832   0.000000 )
               a(3) = (  -0.666634  -0.471416   0.577378 )

     reciprocal axes: (cart. coord. in units 2 pi/alat)
               b(1) = (  1.000000 -0.353476  0.865983 )
               b(2) = (  0.000000  1.060634  0.865983 )
               b(3) = (  0.000000  0.000000  1.731966 )

     PseudoPot. # 1 for Mg read from file:
     /home/pragov/projects/rrg-bengioy-ad/pragov/crystal_structure_design/SSSP/Mg.pbe-n-kjpaw_psl.0.3.0.UPF
     MD5 check sum: 24ecedc7f3e3cbe212e682f4413594e4
     Pseudo is Projector augmented-wave + core cor, Zval =  2.0
     Generated using "atomic" code by A. Dal Corso  v.5.0.99 svn rev. 10869
     Shape of augmentation charge: PSQ
     Using radial grid of 1129 points,  4 beta functions with:
                l(1) =   0
                l(2) =   0
                l(3) =   1
                l(4) =   1
     Q(r) pseudized with 0 coefficients

     PseudoPot. # 2 for Ga read from file:
     /home/pragov/projects/rrg-bengioy-ad/pragov/crystal_structure_design/SSSP/Ga.pbe-dn-kjpaw_psl.1.0.0.UPF
     MD5 check sum: a27b4342b1af7e5f338de752e9ed7044
     Pseudo is Projector augmented-wave + core cor, Zval = 13.0
     Generated using "atomic" code by A. Dal Corso  v.5.1
     Shape of augmentation charge: PSQ
     Using radial grid of 1205 points,  6 beta functions with:
                l(1) =   0
                l(2) =   0
                l(3) =   1
                l(4) =   1
                l(5) =   2
                l(6) =   2
     Q(r) pseudized with 0 coefficients

     atomic species   valence    mass     pseudopotential
        Mg             2.00    24.30500     Mg( 1.00)
        Ga            13.00    69.72300     Ga( 1.00)

      4 Sym. Ops., with inversion, found

                                    s                        frac. trans.

      isym =  1     identity

 cryst.   s( 1) = (     1          0          0      )
                  (     0          1          0      )
                  (     0          0          1      )

 cart.    s( 1) = (  1.0000000 -0.0000000 -0.0000000 )
                  (  0.0000000  1.0000000  0.0000000 )
                  (  0.0000000  0.0000000  1.0000000 )

      isym =  2     180 deg rotation - cart. axis [0,0,1]

[...]

      isym =  3     inversion

[...]

      isym =  4     inv. 180 deg rotation - cart. axis [0,0,1]

 cryst.   s( 4) = (     1          0          0      )
                  (     0          1          0      )
                  (    -1         -1         -1      )

 cart.    s( 4) = (  1.0000000 -0.0000000 -0.0000000 )
                  (  0.0000000  1.0000000 -0.0000000 )
                  (  0.0000000  0.0000000 -1.0000000 )

   Cartesian axes

     site n.     atom                  positions (alat units)
         1           Mg  tau(   1) = (   0.6666341   0.4714160   0.0000000  )
         2           Mg  tau(   2) = (   0.5000000   0.0000000   0.2886892  )
         3           Mg  tau(   3) = (   0.1666341   0.4714160   0.2886892  )
         4           Ga  tau(   4) = (   0.0000000   0.0000000   0.0000000  )

   Crystallographic axes

     site n.     atom                  positions (cryst. coord.)
         1           Mg  tau(   1) = (  0.5000000  0.5000000  0.0000000  )
         2           Mg  tau(   2) = (  0.7500000  0.2500000  0.5000000  )
         3           Mg  tau(   3) = (  0.2500000  0.7500000  0.5000000  )
         4           Ga  tau(   4) = (  0.0000000  0.0000000  0.0000000  )

     number of k points=     1  Methfessel-Paxton smearing, width (Ry)=  0.0010
                       cart. coord. in units 2pi/alat
        k(    1) = (   0.0000000   0.0000000   0.0000000), wk =   2.0000000

                       cryst. coord.
        k(    1) = (   0.0000000   0.0000000   0.0000000), wk =   2.0000000

     Initial potential from superposition of free atoms

     starting charge      18.9943, renormalised to      19.0000
     Starting wfcs are   21 randomized atomic wfcs
     Checking if some PAW data can be deallocated...

     Self-consistent Calculation

     iteration #  1     ecut=    30.00 Ry     beta= 0.70
     Davidson diagonalization with overlap

     ethr =  1.00E-02,  avg # of iterations =  2.0

     total energy              =    -377.75894259 Ry
     estimated scf accuracy    <       0.36774108 Ry

[...]

     total energy              =    -377.89863674 Ry
     estimated scf accuracy    <       0.00000141 Ry

     iteration # 35     ecut=    30.00 Ry     beta= 0.70
     Davidson diagonalization with overlap

     ethr =  7.43E-09,  avg # of iterations =  1.0

     End of self-consistent calculation

          k = 0.0000 0.0000 0.0000 (   784 PWs)   bands (ev):

    -7.1559  -7.1096  -7.1096  -6.9859  -6.9624  -2.7976   4.5853   4.8810
     6.4543   6.4543   6.4678   6.6056   6.6056   8.0818

     occupation numbers
     1.0000   1.0000   1.0000   1.0000   1.0000   1.0000   1.0000   1.0000
     0.7316   0.7304   0.0381  -0.0000  -0.0000  -0.0000

     the Fermi energy is     6.4582 ev

!    total energy              =    -377.89863658 Ry

     total all-electron energy =     -5089.225923 Ry
     estimated scf accuracy    <       0.00000037 Ry
     smearing contrib. (-TS)   =      -0.00043594 Ry
     internal energy E=F+TS    =    -377.89820064 Ry

     The total energy is F=E-TS. E is the sum of the following terms:
     one-electron contribution =    -141.04951168 Ry
     hartree contribution      =      86.22580113 Ry
     xc contribution           =     -42.96580621 Ry
     ewald contribution        =     -75.39311852 Ry
     one-center paw contrib.   =    -204.71556537 Ry
      -> PAW hartree energy AE =     146.63727217 Ry
      -> PAW hartree energy PS =    -144.34180330 Ry
      -> PAW xc energy AE      =    -248.50956120 Ry
      -> PAW xc energy PS      =      41.49852696 Ry
      -> total E_H with PAW    =      88.52127000 Ry
      -> total E_XC with PAW   =    -249.97684044 Ry

     convergence has been achieved in  35 iterations

     Forces acting on atoms (cartesian axes, Ry/au):

     atom    1 type  1   force =     0.00000000    0.00000000    0.00000000
     atom    2 type  1   force =     0.00000000    0.00000000    0.00001007
     atom    3 type  1   force =     0.00000000    0.00000000   -0.00001007
     atom    4 type  2   force =     0.00000000    0.00000000   -0.00000000
     The non-local contrib.  to forces
     atom    1 type  1   force =     0.00000000    0.00000000    0.00000000
     atom    2 type  1   force =     0.00000000    0.00000000   -0.00001938
     atom    3 type  1   force =     0.00000000    0.00000000    0.00001938
     atom    4 type  2   force =     0.00000000    0.00000000    0.00000000
     The ionic contribution  to forces
     atom    1 type  1   force =    -0.00000000   -0.00000000   -0.00000000
     atom    2 type  1   force =     0.00000000    0.00000000    0.00000000
     atom    3 type  1   force =     0.00000000   -0.00000000    0.00000000
     atom    4 type  2   force =    -0.00000000   -0.00000000   -0.00000000
     The local contribution  to forces
     atom    1 type  1   force =    -0.00015257   -0.00010683    0.00000136
     atom    2 type  1   force =     0.00015242    0.00012419    0.00003195
     atom    3 type  1   force =     0.00016416    0.00010058   -0.00003362
     atom    4 type  2   force =    -0.00108141   -0.00082727   -0.00024607
     The core correction contribution to forces
     atom    1 type  1   force =    -0.00000740   -0.00000516    0.00000012
     atom    2 type  1   force =     0.00000746    0.00000647    0.00000238
     atom    3 type  1   force =     0.00000920    0.00000545   -0.00000246
     atom    4 type  2   force =    -0.00000734   -0.00000745   -0.00000740
     The Hubbard contrib.    to forces
     atom    1 type  1   force =     0.00000000    0.00000000    0.00000000
     atom    2 type  1   force =     0.00000000    0.00000000    0.00000000
     atom    3 type  1   force =     0.00000000    0.00000000    0.00000000
     atom    4 type  2   force =     0.00000000    0.00000000    0.00000000
     The SCF correction term to forces
     atom    1 type  1   force =     0.00004224    0.00002973   -0.00000014
     atom    2 type  1   force =    -0.00004321   -0.00003339   -0.00000552
     atom    3 type  1   force =    -0.00004262   -0.00002715    0.00000600
     atom    4 type  2   force =     0.00119923    0.00098513    0.00044842

     Total force =     0.000014     Total SCF correction =     0.001618
     SCF correction compared to forces is large: reduce conv_thr to get better values

     Computing stress (Cartesian axis) and pressure

          total   stress  (Ry/bohr**3)                   (kbar)     P=      142.62
   0.00267435   0.00240876  -0.00000000          393.41      354.34       -0.00
   0.00240876   0.00096961  -0.00000000          354.34      142.64       -0.00
  -0.00000000  -0.00000000  -0.00073545           -0.00       -0.00     -108.19

     kinetic stress (kbar)   3339.88    361.58     -0.00
                              361.58   3083.64     -0.00
                               -0.00     -0.00   2828.16

     local   stress (kbar)  -1974.84   1210.07      0.21
                             1210.07  -2829.44     -0.01
                                0.21     -0.01  -3687.32

     nonloc. stress (kbar)   1225.03    -45.96     -0.00
                              -45.96   1257.36     -0.00
                               -0.00     -0.00   1290.20

     hartree stress (kbar)   7042.22   -687.75     -0.10
                             -687.75   7528.07      0.02
                               -0.10      0.02   8015.78

     exc-cor stress (kbar)   2060.47     -0.53     -0.00
                               -0.53   2060.84     -0.00
                               -0.00     -0.00   2061.23

     corecor stress (kbar)  -4374.92      0.06      0.01
                                0.06  -4374.94      0.00
                                0.01      0.00  -4375.01

     ewald   stress (kbar)  -6924.43   -483.14     -0.00
                             -483.14  -6582.88     -0.00
                               -0.00     -0.00  -6241.23

     hubbard stress (kbar)      0.00      0.00      0.00
                                0.00      0.00      0.00
                                0.00      0.00      0.00

     DFT-D   stress (kbar)      0.00      0.00      0.00
                                0.00      0.00      0.00
                                0.00      0.00      0.00

     XDM     stress (kbar)      0.00      0.00      0.00
                                0.00      0.00      0.00
                                0.00      0.00      0.00

     dft-nl  stress (kbar)      0.00      0.00      0.00
                                0.00      0.00      0.00
                                0.00      0.00      0.00

     TS-vdW  stress (kbar)      0.00      0.00      0.00
                                0.00      0.00      0.00
                                0.00      0.00      0.00

[...]

                                0.00      0.00      0.00

     Writing all to output data dir new_calculations/myprefix.save/

     General routines

     Parallel routines

     PAW routines

   This run was terminated on:   8:15:45  20May2023

   JOB DONE.