     Program PWSCF v.7.0 starts on 21May2023 at 10:34: 4

     Reading input from espresso_25480.pwi
Warning: card &CELL ignored
Warning: card / ignored

     Current dimensions of program PWSCF are:
     Max number of different atomic species (ntypx) = 10
     Max number of k-points (npk) =  40000
     Max angular momentum in pseudopotentials (lmaxx) =  4

     gamma-point specific algorithms are used
     Message from routine setup:
     using ibrav=0 with symmetry is DISCOURAGED, use correct ibrav instead

     Subspace diagonalization in iterative solution of the eigenvalue problem:
     a serial algorithm will be used

     Using Slab Decomposition

     bravais-lattice index     =            0
     lattice parameter (alat)  =       7.8006  a.u.
     unit-cell volume          =     809.2217 (a.u.)^3
     number of atoms/cell      =            6
     number of atomic types    =            3
     number of electrons       =        36.00
     number of Kohn-Sham states=           22
     kinetic-energy cutoff     =      30.0000  Ry
     charge density cutoff     =     240.0000  Ry
     scf convergence threshold =      1.0E-06
     mixing beta               =       0.7000
     number of iterations used =            8  plain     mixing
     Exchange-correlation=  SLA  PW   PBX  PBC
                           (   1   4   3   4   0   0   0)

     celldm(1)=   7.800646  celldm(2)=   0.000000  celldm(3)=   0.000000
     celldm(4)=   0.000000  celldm(5)=   0.000000  celldm(6)=   0.000000

     crystal axes: (cart. coord. in units of alat)
               a(1) = (   1.000000   0.000000   0.000000 )
               a(2) = (   0.000000   1.000000   0.000000 )
               a(3) = (   0.000000   0.000000   1.704809 )

     reciprocal axes: (cart. coord. in units 2 pi/alat)
               b(1) = (  1.000000  0.000000  0.000000 )
               b(2) = (  0.000000  1.000000  0.000000 )
               b(3) = (  0.000000  0.000000  0.586576 )

     PseudoPot. # 1 for Sr read from file:
     /home/pragov/projects/rrg-bengioy-ad/pragov/crystal_structure_design/SSSP/Sr_pbe_v1.uspp.F.UPF
     MD5 check sum: 6b418c05fbe9db5448babca5e47b7a5b
     Pseudo is Ultrasoft + core correction, Zval = 10.0
     Generated by new atomic code, or converted to UPF format
     Using radial grid of  883 points,  6 beta functions with:
                l(1) =   0
                l(2) =   0
                l(3) =   1
                l(4) =   1
                l(5) =   2
                l(6) =   2
     Q(r) pseudized with  6 coefficients,  rinner =    1.400   1.400   1.400
                                                       1.400   1.400

     PseudoPot. # 2 for H  read from file:
     /home/pragov/projects/rrg-bengioy-ad/pragov/crystal_structure_design/SSSP/H.pbe-rrkjus_psl.1.0.0.UPF
     MD5 check sum: f52b6d4d1c606e5624b1dc7b2218f220
     Pseudo is Ultrasoft, Zval =  1.0
     Generated using "atomic" code by A. Dal Corso  v.5.1
     Using radial grid of  929 points,  2 beta functions with:
                l(1) =   0
                l(2) =   0
     Q(r) pseudized with 0 coefficients

     PseudoPot. # 3 for Cl read from file:
     /home/pragov/projects/rrg-bengioy-ad/pragov/crystal_structure_design/SSSP/cl_pbe_v1.4.uspp.F.UPF
     MD5 check sum: fc6f6913ecf08c9257cb748ef0700058
     Pseudo is Ultrasoft + core correction, Zval =  7.0
     Generated by new atomic code, or converted to UPF format
     Using radial grid of  909 points,  6 beta functions with:
                l(1) =   0
                l(2) =   0
                l(3) =   1
                l(4) =   1
                l(5) =   2
                l(6) =   2
     Q(r) pseudized with  8 coefficients,  rinner =    1.300   1.300   1.300
                                                       1.300   1.300

     atomic species   valence    mass     pseudopotential
        Sr            10.00    87.62000     Sr( 1.00)
        H              1.00     1.00800     H ( 1.00)
        Cl             7.00    35.45000     Cl( 1.00)

     16 Sym. Ops., with inversion, found ( 8 have fractional translation)

                                    s                        frac. trans.

      isym =  1     identity

 cryst.   s( 1) = (     1          0          0      )
                  (     0          1          0      )
                  (     0          0          1      )

 cart.    s( 1) = (  1.0000000  0.0000000  0.0000000 )
                  (  0.0000000  1.0000000  0.0000000 )
                  (  0.0000000  0.0000000  1.0000000 )

      isym =  2     180 deg rotation - cart. axis [0,0,1]

[...]

 cryst.   s( 3) = (    -1          0          0      )    f =(  0.5000000 )
                  (     0          1          0      )       (  0.5000000 )
                  (     0          0         -1      )       ( -0.0000000 )

 cart.    s( 3) = ( -1.0000000  0.0000000  0.0000000 )    f =(  0.5000000 )
                  (  0.0000000  1.0000000  0.0000000 )       (  0.5000000 )
                  (  0.0000000  0.0000000 -1.0000000 )       ( -0.0000000 )

[...]

 cryst.   s( 6) = (     0         -1          0      )
                  (    -1          0          0      )
                  (     0          0         -1      )

 cart.    s( 6) = (  0.0000000 -1.0000000  0.0000000 )
                  ( -1.0000000  0.0000000  0.0000000 )
                  (  0.0000000  0.0000000 -1.0000000 )

[...]

      isym =  8      90 deg rotation - cart. axis [0,0,1]

[...]

      isym =  9     inversion

 cryst.   s( 9) = (    -1          0          0      )    f =(  0.5000000 )
                  (     0         -1          0      )       (  0.5000000 )
                  (     0          0         -1      )       ( -0.0000000 )

 cart.    s( 9) = ( -1.0000000  0.0000000  0.0000000 )    f =(  0.5000000 )
                  (  0.0000000 -1.0000000  0.0000000 )       (  0.5000000 )
                  (  0.0000000  0.0000000 -1.0000000 )       ( -0.0000000 )

      isym = 10     inv. 180 deg rotation - cart. axis [0,0,1]

 cryst.   s(10) = (     1          0          0      )    f =( -0.5000000 )
                  (     0          1          0      )       (  0.5000000 )
                  (     0          0         -1      )       ( -0.0000000 )

 cart.    s(10) = (  1.0000000  0.0000000  0.0000000 )    f =( -0.5000000 )
                  (  0.0000000  1.0000000  0.0000000 )       (  0.5000000 )
                  (  0.0000000  0.0000000 -1.0000000 )       ( -0.0000000 )

[...]

 cryst.   s(11) = (     1          0          0      )
                  (     0         -1          0      )
                  (     0          0          1      )

 cart.    s(11) = (  1.0000000  0.0000000  0.0000000 )
                  (  0.0000000 -1.0000000  0.0000000 )
                  (  0.0000000  0.0000000  1.0000000 )

[...]

 cryst.   s(14) = (     0          1          0      )    f =( -0.5000000 )
                  (     1          0          0      )       (  0.5000000 )
                  (     0          0          1      )       (  0.0000000 )

 cart.    s(14) = (  0.0000000  1.0000000  0.0000000 )    f =( -0.5000000 )
                  (  1.0000000  0.0000000  0.0000000 )       (  0.5000000 )
                  (  0.0000000  0.0000000  1.0000000 )       (  0.0000000 )

[...]

      isym = 16     inv.  90 deg rotation - cart. axis [0,0,1]

 cryst.   s(16) = (     0         -1          0      )
                  (     1          0          0      )
                  (     0          0         -1      )

 cart.    s(16) = (  0.0000000  1.0000000  0.0000000 )
                  ( -1.0000000  0.0000000  0.0000000 )
                  (  0.0000000  0.0000000 -1.0000000 )

   Cartesian axes

     site n.     atom                  positions (alat units)
         1           Sr  tau(   1) = (   0.0000000   0.5000000   1.3636209  )
         2           Sr  tau(   2) = (   0.5000000   0.0000000   0.3411886  )
         3           H   tau(   3) = (   0.5000000   0.5000000   0.0000000  )
         4           H   tau(   4) = (   0.0000000   0.0000000   0.0000000  )
         5           Cl  tau(   5) = (   0.5000000   0.0000000   1.1085370  )
         6           Cl  tau(   6) = (   0.0000000   0.5000000   0.5962725  )

   Crystallographic axes

     site n.     atom                  positions (cryst. coord.)
         1           Sr  tau(   1) = (  0.0000000  0.5000000  0.7998670  )
         2           Sr  tau(   2) = (  0.5000000  0.0000000  0.2001330  )
         3           H   tau(   3) = (  0.5000000  0.5000000  0.0000000  )
         4           H   tau(   4) = (  0.0000000  0.0000000  0.0000000  )
         5           Cl  tau(   5) = (  0.5000000  0.0000000  0.6502410  )
         6           Cl  tau(   6) = (  0.0000000  0.5000000  0.3497590  )

     number of k points=     1  Methfessel-Paxton smearing, width (Ry)=  0.0010
                       cart. coord. in units 2pi/alat
        k(    1) = (   0.0000000   0.0000000   0.0000000), wk =   2.0000000

                       cryst. coord.
        k(    1) = (   0.0000000   0.0000000   0.0000000), wk =   2.0000000

     Check: negative core charge=   -0.000003

     Initial potential from superposition of free atoms

     starting charge      35.9327, renormalised to      36.0000

     negative rho (up, down):  1.565E-01 0.000E+00
     Starting wfcs are   36 randomized atomic wfcs

     Self-consistent Calculation

     iteration #  1     ecut=    30.00 Ry     beta= 0.70
     Davidson diagonalization with overlap

     ethr =  1.00E-02,  avg # of iterations =  3.0

     negative rho (up, down):  1.610E-01 0.000E+00

     total energy              =    -209.58918282 Ry
     estimated scf accuracy    <       0.43257444 Ry

[...]

     total energy              =    -209.71134452 Ry
     estimated scf accuracy    <       0.00000332 Ry

     iteration #  7     ecut=    30.00 Ry     beta= 0.70
     Davidson diagonalization with overlap

     ethr =  9.21E-09,  avg # of iterations =  2.0

[...]

     End of self-consistent calculation

          k = 0.0000 0.0000 0.0000 (  1120 PWs)   bands (ev):

   -28.5582 -28.5364 -10.8110 -10.5326 -10.5217 -10.5217 -10.4503 -10.4503
    -8.5686  -8.2316   1.6539   3.1335   3.1335   3.2775   3.5728   3.8908
     3.8908   4.2959   9.2860   9.7520  10.3001  10.3001

     occupation numbers
     1.0000   1.0000   1.0000   1.0000   1.0000   1.0000   1.0000   1.0000
     1.0000   1.0000   1.0000   1.0000   1.0000   1.0000   1.0000   1.0000
     1.0000   1.0000  -0.0000  -0.0000  -0.0000  -0.0000

     the Fermi energy is     5.5449 ev

!    total energy              =    -209.71134498 Ry
     estimated scf accuracy    <       0.00000026 Ry
     smearing contrib. (-TS)   =       0.00000000 Ry
     internal energy E=F+TS    =    -209.71134498 Ry

     The total energy is F=E-TS. E is the sum of the following terms:
     one-electron contribution =     -34.57259709 Ry
     hartree contribution      =      30.25836562 Ry
     xc contribution           =     -57.12612236 Ry
     ewald contribution        =    -148.27099115 Ry

     convergence has been achieved in   7 iterations

     negative rho (up, down):  1.631E-01 0.000E+00

     Forces acting on atoms (cartesian axes, Ry/au):

     atom    1 type  1   force =     0.00000000    0.00000000    0.03912421
     atom    2 type  1   force =     0.00000000    0.00000000   -0.03912421
     atom    3 type  2   force =     0.00000000    0.00000000    0.00000000
     atom    4 type  2   force =     0.00000000    0.00000000    0.00000000
     atom    5 type  3   force =     0.00000000    0.00000000   -0.02023699
     atom    6 type  3   force =     0.00000000    0.00000000    0.02023699
     The non-local contrib.  to forces
     atom    1 type  1   force =     0.00000000    0.00000000   -0.22034030
     atom    2 type  1   force =     0.00000000    0.00000000    0.22034030
     atom    3 type  2   force =     0.00000000    0.00000000    0.00000000
     atom    4 type  2   force =     0.00000000    0.00000000   -0.00000000
     atom    5 type  3   force =     0.00000000    0.00000000    0.03252742
     atom    6 type  3   force =     0.00000000    0.00000000   -0.03252742
     The ionic contribution  to forces
     atom    1 type  1   force =    -0.00000000   -0.00000000    0.78690105
     atom    2 type  1   force =     0.00000000   -0.00000000   -0.78690105
     atom    3 type  2   force =    -0.00000000   -0.00000000    0.00000000
     atom    4 type  2   force =     0.00000000    0.00000000    0.00000000
     atom    5 type  3   force =     0.00000000   -0.00000000   -0.33997332
     atom    6 type  3   force =    -0.00000000   -0.00000000    0.33997332
     The local contribution  to forces
     atom    1 type  1   force =    -0.00000444    0.00002792   -0.54135534
     atom    2 type  1   force =    -0.00002292    0.00003253    0.54136217
     atom    3 type  2   force =     0.00000015    0.00000009   -0.00000805
     atom    4 type  2   force =    -0.00000024   -0.00000126   -0.00000677
     atom    5 type  3   force =     0.00004034   -0.00000845    0.28855534
     atom    6 type  3   force =     0.00007235    0.00000164   -0.28852107
     The core correction contribution to forces
     atom    1 type  1   force =    -0.00000185   -0.00000018    0.01507411
     atom    2 type  1   force =    -0.00000092    0.00000169   -0.01507364
     atom    3 type  2   force =     0.00000000    0.00000000    0.00000000
     atom    4 type  2   force =     0.00000000    0.00000000    0.00000000
     atom    5 type  3   force =    -0.00000036   -0.00000030   -0.00060277
     atom    6 type  3   force =     0.00000324    0.00000044    0.00060140
     The Hubbard contrib.    to forces
     atom    1 type  1   force =     0.00000000    0.00000000    0.00000000
     atom    2 type  1   force =     0.00000000    0.00000000    0.00000000
     atom    3 type  2   force =     0.00000000    0.00000000    0.00000000
     atom    4 type  2   force =     0.00000000    0.00000000    0.00000000
     atom    5 type  3   force =     0.00000000    0.00000000    0.00000000
     atom    6 type  3   force =     0.00000000    0.00000000    0.00000000
     The SCF correction term to forces
     atom    1 type  1   force =    -0.00000103   -0.00001832   -0.00114662
     atom    2 type  1   force =    -0.00000580   -0.00001281    0.00115669
     atom    3 type  2   force =     0.00000024   -0.00000000    0.00000607
     atom    4 type  2   force =     0.00000038    0.00000094    0.00000507
     atom    5 type  3   force =    -0.00001172    0.00000219   -0.00074591
     atom    6 type  3   force =    -0.00002583   -0.00000381    0.00070850

     Total force =     0.062293     Total SCF correction =     0.001927

     Computing stress (Cartesian axis) and pressure

     negative rho (up, down):  1.631E-01 0.000E+00
          total   stress  (Ry/bohr**3)                   (kbar)     P=       61.19
   0.00062559   0.00000000   0.00000000           92.03        0.00        0.00
   0.00000000   0.00062559   0.00000000            0.00       92.03        0.00
   0.00000000   0.00000000  -0.00000323            0.00        0.00       -0.48

     kinetic stress (kbar)   8136.41      0.00      0.00
                                0.00   8136.41      0.00
                                0.00      0.00   7920.21

     local   stress (kbar)  -5807.51      0.00      0.00
                                0.00  -5807.50     -0.00
                                0.00     -0.00  -4402.05

     nonloc. stress (kbar)   6919.74      0.00      0.00
                                0.00   6919.74      0.00
                                0.00      0.00   6879.98

     hartree stress (kbar)   1978.88     -0.00     -0.00
                               -0.00   1978.88     -0.00
                               -0.00     -0.00   1542.77

     exc-cor stress (kbar)   2588.12     -0.00     -0.00
                               -0.00   2588.12     -0.00
                               -0.00     -0.00   2587.48

     corecor stress (kbar)  -5008.48      0.00     -0.00
                                0.00  -5008.48     -0.00
                               -0.00     -0.00  -5005.58

     ewald   stress (kbar)  -8715.14      0.00     -0.00
                                0.00  -8715.14      0.00
                               -0.00      0.00  -9523.29

     hubbard stress (kbar)      0.00      0.00      0.00
                                0.00      0.00      0.00
                                0.00      0.00      0.00

     DFT-D   stress (kbar)      0.00      0.00      0.00
                                0.00      0.00      0.00
                                0.00      0.00      0.00

     XDM     stress (kbar)      0.00      0.00      0.00
                                0.00      0.00      0.00
                                0.00      0.00      0.00

     dft-nl  stress (kbar)      0.00      0.00      0.00
                                0.00      0.00      0.00
                                0.00      0.00      0.00

     TS-vdW  stress (kbar)      0.00      0.00      0.00
                                0.00      0.00      0.00
                                0.00      0.00      0.00

[...]

                                0.00      0.00      0.00

     Writing all to output data dir new_calculations/myprefix.save/

     General routines

     Parallel routines

   This run was terminated on:  10:34:29  21May2023

   JOB DONE.