     Program PWSCF v.7.0 starts on 20May2023 at 20:55:45

     Reading input from espresso_20220.pwi
Warning: card &CELL ignored
Warning: card / ignored

     Current dimensions of program PWSCF are:
     Max number of different atomic species (ntypx) = 10
     Max number of k-points (npk) =  40000
     Max angular momentum in pseudopotentials (lmaxx) =  4
     file Al.pbe-n-kjpaw_psl.1.0.0.UPF: wavefunction(s)  3S 3P renormalized

     gamma-point specific algorithms are used
     Message from routine setup:
     using ibrav=0 with symmetry is DISCOURAGED, use correct ibrav instead

     Subspace diagonalization in iterative solution of the eigenvalue problem:
     a serial algorithm will be used

     Using Slab Decomposition

     bravais-lattice index     =            0
     lattice parameter (alat)  =       5.3407  a.u.
     unit-cell volume          =     402.5291 (a.u.)^3
     number of atoms/cell      =            4
     number of atomic types    =            2
     number of electrons       =        28.00
     number of Kohn-Sham states=           18
     kinetic-energy cutoff     =      30.0000  Ry
     charge density cutoff     =     240.0000  Ry
     scf convergence threshold =      1.0E-06
     mixing beta               =       0.7000
     number of iterations used =            8  plain     mixing
     Exchange-correlation= SLA  PW   PBE  PBE
                           (   1   4   3   4   0   0   0)

     celldm(1)=   5.340697  celldm(2)=   0.000000  celldm(3)=   0.000000
     celldm(4)=   0.000000  celldm(5)=   0.000000  celldm(6)=   0.000000

     crystal axes: (cart. coord. in units of alat)
               a(1) = (   1.000000   0.000000   0.000000 )
               a(2) = (   0.000000   1.000000   0.000000 )
               a(3) = (   0.000000   0.000000   2.642430 )

     reciprocal axes: (cart. coord. in units 2 pi/alat)
               b(1) = (  1.000000  0.000000  0.000000 )
               b(2) = (  0.000000  1.000000  0.000000 )
               b(3) = (  0.000000  0.000000  0.378439 )

     PseudoPot. # 1 for Al read from file:
     /home/pragov/projects/rrg-bengioy-ad/pragov/crystal_structure_design/SSSP/Al.pbe-n-kjpaw_psl.1.0.0.UPF
     MD5 check sum: cfc449ca30b5f3223ec38ddd88ac046d
     Pseudo is Projector augmented-wave + core cor, Zval =  3.0
     Generated using "atomic" code by A. Dal Corso  v.5.1
     Shape of augmentation charge: PSQ
     Using radial grid of 1135 points,  6 beta functions with:
                l(1) =   0
                l(2) =   0
                l(3) =   1
                l(4) =   1
                l(5) =   2
                l(6) =   2
     Q(r) pseudized with 0 coefficients

     PseudoPot. # 2 for Cu read from file:
     /home/pragov/projects/rrg-bengioy-ad/pragov/crystal_structure_design/SSSP/Cu_pbe_v1.2.uspp.F.UPF
     MD5 check sum: 6e991ff952a84172a2a52a1c1e996048
     Pseudo is Ultrasoft + core correction, Zval = 19.0
     Generated by new atomic code, or converted to UPF format
     Using radial grid of  867 points,  6 beta functions with:
                l(1) =   0
                l(2) =   0
                l(3) =   1
                l(4) =   1
                l(5) =   2
                l(6) =   2
     Q(r) pseudized with  8 coefficients,  rinner =    1.150   1.150   1.150
                                                       1.150   1.150

     atomic species   valence    mass     pseudopotential
        Al             3.00    26.98154     Al( 1.00)
        Cu            19.00    63.54600     Cu( 1.00)

     16 Sym. Ops., with inversion, found

                                    s                        frac. trans.

      isym =  1     identity

 cryst.   s( 1) = (     1          0          0      )
                  (     0          1          0      )
                  (     0          0          1      )

 cart.    s( 1) = (  1.0000000  0.0000000  0.0000000 )
                  (  0.0000000  1.0000000  0.0000000 )
                  (  0.0000000  0.0000000  1.0000000 )

      isym =  2     180 deg rotation - cart. axis [0,0,1]

[...]

      isym =  8      90 deg rotation - cart. axis [0,0,1]

[...]

      isym =  9     inversion

 cryst.   s( 9) = (    -1          0          0      )
                  (     0         -1          0      )
                  (     0          0         -1      )

 cart.    s( 9) = ( -1.0000000  0.0000000  0.0000000 )
                  (  0.0000000 -1.0000000  0.0000000 )
                  (  0.0000000  0.0000000 -1.0000000 )

      isym = 10     inv. 180 deg rotation - cart. axis [0,0,1]

 cryst.   s(10) = (     1          0          0      )
                  (     0          1          0      )
                  (     0          0         -1      )

 cart.    s(10) = (  1.0000000  0.0000000  0.0000000 )
                  (  0.0000000  1.0000000  0.0000000 )
                  (  0.0000000  0.0000000 -1.0000000 )

[...]

      isym = 16     inv.  90 deg rotation - cart. axis [0,0,1]

 cryst.   s(16) = (     0         -1          0      )
                  (     1          0          0      )
                  (     0          0         -1      )

 cart.    s(16) = (  0.0000000  1.0000000  0.0000000 )
                  ( -1.0000000  0.0000000  0.0000000 )
                  (  0.0000000  0.0000000 -1.0000000 )

   Cartesian axes

     site n.     atom                  positions (alat units)
         1           Al  tau(   1) = (   0.0000000   0.0000000   1.3212152  )
         2           Al  tau(   2) = (   0.5000000   0.5000000   0.5980084  )
         3           Al  tau(   3) = (   0.5000000   0.5000000   2.0444220  )
         4           Cu  tau(   4) = (   0.0000000   0.0000000   0.0000000  )

   Crystallographic axes

     site n.     atom                  positions (cryst. coord.)
         1           Al  tau(   1) = (  0.0000000  0.0000000  0.5000000  )
         2           Al  tau(   2) = (  0.5000000  0.5000000  0.2263100  )
         3           Al  tau(   3) = (  0.5000000  0.5000000  0.7736900  )
         4           Cu  tau(   4) = (  0.0000000  0.0000000  0.0000000  )

     number of k points=     1  Methfessel-Paxton smearing, width (Ry)=  0.0010
                       cart. coord. in units 2pi/alat
        k(    1) = (   0.0000000   0.0000000   0.0000000), wk =   2.0000000

                       cryst. coord.
        k(    1) = (   0.0000000   0.0000000   0.0000000), wk =   2.0000000

     Initial potential from superposition of free atoms

     starting charge      26.9931, renormalised to      28.0000
     Starting wfcs are   25 randomized atomic wfcs
     Checking if some PAW data can be deallocated...

     Self-consistent Calculation

     iteration #  1     ecut=    30.00 Ry     beta= 0.70
     Davidson diagonalization with overlap

     ethr =  1.00E-02,  avg # of iterations =  4.0

     total energy              =    -522.58071850 Ry
     estimated scf accuracy    <       0.82331948 Ry

[...]

     total energy              =    -522.96212318 Ry
     estimated scf accuracy    <       0.00000332 Ry

     iteration #  9     ecut=    30.00 Ry     beta= 0.70
     Davidson diagonalization with overlap

     ethr =  1.19E-08,  avg # of iterations =  3.0

     End of self-consistent calculation

          k = 0.0000 0.0000 0.0000 (   571 PWs)   bands (ev):

   -99.9925 -57.4005 -57.4004 -57.3673  -1.8889   0.9071   2.3190   8.2419
     8.5982   8.7811   9.7804   9.7804  10.2129  11.5427  14.9334  15.2048
    15.2048  17.9659

     occupation numbers
     1.0000   1.0000   1.0000   1.0000   1.0000   1.0000   1.0000   1.0000
     1.0000   1.0000   1.0000   1.0000   1.0000   1.0000  -0.0000  -0.0000
    -0.0000  -0.0000

     the Fermi energy is    14.4072 ev

!    total energy              =    -522.96212372 Ry
     estimated scf accuracy    <       0.00000010 Ry
     smearing contrib. (-TS)   =       0.00000000 Ry
     internal energy E=F+TS    =    -522.96212372 Ry

     The total energy is F=E-TS. E is the sum of the following terms:
     one-electron contribution =    -513.10105172 Ry
     hartree contribution      =     270.43770450 Ry
     xc contribution           =     -46.73851327 Ry
     ewald contribution        =    -129.54031636 Ry
     one-center paw contrib.   =    -104.01994687 Ry
      -> PAW hartree energy AE =       3.92067813 Ry
      -> PAW hartree energy PS =      -3.90788237 Ry
      -> PAW xc energy AE      =    -109.60772254 Ry
      -> PAW xc energy PS      =       5.57497990 Ry
      -> total E_H with PAW    =     270.45050026 Ry
      -> total E_XC with PAW   =    -150.77125591 Ry

     convergence has been achieved in   9 iterations

     Forces acting on atoms (cartesian axes, Ry/au):

     atom    1 type  1   force =     0.00000000    0.00000000    0.00000000
     atom    2 type  1   force =     0.00000000    0.00000000   -0.19069695
     atom    3 type  1   force =     0.00000000    0.00000000    0.19069695
     atom    4 type  2   force =     0.00000000    0.00000000    0.00000000
     The non-local contrib.  to forces
     atom    1 type  1   force =     0.00000000    0.00000000    0.00000000
     atom    2 type  1   force =     0.00000000    0.00000000    0.00858675
     atom    3 type  1   force =     0.00000000    0.00000000   -0.00858675
     atom    4 type  2   force =     0.00000000    0.00000000    0.00000000
     The ionic contribution  to forces
     atom    1 type  1   force =     0.00000000    0.00000000   -0.00000000
     atom    2 type  1   force =    -0.00000000   -0.00000000   10.63834190
     atom    3 type  1   force =     0.00000000    0.00000000  -10.63834190
     atom    4 type  2   force =    -0.00000000   -0.00000000   -0.00000000
     The local contribution  to forces
     atom    1 type  1   force =    -0.00000157    0.00000015   -0.00011351
     atom    2 type  1   force =    -0.00000626   -0.00000062  -10.83601558
     atom    3 type  1   force =    -0.00000800    0.00000090   10.83604926
     atom    4 type  2   force =     0.00018577   -0.00000791    0.00102936
     The core correction contribution to forces
     atom    1 type  1   force =    -0.00000024    0.00000011   -0.00000159
     atom    2 type  1   force =    -0.00000029   -0.00000004   -0.00142589
     atom    3 type  1   force =    -0.00000048    0.00000012    0.00142833
     atom    4 type  2   force =     0.00000007   -0.00000011   -0.00000044
     The Hubbard contrib.    to forces
     atom    1 type  1   force =     0.00000000    0.00000000    0.00000000
     atom    2 type  1   force =     0.00000000    0.00000000    0.00000000
     atom    3 type  1   force =     0.00000000    0.00000000    0.00000000
     atom    4 type  2   force =     0.00000000    0.00000000    0.00000000
     The SCF correction term to forces
     atom    1 type  1   force =     0.00000012   -0.00000024    0.00016079
     atom    2 type  1   force =     0.00000091    0.00000066   -0.00017873
     atom    3 type  1   force =     0.00000248    0.00000085    0.00015341
     atom    4 type  2   force =    -0.00027586   -0.00004097   -0.00172633

     Total force =     0.269686     Total SCF correction =     0.001772

     Computing stress (Cartesian axis) and pressure

          total   stress  (Ry/bohr**3)                   (kbar)     P=     -300.29
  -0.00800873   0.00000000   0.00000000        -1178.13        0.00        0.00
   0.00000000  -0.00800873   0.00000000            0.00    -1178.13        0.00
   0.00000000   0.00000000   0.00989350            0.00        0.00     1455.38

     kinetic stress (kbar)  10403.46      0.00      0.00
                                0.00  10403.46      0.00
                                0.00      0.00  13278.60

     local   stress (kbar) -77981.55      0.05      0.02
                                0.05 -77981.55     -0.00
                                0.02     -0.00  60050.24

     nonloc. stress (kbar)   8382.74      0.00      0.00
                                0.00   8382.74      0.00
                                0.00      0.00   8242.27

     hartree stress (kbar)  55852.24     -0.02     -0.01
                               -0.02  55852.25      0.01
                               -0.01      0.01 -12872.49

     exc-cor stress (kbar)  -3989.48     -0.00     -0.00
                               -0.00  -3989.48      0.00
                               -0.00      0.00  -3986.02

     corecor stress (kbar)  -1203.66     -0.00     -0.00
                               -0.00  -1203.66      0.00
                               -0.00      0.00  -1200.21

     ewald   stress (kbar)   7358.12      0.00      0.00
                                0.00   7358.12      0.00
                                0.00      0.00 -62057.00

     hubbard stress (kbar)      0.00      0.00      0.00
                                0.00      0.00      0.00
                                0.00      0.00      0.00

     DFT-D   stress (kbar)      0.00      0.00      0.00
                                0.00      0.00      0.00
                                0.00      0.00      0.00

     XDM     stress (kbar)      0.00      0.00      0.00
                                0.00      0.00      0.00
                                0.00      0.00      0.00

     dft-nl  stress (kbar)      0.00      0.00      0.00
                                0.00      0.00      0.00
                                0.00      0.00      0.00

     TS-vdW  stress (kbar)      0.00      0.00      0.00
                                0.00      0.00      0.00
                                0.00      0.00      0.00

[...]

                                0.00      0.00      0.00

     Writing all to output data dir new_calculations/myprefix.save/

     General routines

     Parallel routines

     PAW routines

   This run was terminated on:  20:55:59  20May2023

   JOB DONE.