     Program PWSCF v.7.0 starts on 20May2023 at 11:12: 1

     Reading input from espresso_10338.pwi
Warning: card &CELL ignored
Warning: card / ignored

     Current dimensions of program PWSCF are:
     Max number of different atomic species (ntypx) = 10
     Max number of k-points (npk) =  40000
     Max angular momentum in pseudopotentials (lmaxx) =  4

     gamma-point specific algorithms are used
     Message from routine setup:
     using ibrav=0 with symmetry is DISCOURAGED, use correct ibrav instead

     Subspace diagonalization in iterative solution of the eigenvalue problem:
     a serial algorithm will be used

     Using Slab Decomposition

     bravais-lattice index     =            0
     lattice parameter (alat)  =       6.8773  a.u.
     unit-cell volume          =     829.7385 (a.u.)^3
     number of atoms/cell      =            8
     number of atomic types    =            2
     number of electrons       =        80.00
     number of Kohn-Sham states=           48
     kinetic-energy cutoff     =      30.0000  Ry
     charge density cutoff     =     240.0000  Ry
     scf convergence threshold =      1.0E-06
     mixing beta               =       0.7000
     number of iterations used =            8  plain     mixing
     Exchange-correlation=  SLA  PW   PBX  PBC
                           (   1   4   3   4   0   0   0)

     celldm(1)=   6.877343  celldm(2)=   0.000000  celldm(3)=   0.000000
     celldm(4)=   0.000000  celldm(5)=   0.000000  celldm(6)=   0.000000

     crystal axes: (cart. coord. in units of alat)
               a(1) = (   1.000000   0.000000   0.000000 )
               a(2) = (   0.000000   1.552852   0.000000 )
               a(3) = (   0.000000   0.000000   1.642665 )

     reciprocal axes: (cart. coord. in units 2 pi/alat)
               b(1) = (  1.000000  0.000000  0.000000 )
               b(2) = (  0.000000  0.643976  0.000000 )
               b(3) = (  0.000000  0.000000  0.608767 )

     PseudoPot. # 1 for Si read from file:
     /home/pragov/projects/rrg-bengioy-ad/pragov/crystal_structure_design/SSSP/Si.pbe-n-rrkjus_psl.1.0.0.UPF
     MD5 check sum: 0b0bb1205258b0d07b9f9672cf965d36
     Pseudo is Ultrasoft + core correction, Zval =  4.0
     Generated using "atomic" code by A. Dal Corso  v.5.1
     Using radial grid of 1141 points,  6 beta functions with:
                l(1) =   0
                l(2) =   0
                l(3) =   1
                l(4) =   1
                l(5) =   2
                l(6) =   2
     Q(r) pseudized with 0 coefficients

     PseudoPot. # 2 for Pt read from file:
     /home/pragov/projects/rrg-bengioy-ad/pragov/crystal_structure_design/SSSP/pt_pbe_v1.4.uspp.F.UPF
     MD5 check sum: f09d6de1a584b5a045c4fc126da2d0c4
     Pseudo is Ultrasoft + core correction, Zval = 16.0
     Generated by new atomic code, or converted to UPF format
     Using radial grid of  985 points,  6 beta functions with:
                l(1) =   0
                l(2) =   0
                l(3) =   1
                l(4) =   1
                l(5) =   2
                l(6) =   2
     Q(r) pseudized with  8 coefficients,  rinner =    1.300   1.300   1.300
                                                       1.300   1.300

     atomic species   valence    mass     pseudopotential
        Si             4.00    28.08500     Si( 1.00)
        Pt            16.00   195.08400     Pt( 1.00)

      8 Sym. Ops., with inversion, found ( 6 have fractional translation)

                                    s                        frac. trans.

      isym =  1     identity

 cryst.   s( 1) = (     1          0          0      )
                  (     0          1          0      )
                  (     0          0          1      )

 cart.    s( 1) = (  1.0000000  0.0000000  0.0000000 )
                  (  0.0000000  1.0000000  0.0000000 )
                  (  0.0000000  0.0000000  1.0000000 )

      isym =  2     180 deg rotation - cart. axis [0,0,1]

 cryst.   s( 2) = (    -1          0          0      )    f =(  0.0000000 )
                  (     0         -1          0      )       ( -0.5000000 )
                  (     0          0          1      )       (  0.5000000 )

 cart.    s( 2) = ( -1.0000000  0.0000000  0.0000000 )    f =(  0.0000000 )
                  (  0.0000000 -1.0000000  0.0000000 )       ( -0.7764262 )
                  (  0.0000000  0.0000000  1.0000000 )       (  0.8213326 )

[...]

      isym =  4     180 deg rotation - cart. axis [1,0,0]

[...]

      isym =  5     inversion

 cryst.   s( 5) = (    -1          0          0      )
                  (     0         -1          0      )
                  (     0          0         -1      )

 cart.    s( 5) = ( -1.0000000  0.0000000  0.0000000 )
                  (  0.0000000 -1.0000000  0.0000000 )
                  (  0.0000000  0.0000000 -1.0000000 )

      isym =  6     inv. 180 deg rotation - cart. axis [0,0,1]

[...]

      isym =  8     inv. 180 deg rotation - cart. axis [1,0,0]

 cryst.   s( 8) = (    -1          0          0      )    f =(  0.5000000 )
                  (     0          1          0      )       (  0.0000000 )
                  (     0          0          1      )       (  0.0000000 )

 cart.    s( 8) = ( -1.0000000  0.0000000  0.0000000 )    f =(  0.5000000 )
                  (  0.0000000  1.0000000  0.0000000 )       (  0.0000000 )
                  (  0.0000000  0.0000000  1.0000000 )       (  0.0000000 )

   Cartesian axes

     site n.     atom                  positions (alat units)
         1           Si  tau(   1) = (   0.2500000   1.0535343   0.1368554  )
         2           Si  tau(   2) = (   0.7500000   0.4993181   1.5058099  )
         3           Si  tau(   3) = (   0.2500000   0.2771081   0.6844773  )
         4           Si  tau(   4) = (   0.7500000   1.2757443   0.9581880  )
         5           Pt  tau(   5) = (   0.2500000   0.7683079   1.1389896  )
         6           Pt  tau(   6) = (   0.7500000   0.7845445   0.5036757  )
         7           Pt  tau(   7) = (   0.2500000   1.5447341   1.3250083  )
         8           Pt  tau(   8) = (   0.7500000   0.0081183   0.3176570  )

   Crystallographic axes

     site n.     atom                  positions (cryst. coord.)
         1           Si  tau(   1) = (  0.2500000  0.6784510  0.0833130  )
         2           Si  tau(   2) = (  0.7500000  0.3215490  0.9166870  )
         3           Si  tau(   3) = (  0.2500000  0.1784510  0.4166870  )
         4           Si  tau(   4) = (  0.7500000  0.8215490  0.5833130  )
         5           Pt  tau(   5) = (  0.2500000  0.4947720  0.6933790  )
         6           Pt  tau(   6) = (  0.7500000  0.5052280  0.3066210  )
         7           Pt  tau(   7) = (  0.2500000  0.9947720  0.8066210  )
         8           Pt  tau(   8) = (  0.7500000  0.0052280  0.1933790  )

     number of k points=     1  Methfessel-Paxton smearing, width (Ry)=  0.0010
                       cart. coord. in units 2pi/alat
        k(    1) = (   0.0000000   0.0000000   0.0000000), wk =   2.0000000

                       cryst. coord.
        k(    1) = (   0.0000000   0.0000000   0.0000000), wk =   2.0000000

     Initial potential from superposition of free atoms

     starting charge      77.9977, renormalised to      80.0000

     negative rho (up, down):  7.547E-01 0.000E+00
     Starting wfcs are   64 randomized atomic wfcs

     Self-consistent Calculation

     iteration #  1     ecut=    30.00 Ry     beta= 0.70
     Davidson diagonalization with overlap

     ethr =  1.00E-02,  avg # of iterations =  3.0

     negative rho (up, down):  6.762E-01 0.000E+00

     total energy              =    -885.57392784 Ry
     estimated scf accuracy    <       6.17080101 Ry

[...]

     total energy              =    -888.92283103 Ry
     estimated scf accuracy    <       0.00000109 Ry

     iteration # 11     ecut=    30.00 Ry     beta= 0.70
     Davidson diagonalization with overlap

     ethr =  1.37E-09,  avg # of iterations =  2.0

[...]

     End of self-consistent calculation

          k = 0.0000 0.0000 0.0000 (  1150 PWs)   bands (ev):

   -37.1487 -37.1342 -37.1166 -37.1106 -37.1068 -37.0928 -37.0121 -36.9897
   -36.9509 -36.8984 -36.8807 -36.8569   3.5123   6.5894   6.9349   8.3610
     8.6391   9.0943  10.1627  10.3894  10.4822  10.5337  10.5540  11.1750
    11.3148  11.5130  11.8699  12.2052  12.3452  12.8190  13.0439  13.1723
    13.3650  13.3753  13.5029  13.7945  13.8746  14.8496  15.0976  15.6091
    17.0629  18.3058  19.4327  19.4353  19.5905  19.7224  20.8350  21.2334

     occupation numbers
     1.0000   1.0000   1.0000   1.0000   1.0000   1.0000   1.0000   1.0000
     1.0000   1.0000   1.0000   1.0000   1.0000   1.0000   1.0000   1.0000
     1.0000   1.0000   1.0000   1.0000   1.0000   1.0000   1.0000   1.0000
     1.0000   1.0000   1.0000   1.0000   1.0000   1.0000   1.0000   1.0000
     1.0000   1.0000   1.0000   1.0000   1.0000   1.0000   1.0000   1.0000
    -0.0000  -0.0000  -0.0000  -0.0000  -0.0000  -0.0000  -0.0000  -0.0000

     the Fermi energy is    15.8706 ev

!    total energy              =    -888.92283120 Ry
     estimated scf accuracy    <       0.00000012 Ry
     smearing contrib. (-TS)   =       0.00000000 Ry
     internal energy E=F+TS    =    -888.92283120 Ry

     The total energy is F=E-TS. E is the sum of the following terms:
     one-electron contribution =    -222.00002322 Ry
     hartree contribution      =     165.83780000 Ry
     xc contribution           =    -252.74307261 Ry
     ewald contribution        =    -580.01753536 Ry

     convergence has been achieved in  11 iterations

     negative rho (up, down):  7.013E-01 0.000E+00

     Forces acting on atoms (cartesian axes, Ry/au):

     atom    1 type  1   force =     0.00000000    0.01777765    0.00114644
     atom    2 type  1   force =     0.00000000   -0.01777765   -0.00114644
     atom    3 type  1   force =     0.00000000    0.01777765   -0.00114644
     atom    4 type  1   force =     0.00000000   -0.01777765    0.00114644
     atom    5 type  2   force =     0.00000000   -0.01961041   -0.00136409
     atom    6 type  2   force =    -0.00000000    0.01961041    0.00136409
     atom    7 type  2   force =     0.00000000   -0.01961041    0.00136409
     atom    8 type  2   force =     0.00000000    0.01961041   -0.00136409
     The non-local contrib.  to forces
     atom    1 type  1   force =     0.00000000   -0.00478863   -0.08153653
     atom    2 type  1   force =    -0.00000000    0.00478863    0.08153653
     atom    3 type  1   force =     0.00000000   -0.00478863    0.08153653
     atom    4 type  1   force =     0.00000000    0.00478863   -0.08153653
     atom    5 type  2   force =    -0.00000000    0.05512091    0.03586005
     atom    6 type  2   force =     0.00000000   -0.05512091   -0.03586005
     atom    7 type  2   force =    -0.00000000    0.05512091   -0.03586005
     atom    8 type  2   force =     0.00000000   -0.05512091    0.03586005
     The ionic contribution  to forces
     atom    1 type  1   force =    -0.00000000   -1.32529811    0.09438239
     atom    2 type  1   force =     0.00000000    1.32529811   -0.09438239
     atom    3 type  1   force =     0.00000000   -1.32529811   -0.09438239
     atom    4 type  1   force =     0.00000000    1.32529811    0.09438239
     atom    5 type  2   force =    -0.00000000    0.53786629    3.57084883
     atom    6 type  2   force =     0.00000000   -0.53786629   -3.57084883
     atom    7 type  2   force =    -0.00000000    0.53786629   -3.57084883
     atom    8 type  2   force =     0.00000000   -0.53786629    3.57084883
     The local contribution  to forces
     atom    1 type  1   force =    -0.00000359    1.34763958   -0.02053512
     atom    2 type  1   force =    -0.00000178   -1.34757154    0.02057374
     atom    3 type  1   force =     0.00000061    1.34735412    0.02058528
     atom    4 type  1   force =    -0.00000394   -1.34747492   -0.02073115
     atom    5 type  2   force =    -0.00000792   -0.61400451   -3.59807976
     atom    6 type  2   force =     0.00001213    0.61524346    3.59803553
     atom    7 type  2   force =    -0.00001841   -0.61502693    3.59728134
     atom    8 type  2   force =     0.00003504    0.61406349   -3.59711501
     The core correction contribution to forces
     atom    1 type  1   force =    -0.00000040    0.00035601    0.00890478
     atom    2 type  1   force =    -0.00000003   -0.00035748   -0.00890734
     atom    3 type  1   force =    -0.00000015    0.00035808   -0.00890411
     atom    4 type  1   force =    -0.00000065   -0.00035758    0.00890237
     atom    5 type  2   force =     0.00000034    0.00194668   -0.01047528
     atom    6 type  2   force =     0.00000024   -0.00193838    0.01047737
     atom    7 type  2   force =    -0.00000059    0.00194310    0.01047261
     atom    8 type  2   force =     0.00000203   -0.00194706   -0.01046728
     The Hubbard contrib.    to forces
     atom    1 type  1   force =     0.00000000    0.00000000    0.00000000
     atom    2 type  1   force =     0.00000000    0.00000000    0.00000000
     atom    3 type  1   force =     0.00000000    0.00000000    0.00000000
     atom    4 type  1   force =     0.00000000    0.00000000    0.00000000
     atom    5 type  2   force =     0.00000000    0.00000000    0.00000000
     atom    6 type  2   force =     0.00000000    0.00000000    0.00000000
     atom    7 type  2   force =     0.00000000    0.00000000    0.00000000
     atom    8 type  2   force =     0.00000000    0.00000000    0.00000000
     The SCF correction term to forces
     atom    1 type  1   force =     0.00000076   -0.00015392   -0.00006090
     atom    2 type  1   force =     0.00000168    0.00006302    0.00000893
     atom    3 type  1   force =    -0.00000011    0.00016806    0.00002896
     atom    4 type  1   force =    -0.00000079   -0.00003713    0.00010780
     atom    5 type  2   force =    -0.00000239   -0.00056526    0.00050420
     atom    6 type  2   force =    -0.00001408   -0.00072891   -0.00046158
     atom    7 type  2   force =     0.00000423    0.00051599    0.00032456
     atom    8 type  2   force =    -0.00003009    0.00050692   -0.00052894

     Total force =     0.053058     Total SCF correction =     0.001517

     Computing stress (Cartesian axis) and pressure

     negative rho (up, down):  7.013E-01 0.000E+00
          total   stress  (Ry/bohr**3)                   (kbar)     P=      -72.38
  -0.00213527   0.00000000   0.00000000         -314.11        0.00        0.00
   0.00000000  -0.00055698   0.00000000            0.00      -81.93        0.00
   0.00000000   0.00000000   0.00121616            0.00        0.00      178.90

     kinetic stress (kbar)  28178.90      0.00      0.00
                                0.00  28526.30      0.00
                                0.00      0.00  28838.99

     local   stress (kbar)   7167.34      0.00     -0.00
                                0.00  -1310.46     -0.01
                               -0.00     -0.01   4011.45

     nonloc. stress (kbar)    745.79      0.00      0.00
                                0.00    693.28      0.00
                                0.00      0.00    953.37

     hartree stress (kbar)   8590.48     -0.00     -0.00
                               -0.00  11540.22      0.01
                               -0.00      0.01   9270.83

     exc-cor stress (kbar)  21688.70     -0.00      0.00
                               -0.00  21692.59     -0.00
                                0.00     -0.00  21698.73

     corecor stress (kbar) -29881.08      0.00     -0.00
                                0.00 -29897.06      0.00
                               -0.00      0.00 -29893.67

     ewald   stress (kbar) -36804.23     -0.00     -0.00
                               -0.00 -31326.81     -0.00
                               -0.00     -0.00 -34700.79

     hubbard stress (kbar)      0.00      0.00      0.00
                                0.00      0.00      0.00
                                0.00      0.00      0.00

     DFT-D   stress (kbar)      0.00      0.00      0.00
                                0.00      0.00      0.00
                                0.00      0.00      0.00

     XDM     stress (kbar)      0.00      0.00      0.00
                                0.00      0.00      0.00
                                0.00      0.00      0.00

     dft-nl  stress (kbar)      0.00      0.00      0.00
                                0.00      0.00      0.00
                                0.00      0.00      0.00

     TS-vdW  stress (kbar)      0.00      0.00      0.00
                                0.00      0.00      0.00
                                0.00      0.00      0.00

[...]

                                0.00      0.00      0.00

     Writing all to output data dir new_calculations/myprefix.save/

     General routines

     Parallel routines

   This run was terminated on:  11:12:11  20May2023

   JOB DONE.