     Program PWSCF v.7.0 starts on 20May2023 at 20:24:29

     Reading input from espresso_4634.pwi
Warning: card &CELL ignored
Warning: card / ignored

     Current dimensions of program PWSCF are:
     Max number of different atomic species (ntypx) = 10
     Max number of k-points (npk) =  40000
     Max angular momentum in pseudopotentials (lmaxx) =  4
     file O.pbe-n-kjpaw_psl.0.1.UPF: wavefunction(s)  2P renormalized

     gamma-point specific algorithms are used
     Message from routine setup:
     using ibrav=0 with symmetry is DISCOURAGED, use correct ibrav instead

     Subspace diagonalization in iterative solution of the eigenvalue problem:
     a serial algorithm will be used

     Using Slab Decomposition

     bravais-lattice index     =            0
     lattice parameter (alat)  =      10.9043  a.u.
     unit-cell volume          =    1946.3009 (a.u.)^3
     number of atoms/cell      =           20
     number of atomic types    =            3
     number of electrons       =       220.00
     number of Kohn-Sham states=          132
     kinetic-energy cutoff     =      30.0000  Ry
     charge density cutoff     =     240.0000  Ry
     scf convergence threshold =      1.0E-06
     mixing beta               =       0.7000
     number of iterations used =            8  plain     mixing
     Exchange-correlation= SLA  PW   PBX  PBC
                           (   1   4   3   4   0   0   0)

     celldm(1)=  10.904292  celldm(2)=   0.000000  celldm(3)=   0.000000
     celldm(4)=   0.000000  celldm(5)=   0.000000  celldm(6)=   0.000000

     crystal axes: (cart. coord. in units of alat)
               a(1) = (   1.000000   0.000000   0.000000 )
               a(2) = (   0.000000   1.038039   0.000000 )
               a(3) = (   0.000000   0.000000   1.446118 )

     reciprocal axes: (cart. coord. in units 2 pi/alat)
               b(1) = (  1.000000  0.000000  0.000000 )
               b(2) = (  0.000000  0.963355  0.000000 )
               b(3) = (  0.000000  0.000000  0.691507 )

     PseudoPot. # 1 for Ce read from file:
     /home/pragov/projects/rrg-bengioy-ad/pragov/crystal_structure_design/SSSP/Ce.GGA-PBE-paw-v1.0.UPF
     MD5 check sum: f2b950f613061344c13339c8d844425d
     Pseudo is Projector augmented-wave + core cor, Zval = 12.0
     Generated using ATOMPAW code
     Shape of augmentation charge: BESSEL
     Using radial grid of 1102 points,  8 beta functions with:
                l(1) =   0
                l(2) =   0
                l(3) =   1
                l(4) =   1
                l(5) =   2
                l(6) =   2
                l(7) =   3
                l(8) =   3
     Q(r) pseudized with 0 coefficients

     PseudoPot. # 2 for Lu read from file:
     /home/pragov/projects/rrg-bengioy-ad/pragov/crystal_structure_design/SSSP/Lu.GGA-PBE-paw-v1.0.UPF
     MD5 check sum: 9ceca61ee0c17e9380a83635bfffa61d
     Pseudo is Projector augmented-wave + core cor, Zval = 25.0
     Generated using ATOMPAW code
     Shape of augmentation charge: BESSEL
     Using radial grid of 1118 points,  8 beta functions with:
                l(1) =   0
                l(2) =   0
                l(3) =   1
                l(4) =   1
                l(5) =   2
                l(6) =   2
                l(7) =   3
                l(8) =   3
     Q(r) pseudized with 0 coefficients

     PseudoPot. # 3 for O  read from file:
     /home/pragov/projects/rrg-bengioy-ad/pragov/crystal_structure_design/SSSP/O.pbe-n-kjpaw_psl.0.1.UPF
     MD5 check sum: 0234752ac141de4415c5fc33072bef88
     Pseudo is Projector augmented-wave + core cor, Zval =  6.0
     Generated using "atomic" code by A. Dal Corso  v.5.0.99 svn rev. 10869
     Shape of augmentation charge: BESSEL
     Using radial grid of 1095 points,  4 beta functions with:
                l(1) =   0
                l(2) =   0
                l(3) =   1
                l(4) =   1
     Q(r) pseudized with 0 coefficients

     atomic species   valence    mass     pseudopotential
        Ce            12.00   140.11600     Ce( 1.00)
        Lu            25.00   174.96680     Lu( 1.00)
        O              6.00    15.99900     O ( 1.00)

      8 Sym. Ops., with inversion, found ( 6 have fractional translation)

                                    s                        frac. trans.

      isym =  1     identity

 cryst.   s( 1) = (     1          0          0      )
                  (     0          1          0      )
                  (     0          0          1      )

 cart.    s( 1) = (  1.0000000  0.0000000  0.0000000 )
                  (  0.0000000  1.0000000  0.0000000 )
                  (  0.0000000  0.0000000  1.0000000 )

      isym =  2     180 deg rotation - cart. axis [0,0,1]

 cryst.   s( 2) = (    -1          0          0      )    f =(  0.0000000 )
                  (     0         -1          0      )       (  0.0000000 )
                  (     0          0          1      )       (  0.5000000 )

 cart.    s( 2) = ( -1.0000000  0.0000000  0.0000000 )    f =(  0.0000000 )
                  (  0.0000000 -1.0000000  0.0000000 )       (  0.0000000 )
                  (  0.0000000  0.0000000  1.0000000 )       (  0.7230589 )

[...]

      isym =  4     180 deg rotation - cart. axis [1,0,0]

[...]

      isym =  5     inversion

 cryst.   s( 5) = (    -1          0          0      )
                  (     0         -1          0      )
                  (     0          0         -1      )

 cart.    s( 5) = ( -1.0000000  0.0000000  0.0000000 )
                  (  0.0000000 -1.0000000  0.0000000 )
                  (  0.0000000  0.0000000 -1.0000000 )

      isym =  6     inv. 180 deg rotation - cart. axis [0,0,1]

[...]

      isym =  8     inv. 180 deg rotation - cart. axis [1,0,0]

 cryst.   s( 8) = (    -1          0          0      )    f =(  0.5000000 )
                  (     0          1          0      )       (  0.5000000 )
                  (     0          0          1      )       (  0.0000000 )

 cart.    s( 8) = ( -1.0000000  0.0000000  0.0000000 )    f =(  0.5000000 )
                  (  0.0000000  1.0000000  0.0000000 )       (  0.5190197 )
                  (  0.0000000  0.0000000  1.0000000 )       (  0.0000000 )

   Cartesian axes

     site n.     atom                  positions (alat units)
         1           Ce  tau(   1) = (   0.0131050   0.4622016   0.3615295  )
         2           Ce  tau(   2) = (   0.9868950   0.5758378   1.0845884  )
         3           Ce  tau(   3) = (   0.5131050   0.0568181   1.0845884  )
         4           Ce  tau(   4) = (   0.4868950   0.9812213   0.3615295  )
         5           Lu  tau(   5) = (   0.0000000   0.0000000   0.0000000  )
         6           Lu  tau(   6) = (   0.5000000   0.5190197   0.0000000  )
         7           Lu  tau(   7) = (   0.0000000   0.0000000   0.7230589  )
         8           Lu  tau(   8) = (   0.5000000   0.5190197   0.7230589  )
         9           O   tau(   9) = (   0.3128610   0.1962569   0.0935248  )
        10           O   tau(  10) = (   0.6871390   0.8417825   1.3525930  )
        11           O   tau(  11) = (   0.8128610   0.3227628   1.3525930  )
        12           O   tau(  12) = (   0.6871390   0.8417825   0.8165837  )
        13           O   tau(  13) = (   0.1871390   0.7152766   0.0935248  )
        14           O   tau(  14) = (   0.3128610   0.1962569   0.6295341  )
        15           O   tau(  15) = (   0.1871390   0.7152766   0.6295341  )
        16           O   tau(  16) = (   0.8128610   0.3227628   0.8165837  )
        17           O   tau(  17) = (   0.6245380   0.5730279   0.3615295  )
        18           O   tau(  18) = (   0.3754620   0.4650116   1.0845884  )
        19           O   tau(  19) = (   0.1245380   0.9840313   1.0845884  )
        20           O   tau(  20) = (   0.8754620   0.0540082   0.3615295  )

   Crystallographic axes

     site n.     atom                  positions (cryst. coord.)
         1           Ce  tau(   1) = (  0.0131050  0.4452640  0.2500000  )
         2           Ce  tau(   2) = (  0.9868950  0.5547360  0.7500000  )
         3           Ce  tau(   3) = (  0.5131050  0.0547360  0.7500000  )
         4           Ce  tau(   4) = (  0.4868950  0.9452640  0.2500000  )
         5           Lu  tau(   5) = (  0.0000000  0.0000000  0.0000000  )
         6           Lu  tau(   6) = (  0.5000000  0.5000000  0.0000000  )
         7           Lu  tau(   7) = (  0.0000000  0.0000000  0.5000000  )
         8           Lu  tau(   8) = (  0.5000000  0.5000000  0.5000000  )
         9           O   tau(   9) = (  0.3128610  0.1890650  0.0646730  )
        10           O   tau(  10) = (  0.6871390  0.8109350  0.9353270  )
        11           O   tau(  11) = (  0.8128610  0.3109350  0.9353270  )
        12           O   tau(  12) = (  0.6871390  0.8109350  0.5646730  )
        13           O   tau(  13) = (  0.1871390  0.6890650  0.0646730  )
        14           O   tau(  14) = (  0.3128610  0.1890650  0.4353270  )
        15           O   tau(  15) = (  0.1871390  0.6890650  0.4353270  )
        16           O   tau(  16) = (  0.8128610  0.3109350  0.5646730  )
        17           O   tau(  17) = (  0.6245380  0.5520290  0.2500000  )
        18           O   tau(  18) = (  0.3754620  0.4479710  0.7500000  )
        19           O   tau(  19) = (  0.1245380  0.9479710  0.7500000  )
        20           O   tau(  20) = (  0.8754620  0.0520290  0.2500000  )

     number of k points=     1  Methfessel-Paxton smearing, width (Ry)=  0.0010
                       cart. coord. in units 2pi/alat
        k(    1) = (   0.0000000   0.0000000   0.0000000), wk =   2.0000000

                       cryst. coord.
        k(    1) = (   0.0000000   0.0000000   0.0000000), wk =   2.0000000

     Check: negative core charge=   -0.000011

     Initial potential from superposition of free atoms

     starting charge     219.9569, renormalised to     220.0000
     Starting wfcs are  304 randomized atomic wfcs
     Checking if some PAW data can be deallocated...

     Self-consistent Calculation

     iteration #  1     ecut=    30.00 Ry     beta= 0.70
     Davidson diagonalization with overlap

     ethr =  1.00E-02,  avg # of iterations =  2.0

     total energy              =   -6748.02208654 Ry
     estimated scf accuracy    <       5.74121834 Ry

[...]

     c_bands:  5 eigenvalues not converged
     ethr =  3.72E-05,  avg # of iterations = 20.0

[...]

     total energy              =   -6751.01483869 Ry
     estimated scf accuracy    <       0.00000187 Ry

     iteration # 54     ecut=    30.00 Ry     beta= 0.70
     Davidson diagonalization with overlap

     ethr =  8.52E-10,  avg # of iterations =  7.0

     End of self-consistent calculation

          k = 0.0000 0.0000 0.0000 (  2712 PWs)   bands (ev):

   -41.3274 -41.3250 -41.2742 -41.2717 -20.2132 -20.1979 -20.1603 -20.1446
   -12.4032 -12.3894 -12.3515 -12.3321 -12.3312 -12.3082 -12.1768 -12.1491
   -12.1267 -12.1257 -12.1077 -12.0919  -5.6583  -5.4969  -5.4485  -5.2363
    -5.0646  -4.9400  -4.7982  -4.7825  -4.4437  -4.4060  -4.0206  -3.8897
    -3.0832  -3.0029  -2.8816  -2.8240  -2.6632  -2.5011  -2.3105  -1.9374
[...]
     8.9073   8.9843   9.0250   9.1254   9.1471   9.2657   9.4442   9.5250
     9.5954   9.6407   9.6685   9.6787   9.6991   9.7483   9.7617   9.7905
     9.8197   9.8409   9.8709   9.8724   9.9471   9.9560   9.9885  10.0197
    10.0249  10.1159  10.1484  10.1781  10.2138  10.2157  10.2489  10.2611
    10.2619  10.2661  10.2673  10.2722  10.2857  10.3022  10.3128  10.3852
    10.4155  10.4249  10.4304  10.4706  10.4936  10.5271  10.6132  10.6218
    10.7112  10.7325  11.0012  11.1055  11.1916  11.2440  11.2578  11.5594
    11.5829  11.6266  11.7463  11.8355  14.9965  15.0532  15.0789  15.1011
    15.1029  15.1665  15.2133  15.2202  15.2312  15.2389  15.2515  15.2614
    15.2676  15.2686  15.3237  15.3340  15.3727  15.3742  15.3838  15.3887
    15.3973  15.4122  15.4438  15.4922

     occupation numbers
     1.0000   1.0000   1.0000   1.0000   1.0000   1.0000   1.0000   1.0000
     1.0000   1.0000   1.0000   1.0000   1.0000   1.0000   1.0000   1.0000
     1.0000   1.0000   1.0000   1.0000   1.0000   1.0000   1.0000   1.0000
     1.0000   1.0000   1.0000   1.0000   1.0000   1.0000   1.0000   1.0000
     1.0000   1.0000   1.0000   1.0000   1.0000   1.0000   1.0000   1.0000
     1.0000   1.0000   1.0000   1.0000   1.0000   1.0000   1.0000   1.0000
     1.0000   1.0000   1.0000   1.0000   1.0000   1.0000   1.0000   1.0000
     1.0000   1.0000   1.0000   1.0000   1.0000   1.0000   1.0000   1.0000
     1.0000   1.0000   1.0000   1.0000   1.0000   1.0000   1.0000   1.0000
     1.0000   1.0000   1.0000   1.0000   1.0000   1.0000   1.0000   1.0000
     1.0000   1.0000   1.0000   1.0000   1.0000   1.0000   1.0000   1.0000
     1.0000   1.0000   1.0000   1.0000   1.0000   1.0000   1.0000   1.0000
     1.0000   1.0000   1.0000   1.0000   1.0000   1.0000   1.0000   1.0000
     1.0000   1.0000   1.0000   1.0000   1.0000   1.0191  -0.0178  -0.0008
    -0.0004  -0.0000  -0.0000  -0.0000  -0.0000  -0.0000  -0.0000  -0.0000
    -0.0000  -0.0000  -0.0000  -0.0000  -0.0000  -0.0000  -0.0000  -0.0000
    -0.0000  -0.0000  -0.0000  -0.0000

     the Fermi energy is    15.0661 ev

!    total energy              =   -6751.01483838 Ry

     total all-electron energy =     -8057.177547 Ry
     estimated scf accuracy    <       0.00000063 Ry
     smearing contrib. (-TS)   =       0.00018888 Ry
     internal energy E=F+TS    =   -6751.01502725 Ry

     The total energy is F=E-TS. E is the sum of the following terms:
     one-electron contribution =   -1902.97325645 Ry
     hartree contribution      =     952.09258717 Ry
     xc contribution           =    -297.58577372 Ry
     ewald contribution        =   -1791.08504054 Ry
     one-center paw contrib.   =   -3711.46354372 Ry
      -> PAW hartree energy AE =    2504.94206072 Ry
      -> PAW hartree energy PS =   -2228.86043261 Ry
      -> PAW xc energy AE      =   -4273.04873462 Ry
      -> PAW xc energy PS      =     285.50356279 Ry
      -> total E_H with PAW    =    1228.17421528 Ry
      -> total E_XC with PAW   =   -4285.13094555 Ry

     convergence has been achieved in  54 iterations

     Forces acting on atoms (cartesian axes, Ry/au):

     atom    1 type  1   force =     0.00634444   -0.01700582    0.00000000
     atom    2 type  1   force =    -0.00634444    0.01700582    0.00000000
     atom    3 type  1   force =     0.00634444    0.01700582    0.00000000
     atom    4 type  1   force =    -0.00634444   -0.01700582    0.00000000
     atom    5 type  2   force =     0.00000000   -0.00000000    0.00000000
     atom    6 type  2   force =    -0.00000000    0.00000000   -0.00000000
     atom    7 type  2   force =    -0.00000000    0.00000000    0.00000000
     atom    8 type  2   force =     0.00000000   -0.00000000   -0.00000000
     atom    9 type  3   force =     0.01047319   -0.00691086    0.02875685
     atom   10 type  3   force =    -0.01047319    0.00691086   -0.02875685
     atom   11 type  3   force =     0.01047319    0.00691086   -0.02875685
     atom   12 type  3   force =    -0.01047319    0.00691086    0.02875685
     atom   13 type  3   force =    -0.01047319   -0.00691086    0.02875685
     atom   14 type  3   force =     0.01047319   -0.00691086   -0.02875685
     atom   15 type  3   force =    -0.01047319   -0.00691086   -0.02875685
     atom   16 type  3   force =     0.01047319    0.00691086    0.02875685
     atom   17 type  3   force =     0.01943106    0.02128928    0.00000000
     atom   18 type  3   force =    -0.01943106   -0.02128928    0.00000000
     atom   19 type  3   force =     0.01943106   -0.02128928    0.00000000
     atom   20 type  3   force =    -0.01943106    0.02128928    0.00000000
     The non-local contrib.  to forces
     atom    1 type  1   force =     0.02096374    0.04676239    0.00000000
     atom    2 type  1   force =    -0.02096374   -0.04676239    0.00000000
     atom    3 type  1   force =     0.02096374   -0.04676239    0.00000000
     atom    4 type  1   force =    -0.02096374    0.04676239    0.00000000
     atom    5 type  2   force =     0.00000000    0.00000000    0.00000000
     atom    6 type  2   force =     0.00000000   -0.00000000    0.00000000
     atom    7 type  2   force =     0.00000000    0.00000000    0.00000000
     atom    8 type  2   force =     0.00000000    0.00000000    0.00000000
     atom    9 type  3   force =    -0.05300589    0.00570828    0.03115546
     atom   10 type  3   force =     0.05300589   -0.00570828   -0.03115546
     atom   11 type  3   force =    -0.05300589   -0.00570828   -0.03115546
     atom   12 type  3   force =     0.05300589   -0.00570828    0.03115546
     atom   13 type  3   force =     0.05300589    0.00570828    0.03115546
     atom   14 type  3   force =    -0.05300589    0.00570828   -0.03115546
     atom   15 type  3   force =     0.05300589    0.00570828   -0.03115546
     atom   16 type  3   force =    -0.05300589   -0.00570828    0.03115546
     atom   17 type  3   force =    -0.05663967   -0.01655177    0.00000000
     atom   18 type  3   force =     0.05663967    0.01655177    0.00000000
     atom   19 type  3   force =    -0.05663967    0.01655177    0.00000000
     atom   20 type  3   force =     0.05663967   -0.01655177    0.00000000
     The ionic contribution  to forces
     atom    1 type  1   force =    -1.05036757    2.10159492    0.00000000
     atom    2 type  1   force =     1.05036757   -2.10159492    0.00000000
     atom    3 type  1   force =    -1.05036757   -2.10159492    0.00000000
     atom    4 type  1   force =     1.05036757    2.10159492   -0.00000000
     atom    5 type  2   force =     0.00000000   -0.00000000   -0.00000000
     atom    6 type  2   force =    -0.00000000   -0.00000000   -0.00000000
     atom    7 type  2   force =     0.00000000   -0.00000000    0.00000000
     atom    8 type  2   force =    -0.00000000   -0.00000000    0.00000000
     atom    9 type  3   force =     3.02845097   -1.70628742    2.86170860
     atom   10 type  3   force =    -3.02845097    1.70628742   -2.86170860
     atom   11 type  3   force =     3.02845097    1.70628742   -2.86170860
     atom   12 type  3   force =    -3.02845097    1.70628742    2.86170860
     atom   13 type  3   force =    -3.02845097   -1.70628742    2.86170860
     atom   14 type  3   force =     3.02845097   -1.70628742   -2.86170860
     atom   15 type  3   force =    -3.02845097   -1.70628742   -2.86170860
     atom   16 type  3   force =     3.02845097    1.70628742    2.86170860
     atom   17 type  3   force =     4.60128228    1.09453463   -0.00000000
     atom   18 type  3   force =    -4.60128228   -1.09453463    0.00000000
     atom   19 type  3   force =     4.60128228   -1.09453463    0.00000000
     atom   20 type  3   force =    -4.60128228    1.09453463   -0.00000000
     The local contribution  to forces
     atom    1 type  1   force =     1.03555796   -2.16517869    0.02779405
     atom    2 type  1   force =    -1.03561163    2.16554521   -0.02781714
     atom    3 type  1   force =     1.03570930    2.16509436   -0.02789300
     atom    4 type  1   force =    -1.03565589   -2.16534188    0.02800307
     atom    5 type  2   force =    -0.00001859   -0.00017850   -0.00036055
     atom    6 type  2   force =     0.00001556    0.00011318   -0.00019872
     atom    7 type  2   force =    -0.00004886   -0.00025581    0.00035812
     atom    8 type  2   force =     0.00002560    0.00023345    0.00018749
     atom    9 type  3   force =    -2.96410746    1.69317840   -2.86058369
     atom   10 type  3   force =     2.96423415   -1.69331870    2.86051843
     atom   11 type  3   force =    -2.96438621   -1.69361086    2.86041385
     atom   12 type  3   force =     2.96673194   -1.69451537   -2.86753300
     atom   13 type  3   force =     2.96449925    1.69377991   -2.86069291
     atom   14 type  3   force =    -2.96659997    1.69437868    2.86756351
     atom   15 type  3   force =     2.96697795    1.69495971    2.86766186
     atom   16 type  3   force =    -2.96687243   -1.69480080   -2.86738386
     atom   17 type  3   force =    -4.52646849   -1.05674058    0.00487226
     atom   18 type  3   force =     4.52621107    1.05694644   -0.00486559
     atom   19 type  3   force =    -4.52612068    1.05697872   -0.00486905
     atom   20 type  3   force =     4.52590101   -1.05721881    0.00486626
     The core correction contribution to forces
     atom    1 type  1   force =     0.00004545   -0.00010281    0.00001672
     atom    2 type  1   force =    -0.00004550    0.00010301   -0.00001672
     atom    3 type  1   force =     0.00004557    0.00010280   -0.00001678
     atom    4 type  1   force =    -0.00004555   -0.00010293    0.00001685
     atom    5 type  2   force =    -0.00000000    0.00000000   -0.00000000
     atom    6 type  2   force =     0.00000000   -0.00000000    0.00000000
     atom    7 type  2   force =    -0.00000000   -0.00000000    0.00000000
     atom    8 type  2   force =     0.00000000    0.00000000   -0.00000000
     atom    9 type  3   force =     0.00059505   -0.00041099   -0.00009750
     atom   10 type  3   force =    -0.00059522    0.00041108    0.00009734
     atom   11 type  3   force =     0.00059492    0.00041142    0.00009726
     atom   12 type  3   force =    -0.00057362    0.00039458   -0.00016137
     atom   13 type  3   force =    -0.00059516   -0.00041145   -0.00009740
     atom   14 type  3   force =     0.00057346   -0.00039452    0.00016140
     atom   15 type  3   force =    -0.00057359   -0.00039492    0.00016139
     atom   16 type  3   force =     0.00057341    0.00039483   -0.00016143
     atom   17 type  3   force =     0.00096497    0.00025787    0.00005812
     atom   18 type  3   force =    -0.00096483   -0.00025781   -0.00005812
     atom   19 type  3   force =     0.00096478   -0.00025796   -0.00005815
     atom   20 type  3   force =    -0.00096455    0.00025805    0.00005811
     The Hubbard contrib.    to forces
     atom    1 type  1   force =     0.00000000    0.00000000    0.00000000
     atom    2 type  1   force =     0.00000000    0.00000000    0.00000000
     atom    3 type  1   force =     0.00000000    0.00000000    0.00000000
     atom    4 type  1   force =     0.00000000    0.00000000    0.00000000
     atom    5 type  2   force =     0.00000000    0.00000000    0.00000000
     atom    6 type  2   force =     0.00000000    0.00000000    0.00000000
     atom    7 type  2   force =     0.00000000    0.00000000    0.00000000
     atom    8 type  2   force =     0.00000000    0.00000000    0.00000000
     atom    9 type  3   force =     0.00000000    0.00000000    0.00000000
     atom   10 type  3   force =     0.00000000    0.00000000    0.00000000
     atom   11 type  3   force =     0.00000000    0.00000000    0.00000000
     atom   12 type  3   force =     0.00000000    0.00000000    0.00000000
     atom   13 type  3   force =     0.00000000    0.00000000    0.00000000
     atom   14 type  3   force =     0.00000000    0.00000000    0.00000000
     atom   15 type  3   force =     0.00000000    0.00000000    0.00000000
     atom   16 type  3   force =     0.00000000    0.00000000    0.00000000
     atom   17 type  3   force =     0.00000000    0.00000000    0.00000000
     atom   18 type  3   force =     0.00000000    0.00000000    0.00000000
     atom   19 type  3   force =     0.00000000    0.00000000    0.00000000
     atom   20 type  3   force =     0.00000000    0.00000000    0.00000000
     The SCF correction term to forces
     atom    1 type  1   force =     0.00007901   -0.00000714    0.00020322
     atom    2 type  1   force =    -0.00008212   -0.00019298   -0.00017760
     atom    3 type  1   force =     0.00003323    0.00011021   -0.00019260
     atom    4 type  1   force =    -0.00008186    0.00004355    0.00011824
     atom    5 type  2   force =     0.00001060    0.00015753    0.00036097
     atom    6 type  2   force =    -0.00002877   -0.00012187    0.00021507
     atom    7 type  2   force =     0.00007412    0.00026624   -0.00037480
     atom    8 type  2   force =    -0.00003425   -0.00024285   -0.00019438
     atom    9 type  3   force =    -0.00017566    0.00029777    0.00012778
     atom   10 type  3   force =     0.00003736   -0.00014692   -0.00007000
     atom   11 type  3   force =     0.00009601    0.00016737    0.00003174
     atom   12 type  3   force =     0.00009206   -0.00017373    0.00002924
     atom   13 type  3   force =    -0.00022709   -0.00033858    0.00024377
     atom   14 type  3   force =    -0.00023570    0.00031676   -0.00006402
     atom   15 type  3   force =    -0.00014828   -0.00028161   -0.00015216
     atom   16 type  3   force =     0.00002919    0.00012002   -0.00012667
     atom   17 type  3   force =     0.00030548   -0.00021153    0.00010522
     atom   18 type  3   force =    -0.00003517    0.00000403   -0.00012004
     atom   19 type  3   force =    -0.00005570   -0.00002469   -0.00011036
     atom   20 type  3   force =     0.00028902    0.00026942    0.00010875

     Total force =     0.111876     Total SCF correction =     0.001364

     Computing stress (Cartesian axis) and pressure

          total   stress  (Ry/bohr**3)                   (kbar)     P=     -257.78
  -0.00157362   0.00000000   0.00000000         -231.49        0.00        0.00
   0.00000000  -0.00169534   0.00000000            0.00     -249.39        0.00
   0.00000000   0.00000000  -0.00198804            0.00        0.00     -292.45

     kinetic stress (kbar)  19898.35      0.00      0.00
                                0.00  19924.07      0.00
                                0.00      0.00  19779.16

     local   stress (kbar)  -7962.70     -0.07     -0.09
                               -0.07  -6970.97     -0.79
                               -0.09     -0.79  -6557.53

     nonloc. stress (kbar)  15239.45      0.00      0.00
                                0.00  15242.49      0.00
                                0.00      0.00  15282.99

     hartree stress (kbar)  24202.00     -0.05      0.02
                               -0.05  23873.21     -2.41
                                0.02     -2.41  23885.74

     exc-cor stress (kbar)  -6665.98     -0.00     -0.00
                               -0.00  -6666.16      0.01
                               -0.00      0.01  -6670.01

     corecor stress (kbar)   -411.45     -0.00     -0.00
                               -0.00   -411.36     -0.00
                               -0.00     -0.00   -411.05

     ewald   stress (kbar) -44531.15      0.00     -0.00
                                0.00 -45240.67     -0.00
                               -0.00     -0.00 -45601.76

     hubbard stress (kbar)      0.00      0.00      0.00
                                0.00      0.00      0.00
                                0.00      0.00      0.00

     DFT-D   stress (kbar)      0.00      0.00      0.00
                                0.00      0.00      0.00
                                0.00      0.00      0.00

     XDM     stress (kbar)      0.00      0.00      0.00
                                0.00      0.00      0.00
                                0.00      0.00      0.00

     dft-nl  stress (kbar)      0.00      0.00      0.00
                                0.00      0.00      0.00
                                0.00      0.00      0.00

     TS-vdW  stress (kbar)      0.00      0.00      0.00
                                0.00      0.00      0.00
                                0.00      0.00      0.00

[...]

                                0.00      0.00      0.00

     Writing all to output data dir new_calculations/myprefix.save/

     General routines

     Parallel routines

     PAW routines

   This run was terminated on:  20:28:39  20May2023

   JOB DONE.