     Program PWSCF v.7.0 starts on 21May2023 at  3:48:53

     Reading input from espresso_9973.pwi
Warning: card &CELL ignored
Warning: card / ignored

     Current dimensions of program PWSCF are:
     Max number of different atomic species (ntypx) = 10
     Max number of k-points (npk) =  40000
     Max angular momentum in pseudopotentials (lmaxx) =  4

     gamma-point specific algorithms are used
     Message from routine setup:
     using ibrav=0 with symmetry is DISCOURAGED, use correct ibrav instead

     Subspace diagonalization in iterative solution of the eigenvalue problem:
     a serial algorithm will be used

     Using Slab Decomposition

     bravais-lattice index     =            0
     lattice parameter (alat)  =      27.8686  a.u.
     unit-cell volume          =    3164.5629 (a.u.)^3
     number of atoms/cell      =           18
     number of atomic types    =            3
     number of electrons       =       192.00
     number of Kohn-Sham states=          115
     kinetic-energy cutoff     =      30.0000  Ry
     charge density cutoff     =     240.0000  Ry
     scf convergence threshold =      1.0E-06
     mixing beta               =       0.7000
     number of iterations used =            8  plain     mixing
     Exchange-correlation=  SLA  PW   PBX  PBC
                           (   1   4   3   4   0   0   0)

     celldm(1)=  27.868613  celldm(2)=   0.000000  celldm(3)=   0.000000
     celldm(4)=   0.000000  celldm(5)=   0.000000  celldm(6)=   0.000000

     crystal axes: (cart. coord. in units of alat)
               a(1) = (   1.000000   0.000000   0.000000 )
               a(2) = (   0.861904   0.404876   0.000000 )
               a(3) = (   0.138096  -0.183085   0.361115 )

     reciprocal axes: (cart. coord. in units 2 pi/alat)
               b(1) = (  1.000000 -2.128810 -1.461722 )
               b(2) = (  0.000000  2.469893  1.252235 )
               b(3) = (  0.000000  0.000000  2.769199 )

     PseudoPot. # 1 for Rb read from file:
     /home/pragov/projects/rrg-bengioy-ad/pragov/crystal_structure_design/SSSP/Rb_ONCV_PBE-1.0.oncvpsp.upf
     MD5 check sum: 55a5172d6bfbce6759a58e35d43f6aa9
     Pseudo is Norm-conserving, Zval =  9.0
     Generated using ONCVPSP code by D. R. Hamann
     Using radial grid of 2308 points,  6 beta functions with:
                l(1) =   0
                l(2) =   0
                l(3) =   1
                l(4) =   1
                l(5) =   2
                l(6) =   2

     PseudoPot. # 2 for Pd read from file:
     /home/pragov/projects/rrg-bengioy-ad/pragov/crystal_structure_design/SSSP/Pd_ONCV_PBE-1.0.oncvpsp.upf
     MD5 check sum: eb77f42b51d86fb18e25f68156a31cf1
     Pseudo is Norm-conserving, Zval = 18.0
     Generated using ONCVPSP code by D. R. Hamann
     Using radial grid of 1410 points,  6 beta functions with:
                l(1) =   0
                l(2) =   0
                l(3) =   1
                l(4) =   1
                l(5) =   2
                l(6) =   2

     PseudoPot. # 3 for S  read from file:
     /home/pragov/projects/rrg-bengioy-ad/pragov/crystal_structure_design/SSSP/s_pbe_v1.4.uspp.F.UPF
     MD5 check sum: 88d86576ff6df21479756cfb9bdac1df
     Pseudo is Ultrasoft + core correction, Zval =  6.0
     Generated by new atomic code, or converted to UPF format
     Using radial grid of  907 points,  6 beta functions with:
                l(1) =   0
                l(2) =   0
                l(3) =   1
                l(4) =   1
                l(5) =   2
                l(6) =   2
     Q(r) pseudized with  8 coefficients,  rinner =    1.300   1.300   1.300
                                                       1.300   1.300

     atomic species   valence    mass     pseudopotential
        Rb             9.00    85.46780     Rb( 1.00)
        Pd            18.00   106.42000     Pd( 1.00)
        S              6.00    32.06000     S ( 1.00)

      2 Sym. Ops., with inversion, found ( 1 have fractional translation)

                                    s                        frac. trans.

      isym =  1     identity

 cryst.   s( 1) = (     1          0          0      )
                  (     0          1          0      )
                  (     0          0          1      )

 cart.    s( 1) = (  1.0000000 -0.0000000  0.0000000 )
                  (  0.0000000  1.0000000  0.0000000 )
                  (  0.0000000  0.0000000  1.0000000 )

      isym =  2     inversion

 cryst.   s( 2) = (    -1          0          0      )    f =( -0.2500000 )
                  (     0         -1          0      )       ( -0.2500000 )
                  (     0          0         -1      )       ( -0.2500000 )

 cart.    s( 2) = ( -1.0000000  0.0000000 -0.0000000 )    f =( -0.5000000 )
                  (  0.0000000 -1.0000000 -0.0000000 )       ( -0.0554476 )
                  (  0.0000000  0.0000000 -1.0000000 )       ( -0.0902788 )

   Cartesian axes

     site n.     atom                  positions (alat units)
         1           Rb  tau(   1) = (   0.2730893  -0.1370415   0.3328359  )
         2           Rb  tau(   2) = (   1.7269107   0.3588320   0.0282793  )
         3           Rb  tau(   3) = (   0.3650069   0.0094038   0.1185581  )
         4           Rb  tau(   4) = (   0.6349931   0.1014915   0.0619995  )
         5           Pd  tau(   5) = (   1.0000000   0.1108953   0.1805576  )
         6           Pd  tau(   6) = (   1.5000000   0.1663429   0.2708364  )
         7           Pd  tau(   7) = (   1.4298107   0.2574963   0.0905179  )
         8           Pd  tau(   8) = (   0.5701893  -0.0357058   0.2705974  )
         9           Pd  tau(   9) = (   1.0701893   0.0197418   0.3608762  )
        10           Pd  tau(  10) = (   1.9298107   0.3129439   0.1807967  )
        11           S   tau(  11) = (   0.9493948  -0.0187138   0.2622256  )
        12           S   tau(  12) = (   1.1423259   0.0452505   0.2188113  )
        13           S   tau(  13) = (   0.8576751   0.1746989   0.1393063  )
        14           S   tau(  14) = (   1.0506062   0.2423456   0.1018876  )
        15           S   tau(  15) = (   1.5506052   0.2959520   0.1891684  )
        16           S   tau(  16) = (   1.3576741   0.2319877   0.2325828  )
        17           S   tau(  17) = (   1.6423249   0.1025392   0.3120877  )
        18           S   tau(  18) = (   1.4493938   0.0348925   0.3495065  )

   Crystallographic axes

     site n.     atom                  positions (cryst. coord.)
         1           Rb  tau(   1) = (  0.0783110  0.0783110  0.9216890  )
         2           Rb  tau(   2) = (  0.9216890  0.9216890  0.0783110  )
         3           Rb  tau(   3) = (  0.1716890  0.1716890  0.3283110  )
         4           Rb  tau(   4) = (  0.3283110  0.3283110  0.1716890  )
         5           Pd  tau(   5) = (  0.5000000  0.5000000  0.5000000  )
         6           Pd  tau(   6) = (  0.7500000  0.7500000  0.7500000  )
         7           Pd  tau(   7) = (  0.7493380  0.7493380  0.2506620  )
         8           Pd  tau(   8) = (  0.2506620  0.2506620  0.7493380  )
         9           Pd  tau(   9) = (  0.5006620  0.5006620  0.9993380  )
        10           Pd  tau(  10) = (  0.9993380  0.9993380  0.5006620  )
        11           S   tau(  11) = (  0.6059320  0.2821470  0.7261550  )
        12           S   tau(  12) = (  0.7261550  0.3857670  0.6059320  )
        13           S   tau(  13) = (  0.2821470  0.6059320  0.3857670  )
        14           S   tau(  14) = (  0.3857670  0.7261550  0.2821470  )
        15           S   tau(  15) = (  0.6440680  0.9678530  0.5238450  )
        16           S   tau(  16) = (  0.5238450  0.8642330  0.6440680  )
        17           S   tau(  17) = (  0.9678530  0.6440680  0.8642330  )
        18           S   tau(  18) = (  0.8642330  0.5238450  0.9678530  )

     number of k points=     1  Methfessel-Paxton smearing, width (Ry)=  0.0010
                       cart. coord. in units 2pi/alat
        k(    1) = (   0.0000000   0.0000000   0.0000000), wk =   2.0000000

                       cryst. coord.
        k(    1) = (   0.0000000   0.0000000   0.0000000), wk =   2.0000000

     Initial potential from superposition of free atoms

     starting charge     191.8985, renormalised to     192.0000
     Starting wfcs are  112 randomized atomic wfcs +    3 random wfcs

     Self-consistent Calculation

     iteration #  1     ecut=    30.00 Ry     beta= 0.70
     Davidson diagonalization with overlap

     ethr =  1.00E-02,  avg # of iterations =  5.0

     Threshold (ethr) on eigenvalues was too large:
     Diagonalizing with lowered threshold

     Davidson diagonalization with overlap

[...]

     total energy              =   -1906.95560746 Ry
     estimated scf accuracy    <       1.38611139 Ry

[...]

     total energy              =   -1907.62986687 Ry
     estimated scf accuracy    <       0.00000678 Ry

     iteration # 10     ecut=    30.00 Ry     beta= 0.70
     Davidson diagonalization with overlap

     ethr =  3.53E-09,  avg # of iterations =  2.0

     End of self-consistent calculation

          k = 0.0000 0.0000 0.0000 (  4397 PWs)   bands (ev):

   -78.1490 -78.1487 -78.1380 -78.1370 -78.1353 -78.1343 -43.8013 -43.8007
   -43.7540 -43.7527 -43.7441 -43.7437 -43.7430 -43.7425 -43.7390 -43.7381
   -43.7334 -43.7320 -43.1639 -43.1631 -43.1619 -43.1610 -43.1407 -43.1398
   -19.9401 -19.9342 -19.9174 -19.9115  -6.5934  -6.5773  -5.4953  -5.4763
    -5.4728  -5.4536  -5.3510  -5.3216  -4.1994  -4.1677  -4.1620  -4.0681
    -4.0487  -4.0097  -4.0044  -3.9677  -3.9650  -3.9618  -3.9590  -3.9015
     1.0390   1.2312   1.7650   1.7830   1.7867   1.7929   2.1390   2.1414
     2.1527   2.1707   3.2035   3.3172   3.5552   3.7049   3.8780   3.8937
     3.9351   3.9517   4.0638   4.0736   4.0918   4.1184   4.5136   4.5600
     4.5932   4.6019   4.6076   4.6256   4.7270   4.7429   4.7657   4.7803
     5.0692   5.1441   5.1540   5.1723   5.1925   5.2661   5.2778   5.4627
     5.5681   5.7367   6.0450   6.0538   6.7363   6.7740   6.7973   6.8232
     8.4736   8.4827   8.5616   8.5656   9.4844   9.6168   9.7141  10.5877
    10.8359  10.8505  10.8718  10.8731  11.3667  11.8005  11.9771  12.3796
    12.4372  12.5520  12.6932

     occupation numbers
     1.0000   1.0000   1.0000   1.0000   1.0000   1.0000   1.0000   1.0000
     1.0000   1.0000   1.0000   1.0000   1.0000   1.0000   1.0000   1.0000
     1.0000   1.0000   1.0000   1.0000   1.0000   1.0000   1.0000   1.0000
     1.0000   1.0000   1.0000   1.0000   1.0000   1.0000   1.0000   1.0000
     1.0000   1.0000   1.0000   1.0000   1.0000   1.0000   1.0000   1.0000
     1.0000   1.0000   1.0000   1.0000   1.0000   1.0000   1.0000   1.0000
     1.0000   1.0000   1.0000   1.0000   1.0000   1.0000   1.0000   1.0000
     1.0000   1.0000   1.0000   1.0000   1.0000   1.0000   1.0000   1.0000
     1.0000   1.0000   1.0000   1.0000   1.0000   1.0000   1.0000   1.0000
     1.0000   1.0000   1.0000   1.0000   1.0000   1.0000   1.0000   1.0000
     1.0000   1.0000   1.0000   1.0000   1.0000   1.0000   1.0000   1.0000
     1.0000   1.0000   1.0000   1.0000   1.0000   1.0000   1.0000   1.0000
    -0.0000  -0.0000  -0.0000  -0.0000  -0.0000  -0.0000  -0.0000  -0.0000
    -0.0000  -0.0000  -0.0000  -0.0000  -0.0000  -0.0000  -0.0000  -0.0000
    -0.0000  -0.0000  -0.0000

     the Fermi energy is     7.1346 ev

!    total energy              =   -1907.62986781 Ry
     estimated scf accuracy    <       0.00000035 Ry
     smearing contrib. (-TS)   =       0.00000000 Ry
     internal energy E=F+TS    =   -1907.62986781 Ry

     The total energy is F=E-TS. E is the sum of the following terms:
     one-electron contribution =   -1548.58867650 Ry
     hartree contribution      =     825.31781735 Ry
     xc contribution           =    -246.07297911 Ry
     ewald contribution        =    -938.28602954 Ry

     convergence has been achieved in  10 iterations

     Forces acting on atoms (cartesian axes, Ry/au):

     atom    1 type  1   force =     0.00484023    0.00165077   -0.00101470
     atom    2 type  1   force =    -0.00484890   -0.00165302    0.00101667
     atom    3 type  1   force =    -0.00484023   -0.00165077    0.00101470
     atom    4 type  1   force =     0.00484890    0.00165302   -0.00101667
     atom    5 type  2   force =     0.00005288    0.00004912   -0.00003155
     atom    6 type  2   force =    -0.00005288   -0.00004912    0.00003155
     atom    7 type  2   force =    -0.00071506   -0.00024054    0.00011361
     atom    8 type  2   force =     0.00058303    0.00022615   -0.00010953
     atom    9 type  2   force =     0.00071506    0.00024054   -0.00011361
     atom   10 type  2   force =    -0.00058303   -0.00022615    0.00010953
     atom   11 type  3   force =     0.04120391    0.01207899   -0.00981975
     atom   12 type  3   force =    -0.04048605   -0.01363741    0.01076932
     atom   13 type  3   force =     0.04048530    0.01578613   -0.00730445
     atom   14 type  3   force =    -0.04123799   -0.01423520    0.00634168
     atom   15 type  3   force =    -0.04120391   -0.01207899    0.00981975
     atom   16 type  3   force =     0.04048605    0.01363741   -0.01076932
     atom   17 type  3   force =    -0.04048530   -0.01578613    0.00730445
     atom   18 type  3   force =     0.04123799    0.01423520   -0.00634168
     The non-local contrib.  to forces
     atom    1 type  1   force =     0.01467577    0.00500318   -0.00307487
     atom    2 type  1   force =    -0.01468738   -0.00501049    0.00307878
     atom    3 type  1   force =    -0.01467577   -0.00500318    0.00307487
     atom    4 type  1   force =     0.01468738    0.00501049   -0.00307878
     atom    5 type  2   force =     0.00002293   -0.00002471    0.00001615
     atom    6 type  2   force =    -0.00002293    0.00002471   -0.00001615
     atom    7 type  2   force =    -0.01079527   -0.00368758    0.00229459
     atom    8 type  2   force =     0.01078494    0.00364728   -0.00227178
     atom    9 type  2   force =     0.01079527    0.00368758   -0.00229459
     atom   10 type  2   force =    -0.01078494   -0.00364728    0.00227178
     atom   11 type  3   force =     0.24229260    0.08105457   -0.04449872
     atom   12 type  3   force =    -0.23908975   -0.08784380    0.04866692
     atom   13 type  3   force =     0.23915852    0.08315996   -0.05636212
     atom   14 type  3   force =    -0.24232395   -0.07636130    0.05217654
     atom   15 type  3   force =    -0.24229260   -0.08105457    0.04449872
     atom   16 type  3   force =     0.23908975    0.08784380   -0.04866692
     atom   17 type  3   force =    -0.23915852   -0.08315996    0.05636212
     atom   18 type  3   force =     0.24232395    0.07636130   -0.05217654
     The ionic contribution  to forces
     atom    1 type  1   force =     8.81039374    3.00506844   -1.84565273
     atom    2 type  1   force =    -8.81046217   -3.00510280    1.84568404
     atom    3 type  1   force =    -8.81039374   -3.00506844    1.84565273
     atom    4 type  1   force =     8.81046217    3.00510280   -1.84568404
     atom    5 type  2   force =    -0.00001586   -0.00006205    0.00001446
     atom    6 type  2   force =     0.00001586    0.00006205   -0.00001446
     atom    7 type  2   force =    -1.05634692   -0.36032305    0.22124154
     atom    8 type  2   force =     1.05642205    0.36030615   -0.22126863
     atom    9 type  2   force =     1.05634692    0.36032305   -0.22124154
     atom   10 type  2   force =    -1.05642205   -0.36030615    0.22126863
     atom   11 type  3   force =   -17.38187309   -5.76825457    3.39705255
     atom   12 type  3   force =    17.19923689    6.15671900   -3.63565150
     atom   13 type  3   force =   -17.19937598   -6.02680379    3.84724793
     atom   14 type  3   force =    17.38173183    5.63826698   -3.60862942
     atom   15 type  3   force =    17.38187309    5.76825457   -3.39705255
     atom   16 type  3   force =   -17.19923690   -6.15671900    3.63565150
     atom   17 type  3   force =    17.19937598    6.02680379   -3.84724793
     atom   18 type  3   force =   -17.38173183   -5.63826698    3.60862942
     The local contribution  to forces
     atom    1 type  1   force =    -8.82043200   -3.00851585    1.84775842
     atom    2 type  1   force =     8.82015020    3.00839476   -1.84770092
     atom    3 type  1   force =     8.82064987    3.00863485   -1.84778013
     atom    4 type  1   force =    -8.82020324   -3.00841336    1.84766587
     atom    5 type  2   force =    -0.00023379   -0.00143410    0.00092477
     atom    6 type  2   force =    -0.00005679    0.00021227   -0.00017420
     atom    7 type  2   force =     1.06648538    0.36370698   -0.22305943
     atom    8 type  2   force =    -1.06619895   -0.36392963    0.22323582
     atom    9 type  2   force =    -1.06747409   -0.36406278    0.22198923
     atom   10 type  2   force =     1.06524698    0.36474568   -0.22244615
     atom   11 type  3   force =    17.19369065    5.70360344   -3.36479831
     atom   12 type  3   force =   -17.01361941   -6.08721876    3.60044343
     atom   13 type  3   force =    17.01322522    5.96378075   -3.80110020
     atom   14 type  3   force =   -17.19357582   -5.58025768    3.56555355
     atom   15 type  3   force =   -17.19382588   -5.70355218    3.36481679
     atom   16 type  3   force =    17.01366628    6.08732070   -3.60048263
     atom   17 type  3   force =   -17.01353098   -5.96399068    3.80118531
     atom   18 type  3   force =    17.19390633    5.58026428   -3.56559052
     The core correction contribution to forces
     atom    1 type  1   force =     0.00000000    0.00000000    0.00000000
     atom    2 type  1   force =     0.00000000    0.00000000    0.00000000
     atom    3 type  1   force =     0.00000000    0.00000000    0.00000000
     atom    4 type  1   force =     0.00000000    0.00000000    0.00000000
     atom    5 type  2   force =     0.00000000    0.00000000    0.00000000
     atom    6 type  2   force =     0.00000000    0.00000000    0.00000000
     atom    7 type  2   force =     0.00000000    0.00000000    0.00000000
     atom    8 type  2   force =     0.00000000    0.00000000    0.00000000
     atom    9 type  2   force =     0.00000000    0.00000000    0.00000000
     atom   10 type  2   force =     0.00000000    0.00000000    0.00000000
     atom   11 type  3   force =    -0.01315769   -0.00438110    0.00243312
     atom   12 type  3   force =     0.01297576    0.00476734   -0.00267865
     atom   13 type  3   force =    -0.01298244   -0.00453489    0.00303547
     atom   14 type  3   force =     0.01316221    0.00414793   -0.00280497
     atom   15 type  3   force =     0.01316006    0.00438200   -0.00243375
     atom   16 type  3   force =    -0.01297679   -0.00476779    0.00267873
     atom   17 type  3   force =     0.01297980    0.00453386   -0.00303485
     atom   18 type  3   force =    -0.01315877   -0.00414689    0.00280418
     The Hubbard contrib.    to forces
     atom    1 type  1   force =     0.00000000    0.00000000    0.00000000
     atom    2 type  1   force =     0.00000000    0.00000000    0.00000000
     atom    3 type  1   force =     0.00000000    0.00000000    0.00000000
     atom    4 type  1   force =     0.00000000    0.00000000    0.00000000
     atom    5 type  2   force =     0.00000000    0.00000000    0.00000000
     atom    6 type  2   force =     0.00000000    0.00000000    0.00000000
     atom    7 type  2   force =     0.00000000    0.00000000    0.00000000
     atom    8 type  2   force =     0.00000000    0.00000000    0.00000000
     atom    9 type  2   force =     0.00000000    0.00000000    0.00000000
     atom   10 type  2   force =     0.00000000    0.00000000    0.00000000
     atom   11 type  3   force =     0.00000000    0.00000000    0.00000000
     atom   12 type  3   force =     0.00000000    0.00000000    0.00000000
     atom   13 type  3   force =     0.00000000    0.00000000    0.00000000
     atom   14 type  3   force =     0.00000000    0.00000000    0.00000000
     atom   15 type  3   force =     0.00000000    0.00000000    0.00000000
     atom   16 type  3   force =     0.00000000    0.00000000    0.00000000
     atom   17 type  3   force =     0.00000000    0.00000000    0.00000000
     atom   18 type  3   force =     0.00000000    0.00000000    0.00000000
     The SCF correction term to forces
     atom    1 type  1   force =     0.00019478    0.00009128   -0.00004426
     atom    2 type  1   force =     0.00015653    0.00006751   -0.00004540
     atom    3 type  1   force =    -0.00042852   -0.00021770    0.00006849
     atom    4 type  1   force =    -0.00009134   -0.00004490    0.00008012
     atom    5 type  2   force =     0.00027684    0.00161132   -0.00101163
     atom    6 type  2   force =     0.00000822   -0.00030680    0.00021166
     atom    7 type  2   force =    -0.00003538    0.00007404   -0.00032127
     atom    8 type  2   force =    -0.00040580    0.00016901    0.00016665
     atom    9 type  2   force =     0.00106983    0.00030363    0.00147509
     atom   10 type  2   force =     0.00139620   -0.00105175   -0.00101316
     atom   11 type  3   force =     0.00026798    0.00006079   -0.00001253
     atom   12 type  3   force =     0.00000763   -0.00006434   -0.00000939
     atom   13 type  3   force =     0.00044559    0.00018056   -0.00012252
     atom   14 type  3   force =    -0.00021496   -0.00002490    0.00004217
     atom   15 type  3   force =    -0.00010203   -0.00010466   -0.00001361
     atom   16 type  3   force =    -0.00005912   -0.00004345    0.00005147
     atom   17 type  3   force =    -0.00016597    0.00002330    0.00004281
     atom   18 type  3   force =    -0.00008439    0.00002974   -0.00001202

     Total force =     0.125073     Total SCF correction =     0.003526

     Computing stress (Cartesian axis) and pressure

          total   stress  (Ry/bohr**3)                   (kbar)     P=     -347.60
  -0.00241727  -0.00003270   0.00002011         -355.59       -4.81        2.96
  -0.00003270  -0.00233620   0.00000087           -4.81     -343.67        0.13
   0.00002011   0.00000087  -0.00233530            2.96        0.13     -343.53

     kinetic stress (kbar)  19177.65   -102.66     63.05
                             -102.66  19450.27     32.33
                               63.05     32.33  19483.06

     local   stress (kbar)   9106.34  15413.06  -9466.41
                            15413.06 -30899.26  -3349.52
                            -9466.41  -3349.52 -34295.66

     nonloc. stress (kbar)   4031.43     23.97    -14.72
                               23.97   3969.11     -5.37
                              -14.72     -5.37   3963.66

     hartree stress (kbar)   -365.72  -7293.08   4479.27
                            -7293.08  18562.77   1583.01
                             4479.27   1583.01  20167.94

     exc-cor stress (kbar)  -1811.24      0.56     -0.35
                                0.56  -1812.62     -0.00
                               -0.35     -0.00  -1812.62

     corecor stress (kbar)  -1448.40     -0.68      0.42
                               -0.68  -1446.64      0.12
                                0.42      0.12  -1446.52

     ewald   stress (kbar) -29045.65  -8045.98   4941.70
                            -8045.98  -8167.29   1739.55
                             4941.70   1739.55  -6403.39

     hubbard stress (kbar)      0.00      0.00      0.00
                                0.00      0.00      0.00
                                0.00      0.00      0.00

     DFT-D   stress (kbar)      0.00      0.00      0.00
                                0.00      0.00      0.00
                                0.00      0.00      0.00

     XDM     stress (kbar)      0.00      0.00      0.00
                                0.00      0.00      0.00
                                0.00      0.00      0.00

     dft-nl  stress (kbar)      0.00      0.00      0.00
                                0.00      0.00      0.00
                                0.00      0.00      0.00

     TS-vdW  stress (kbar)      0.00      0.00      0.00
                                0.00      0.00      0.00
                                0.00      0.00      0.00

[...]

                                0.00      0.00      0.00

     Writing all to output data dir new_calculations/myprefix.save/

     General routines

     Parallel routines

   This run was terminated on:   3:49:52  21May2023

   JOB DONE.