     Program PWSCF v.7.0 starts on 20May2023 at  4: 0:34

     Reading input from espresso_15040.pwi
Warning: card &CELL ignored
Warning: card / ignored

     Current dimensions of program PWSCF are:
     Max number of different atomic species (ntypx) = 10
     Max number of k-points (npk) =  40000
     Max angular momentum in pseudopotentials (lmaxx) =  4

     gamma-point specific algorithms are used
     Message from routine setup:
     using ibrav=0 with symmetry is DISCOURAGED, use correct ibrav instead

     Subspace diagonalization in iterative solution of the eigenvalue problem:
     a serial algorithm will be used

     Using Slab Decomposition

     bravais-lattice index     =            0
     lattice parameter (alat)  =       7.5483  a.u.
     unit-cell volume          =    1387.0414 (a.u.)^3
     number of atoms/cell      =           12
     number of atomic types    =            3
     number of electrons       =       168.00
     number of Kohn-Sham states=          101
     kinetic-energy cutoff     =      30.0000  Ry
     charge density cutoff     =     240.0000  Ry
     scf convergence threshold =      1.0E-06
     mixing beta               =       0.7000
     number of iterations used =            8  plain     mixing
     Exchange-correlation=  SLA  PW   PBX  PBC
                           (   1   4   3   4   0   0   0)

     celldm(1)=   7.548347  celldm(2)=   0.000000  celldm(3)=   0.000000
     celldm(4)=   0.000000  celldm(5)=   0.000000  celldm(6)=   0.000000

     crystal axes: (cart. coord. in units of alat)
               a(1) = (   1.000000   0.000000   0.000000 )
               a(2) = (   0.000000   1.667312   0.000000 )
               a(3) = (   0.000000   0.000000   1.934270 )

     reciprocal axes: (cart. coord. in units 2 pi/alat)
               b(1) = (  1.000000  0.000000  0.000000 )
               b(2) = (  0.000000  0.599768  0.000000 )
               b(3) = (  0.000000  0.000000  0.516991 )

     PseudoPot. # 1 for Hf read from file:
     /home/pragov/projects/rrg-bengioy-ad/pragov/crystal_structure_design/SSSP/Hf-sp.oncvpsp.upf
     MD5 check sum: 417ed15784afe83d2e06dacf143de3f8
     Pseudo is Norm-conserving + core correction, Zval = 12.0
     Generated using ONCVPSP code by D. R. Hamann
     Using radial grid of 1656 points,  8 beta functions with:
                l(1) =   0
                l(2) =   0
                l(3) =   1
                l(4) =   1
                l(5) =   2
                l(6) =   2
                l(7) =   3
                l(8) =   3

     PseudoPot. # 2 for Ge read from file:
     /home/pragov/projects/rrg-bengioy-ad/pragov/crystal_structure_design/SSSP/ge_pbe_v1.4.uspp.F.UPF
     MD5 check sum: 9c9eaa91e581c3f09632fb3098b2c6b2
     Pseudo is Ultrasoft + core correction, Zval = 14.0
     Generated by new atomic code, or converted to UPF format
     Using radial grid of  873 points,  6 beta functions with:
                l(1) =   0
                l(2) =   0
                l(3) =   1
                l(4) =   1
                l(5) =   2
                l(6) =   2
     Q(r) pseudized with  8 coefficients,  rinner =    1.400   1.400   1.400
                                                       1.400   1.400

     PseudoPot. # 3 for Pt read from file:
     /home/pragov/projects/rrg-bengioy-ad/pragov/crystal_structure_design/SSSP/pt_pbe_v1.4.uspp.F.UPF
     MD5 check sum: f09d6de1a584b5a045c4fc126da2d0c4
     Pseudo is Ultrasoft + core correction, Zval = 16.0
     Generated by new atomic code, or converted to UPF format
     Using radial grid of  985 points,  6 beta functions with:
                l(1) =   0
                l(2) =   0
                l(3) =   1
                l(4) =   1
                l(5) =   2
                l(6) =   2
     Q(r) pseudized with  8 coefficients,  rinner =    1.300   1.300   1.300
                                                       1.300   1.300

     atomic species   valence    mass     pseudopotential
        Hf            12.00   178.49000     Hf( 1.00)
        Ge            14.00    72.63000     Ge( 1.00)
        Pt            16.00   195.08400     Pt( 1.00)

      8 Sym. Ops., with inversion, found ( 6 have fractional translation)

                                    s                        frac. trans.

      isym =  1     identity

 cryst.   s( 1) = (     1          0          0      )
                  (     0          1          0      )
                  (     0          0          1      )

 cart.    s( 1) = (  1.0000000  0.0000000  0.0000000 )
                  (  0.0000000  1.0000000  0.0000000 )
                  (  0.0000000  0.0000000  1.0000000 )

      isym =  2     180 deg rotation - cart. axis [0,0,1]

 cryst.   s( 2) = (    -1          0          0      )    f =(  0.0000000 )
                  (     0         -1          0      )       (  0.5000000 )
                  (     0          0          1      )       ( -0.5000000 )

 cart.    s( 2) = ( -1.0000000  0.0000000  0.0000000 )    f =(  0.0000000 )
                  (  0.0000000 -1.0000000  0.0000000 )       (  0.8336560 )
                  (  0.0000000  0.0000000  1.0000000 )       ( -0.9671348 )

[...]

      isym =  4     180 deg rotation - cart. axis [1,0,0]

[...]

      isym =  5     inversion

 cryst.   s( 5) = (    -1          0          0      )
                  (     0         -1          0      )
                  (     0          0         -1      )

 cart.    s( 5) = ( -1.0000000  0.0000000  0.0000000 )
                  (  0.0000000 -1.0000000  0.0000000 )
                  (  0.0000000  0.0000000 -1.0000000 )

      isym =  6     inv. 180 deg rotation - cart. axis [0,0,1]

[...]

      isym =  8     inv. 180 deg rotation - cart. axis [1,0,0]

 cryst.   s( 8) = (    -1          0          0      )    f =( -0.5000000 )
                  (     0          1          0      )       (  0.0000000 )
                  (     0          0          1      )       (  0.0000000 )

 cart.    s( 8) = ( -1.0000000  0.0000000  0.0000000 )    f =( -0.5000000 )
                  (  0.0000000  1.0000000  0.0000000 )       (  0.0000000 )
                  (  0.0000000  0.0000000  1.0000000 )       (  0.0000000 )

   Cartesian axes

     site n.     atom                  positions (alat units)
         1           Hf  tau(   1) = (   0.7500000   0.7842386   0.6121848  )
         2           Hf  tau(   2) = (   0.2500000   0.0494175   1.5793196  )
         3           Hf  tau(   3) = (   0.7500000   1.6178946   0.3549501  )
         4           Hf  tau(   4) = (   0.2500000   0.8830735   1.3220849  )
         5           Ge  tau(   5) = (   0.2500000   0.4161728   0.2343194  )
         6           Ge  tau(   6) = (   0.2500000   1.2498288   0.7328155  )
         7           Ge  tau(   7) = (   0.7500000   1.2511393   1.6999503  )
         8           Ge  tau(   8) = (   0.7500000   0.4174833   1.2014542  )
         9           Pt  tau(   9) = (   0.2500000   1.0743775   0.1249809  )
        10           Pt  tau(  10) = (   0.2500000   0.2407215   0.8421539  )
        11           Pt  tau(  11) = (   0.7500000   1.4265906   1.0921157  )
        12           Pt  tau(  12) = (   0.7500000   0.5929345   1.8092888  )

   Crystallographic axes

     site n.     atom                  positions (cryst. coord.)
         1           Hf  tau(   1) = (  0.7500000  0.4703610  0.3164940  )
         2           Hf  tau(   2) = (  0.2500000  0.0296390  0.8164940  )
         3           Hf  tau(   3) = (  0.7500000  0.9703610  0.1835060  )
         4           Hf  tau(   4) = (  0.2500000  0.5296390  0.6835060  )
         5           Ge  tau(   5) = (  0.2500000  0.2496070  0.1211410  )
         6           Ge  tau(   6) = (  0.2500000  0.7496070  0.3788590  )
         7           Ge  tau(   7) = (  0.7500000  0.7503930  0.8788590  )
         8           Ge  tau(   8) = (  0.7500000  0.2503930  0.6211410  )
         9           Pt  tau(   9) = (  0.2500000  0.6443770  0.0646140  )
        10           Pt  tau(  10) = (  0.2500000  0.1443770  0.4353860  )
        11           Pt  tau(  11) = (  0.7500000  0.8556230  0.5646140  )
        12           Pt  tau(  12) = (  0.7500000  0.3556230  0.9353860  )

     number of k points=     1  Methfessel-Paxton smearing, width (Ry)=  0.0010
                       cart. coord. in units 2pi/alat
        k(    1) = (   0.0000000   0.0000000   0.0000000), wk =   2.0000000

                       cryst. coord.
        k(    1) = (   0.0000000   0.0000000   0.0000000), wk =   2.0000000

     Initial potential from superposition of free atoms

     starting charge     165.9891, renormalised to     168.0000

     negative rho (up, down):  7.376E-01 0.000E+00
     Starting wfcs are  124 randomized atomic wfcs

     Self-consistent Calculation

     iteration #  1     ecut=    30.00 Ry     beta= 0.70
     Davidson diagonalization with overlap

     ethr =  1.00E-02,  avg # of iterations =  2.0

     negative rho (up, down):  6.684E-01 0.000E+00

     total energy              =   -2145.31910377 Ry
     estimated scf accuracy    <       5.89996635 Ry

[...]

     total energy              =   -2148.83187154 Ry
     estimated scf accuracy    <       0.00000200 Ry

     iteration # 13     ecut=    30.00 Ry     beta= 0.70
     Davidson diagonalization with overlap

     ethr =  1.19E-09,  avg # of iterations =  3.0

[...]

     End of self-consistent calculation

          k = 0.0000 0.0000 0.0000 (  1927 PWs)   bands (ev):

   -44.6651 -44.6559 -44.6390 -44.6289 -35.9342 -35.9341 -35.8820 -35.8820
   -35.8438 -35.8433 -35.8329 -35.8323 -35.5978 -35.5978 -35.5348 -35.5344
   -13.5621 -13.5509 -13.4682 -13.4672 -13.4168 -13.3798 -13.3563 -13.3390
   -13.2659 -13.2584 -13.2271 -13.2042  -7.3574  -7.3567  -7.3530  -7.3521
    -7.3461  -7.3450  -7.3441  -7.3383  -7.3377  -7.3313  -7.3288  -7.3266
    -7.2958  -7.2956  -7.2951  -7.2912  -7.2889  -7.2886  -7.2878  -7.2876
     5.5023   7.3870   7.4425   7.5676  10.6463  10.7123  11.6275  11.6840
    11.6934  11.9800  12.0992  12.1128  12.5194  12.5615  12.7182  12.7827
    13.2499  13.4713  13.5297  13.6903  13.8316  13.8773  14.0750  14.3796
    14.6670  14.7999  15.0451  15.0944  15.8441  15.9312  16.3369  16.3770
    16.7458  16.9763  17.0405  17.2332  18.2278  18.5411  18.6495  18.6534
    18.8494  19.0418  19.4842  19.4879  19.9332  20.2365  20.4728  20.4867
    20.5510  21.0575  21.2638  21.3044  21.8291

     occupation numbers
     1.0000   1.0000   1.0000   1.0000   1.0000   1.0000   1.0000   1.0000
     1.0000   1.0000   1.0000   1.0000   1.0000   1.0000   1.0000   1.0000
     1.0000   1.0000   1.0000   1.0000   1.0000   1.0000   1.0000   1.0000
     1.0000   1.0000   1.0000   1.0000   1.0000   1.0000   1.0000   1.0000
     1.0000   1.0000   1.0000   1.0000   1.0000   1.0000   1.0000   1.0000
     1.0000   1.0000   1.0000   1.0000   1.0000   1.0000   1.0000   1.0000
     1.0000   1.0000   1.0000   1.0000   1.0000   1.0000   1.0000   1.0000
     1.0000   1.0000   1.0000   1.0000   1.0000   1.0000   1.0000   1.0000
     1.0000   1.0000   1.0000   1.0000   1.0000   1.0000   1.0000   1.0000
     1.0000   1.0000   1.0000   1.0000   1.0000   1.0000   1.0000   1.0000
     1.0000   1.0000   1.0000   1.0000  -0.0000  -0.0000  -0.0000  -0.0000
    -0.0000  -0.0000  -0.0000  -0.0000  -0.0000  -0.0000  -0.0000  -0.0000
    -0.0000  -0.0000  -0.0000  -0.0000  -0.0000

     the Fermi energy is    17.7922 ev

!    total energy              =   -2148.83187172 Ry
     estimated scf accuracy    <       0.00000033 Ry
     smearing contrib. (-TS)   =       0.00000000 Ry
     internal energy E=F+TS    =   -2148.83187172 Ry

     The total energy is F=E-TS. E is the sum of the following terms:
     one-electron contribution =    -657.18493094 Ry
     hartree contribution      =     464.34615933 Ry
     xc contribution           =    -575.66168952 Ry
     ewald contribution        =   -1380.33141059 Ry

     convergence has been achieved in  13 iterations

     negative rho (up, down):  6.949E-01 0.000E+00

     Forces acting on atoms (cartesian axes, Ry/au):

     atom    1 type  1   force =     0.00000000    0.05286702   -0.01935801
     atom    2 type  1   force =    -0.00000000   -0.05286702   -0.01935801
     atom    3 type  1   force =    -0.00000000    0.05286702    0.01935801
     atom    4 type  1   force =     0.00000000   -0.05286702    0.01935801
     atom    5 type  2   force =     0.00000000   -0.01147233    0.03559103
     atom    6 type  2   force =    -0.00000000   -0.01147233   -0.03559103
     atom    7 type  2   force =     0.00000000    0.01147233   -0.03559103
     atom    8 type  2   force =     0.00000000    0.01147233    0.03559103
     atom    9 type  3   force =    -0.00000000    0.07156847    0.00500659
     atom   10 type  3   force =     0.00000000    0.07156847   -0.00500659
     atom   11 type  3   force =     0.00000000   -0.07156847    0.00500659
     atom   12 type  3   force =     0.00000000   -0.07156847   -0.00500659
     The non-local contrib.  to forces
     atom    1 type  1   force =     0.00000000    0.01152688   -0.05203626
     atom    2 type  1   force =    -0.00000000   -0.01152688   -0.05203626
     atom    3 type  1   force =    -0.00000000    0.01152688    0.05203626
     atom    4 type  1   force =     0.00000000   -0.01152688    0.05203626
     atom    5 type  2   force =    -0.00000000    0.40451266   -0.08016536
     atom    6 type  2   force =     0.00000000    0.40451266    0.08016536
     atom    7 type  2   force =    -0.00000000   -0.40451266    0.08016536
     atom    8 type  2   force =     0.00000000   -0.40451266   -0.08016536
     atom    9 type  3   force =     0.00000000    0.02116404   -0.09070616
     atom   10 type  3   force =     0.00000000    0.02116404    0.09070616
     atom   11 type  3   force =     0.00000000   -0.02116404   -0.09070616
     atom   12 type  3   force =     0.00000000   -0.02116404    0.09070616
     The ionic contribution  to forces
     atom    1 type  1   force =     0.00000000    0.19542073    3.51964068
     atom    2 type  1   force =    -0.00000000   -0.19542073    3.51964068
     atom    3 type  1   force =     0.00000000    0.19542073   -3.51964068
     atom    4 type  1   force =    -0.00000000   -0.19542073   -3.51964068
     atom    5 type  2   force =    -0.00000000   -6.30177424    0.87478863
     atom    6 type  2   force =     0.00000000   -6.30177424   -0.87478863
     atom    7 type  2   force =     0.00000000    6.30177424   -0.87478863
     atom    8 type  2   force =     0.00000000    6.30177424    0.87478863
     atom    9 type  3   force =    -0.00000000    5.64736926    2.17500608
     atom   10 type  3   force =    -0.00000000    5.64736926   -2.17500608
     atom   11 type  3   force =     0.00000000   -5.64736926    2.17500608
     atom   12 type  3   force =     0.00000000   -5.64736926   -2.17500608
     The local contribution  to forces
     atom    1 type  1   force =    -0.00000211   -0.15537852   -3.49133612
     atom    2 type  1   force =    -0.00000136    0.15495386   -3.49051986
     atom    3 type  1   force =    -0.00000123   -0.15409800    3.49093076
     atom    4 type  1   force =    -0.00000175    0.15489189    3.49152269
     atom    5 type  2   force =     0.00000228    5.89629194   -0.75910229
     atom    6 type  2   force =    -0.00000088    5.89736634    0.75917252
     atom    7 type  2   force =     0.00000193   -5.89714550    0.75877130
     atom    8 type  2   force =     0.00000166   -5.89642985   -0.75874207
     atom    9 type  3   force =    -0.00000449   -5.58698482   -2.09313507
     atom   10 type  3   force =    -0.00000142   -5.58676202    2.09143984
     atom   11 type  3   force =     0.00000227    5.58634692   -2.09232938
     atom   12 type  3   force =     0.00000166    5.58650871    2.09272357
     The core correction contribution to forces
     atom    1 type  1   force =    -0.00000016    0.00074590    0.00410064
     atom    2 type  1   force =    -0.00000010   -0.00075164    0.00411237
     atom    3 type  1   force =    -0.00000007    0.00075654   -0.00410882
     atom    4 type  1   force =    -0.00000008   -0.00074813   -0.00409916
     atom    5 type  2   force =     0.00000006   -0.01091175   -0.00016949
     atom    6 type  2   force =    -0.00000000   -0.01090651    0.00017111
     atom    7 type  2   force =     0.00000001    0.01090951    0.00017061
     atom    8 type  2   force =     0.00000002    0.01090895   -0.00017298
     atom    9 type  3   force =     0.00000025   -0.01054358    0.01301711
     atom   10 type  3   force =    -0.00000013   -0.01053793   -0.01302730
     atom   11 type  3   force =    -0.00000016    0.01053963    0.01302541
     atom   12 type  3   force =     0.00000022    0.01053605   -0.01301524
     The Hubbard contrib.    to forces
     atom    1 type  1   force =     0.00000000    0.00000000    0.00000000
     atom    2 type  1   force =     0.00000000    0.00000000    0.00000000
     atom    3 type  1   force =     0.00000000    0.00000000    0.00000000
     atom    4 type  1   force =     0.00000000    0.00000000    0.00000000
     atom    5 type  2   force =     0.00000000    0.00000000    0.00000000
     atom    6 type  2   force =     0.00000000    0.00000000    0.00000000
     atom    7 type  2   force =     0.00000000    0.00000000    0.00000000
     atom    8 type  2   force =     0.00000000    0.00000000    0.00000000
     atom    9 type  3   force =     0.00000000    0.00000000    0.00000000
     atom   10 type  3   force =     0.00000000    0.00000000    0.00000000
     atom   11 type  3   force =     0.00000000    0.00000000    0.00000000
     atom   12 type  3   force =     0.00000000    0.00000000    0.00000000
     The SCF correction term to forces
     atom    1 type  1   force =     0.00000169    0.00052716    0.00026773
     atom    2 type  1   force =     0.00000114   -0.00012187   -0.00054639
     atom    3 type  1   force =     0.00000110   -0.00073047    0.00013110
     atom    4 type  1   force =     0.00000234   -0.00007912   -0.00044844
     atom    5 type  2   force =    -0.00000267    0.00045305    0.00023140
     atom    6 type  2   force =     0.00000054   -0.00072460   -0.00036405
     atom    7 type  2   force =    -0.00000264    0.00048344    0.00011196
     atom    8 type  2   force =    -0.00000045   -0.00031507   -0.00014007
     atom    9 type  3   force =     0.00000393    0.00059040    0.00086706
     atom   10 type  3   force =     0.00000142    0.00036074    0.00093736
     atom   11 type  3   force =    -0.00000302    0.00014307   -0.00000480
     atom   12 type  3   force =    -0.00000222   -0.00009228   -0.00044461

     Total force =     0.197130     Total SCF correction =     0.002245

     Computing stress (Cartesian axis) and pressure

     negative rho (up, down):  6.949E-01 0.000E+00
          total   stress  (Ry/bohr**3)                   (kbar)     P=     -199.84
  -0.00097904   0.00000000   0.00000000         -144.02        0.00        0.00
   0.00000000  -0.00175336   0.00000000            0.00     -257.93        0.00
   0.00000000   0.00000000  -0.00134312            0.00        0.00     -197.58

     kinetic stress (kbar)  28859.26      0.00      0.00
                                0.00  28866.39      0.00
                                0.00      0.00  28669.49

     local   stress (kbar)   7318.91      0.00      0.00
                                0.00  14232.54      0.11
                                0.00      0.11   7766.48

     nonloc. stress (kbar)   5000.05      0.00      0.00
                                0.00   5126.27      0.00
                                0.00      0.00   5045.91

     hartree stress (kbar)  17458.37     -0.00     -0.00
                               -0.00  14722.75     -0.10
                               -0.00     -0.10  17065.91

     exc-cor stress (kbar)  24746.10      0.00     -0.00
                                0.00  24744.76     -0.00
                               -0.00     -0.00  24745.58

     corecor stress (kbar) -36194.55     -0.00      0.00
                               -0.00 -36192.19     -0.00
                                0.00     -0.00 -36188.10

     ewald   stress (kbar) -47332.15     -0.00     -0.00
                               -0.00 -51758.44      0.00
                               -0.00      0.00 -47302.85

     hubbard stress (kbar)      0.00      0.00      0.00
                                0.00      0.00      0.00
                                0.00      0.00      0.00

     DFT-D   stress (kbar)      0.00      0.00      0.00
                                0.00      0.00      0.00
                                0.00      0.00      0.00

     XDM     stress (kbar)      0.00      0.00      0.00
                                0.00      0.00      0.00
                                0.00      0.00      0.00

     dft-nl  stress (kbar)      0.00      0.00      0.00
                                0.00      0.00      0.00
                                0.00      0.00      0.00

     TS-vdW  stress (kbar)      0.00      0.00      0.00
                                0.00      0.00      0.00
                                0.00      0.00      0.00

[...]

                                0.00      0.00      0.00

     Writing all to output data dir new_calculations/myprefix.save/

     General routines

     Parallel routines

   This run was terminated on:   4: 2: 0  20May2023

   JOB DONE.