     Program PWSCF v.7.0 starts on 21May2023 at  5: 4:24

     Reading input from espresso_2966.pwi
Warning: card &CELL ignored
Warning: card / ignored

     Current dimensions of program PWSCF are:
     Max number of different atomic species (ntypx) = 10
     Max number of k-points (npk) =  40000
     Max angular momentum in pseudopotentials (lmaxx) =  4

     gamma-point specific algorithms are used
     Message from routine setup:
     using ibrav=0 with symmetry is DISCOURAGED, use correct ibrav instead

     Subspace diagonalization in iterative solution of the eigenvalue problem:
     a serial algorithm will be used

     Using Slab Decomposition

     bravais-lattice index     =            0
     lattice parameter (alat)  =       7.9882  a.u.
     unit-cell volume          =    1209.1473 (a.u.)^3
     number of atoms/cell      =           12
     number of atomic types    =            2
     number of electrons       =       224.00
     number of Kohn-Sham states=          134
     kinetic-energy cutoff     =      30.0000  Ry
     charge density cutoff     =     240.0000  Ry
     scf convergence threshold =      1.0E-06
     mixing beta               =       0.7000
     number of iterations used =            8  plain     mixing
     Exchange-correlation= PBE
                           (   1   4   3   4   0   0   0)

     celldm(1)=   7.988228  celldm(2)=   0.000000  celldm(3)=   0.000000
     celldm(4)=   0.000000  celldm(5)=   0.000000  celldm(6)=   0.000000

     crystal axes: (cart. coord. in units of alat)
               a(1) = (   1.000000   0.000000   0.000000 )
               a(2) = (   0.000000   1.279271   0.000000 )
               a(3) = (   0.000000   0.000000   1.854237 )

     reciprocal axes: (cart. coord. in units 2 pi/alat)
               b(1) = (  1.000000  0.000000  0.000000 )
               b(2) = (  0.000000  0.781695  0.000000 )
               b(3) = (  0.000000  0.000000  0.539305 )

     PseudoPot. # 1 for Zn read from file:
     /home/pragov/projects/rrg-bengioy-ad/pragov/crystal_structure_design/SSSP/Zn_pbe_v1.uspp.F.UPF
     MD5 check sum: df62231357ef9e81f77b2b3087fa5675
     Pseudo is Ultrasoft, Zval = 20.0
     Generated by new atomic code, or converted to UPF format
     Using radial grid of  943 points,  6 beta functions with:
                l(1) =   0
                l(2) =   0
                l(3) =   1
                l(4) =   1
                l(5) =   2
                l(6) =   2
     Q(r) pseudized with  8 coefficients,  rinner =    1.100   1.100   1.100
                                                       1.100   1.100

     PseudoPot. # 2 for Pd read from file:
     /home/pragov/projects/rrg-bengioy-ad/pragov/crystal_structure_design/SSSP/Pd_ONCV_PBE-1.0.oncvpsp.upf
     MD5 check sum: eb77f42b51d86fb18e25f68156a31cf1
     Pseudo is Norm-conserving, Zval = 18.0
     Generated using ONCVPSP code by D. R. Hamann
     Using radial grid of 1410 points,  6 beta functions with:
                l(1) =   0
                l(2) =   0
                l(3) =   1
                l(4) =   1
                l(5) =   2
                l(6) =   2

     atomic species   valence    mass     pseudopotential
        Zn            20.00    65.38000     Zn( 1.00)
        Pd            18.00   106.42000     Pd( 1.00)

      8 Sym. Ops., with inversion, found ( 6 have fractional translation)

                                    s                        frac. trans.

      isym =  1     identity

 cryst.   s( 1) = (     1          0          0      )
                  (     0          1          0      )
                  (     0          0          1      )

 cart.    s( 1) = (  1.0000000  0.0000000  0.0000000 )
                  (  0.0000000  1.0000000  0.0000000 )
                  (  0.0000000  0.0000000  1.0000000 )

      isym =  2     180 deg rotation - cart. axis [0,0,1]

 cryst.   s( 2) = (    -1          0          0      )    f =( -0.0000000 )
                  (     0         -1          0      )       ( -0.5000000 )
                  (     0          0          1      )       ( -0.5000000 )

 cart.    s( 2) = ( -1.0000000  0.0000000  0.0000000 )    f =( -0.0000000 )
                  (  0.0000000 -1.0000000  0.0000000 )       ( -0.6396356 )
                  (  0.0000000  0.0000000  1.0000000 )       ( -0.9271186 )

[...]

      isym =  4     180 deg rotation - cart. axis [1,0,0]

[...]

      isym =  5     inversion

 cryst.   s( 5) = (    -1          0          0      )
                  (     0         -1          0      )
                  (     0          0         -1      )

 cart.    s( 5) = ( -1.0000000  0.0000000  0.0000000 )
                  (  0.0000000 -1.0000000  0.0000000 )
                  (  0.0000000  0.0000000 -1.0000000 )

      isym =  6     inv. 180 deg rotation - cart. axis [0,0,1]

[...]

      isym =  8     inv. 180 deg rotation - cart. axis [1,0,0]

 cryst.   s( 8) = (    -1          0          0      )    f =(  0.5000000 )
                  (     0          1          0      )       (  0.0000000 )
                  (     0          0          1      )       (  0.0000000 )

 cart.    s( 8) = ( -1.0000000  0.0000000  0.0000000 )    f =(  0.5000000 )
                  (  0.0000000  1.0000000  0.0000000 )       (  0.0000000 )
                  (  0.0000000  0.0000000  1.0000000 )       (  0.0000000 )

   Cartesian axes

     site n.     atom                  positions (alat units)
         1           Zn  tau(   1) = (   0.2500000   0.3956632   1.6700947  )
         2           Zn  tau(   2) = (   0.2500000   1.0352989   1.1112610  )
         3           Zn  tau(   3) = (   0.7500000   0.8836080   0.1841424  )
         4           Zn  tau(   4) = (   0.7500000   0.2439724   0.7429761  )
         5           Pd  tau(   5) = (   0.2500000   1.0496894   1.7262484  )
         6           Pd  tau(   6) = (   0.2500000   0.4100538   1.0551073  )
         7           Pd  tau(   7) = (   0.7500000   0.2295819   0.1279887  )
         8           Pd  tau(   8) = (   0.7500000   0.8692175   0.7991299  )
         9           Pd  tau(   9) = (   0.2500000   1.2337177   0.5083150  )
        10           Pd  tau(  10) = (   0.2500000   0.5940820   0.4188036  )
        11           Pd  tau(  11) = (   0.7500000   0.0455536   1.3459221  )
        12           Pd  tau(  12) = (   0.7500000   0.6851892   1.4354336  )

   Crystallographic axes

     site n.     atom                  positions (cryst. coord.)
         1           Zn  tau(   1) = (  0.2500000  0.3092880  0.9006910  )
         2           Zn  tau(   2) = (  0.2500000  0.8092880  0.5993090  )
         3           Zn  tau(   3) = (  0.7500000  0.6907120  0.0993090  )
         4           Zn  tau(   4) = (  0.7500000  0.1907120  0.4006910  )
         5           Pd  tau(   5) = (  0.2500000  0.8205370  0.9309750  )
         6           Pd  tau(   6) = (  0.2500000  0.3205370  0.5690250  )
         7           Pd  tau(   7) = (  0.7500000  0.1794630  0.0690250  )
         8           Pd  tau(   8) = (  0.7500000  0.6794630  0.4309750  )
         9           Pd  tau(   9) = (  0.2500000  0.9643910  0.2741370  )
        10           Pd  tau(  10) = (  0.2500000  0.4643910  0.2258630  )
        11           Pd  tau(  11) = (  0.7500000  0.0356090  0.7258630  )
        12           Pd  tau(  12) = (  0.7500000  0.5356090  0.7741370  )

     number of k points=     1  Methfessel-Paxton smearing, width (Ry)=  0.0010
                       cart. coord. in units 2pi/alat
        k(    1) = (   0.0000000   0.0000000   0.0000000), wk =   2.0000000

                       cryst. coord.
        k(    1) = (   0.0000000   0.0000000   0.0000000), wk =   2.0000000

     Initial potential from superposition of free atoms

     starting charge     223.9966, renormalised to     224.0000
     Starting wfcs are  132 randomized atomic wfcs +    2 random wfcs

     Self-consistent Calculation

     iteration #  1     ecut=    30.00 Ry     beta= 0.70
     Davidson diagonalization with overlap

     ethr =  1.00E-02,  avg # of iterations =  3.0

     Threshold (ethr) on eigenvalues was too large:
     Diagonalizing with lowered threshold

     Davidson diagonalization with overlap

[...]

     total energy              =   -3869.02412675 Ry
     estimated scf accuracy    <       2.01870419 Ry

[...]

     total energy              =   -3870.08604421 Ry
     estimated scf accuracy    <       0.00000194 Ry

     iteration # 16     ecut=    30.00 Ry     beta= 0.70
     Davidson diagonalization with overlap

     ethr =  8.66E-10,  avg # of iterations =  2.0

     End of self-consistent calculation

          k = 0.0000 0.0000 0.0000 (  1671 PWs)   bands (ev):

  -108.0844-108.0833-108.0828-108.0817 -67.1963 -67.1958 -67.1760 -67.1759
   -66.9115 -66.9109 -66.9078 -66.9076 -62.2269 -62.2184 -62.2168 -62.2157
   -62.1812 -62.1787 -62.1748 -62.1723 -62.1715 -62.1707 -62.1693 -62.1610
   -32.9144 -32.9099 -32.6985 -32.6976 -32.6015 -32.5956 -32.5643 -32.5636
   -32.5158 -32.5028 -32.5023 -32.4926 -32.4375 -32.4248 -32.4111 -32.3998
   -32.3209 -32.3072 -32.2907 -32.2840 -32.2366 -32.2279 -32.2104 -32.1982
     9.4191  10.6197  10.6947  10.7038  10.7279  10.7658  10.7660  10.7840
    10.8026  10.8150  10.8177  10.8692  10.8760  10.9084  10.9118  10.9463
    10.9615  11.0269  11.0428  11.0849  11.1048  11.6761  11.7201  12.8585
    12.9269  13.5315  13.5552  13.7056  13.8512  13.8963  14.0162  14.2006
    14.3897  14.4701  14.5159  14.5171  14.5412  14.6415  14.7703  14.8924
    15.2588  15.7060  15.7521  15.7745  15.7914  15.8830  16.0029  16.2469
    16.2763  16.2844  16.2866  16.3336  16.3771  16.3814  16.4125  16.7506
    16.8563  17.0925  17.1720  17.2155  17.2894  17.5083  17.5089  18.2398
    18.2509  18.5931  18.8768  19.2284  20.9791  21.5046  22.2995  23.3821
    23.4840  23.7247  23.8017  23.8622  24.7610  25.1694  25.8332  25.9820
    26.3897  26.4001  27.2823  27.4677  28.0880  28.2970

     occupation numbers
     1.0000   1.0000   1.0000   1.0000   1.0000   1.0000   1.0000   1.0000
     1.0000   1.0000   1.0000   1.0000   1.0000   1.0000   1.0000   1.0000
     1.0000   1.0000   1.0000   1.0000   1.0000   1.0000   1.0000   1.0000
     1.0000   1.0000   1.0000   1.0000   1.0000   1.0000   1.0000   1.0000
     1.0000   1.0000   1.0000   1.0000   1.0000   1.0000   1.0000   1.0000
     1.0000   1.0000   1.0000   1.0000   1.0000   1.0000   1.0000   1.0000
     1.0000   1.0000   1.0000   1.0000   1.0000   1.0000   1.0000   1.0000
     1.0000   1.0000   1.0000   1.0000   1.0000   1.0000   1.0000   1.0000
     1.0000   1.0000   1.0000   1.0000   1.0000   1.0000   1.0000   1.0000
     1.0000   1.0000   1.0000   1.0000   1.0000   1.0000   1.0000   1.0000
     1.0000   1.0000   1.0000   1.0000   1.0000   1.0000   1.0000   1.0000
     1.0000   1.0000   1.0000   1.0000   1.0000   1.0000   1.0000   1.0000
     1.0000   1.0000   1.0000   1.0000   1.0000   1.0000   1.0000   1.0000
     1.0000   1.0000   1.0000   1.0000   1.0000   1.0000   1.0000   0.8142
     0.1858  -0.0000  -0.0000  -0.0000  -0.0000  -0.0000  -0.0000  -0.0000
    -0.0000  -0.0000  -0.0000  -0.0000  -0.0000  -0.0000  -0.0000  -0.0000
    -0.0000  -0.0000  -0.0000  -0.0000  -0.0000  -0.0000

     the Fermi energy is    18.2454 ev

!    total energy              =   -3870.08604416 Ry
     estimated scf accuracy    <       0.00000037 Ry
     smearing contrib. (-TS)   =      -0.00032064 Ry
     internal energy E=F+TS    =   -3870.08572352 Ry

     The total energy is F=E-TS. E is the sum of the following terms:
     one-electron contribution =   -2062.59409238 Ry
     hartree contribution      =    1153.16486244 Ry
     xc contribution           =    -367.68380193 Ry
     ewald contribution        =   -2592.97269165 Ry

     convergence has been achieved in  16 iterations

     Forces acting on atoms (cartesian axes, Ry/au):

     atom    1 type  1   force =     0.00000000    0.01086707   -0.00984837
     atom    2 type  1   force =    -0.00000000    0.01086707    0.00984837
     atom    3 type  1   force =     0.00000000   -0.01086707    0.00984837
     atom    4 type  1   force =     0.00000000   -0.01086707   -0.00984837
     atom    5 type  2   force =     0.00000000    0.00158769    0.03310599
     atom    6 type  2   force =     0.00000000    0.00158769   -0.03310599
     atom    7 type  2   force =    -0.00000000   -0.00158769   -0.03310599
     atom    8 type  2   force =    -0.00000000   -0.00158769    0.03310599
     atom    9 type  2   force =     0.00000000    0.03208713    0.06553386
     atom   10 type  2   force =    -0.00000000    0.03208713   -0.06553386
     atom   11 type  2   force =    -0.00000000   -0.03208713   -0.06553386
     atom   12 type  2   force =     0.00000000   -0.03208713    0.06553386
     The non-local contrib.  to forces
     atom    1 type  1   force =     0.00000000    0.06620081    0.12406420
     atom    2 type  1   force =     0.00000000    0.06620081   -0.12406420
     atom    3 type  1   force =    -0.00000000   -0.06620081   -0.12406420
     atom    4 type  1   force =     0.00000000   -0.06620081    0.12406420
     atom    5 type  2   force =     0.00000000   -0.05022892    0.05771419
     atom    6 type  2   force =     0.00000000   -0.05022892   -0.05771419
     atom    7 type  2   force =     0.00000000    0.05022892   -0.05771419
     atom    8 type  2   force =    -0.00000000    0.05022892    0.05771419
     atom    9 type  2   force =     0.00000000    0.04815339    0.00244112
     atom   10 type  2   force =     0.00000000    0.04815339   -0.00244112
     atom   11 type  2   force =    -0.00000000   -0.04815339   -0.00244112
     atom   12 type  2   force =     0.00000000   -0.04815339    0.00244112
     The ionic contribution  to forces
     atom    1 type  1   force =    -0.00000000   -1.60121383   -0.03288794
     atom    2 type  1   force =    -0.00000000   -1.60121383    0.03288794
     atom    3 type  1   force =    -0.00000000    1.60121383    0.03288794
     atom    4 type  1   force =    -0.00000000    1.60121383   -0.03288794
     atom    5 type  2   force =    -0.00000000    2.77435470   -0.02622834
     atom    6 type  2   force =    -0.00000000    2.77435470    0.02622834
     atom    7 type  2   force =    -0.00000000   -2.77435470    0.02622834
     atom    8 type  2   force =    -0.00000000   -2.77435470   -0.02622834
     atom    9 type  2   force =     0.00000000   -0.90029880   -4.20042984
     atom   10 type  2   force =     0.00000000   -0.90029880    4.20042984
     atom   11 type  2   force =    -0.00000000    0.90029880    4.20042984
     atom   12 type  2   force =    -0.00000000    0.90029880   -4.20042984
     The local contribution  to forces
     atom    1 type  1   force =     0.00005124    1.54591631   -0.10114089
     atom    2 type  1   force =    -0.00004631    1.54634415    0.10121085
     atom    3 type  1   force =     0.00004654   -1.54596114    0.10074102
     atom    4 type  1   force =    -0.00005194   -1.54631072   -0.10069401
     atom    5 type  2   force =    -0.00008703   -2.72281030    0.00132623
     atom    6 type  2   force =     0.00009170   -2.72325712   -0.00116371
     atom    7 type  2   force =    -0.00007042    2.72281280   -0.00186439
     atom    8 type  2   force =     0.00006432    2.72319388    0.00163215
     atom    9 type  2   force =    -0.00001322    0.88414577    4.26368994
     atom   10 type  2   force =     0.00001713    0.88426765   -4.26388813
     atom   11 type  2   force =    -0.00001645   -0.88425733   -4.26362904
     atom   12 type  2   force =     0.00001423   -0.88416397    4.26379589
     The core correction contribution to forces
     atom    1 type  1   force =     0.00000000    0.00000000    0.00000000
     atom    2 type  1   force =     0.00000000    0.00000000    0.00000000
     atom    3 type  1   force =     0.00000000    0.00000000    0.00000000
     atom    4 type  1   force =     0.00000000    0.00000000    0.00000000
     atom    5 type  2   force =     0.00000000    0.00000000    0.00000000
     atom    6 type  2   force =     0.00000000    0.00000000    0.00000000
     atom    7 type  2   force =     0.00000000    0.00000000    0.00000000
     atom    8 type  2   force =     0.00000000    0.00000000    0.00000000
     atom    9 type  2   force =     0.00000000    0.00000000    0.00000000
     atom   10 type  2   force =     0.00000000    0.00000000    0.00000000
     atom   11 type  2   force =     0.00000000    0.00000000    0.00000000
     atom   12 type  2   force =     0.00000000    0.00000000    0.00000000
     The Hubbard contrib.    to forces
     atom    1 type  1   force =     0.00000000    0.00000000    0.00000000
     atom    2 type  1   force =     0.00000000    0.00000000    0.00000000
     atom    3 type  1   force =     0.00000000    0.00000000    0.00000000
     atom    4 type  1   force =     0.00000000    0.00000000    0.00000000
     atom    5 type  2   force =     0.00000000    0.00000000    0.00000000
     atom    6 type  2   force =     0.00000000    0.00000000    0.00000000
     atom    7 type  2   force =     0.00000000    0.00000000    0.00000000
     atom    8 type  2   force =     0.00000000    0.00000000    0.00000000
     atom    9 type  2   force =     0.00000000    0.00000000    0.00000000
     atom   10 type  2   force =     0.00000000    0.00000000    0.00000000
     atom   11 type  2   force =     0.00000000    0.00000000    0.00000000
     atom   12 type  2   force =     0.00000000    0.00000000    0.00000000
     The SCF correction term to forces
     atom    1 type  1   force =    -0.00003382   -0.00000359    0.00011756
     atom    2 type  1   force =     0.00002633   -0.00050500   -0.00021913
     atom    3 type  1   force =    -0.00001785    0.00004834    0.00030168
     atom    4 type  1   force =     0.00002455    0.00045499   -0.00034678
     atom    5 type  2   force =     0.00008275    0.00024255    0.00030976
     atom    6 type  2   force =    -0.00008537    0.00075639   -0.00045715
     atom    7 type  2   force =     0.00005983   -0.00024791    0.00025712
     atom    8 type  2   force =    -0.00005032   -0.00067489   -0.00001569
     atom    9 type  2   force =     0.00001110    0.00007959   -0.00015307
     atom   10 type  2   force =    -0.00001456   -0.00003733    0.00037752
     atom   11 type  2   force =     0.00001183    0.00003502    0.00008555
     atom   12 type  2   force =    -0.00000929   -0.00008822   -0.00029657

     Total force =     0.162946     Total SCF correction =     0.001599

     Computing stress (Cartesian axis) and pressure

          total   stress  (Ry/bohr**3)                   (kbar)     P=    -1356.83
  -0.01037707   0.00000000   0.00000000        -1526.52        0.00        0.00
   0.00000000  -0.00803213   0.00000000            0.00    -1181.57        0.00
   0.00000000   0.00000000  -0.00926134            0.00        0.00    -1362.39

     kinetic stress (kbar)  68221.69      0.00      0.00
                                0.00  67973.85      0.00
                                0.00      0.00  68658.82

     local   stress (kbar)  -8128.03      0.00      0.00
                                0.00   1606.34     -0.02
                                0.00     -0.02  -5012.57

     nonloc. stress (kbar)   6808.73      0.00      0.00
                                0.00   6856.55      0.00
                                0.00      0.00   6770.61

     hartree stress (kbar)  48586.08     -0.00     -0.00
                               -0.00  44445.45      0.02
                               -0.00      0.02  47262.72

     exc-cor stress (kbar) -14219.34      0.00      0.00
                                0.00 -14225.95      0.00
                                0.00      0.00 -14213.88

     corecor stress (kbar)      0.00      0.00      0.00
                                0.00      0.00      0.00
                                0.00      0.00      0.00

     ewald   stress (kbar)-102795.65     -0.00      0.00
                               -0.00-107837.80      0.00
                                0.00      0.00-104828.08

     hubbard stress (kbar)      0.00      0.00      0.00
                                0.00      0.00      0.00
                                0.00      0.00      0.00

     DFT-D   stress (kbar)      0.00      0.00      0.00
                                0.00      0.00      0.00
                                0.00      0.00      0.00

     XDM     stress (kbar)      0.00      0.00      0.00
                                0.00      0.00      0.00
                                0.00      0.00      0.00

     dft-nl  stress (kbar)      0.00      0.00      0.00
                                0.00      0.00      0.00
                                0.00      0.00      0.00

     TS-vdW  stress (kbar)      0.00      0.00      0.00
                                0.00      0.00      0.00
                                0.00      0.00      0.00

[...]

                                0.00      0.00      0.00

     Writing all to output data dir new_calculations/myprefix.save/

     General routines

     Parallel routines

   This run was terminated on:   5: 5:11  21May2023

   JOB DONE.