     Program PWSCF v.7.0 starts on 20May2023 at 11:46:14

     Reading input from espresso_473.pwi
Warning: card &CELL ignored
Warning: card / ignored

     Current dimensions of program PWSCF are:
     Max number of different atomic species (ntypx) = 10
     Max number of k-points (npk) =  40000
     Max angular momentum in pseudopotentials (lmaxx) =  4
     file Ba.pbe-spn-kjpaw_psl.1.0.0.UPF: wavefunction(s)  5S 6S renormalized

     gamma-point specific algorithms are used
     Message from routine setup:
     using ibrav=0 with symmetry is DISCOURAGED, use correct ibrav instead

     Subspace diagonalization in iterative solution of the eigenvalue problem:
     a serial algorithm will be used

     Using Slab Decomposition

     bravais-lattice index     =            0
     lattice parameter (alat)  =      15.8189  a.u.
     unit-cell volume          =    3128.9468 (a.u.)^3
     number of atoms/cell      =            9
     number of atomic types    =            3
     number of electrons       =        72.00
     number of Kohn-Sham states=           43
     kinetic-energy cutoff     =      30.0000  Ry
     charge density cutoff     =     240.0000  Ry
     scf convergence threshold =      1.0E-06
     mixing beta               =       0.7000
     number of iterations used =            8  plain     mixing
     Exchange-correlation= SLA  PW   PBX  PBC
                           (   1   4   3   4   0   0   0)

     celldm(1)=  15.818916  celldm(2)=   0.000000  celldm(3)=   0.000000
     celldm(4)=   0.000000  celldm(5)=   0.000000  celldm(6)=   0.000000

     crystal axes: (cart. coord. in units of alat)
               a(1) = (   1.000000   0.000000   0.000000 )
               a(2) = (  -0.500000   0.866025   0.000000 )
               a(3) = (   0.000000   0.000000   0.912720 )

     reciprocal axes: (cart. coord. in units 2 pi/alat)
               b(1) = (  1.000000  0.577350  0.000000 )
               b(2) = (  0.000000  1.154701  0.000000 )
               b(3) = (  0.000000  0.000000  1.095627 )

     PseudoPot. # 1 for Ba read from file:
     /home/pragov/projects/rrg-bengioy-ad/pragov/crystal_structure_design/SSSP/Ba.pbe-spn-kjpaw_psl.1.0.0.UPF
     MD5 check sum: c432291d3e53af55f19d5e8866385beb
     Pseudo is Projector augmented-wave + core cor, Zval = 10.0
     Generated using "atomic" code by A. Dal Corso  v.5.1
     Shape of augmentation charge: PSQ
     Using radial grid of 1251 points,  7 beta functions with:
                l(1) =   0
                l(2) =   0
                l(3) =   0
                l(4) =   1
                l(5) =   1
                l(6) =   2
                l(7) =   2
     Q(r) pseudized with 0 coefficients

     PseudoPot. # 2 for Sr read from file:
     /home/pragov/projects/rrg-bengioy-ad/pragov/crystal_structure_design/SSSP/Sr_pbe_v1.uspp.F.UPF
     MD5 check sum: 6b418c05fbe9db5448babca5e47b7a5b
     Pseudo is Ultrasoft + core correction, Zval = 10.0
     Generated by new atomic code, or converted to UPF format
     Using radial grid of  883 points,  6 beta functions with:
                l(1) =   0
                l(2) =   0
                l(3) =   1
                l(4) =   1
                l(5) =   2
                l(6) =   2
     Q(r) pseudized with  6 coefficients,  rinner =    1.400   1.400   1.400
                                                       1.400   1.400

     PseudoPot. # 3 for I  read from file:
     /home/pragov/projects/rrg-bengioy-ad/pragov/crystal_structure_design/SSSP/I.pbe-n-kjpaw_psl.0.2.UPF
     MD5 check sum: d4ef18d9c8f18dc85e5843bca1e50dc0
     Pseudo is Projector augmented-wave + core cor, Zval =  7.0
     Generated using "atomic" code by A. Dal Corso  v.5.0.99 svn rev. 10869
     Shape of augmentation charge: PSQ
     Using radial grid of 1247 points,  4 beta functions with:
                l(1) =   0
                l(2) =   0
                l(3) =   1
                l(4) =   1
     Q(r) pseudized with 0 coefficients

     atomic species   valence    mass     pseudopotential
        Ba            10.00   137.32700     Ba( 1.00)
        Sr            10.00    87.62000     Sr( 1.00)
        I              7.00   126.90447     I ( 1.00)

     12 Sym. Ops., with inversion, found

                                    s                        frac. trans.

      isym =  1     identity

 cryst.   s( 1) = (     1          0          0      )
                  (     0          1          0      )
                  (     0          0          1      )

 cart.    s( 1) = (  1.0000000 -0.0000000  0.0000000 )
                  (  0.0000000  1.0000000  0.0000000 )
                  (  0.0000000  0.0000000  1.0000000 )

      isym =  2     180 deg rotation - cart. axis [0,1,0]

[...]

      isym =  3     120 deg rotation - cryst. axis [0,0,1]

[...]

      isym =  6     180 deg rotation - cryst. axis [2,1,0]

[...]

      isym =  7     inversion

[...]

      isym =  8     inv. 180 deg rotation - cart. axis [0,1,0]

[...]

      isym =  9     inv. 120 deg rotation - cryst. axis [0,0,1]

 cryst.   s( 9) = (     0         -1          0      )
                  (     1          1          0      )
                  (     0          0         -1      )

 cart.    s( 9) = (  0.5000000  0.8660254  0.0000000 )
                  ( -0.8660254  0.5000000  0.0000000 )
                  (  0.0000000  0.0000000 -1.0000000 )

[...]

 cryst.   s(10) = (     1          1          0      )
                  (    -1          0          0      )
                  (     0          0         -1      )

 cart.    s(10) = (  0.5000000 -0.8660254  0.0000000 )
                  (  0.8660254  0.5000000  0.0000000 )
                  (  0.0000000  0.0000000 -1.0000000 )

[...]

      isym = 12     inv. 180 deg rotation - cryst. axis [2,1,0]

 cryst.   s(12) = (    -1         -1          0      )
                  (     0          1          0      )
                  (     0          0          1      )

 cart.    s(12) = ( -0.5000000 -0.8660253  0.0000000 )
                  ( -0.8660254  0.5000000  0.0000000 )
                  (  0.0000000  0.0000000  1.0000000 )

   Cartesian axes

     site n.     atom                  positions (alat units)
         1           Ba  tau(   1) = (   0.0000000   0.0000000   0.0000000  )
         2           Sr  tau(   2) = (  -0.0000005   0.5773506   0.4563598  )
         3           Sr  tau(   3) = (   0.5000005   0.2886749   0.4563598  )
         4           I   tau(   4) = (   0.6729440   0.5664776   0.6770992  )
         5           I   tau(   5) = (  -0.1729440   0.2995478   0.2356204  )
         6           I   tau(   6) = (   0.1729440   0.2995478   0.6770992  )
         7           I   tau(   7) = (   0.3270560   0.5664776   0.2356204  )
         8           I   tau(   8) = (   0.3458880   0.0000000   0.2356204  )
         9           I   tau(   9) = (   0.6541120   0.0000000   0.6770992  )

   Crystallographic axes

     site n.     atom                  positions (cryst. coord.)
         1           Ba  tau(   1) = (  0.0000000  0.0000000  0.0000000  )
         2           Sr  tau(   2) = (  0.3333330  0.6666670  0.5000000  )
         3           Sr  tau(   3) = (  0.6666670  0.3333330  0.5000000  )
         4           I   tau(   4) = (  1.0000000  0.6541120  0.7418480  )
         5           I   tau(   5) = (  0.0000000  0.3458880  0.2581520  )
         6           I   tau(   6) = (  0.3458880  0.3458880  0.7418480  )
         7           I   tau(   7) = (  0.6541120  0.6541120  0.2581520  )
         8           I   tau(   8) = (  0.3458880  0.0000000  0.2581520  )
         9           I   tau(   9) = (  0.6541120  0.0000000  0.7418480  )

     number of k points=     1  Methfessel-Paxton smearing, width (Ry)=  0.0010
                       cart. coord. in units 2pi/alat
        k(    1) = (   0.0000000   0.0000000   0.0000000), wk =   2.0000000

                       cryst. coord.
        k(    1) = (   0.0000000   0.0000000   0.0000000), wk =   2.0000000

     Check: negative core charge=   -0.000002

     Initial potential from superposition of free atoms

     starting charge      71.9152, renormalised to      72.0000

     negative rho (up, down):  1.249E-01 0.000E+00
     Starting wfcs are   55 randomized atomic wfcs
     Checking if some PAW data can be deallocated...

     Self-consistent Calculation

     iteration #  1     ecut=    30.00 Ry     beta= 0.70
     Davidson diagonalization with overlap

     ethr =  1.00E-02,  avg # of iterations =  6.0

     Threshold (ethr) on eigenvalues was too large:
     Diagonalizing with lowered threshold

     Davidson diagonalization with overlap

[...]

     negative rho (up, down):  1.278E-01 0.000E+00

     total energy              =   -2850.99669377 Ry
     estimated scf accuracy    <       0.20197168 Ry

[...]

     total energy              =   -2851.06063785 Ry
     estimated scf accuracy    <       0.00000268 Ry

     iteration # 12     ecut=    30.00 Ry     beta= 0.70
     Davidson diagonalization with overlap

     ethr =  3.72E-09,  avg # of iterations =  2.0

[...]

     End of self-consistent calculation

          k = 0.0000 0.0000 0.0000 (  4360 PWs)   bands (ev):

   -32.4548 -32.4532 -25.2936 -14.4943 -14.4943 -14.4853 -14.4606 -14.4558
   -14.4558 -10.5475 -10.5475 -10.5211  -9.2162  -8.9637  -8.9637  -8.8638
    -8.8638  -8.8350  -0.3465   0.0271   0.1764   0.1764   0.4548   0.4548
     0.5533   0.6337   0.6338   0.8526   0.9927   0.9927   1.0451   1.3448
     1.3448   1.5240   1.5240   1.7014   5.6551   6.0341   6.0341   6.0549
     6.2752   6.2753   6.7915

     occupation numbers
     1.0000   1.0000   1.0000   1.0000   1.0000   1.0000   1.0000   1.0000
     1.0000   1.0000   1.0000   1.0000   1.0000   1.0000   1.0000   1.0000
     1.0000   1.0000   1.0000   1.0000   1.0000   1.0000   1.0000   1.0000
     1.0000   1.0000   1.0000   1.0000   1.0000   1.0000   1.0000   1.0000
     1.0000   1.0000   1.0000   1.0000  -0.0000  -0.0000  -0.0000  -0.0000
    -0.0000  -0.0000  -0.0000

     the Fermi energy is     1.9878 ev

!    total energy              =   -2851.06063777 Ry
     estimated scf accuracy    <       0.00000041 Ry
     smearing contrib. (-TS)   =       0.00000000 Ry
     internal energy E=F+TS    =   -2851.06063777 Ry

     The total energy is F=E-TS. E is the sum of the following terms:
     one-electron contribution =     -91.60653045 Ry
     hartree contribution      =      69.35218788 Ry
     xc contribution           =    -307.38494379 Ry
     ewald contribution        =    -223.31085912 Ry
     one-center paw contrib.   =   -2298.11049229 Ry
      -> PAW hartree energy AE =      87.57082896 Ry
      -> PAW hartree energy PS =     -87.83504629 Ry
      -> PAW xc energy AE      =   -2560.08943395 Ry
      -> PAW xc energy PS      =     262.24315899 Ry
      -> total E_H with PAW    =      69.08797055 Ry
      -> total E_XC with PAW   =   -2605.23121875 Ry

     convergence has been achieved in  12 iterations

     negative rho (up, down):  1.309E-01 0.000E+00

     Forces acting on atoms (cartesian axes, Ry/au):

     atom    1 type  1   force =     0.00000000    0.00000000    0.00000000
     atom    2 type  2   force =     0.00000000    0.00000000    0.00000000
     atom    3 type  2   force =    -0.00000000   -0.00000000    0.00000000
     atom    4 type  3   force =    -0.00004355    0.00007544   -0.00030353
     atom    5 type  3   force =     0.00004355   -0.00007544    0.00030353
     atom    6 type  3   force =    -0.00004355   -0.00007544   -0.00030353
     atom    7 type  3   force =     0.00004355    0.00007544    0.00030353
     atom    8 type  3   force =    -0.00008711    0.00000000    0.00030353
     atom    9 type  3   force =     0.00008711   -0.00000000   -0.00030353
     The non-local contrib.  to forces
     atom    1 type  1   force =     0.00000000    0.00000000    0.00000000
     atom    2 type  2   force =     0.00000000   -0.00000000    0.00000000
     atom    3 type  2   force =     0.00000000    0.00000000    0.00000000
     atom    4 type  3   force =     0.00042186   -0.00073068   -0.04072960
     atom    5 type  3   force =    -0.00042186    0.00073068    0.04072960
     atom    6 type  3   force =     0.00042186    0.00073068   -0.04072960
     atom    7 type  3   force =    -0.00042186   -0.00073068    0.04072960
     atom    8 type  3   force =     0.00084371   -0.00000000    0.04072960
     atom    9 type  3   force =    -0.00084371    0.00000000   -0.04072960
     The ionic contribution  to forces
     atom    1 type  1   force =     0.00000000    0.00000000   -0.00000000
     atom    2 type  2   force =     0.00002080   -0.00001201    0.00000000
     atom    3 type  2   force =    -0.00002080    0.00001201   -0.00000000
     atom    4 type  3   force =    -0.25116863    0.43501963    2.00816130
     atom    5 type  3   force =     0.25116863   -0.43501963   -2.00816130
     atom    6 type  3   force =    -0.25115392   -0.43501133    2.00814523
     atom    7 type  3   force =     0.25115392    0.43501133   -2.00814523
     atom    8 type  3   force =    -0.50232237    0.00000862   -2.00816130
     atom    9 type  3   force =     0.50232237   -0.00000862    2.00816130
     The local contribution  to forces
     atom    1 type  1   force =     0.00090285    0.00006268   -0.00070612
     atom    2 type  2   force =    -0.00001828    0.00000387   -0.00000047
     atom    3 type  2   force =     0.00001093   -0.00000973   -0.00000046
     atom    4 type  3   force =     0.25064854   -0.43410892   -1.97166834
     atom    5 type  3   force =    -0.25063502    0.43411246    1.97166531
     atom    6 type  3   force =     0.25062437    0.43410143   -1.97165061
     atom    7 type  3   force =    -0.25063510   -0.43410560    1.97165518
     atom    8 type  3   force =     0.50126993   -0.00000968    1.97166594
     atom    9 type  3   force =    -0.50127205    0.00000572   -1.97166652
     The core correction contribution to forces
     atom    1 type  1   force =     0.00001815    0.00000117   -0.00001394
     atom    2 type  2   force =    -0.00000003   -0.00000011   -0.00000001
     atom    3 type  2   force =    -0.00000019   -0.00000027   -0.00000013
     atom    4 type  3   force =     0.00005578   -0.00009597    0.00387932
     atom    5 type  3   force =    -0.00005508    0.00009640   -0.00387960
     atom    6 type  3   force =     0.00005533    0.00009599    0.00387987
     atom    7 type  3   force =    -0.00005584   -0.00009644   -0.00387933
     atom    8 type  3   force =     0.00011095   -0.00000014   -0.00387951
     atom    9 type  3   force =    -0.00011090   -0.00000027    0.00387964
     The Hubbard contrib.    to forces
     atom    1 type  1   force =     0.00000000    0.00000000    0.00000000
     atom    2 type  2   force =     0.00000000    0.00000000    0.00000000
     atom    3 type  2   force =     0.00000000    0.00000000    0.00000000
     atom    4 type  3   force =     0.00000000    0.00000000    0.00000000
     atom    5 type  3   force =     0.00000000    0.00000000    0.00000000
     atom    6 type  3   force =     0.00000000    0.00000000    0.00000000
     atom    7 type  3   force =     0.00000000    0.00000000    0.00000000
     atom    8 type  3   force =     0.00000000    0.00000000    0.00000000
     atom    9 type  3   force =     0.00000000    0.00000000    0.00000000
     The SCF correction term to forces
     atom    1 type  1   force =    -0.00011658   -0.00001987    0.00009445
     atom    2 type  2   force =    -0.00000326    0.00000859    0.00000009
     atom    3 type  2   force =     0.00000835   -0.00000240    0.00000047
     atom    4 type  3   force =    -0.00000288   -0.00001041    0.00005359
     atom    5 type  3   force =    -0.00001312    0.00000315   -0.00005097
     atom    6 type  3   force =     0.00001157    0.00000812    0.00005169
     atom    7 type  3   force =     0.00000443   -0.00000194   -0.00005755
     atom    8 type  3   force =     0.00001050    0.00000133   -0.00005105
     atom    9 type  3   force =    -0.00000986    0.00000316    0.00005052

     Total force =     0.000774     Total SCF correction =     0.000201
     SCF correction compared to forces is large: reduce conv_thr to get better values

     Computing stress (Cartesian axis) and pressure

     negative rho (up, down):  1.309E-01 0.000E+00
          total   stress  (Ry/bohr**3)                   (kbar)     P=        1.47
   0.00001023  -0.00000000  -0.00000000            1.50       -0.00       -0.00
  -0.00000000   0.00001023   0.00000000           -0.00        1.50        0.00
  -0.00000000   0.00000000   0.00000954           -0.00        0.00        1.40

     kinetic stress (kbar)   3030.61     -0.00      0.00
                               -0.00   3030.61     -0.00
                                0.00     -0.00   3043.29

     local   stress (kbar)   -822.62     -0.00      0.00
                               -0.00   -822.62      0.00
                                0.00      0.00    698.22

     nonloc. stress (kbar)    960.65     -0.00     -0.00
                               -0.00    960.65      0.00
                                0.00      0.00    959.43

     hartree stress (kbar)   1299.70      0.00     -0.00
                                0.00   1299.70     -0.00
                               -0.00     -0.00    661.14

     exc-cor stress (kbar)  10589.23      0.00      0.00
                                0.00  10589.23      0.00
                                0.00      0.00  10588.93

     corecor stress (kbar) -11854.10      0.00      0.00
                                0.00 -11854.10      0.00
                                0.00      0.00 -11854.74

     ewald   stress (kbar)  -3201.96      0.00     -0.00
                                0.00  -3201.96     -0.00
                               -0.00     -0.00  -4094.87

     hubbard stress (kbar)      0.00      0.00      0.00
                                0.00      0.00      0.00
                                0.00      0.00      0.00

     DFT-D   stress (kbar)      0.00      0.00      0.00
                                0.00      0.00      0.00
                                0.00      0.00      0.00

     XDM     stress (kbar)      0.00      0.00      0.00
                                0.00      0.00      0.00
                                0.00      0.00      0.00

     dft-nl  stress (kbar)      0.00      0.00      0.00
                                0.00      0.00      0.00
                                0.00      0.00      0.00

     TS-vdW  stress (kbar)      0.00      0.00      0.00
                                0.00      0.00      0.00
                                0.00      0.00      0.00

[...]

                                0.00      0.00      0.00

     Writing all to output data dir new_calculations/myprefix.save/

     General routines

     Parallel routines

     PAW routines

   This run was terminated on:  11:46:57  20May2023

   JOB DONE.