     Program PWSCF v.7.0 starts on 21May2023 at  2:27:25

     Reading input from espresso_22391.pwi
Warning: card &CELL ignored
Warning: card / ignored

     Current dimensions of program PWSCF are:
     Max number of different atomic species (ntypx) = 10
     Max number of k-points (npk) =  40000
     Max angular momentum in pseudopotentials (lmaxx) =  4
     file Ba.pbe-spn-kjpaw_psl.1.0.0.UPF: wavefunction(s)  5S 6S renormalized
     file In.pbe-dn-rrkjus_psl.0.2.2.UPF: wavefunction(s)  5S renormalized
     file O.pbe-n-kjpaw_psl.0.1.UPF: wavefunction(s)  2P renormalized

     gamma-point specific algorithms are used

     Subspace diagonalization in iterative solution of the eigenvalue problem:
     a serial algorithm will be used

     Using Slab Decomposition

     bravais-lattice index     =            0
     lattice parameter (alat)  =      18.7206  a.u.
     unit-cell volume          =    1841.2240 (a.u.)^3
     number of atoms/cell      =           19
     number of atomic types    =            5
     number of electrons       =       154.00
     number of Kohn-Sham states=           92
     kinetic-energy cutoff     =      30.0000  Ry
     charge density cutoff     =     240.0000  Ry
     scf convergence threshold =      1.0E-06
     mixing beta               =       0.7000
     number of iterations used =            8  plain     mixing
     Exchange-correlation= SLA  PW   PBX  PBC
                           (   1   4   3   4   0   0   0)

     celldm(1)=  18.720563  celldm(2)=   0.000000  celldm(3)=   0.000000
     celldm(4)=   0.000000  celldm(5)=   0.000000  celldm(6)=   0.000000

     crystal axes: (cart. coord. in units of alat)
               a(1) = (   1.000000   0.000000   0.000000 )
               a(2) = (   0.827785   0.561045   0.000000 )
               a(3) = (   0.827785   0.254092   0.500209 )

     reciprocal axes: (cart. coord. in units 2 pi/alat)
               b(1) = (  1.000000 -1.475433 -0.905400 )
               b(2) = (  0.000000  1.782387 -0.905400 )
               b(3) = (  0.000000  0.000000  1.999163 )

     PseudoPot. # 1 for Ba read from file:
     /home/pragov/projects/rrg-bengioy-ad/pragov/crystal_structure_design/SSSP/Ba.pbe-spn-kjpaw_psl.1.0.0.UPF
     MD5 check sum: c432291d3e53af55f19d5e8866385beb
     Pseudo is Projector augmented-wave + core cor, Zval = 10.0
     Generated using "atomic" code by A. Dal Corso  v.5.1
     Shape of augmentation charge: PSQ
     Using radial grid of 1251 points,  7 beta functions with:
                l(1) =   0
                l(2) =   0
                l(3) =   0
                l(4) =   1
                l(5) =   1
                l(6) =   2
                l(7) =   2
     Q(r) pseudized with 0 coefficients

     PseudoPot. # 2 for La read from file:
     /home/pragov/projects/rrg-bengioy-ad/pragov/crystal_structure_design/SSSP/La.GGA-PBE-paw-v1.0.UPF
     MD5 check sum: 436541e95c1ad8901025bd0b0ed42ae2
     Pseudo is Projector augmented-wave + core cor, Zval = 11.0
     Generated using ATOMPAW code
     Shape of augmentation charge: BESSEL
     Using radial grid of 1101 points,  8 beta functions with:
                l(1) =   0
                l(2) =   0
                l(3) =   1
                l(4) =   1
                l(5) =   2
                l(6) =   2
                l(7) =   3
                l(8) =   3
     Q(r) pseudized with 0 coefficients

     PseudoPot. # 3 for In read from file:
     /home/pragov/projects/rrg-bengioy-ad/pragov/crystal_structure_design/SSSP/In.pbe-dn-rrkjus_psl.0.2.2.UPF
     MD5 check sum: 25e7c42c3b55b68f4bf926be2e7201a4
     Pseudo is Ultrasoft + core correction, Zval = 13.0
     Generated using "atomic" code by A. Dal Corso  v.5.0.99 svn rev. 10869
     Using radial grid of 1241 points,  6 beta functions with:
                l(1) =   0
                l(2) =   0
                l(3) =   1
                l(4) =   1
                l(5) =   2
                l(6) =   2
     Q(r) pseudized with 0 coefficients

     PseudoPot. # 4 for W  read from file:
     /home/pragov/projects/rrg-bengioy-ad/pragov/crystal_structure_design/SSSP/W_pbe_v1.2.uspp.F.UPF
     MD5 check sum: 9c083fa34c2a2ea0f02f1f893e16e1c8
     Pseudo is Ultrasoft + core correction, Zval = 14.0
     Generated by new atomic code, or converted to UPF format
     Using radial grid of  923 points,  8 beta functions with:
                l(1) =   0
                l(2) =   0
                l(3) =   0
                l(4) =   1
                l(5) =   1
                l(6) =   2
                l(7) =   2
                l(8) =   3
     Q(r) pseudized with  6 coefficients,  rinner =    1.350   1.350   1.350
                                                       1.350   1.350   1.350
                                                       1.350

     PseudoPot. # 5 for O  read from file:
     /home/pragov/projects/rrg-bengioy-ad/pragov/crystal_structure_design/SSSP/O.pbe-n-kjpaw_psl.0.1.UPF
     MD5 check sum: 0234752ac141de4415c5fc33072bef88
     Pseudo is Projector augmented-wave + core cor, Zval =  6.0
     Generated using "atomic" code by A. Dal Corso  v.5.0.99 svn rev. 10869
     Shape of augmentation charge: BESSEL
     Using radial grid of 1095 points,  4 beta functions with:
                l(1) =   0
                l(2) =   0
                l(3) =   1
                l(4) =   1
     Q(r) pseudized with 0 coefficients

     atomic species   valence    mass     pseudopotential
        Ba            10.00   137.32700     Ba( 1.00)
        La            11.00   138.90547     La( 1.00)
        In            13.00   114.81800     In( 1.00)
        W             14.00   183.84000     W ( 1.00)
        O              6.00    15.99900     O ( 1.00)

     No symmetry found

                                    s                        frac. trans.

      isym =  1     identity

 cryst.   s( 1) = (     1          0          0      )
                  (     0          1          0      )
                  (     0          0          1      )

 cart.    s( 1) = (  1.0000000  0.0000000 -0.0000000 )
                  (  0.0000000  1.0000000  0.0000000 )
                  (  0.0000000  0.0000000  1.0000000 )

   Cartesian axes

     site n.     atom                  positions (alat units)
         1           Ba  tau(   1) = (   1.8868329   0.5791704   0.3554083  )
         2           Ba  tau(   2) = (   0.7658000   0.2350652   0.1442479  )
         3           Ba  tau(   3) = (   0.3494172   0.1072549   0.0658171  )
         4           La  tau(   4) = (   2.2803644   0.6999664   0.4295348  )
         5           In  tau(   5) = (   2.6546750   0.8148625   0.5000408  )
         6           W   tau(   6) = (   1.5327631   0.4704874   0.2887149  )
         7           W   tau(   7) = (   1.1246020   0.3452008   0.2118327  )
         8           O   tau(   8) = (   1.6771626   0.5148114   0.1502904  )
         9           O   tau(   9) = (   1.5943160   0.6370460   0.3909236  )
        10           O   tau(  10) = (   1.6771626   0.3671467   0.3909236  )
        11           O   tau(  11) = (   1.4140366   0.5830248   0.1906733  )
        12           O   tau(  12) = (   1.4140366   0.4340439   0.4334515  )
        13           O   tau(  13) = (   1.4976217   0.3107197   0.1906733  )
        14           O   tau(  14) = (   1.2480239   0.3830856   0.0663538  )
        15           O   tau(  15) = (   1.1636250   0.5076104   0.3114954  )
        16           O   tau(  16) = (   1.2480238   0.2326543   0.3114954  )
        17           O   tau(  17) = (   0.9817926   0.4472766   0.1108139  )
        18           O   tau(  18) = (   0.9817926   0.3013649   0.3485904  )
        19           O   tau(  19) = (   1.0636557   0.1805814   0.1108139  )

   Crystallographic axes

     site n.     atom                  positions (cryst. coord.)
         1           Ba  tau(   1) = (  0.7105190  0.7105190  0.7105190  )
         2           Ba  tau(   2) = (  0.2883750  0.2883750  0.2883750  )
         3           Ba  tau(   3) = (  0.1315790  0.1315790  0.1315790  )
         4           La  tau(   4) = (  0.8587100  0.8587100  0.8587100  )
         5           In  tau(   5) = (  0.9996630  0.9996630  0.9996630  )
         6           W   tau(   6) = (  0.5771880  0.5771880  0.5771880  )
         7           W   tau(   7) = (  0.4234880  0.4234880  0.4234880  )
         8           O   tau(   8) = (  0.7815200  0.7815200  0.3004550  )
         9           O   tau(   9) = (  0.3004550  0.7815200  0.7815200  )
        10           O   tau(  10) = (  0.7815200  0.3004550  0.7815200  )
        11           O   tau(  11) = (  0.3811870  0.8665400  0.3811870  )
        12           O   tau(  12) = (  0.3811870  0.3811870  0.8665400  )
        13           O   tau(  13) = (  0.8665400  0.3811870  0.3811870  )
        14           O   tau(  14) = (  0.6227300  0.6227300  0.1326520  )
        15           O   tau(  15) = (  0.1326520  0.6227300  0.6227300  )
        16           O   tau(  16) = (  0.6227300  0.1326520  0.6227300  )
        17           O   tau(  17) = (  0.2215350  0.6968890  0.2215350  )
        18           O   tau(  18) = (  0.2215350  0.2215350  0.6968890  )
        19           O   tau(  19) = (  0.6968890  0.2215350  0.2215350  )

     number of k points=     1  Methfessel-Paxton smearing, width (Ry)=  0.0010
                       cart. coord. in units 2pi/alat
        k(    1) = (   0.0000000   0.0000000   0.0000000), wk =   2.0000000

                       cryst. coord.
        k(    1) = (   0.0000000   0.0000000   0.0000000), wk =   2.0000000

     Check: negative core charge=   -0.000009

     Initial potential from superposition of free atoms

     starting charge     153.7360, renormalised to     154.0000

     negative rho (up, down):  1.248E-01 0.000E+00
     Starting wfcs are  130 randomized atomic wfcs
     Checking if some PAW data can be deallocated...

     Self-consistent Calculation

     iteration #  1     ecut=    30.00 Ry     beta= 0.70
     Davidson diagonalization with overlap

     ethr =  1.00E-02,  avg # of iterations =  2.0

     negative rho (up, down):  2.320E-01 0.000E+00

     total energy              =   -2726.59464638 Ry
     estimated scf accuracy    <       7.10876015 Ry

[...]

     total energy              =   -2730.38630510 Ry
     estimated scf accuracy    <       0.00000564 Ry

     iteration # 18     ecut=    30.00 Ry     beta= 0.70
     Davidson diagonalization with overlap

     ethr =  3.66E-09,  avg # of iterations =  2.0

[...]

     End of self-consistent calculation

          k = 0.0000 0.0000 0.0000 (  2569 PWs)   bands (ev):

   -64.4942 -64.2645 -28.7012 -28.6632 -28.6632 -28.5013 -28.4696 -28.4695
   -21.7192 -15.4658 -15.3733 -15.1888  -7.4069  -7.1874  -6.7952  -6.7951
    -6.6541  -6.5382  -6.5378  -6.2766  -6.2765  -6.0464  -6.0152  -6.0149
    -5.0838  -5.0837  -4.8034  -2.6954  -2.6954  -2.6523  -2.3062  -2.3062
    -0.9661  -0.9661  -0.7616  -0.7107  -0.7107  -0.5668  -0.5668  -0.4580
    -0.2705   4.1962   5.6898   5.6899   5.7572   6.2754   6.2921   6.2921
     6.3813   6.3814   6.4289   6.8089   6.8089   7.0330   7.3983   7.3984
     7.6631   8.0297   8.2128   8.2129   8.7072   8.7072   8.7805   8.9945
     8.9946   9.2324   9.4643   9.4644   9.6082   9.6083   9.6805   9.7116
     9.7998   9.7999  10.0267  10.0268  10.1251  12.8560  12.8561  12.9044
    13.1181  13.1181  13.1307  13.2372  13.2373  13.3022  13.4256  13.5002
    13.6446  13.6446  14.6749  14.6875

     occupation numbers
     1.0000   1.0000   1.0000   1.0000   1.0000   1.0000   1.0000   1.0000
     1.0000   1.0000   1.0000   1.0000   1.0000   1.0000   1.0000   1.0000
     1.0000   1.0000   1.0000   1.0000   1.0000   1.0000   1.0000   1.0000
     1.0000   1.0000   1.0000   1.0000   1.0000   1.0000   1.0000   1.0000
     1.0000   1.0000   1.0000   1.0000   1.0000   1.0000   1.0000   1.0000
     1.0000   1.0000   1.0000   1.0000   1.0000   1.0000   1.0000   1.0000
     1.0000   1.0000   1.0000   1.0000   1.0000   1.0000   1.0000   1.0000
     1.0000   1.0000   1.0000   1.0000   1.0000   1.0000   1.0000   1.0000
     1.0000   1.0000   1.0000   1.0000   1.0000   1.0000   1.0000   1.0000
     1.0000   1.0000   1.0000   1.0000   1.0000  -0.0000  -0.0000  -0.0000
    -0.0000  -0.0000  -0.0000  -0.0000  -0.0000  -0.0000  -0.0000  -0.0000
    -0.0000  -0.0000  -0.0000  -0.0000

     the Fermi energy is    12.3406 ev

!    total energy              =   -2730.38630560 Ry
     estimated scf accuracy    <       0.00000042 Ry
     smearing contrib. (-TS)   =       0.00000000 Ry
     internal energy E=F+TS    =   -2730.38630560 Ry

     The total energy is F=E-TS. E is the sum of the following terms:
     one-electron contribution =    -260.68969301 Ry
     hartree contribution      =     234.84583042 Ry
     xc contribution           =    -289.64014253 Ry
     ewald contribution        =    -777.70169080 Ry
     one-center paw contrib.   =   -1637.20060968 Ry
      -> PAW hartree energy AE =     478.47597598 Ry
      -> PAW hartree energy PS =    -476.86524365 Ry
      -> PAW xc energy AE      =   -1794.42565145 Ry
      -> PAW xc energy PS      =     155.61430943 Ry
      -> total E_H with PAW    =     236.45656276 Ry
      -> total E_XC with PAW   =   -1928.45148454 Ry

     convergence has been achieved in  18 iterations

     negative rho (up, down):  1.199E-01 0.000E+00

     Forces acting on atoms (cartesian axes, Ry/au):

     atom    1 type  1   force =     0.00971152    0.00299851    0.00182306
     atom    2 type  1   force =    -0.03172413   -0.00972607   -0.00596994
     atom    3 type  1   force =    -0.00999511   -0.00310706   -0.00186536
     atom    4 type  2   force =    -0.01681630   -0.00517382   -0.00316830
     atom    5 type  3   force =     0.00073577    0.00019065    0.00016897
     atom    6 type  4   force =     0.00566159    0.00174280    0.00105402
     atom    7 type  4   force =    -0.01119958   -0.00343341   -0.00211942
     atom    8 type  5   force =    -0.03134313   -0.00961687    0.02383196
     atom    9 type  5   force =    -0.01646046   -0.03157101   -0.01937206
     atom   10 type  5   force =    -0.03131814    0.01688216   -0.01935535
     atom   11 type  5   force =     0.04756711   -0.00663213    0.01974485
     atom   12 type  5   force =     0.04758378    0.01461279   -0.01490079
     atom   13 type  5   force =     0.03564670    0.03221348    0.01976679
     atom   14 type  5   force =    -0.04384832   -0.01346072    0.01532489
     atom   15 type  5   force =    -0.03204610   -0.03086946   -0.01893570
     atom   16 type  5   force =    -0.04384557    0.00757032   -0.01894185
     atom   17 type  5   force =     0.04558235   -0.01288354    0.02224355
     atom   18 type  5   force =     0.04559949    0.01400693   -0.02156791
     atom   19 type  5   force =     0.03050853    0.03625645    0.02223862
     The non-local contrib.  to forces
     atom    1 type  1   force =     0.00118182    0.00061903    0.00015872
     atom    2 type  1   force =     0.01240347    0.00379251    0.00237741
     atom    3 type  1   force =    -0.02822746   -0.00894632   -0.00522169
     atom    4 type  2   force =     0.14345762    0.04404381    0.02702430
     atom    5 type  3   force =     0.09998580    0.03066857    0.01885430
     atom    6 type  4   force =     0.06131122    0.01882420    0.01152328
     atom    7 type  4   force =    -0.03605921   -0.01106973   -0.00682901
     atom    8 type  5   force =     0.03810639    0.01170553    0.15168727
     atom    9 type  5   force =     0.11040083   -0.09497824   -0.05828177
     atom   10 type  5   force =     0.03810341    0.14054051   -0.05826197
     atom   11 type  5   force =     0.41334143   -0.46425103    0.37813350
     atom   12 type  5   force =     0.41335900    0.12687672   -0.58523080
     atom   13 type  5   force =     0.08167148    0.61624000    0.37818244
     atom   14 type  5   force =    -0.29703721   -0.09117424    0.40774302
     atom   15 type  5   force =    -0.06510269   -0.43337189   -0.26596035
     atom   16 type  5   force =    -0.29702602    0.32220751   -0.26595443
     atom   17 type  5   force =     0.04683264   -0.14820994    0.09139552
     atom   18 type  5   force =     0.04677881    0.01437013   -0.17351424
     atom   19 type  5   force =    -0.04440848    0.14893987    0.09138245
     The ionic contribution  to forces
     atom    1 type  1   force =     0.65023859    0.19959318    0.12248031
     atom    2 type  1   force =    -0.77563936   -0.23808542   -0.14610115
     atom    3 type  1   force =     2.22750558    0.68374122    0.41957800
     atom    4 type  2   force =     0.95440352    0.29295775    0.17977421
     atom    5 type  3   force =     0.05940720    0.01823526    0.01119022
     atom    6 type  4   force =    -0.51525169   -0.15815844   -0.09705401
     atom    7 type  4   force =     1.29145944    0.39641833    0.24326250
     atom    8 type  5   force =     1.82467430    0.56009064   -2.38990818
     atom    9 type  5   force =     0.45729795    2.57756335    1.58172316
     atom   10 type  5   force =     1.82467463   -1.87710328    1.58172316
     atom   11 type  5   force =    -6.31893316    6.26560068   -5.35826120
     atom   12 type  5   force =    -6.31893258   -1.93962013    8.01289853
     atom   13 type  5   force =    -1.71543104   -8.73177900   -5.35826121
     atom   14 type  5   force =     5.41835338    1.66318395   -6.62982981
     atom   15 type  5   force =     1.59152902    7.30940732    4.48542223
     atom   16 type  5   force =     5.41835372   -5.15769743    4.48542223
     atom   17 type  5   force =    -2.53875253    1.97013702   -1.87482851
     atom   18 type  5   force =    -2.53875221   -0.77927954    2.60559804
     atom   19 type  5   force =    -0.99620475   -3.05520545   -1.87482851
     The local contribution  to forces
     atom    1 type  1   force =    -0.64123154   -0.19706402   -0.12070564
     atom    2 type  1   force =     0.73206805    0.22471862    0.13788987
     atom    3 type  1   force =    -2.21093029   -0.67852868   -0.41645365
     atom    4 type  2   force =    -1.11530727   -0.34235151   -0.21010094
     atom    5 type  3   force =    -0.15380238   -0.04713617   -0.02902975
     atom    6 type  4   force =     0.46048808    0.14136989    0.08666784
     atom    7 type  4   force =    -1.27200150   -0.39039056   -0.23969943
     atom    8 type  5   force =    -1.89254233   -0.58092571    2.26298929
     atom    9 type  5   force =    -0.58223920   -2.51409669   -1.54279654
     atom   10 type  5   force =    -1.89240287    1.75442619   -1.54277435
     atom   11 type  5   force =     5.95525049   -5.81177084    5.00251848
     atom   12 type  5   force =     5.95538745    1.82804457   -7.44717439
     atom   13 type  5   force =     1.66913543    8.15217224    5.00249985
     atom   14 type  5   force =    -5.16716977   -1.58600747    6.24084358
     atom   15 type  5   force =    -1.55853416   -6.91024030   -4.24054189
     atom   16 type  5   force =    -5.16712682    4.84576569   -4.24046238
     atom   17 type  5   force =     2.53726645   -1.83612120    1.80625905
     atom   18 type  5   force =     2.53730556    0.77883292   -2.45510440
     atom   19 type  5   force =     1.07017130    2.94348153    1.80626216
     The core correction contribution to forces
     atom    1 type  1   force =    -0.00002656   -0.00001065   -0.00000448
     atom    2 type  1   force =    -0.00060932   -0.00018601   -0.00011427
     atom    3 type  1   force =     0.00186955    0.00057447    0.00035227
     atom    4 type  2   force =     0.00006222    0.00001909    0.00001171
     atom    5 type  3   force =    -0.00512077   -0.00157201   -0.00096455
     atom    6 type  4   force =    -0.00118648   -0.00036320   -0.00022501
     atom    7 type  4   force =     0.00617321    0.00189418    0.00116038
     atom    8 type  5   force =    -0.00146293   -0.00044916   -0.00109747
     atom    9 type  5   force =    -0.00187416    0.00015805    0.00009696
     atom   10 type  5   force =    -0.00146264   -0.00118217    0.00009668
     atom   11 type  5   force =    -0.00268914    0.00390712   -0.00291049
     atom   12 type  5   force =    -0.00268909   -0.00082526    0.00480254
     atom   13 type  5   force =    -0.00003334   -0.00474313   -0.00291139
     atom   14 type  5   force =     0.00189072    0.00058048   -0.00325445
     atom   15 type  5   force =     0.00008495    0.00324479    0.00199149
     atom   16 type  5   force =     0.00189079   -0.00263847    0.00199161
     atom   17 type  5   force =     0.00069226    0.00119782   -0.00036985
     atom   18 type  5   force =     0.00069320    0.00021262    0.00123512
     atom   19 type  5   force =     0.00124546   -0.00060273   -0.00036967
     The Hubbard contrib.    to forces
     atom    1 type  1   force =     0.00000000    0.00000000    0.00000000
     atom    2 type  1   force =     0.00000000    0.00000000    0.00000000
     atom    3 type  1   force =     0.00000000    0.00000000    0.00000000
     atom    4 type  2   force =     0.00000000    0.00000000    0.00000000
     atom    5 type  3   force =     0.00000000    0.00000000    0.00000000
     atom    6 type  4   force =     0.00000000    0.00000000    0.00000000
     atom    7 type  4   force =     0.00000000    0.00000000    0.00000000
     atom    8 type  5   force =     0.00000000    0.00000000    0.00000000
     atom    9 type  5   force =     0.00000000    0.00000000    0.00000000
     atom   10 type  5   force =     0.00000000    0.00000000    0.00000000
     atom   11 type  5   force =     0.00000000    0.00000000    0.00000000
     atom   12 type  5   force =     0.00000000    0.00000000    0.00000000
     atom   13 type  5   force =     0.00000000    0.00000000    0.00000000
     atom   14 type  5   force =     0.00000000    0.00000000    0.00000000
     atom   15 type  5   force =     0.00000000    0.00000000    0.00000000
     atom   16 type  5   force =     0.00000000    0.00000000    0.00000000
     atom   17 type  5   force =     0.00000000    0.00000000    0.00000000
     atom   18 type  5   force =     0.00000000    0.00000000    0.00000000
     atom   19 type  5   force =     0.00000000    0.00000000    0.00000000
     The SCF correction term to forces
     atom    1 type  1   force =    -0.00043352   -0.00013871   -0.00010071
     atom    2 type  1   force =     0.00007030    0.00003455   -0.00001666
     atom    3 type  1   force =    -0.00019523    0.00005257   -0.00011515
     atom    4 type  2   force =     0.00058488    0.00015736    0.00012756
     atom    5 type  3   force =     0.00028319   -0.00000468    0.00012391
     atom    6 type  4   force =     0.00031774    0.00007068    0.00014705
     atom    7 type  4   force =    -0.00075426   -0.00028530   -0.00000872
     atom    8 type  5   force =    -0.00010130   -0.00003785    0.00016620
     atom    9 type  5   force =    -0.00002860   -0.00021715   -0.00010873
     atom   10 type  5   force =    -0.00021339    0.00020124   -0.00013373
     atom   11 type  5   force =     0.00061476   -0.00011774    0.00026970
     atom   12 type  5   force =     0.00047628    0.00013721   -0.00019152
     atom   13 type  5   force =     0.00032144    0.00032370    0.00026224
     atom   14 type  5   force =     0.00013183   -0.00004314   -0.00017231
     atom   15 type  5   force =    -0.00000594    0.00009095    0.00015796
     atom   16 type  5   force =     0.00008002   -0.00006665    0.00006627
     atom   17 type  5   force =    -0.00043921    0.00011308   -0.00020751
     atom   18 type  5   force =    -0.00040859   -0.00012888    0.00022271
     atom   19 type  5   force =    -0.00027774   -0.00035644   -0.00020267

     Total force =     0.173525     Total SCF correction =     0.001894

     Computing stress (Cartesian axis) and pressure

     negative rho (up, down):  1.199E-01 0.000E+00
          total   stress  (Ry/bohr**3)                   (kbar)     P=     -272.07
  -0.00257098  -0.00035519  -0.00021800         -378.20      -52.25      -32.07
  -0.00035519  -0.00152275  -0.00006687          -52.25     -224.00       -9.84
  -0.00021800  -0.00006687  -0.00145481          -32.07       -9.84     -214.01

     kinetic stress (kbar)  21133.42    -87.76    -53.87
                              -87.76  21392.43    -16.53
                              -53.87    -16.53  21409.22

     local   stress (kbar)  -4331.02     52.92     32.43
                               52.92  -4487.11      9.99
                               32.43      9.99  -4497.23

     nonloc. stress (kbar)   2577.11     -1.68     -1.03
                               -1.68   2582.07     -0.31
                               -1.03     -0.31   2582.39

     hartree stress (kbar)   6444.45     93.56     57.46
                               93.56   6168.27     17.60
                               57.46     17.60   6150.35

     exc-cor stress (kbar)   4750.50      0.17      0.10
                                0.17   4750.00      0.03
                                0.10      0.03   4749.96

     corecor stress (kbar) -10016.50      1.12      0.69
                                1.12 -10019.81      0.21
                                0.69      0.21 -10020.02

     ewald   stress (kbar) -20936.16   -110.59    -67.86
                             -110.59 -20609.84    -20.83
                              -67.86    -20.83 -20588.68

     hubbard stress (kbar)      0.00      0.00      0.00
                                0.00      0.00      0.00
                                0.00      0.00      0.00

     DFT-D   stress (kbar)      0.00      0.00      0.00
                                0.00      0.00      0.00
                                0.00      0.00      0.00

     XDM     stress (kbar)      0.00      0.00      0.00
                                0.00      0.00      0.00
                                0.00      0.00      0.00

     dft-nl  stress (kbar)      0.00      0.00      0.00
                                0.00      0.00      0.00
                                0.00      0.00      0.00

     TS-vdW  stress (kbar)      0.00      0.00      0.00
                                0.00      0.00      0.00
                                0.00      0.00      0.00

[...]

                                0.00      0.00      0.00

     Writing all to output data dir new_calculations/myprefix.save/

     General routines

     Parallel routines

     PAW routines

   This run was terminated on:   2:28:41  21May2023

   JOB DONE.