     Program PWSCF v.7.0 starts on 20May2023 at 22:39: 3

     Reading input from espresso_24174.pwi
Warning: card &CELL ignored
Warning: card / ignored

     Current dimensions of program PWSCF are:
     Max number of different atomic species (ntypx) = 10
     Max number of k-points (npk) =  40000
     Max angular momentum in pseudopotentials (lmaxx) =  4

     gamma-point specific algorithms are used

     Subspace diagonalization in iterative solution of the eigenvalue problem:
     a serial algorithm will be used

     Using Slab Decomposition

     bravais-lattice index     =            0
     lattice parameter (alat)  =      11.2265  a.u.
     unit-cell volume          =     879.2173 (a.u.)^3
     number of atoms/cell      =           10
     number of atomic types    =            3
     number of electrons       =        86.00
     number of Kohn-Sham states=           52
     kinetic-energy cutoff     =      30.0000  Ry
     charge density cutoff     =     240.0000  Ry
     scf convergence threshold =      1.0E-06
     mixing beta               =       0.7000
     number of iterations used =            8  plain     mixing
     Exchange-correlation=  SLA  PW   PBX  PBC
                           (   1   4   3   4   0   0   0)

     celldm(1)=  11.226500  celldm(2)=   0.000000  celldm(3)=   0.000000
     celldm(4)=   0.000000  celldm(5)=   0.000000  celldm(6)=   0.000000

     crystal axes: (cart. coord. in units of alat)
               a(1) = (   1.000000   0.000000   0.000000 )
               a(2) = (   0.576515   0.817087   0.000000 )
               a(3) = (   0.576515   0.298800   0.760493 )

     reciprocal axes: (cart. coord. in units 2 pi/alat)
               b(1) = (  1.000000 -0.705574 -0.480859 )
               b(2) = (  0.000000  1.223860 -0.480859 )
               b(3) = (  0.000000  0.000000  1.314937 )

     PseudoPot. # 1 for Li read from file:
     /home/pragov/projects/rrg-bengioy-ad/pragov/crystal_structure_design/SSSP/li_pbe_v1.4.uspp.F.UPF
     MD5 check sum: e912e257baa3777c20ea3d68f190483c
     Pseudo is Ultrasoft, Zval =  3.0
     Generated by new atomic code, or converted to UPF format
     Using radial grid of  751 points,  5 beta functions with:
                l(1) =   0
                l(2) =   0
                l(3) =   0
                l(4) =   1
                l(5) =   1
     Q(r) pseudized with 10 coefficients,  rinner =    1.150   1.150   1.150

     PseudoPot. # 2 for Ag read from file:
     /home/pragov/projects/rrg-bengioy-ad/pragov/crystal_structure_design/SSSP/Ag_ONCV_PBE-1.0.oncvpsp.upf
     MD5 check sum: 94f47bd0669c641108e45594df92fabc
     Pseudo is Norm-conserving, Zval = 19.0
     Generated using ONCVPSP code by D. R. Hamann
     Using radial grid of 1398 points,  6 beta functions with:
                l(1) =   0
                l(2) =   0
                l(3) =   1
                l(4) =   1
                l(5) =   2
                l(6) =   2

     PseudoPot. # 3 for F  read from file:
     /home/pragov/projects/rrg-bengioy-ad/pragov/crystal_structure_design/SSSP/f_pbe_v1.4.uspp.F.UPF
     MD5 check sum: 4c38b6a325caf53ec0e86aed9459de46
     Pseudo is Ultrasoft, Zval =  7.0
     Generated by new atomic code, or converted to UPF format
     Using radial grid of  799 points,  4 beta functions with:
                l(1) =   0
                l(2) =   0
                l(3) =   1
                l(4) =   1
     Q(r) pseudized with  8 coefficients,  rinner =    0.950   0.950   0.950

     atomic species   valence    mass     pseudopotential
        Li             3.00     6.94000     Li( 1.00)
        Ag            19.00   107.86820     Ag( 1.00)
        F              7.00    18.99840     F ( 1.00)

     No symmetry found

                                    s                        frac. trans.

      isym =  1     identity

 cryst.   s( 1) = (     1          0          0      )
                  (     0          1          0      )
                  (     0          0          1      )

 cart.    s( 1) = (  1.0000000 -0.0000000  0.0000000 )
                  (  0.0000000  1.0000000 -0.0000000 )
                  (  0.0000000  0.0000000  1.0000000 )

   Cartesian axes

     site n.     atom                  positions (alat units)
         1           Li  tau(   1) = (   1.7233046   0.8931657   0.6087050  )
         2           Li  tau(   2) = (   0.6467896   0.3352224   0.2284588  )
         3           Ag  tau(   3) = (   1.1044893   0.5724421   0.3901273  )
         4           Ag  tau(   4) = (   0.0279743   0.0144987   0.0098811  )
         5           F   tau(   5) = (   1.1071548   0.7662183   0.7128499  )
         6           F   tau(   6) = (   0.7643578   0.7220484   0.3326037  )
         7           F   tau(   7) = (   0.9093545   0.2938507   0.5504072  )
         8           F   tau(   8) = (   1.4093545   0.3605992   0.4524657  )
         9           F   tau(   9) = (   1.2643578   0.8327554   0.1701610  )
        10           F   tau(  10) = (   1.0306397   0.3857305   0.0722194  )

   Crystallographic axes

     site n.     atom                  positions (cryst. coord.)
         1           Li  tau(   1) = (  0.8004090  0.8004090  0.8004090  )
         2           Li  tau(   2) = (  0.3004090  0.3004090  0.3004090  )
         3           Ag  tau(   3) = (  0.5129930  0.5129930  0.5129930  )
         4           Ag  tau(   4) = (  0.0129930  0.0129930  0.0129930  )
         5           F   tau(   5) = (  0.2237510  0.5949640  0.9373530  )
         6           F   tau(   6) = (  0.0949640  0.7237510  0.4373530  )
         7           F   tau(   7) = (  0.4373530  0.0949640  0.7237510  )
         8           F   tau(   8) = (  0.9373530  0.2237510  0.5949640  )
         9           F   tau(   9) = (  0.5949640  0.9373530  0.2237510  )
        10           F   tau(  10) = (  0.7237510  0.4373530  0.0949640  )

     number of k points=     1  Methfessel-Paxton smearing, width (Ry)=  0.0010
                       cart. coord. in units 2pi/alat
        k(    1) = (   0.0000000   0.0000000   0.0000000), wk =   2.0000000

                       cryst. coord.
        k(    1) = (   0.0000000   0.0000000   0.0000000), wk =   2.0000000

     Initial potential from superposition of free atoms

     starting charge      85.0979, renormalised to      86.0000
     Starting wfcs are   54 randomized atomic wfcs

     Self-consistent Calculation

     iteration #  1     ecut=    30.00 Ry     beta= 0.70
     Davidson diagonalization with overlap

     ethr =  1.00E-02,  avg # of iterations =  4.0

     total energy              =    -894.53190154 Ry
     estimated scf accuracy    <       0.95634002 Ry

[...]

     total energy              =    -895.02990828 Ry
     estimated scf accuracy    <       0.00014097 Ry

     iteration # 17     ecut=    30.00 Ry     beta= 0.70
     Davidson diagonalization with overlap

     ethr =  1.64E-07,  avg # of iterations =  1.0

     End of self-consistent calculation

          k = 0.0000 0.0000 0.0000 (  1209 PWs)   bands (ev):

   -87.3824 -87.3822 -50.4063 -50.4063 -50.4015 -50.4015 -50.3456 -50.3385
   -38.9070 -38.9041 -17.4648 -17.1584 -17.1583 -17.1340 -17.0812 -17.0812
    -0.7395  -0.7395  -0.5918  -0.2422  -0.2422   0.1048   0.3108   0.3109
     0.4476   1.0584   1.2010   1.2604   1.2604   1.6299   1.6299   1.9937
     2.0676   2.0676   2.1219   2.1220   2.2681   2.4617   2.4617   2.8218
     3.5057   3.5057   4.6021   4.6021   7.6398  12.2720  13.6070  14.8575
    14.8577  15.1243  15.1453  15.8878

     occupation numbers
     1.0000   1.0000   1.0000   1.0000   1.0000   1.0000   1.0000   1.0000
     1.0000   1.0000   1.0000   1.0000   1.0000   1.0000   1.0000   1.0000
     1.0000   1.0000   1.0000   1.0000   1.0000   1.0000   1.0000   1.0000
     1.0000   1.0000   1.0000   1.0000   1.0000   1.0000   1.0000   1.0000
     1.0000   1.0000   1.0000   1.0000   1.0000   1.0000   1.0000   1.0000
     1.0000   1.0000   0.5010   0.4990  -0.0000  -0.0000  -0.0000  -0.0000
    -0.0000  -0.0000  -0.0000  -0.0000

     the Fermi energy is     4.6021 ev

!    total energy              =    -895.02990920 Ry
     estimated scf accuracy    <       0.00000036 Ry
     smearing contrib. (-TS)   =      -0.00056419 Ry
     internal energy E=F+TS    =    -895.02934501 Ry

     The total energy is F=E-TS. E is the sum of the following terms:
     one-electron contribution =    -532.84814859 Ry
     hartree contribution      =     296.95676073 Ry
     xc contribution           =    -116.94678065 Ry
     ewald contribution        =    -542.19117651 Ry

     convergence has been achieved in  17 iterations

     Forces acting on atoms (cartesian axes, Ry/au):

     atom    1 type  1   force =    -0.00318180   -0.00169201   -0.00114802
     atom    2 type  1   force =    -0.00321853   -0.00162175   -0.00112602
     atom    3 type  2   force =    -0.00381497   -0.00198185   -0.00136370
     atom    4 type  2   force =    -0.00383558   -0.00197865   -0.00136212
     atom    5 type  3   force =     0.00411178    0.00264353   -0.00627492
     atom    6 type  3   force =     0.00446373    0.00183864   -0.00622212
     atom    7 type  3   force =    -0.00162362    0.00673871    0.00402602
     atom    8 type  3   force =    -0.00159333    0.00611314    0.00470836
     atom    9 type  3   force =     0.00459145   -0.00520017    0.00400458
     atom   10 type  3   force =     0.00410086   -0.00485959    0.00475794
     The non-local contrib.  to forces
     atom    1 type  1   force =     0.06084109    0.03152776    0.02150251
     atom    2 type  1   force =     0.06085104    0.03153644    0.02147866
     atom    3 type  2   force =     0.05522981    0.02864401    0.01949710
     atom    4 type  2   force =     0.05523857    0.02862834    0.01949409
     atom    5 type  3   force =     0.10835985    0.08633496   -0.06349072
     atom    6 type  3   force =     0.13296638    0.03876440   -0.06347672
     atom    7 type  3   force =     0.03997858    0.13459647    0.05930912
     atom    8 type  3   force =     0.03997291    0.10437603    0.10355574
     atom    9 type  3   force =     0.13304343   -0.04492909    0.05929056
     atom   10 type  3   force =     0.10834061   -0.02752570    0.10357396
     The ionic contribution  to forces
     atom    1 type  1   force =    -0.21023931   -0.10896312   -0.07426177
     atom    2 type  1   force =    -0.21023841   -0.10896486   -0.07426177
     atom    3 type  2   force =     3.65544090    1.89456484    1.29117558
     atom    4 type  2   force =     3.65543981    1.89456696    1.29117558
     atom    5 type  3   force =    -1.03105984   -3.96674739    4.20931121
     atom    6 type  3   force =    -3.83559761    1.44442385    4.20931121
     atom    7 type  3   force =     1.42146473   -5.69719074   -0.19492240
     atom    8 type  3   force =     1.42145724   -2.26482242   -5.23130262
     atom    9 type  3   force =    -3.83560271    4.44597528   -0.19492240
     atom   10 type  3   force =    -1.03106479    2.46715761   -5.23130262
     The local contribution  to forces
     atom    1 type  1   force =     0.14628698    0.07565407    0.05152736
     atom    2 type  1   force =     0.14610575    0.07591589    0.05170634
     atom    3 type  2   force =    -3.71450627   -1.92519115   -1.31200535
     atom    4 type  2   force =    -3.71441215   -1.92516382   -1.31196144
     atom    5 type  3   force =     0.92676682    3.88306563   -4.15212487
     atom    6 type  3   force =     3.70711353   -1.48136250   -4.15202090
     atom    7 type  3   force =    -1.46308705    5.56940637    0.13958743
     atom    8 type  3   force =    -1.46302177    2.16660277    5.13238601
     atom    9 type  3   force =     3.70715522   -4.40631045    0.13967395
     atom   10 type  3   force =     0.92688095   -2.44449358    5.13248521
     The core correction contribution to forces
     atom    1 type  1   force =     0.00000000    0.00000000    0.00000000
     atom    2 type  1   force =     0.00000000    0.00000000    0.00000000
     atom    3 type  2   force =     0.00000000    0.00000000    0.00000000
     atom    4 type  2   force =     0.00000000    0.00000000    0.00000000
     atom    5 type  3   force =     0.00000000    0.00000000    0.00000000
     atom    6 type  3   force =     0.00000000    0.00000000    0.00000000
     atom    7 type  3   force =     0.00000000    0.00000000    0.00000000
     atom    8 type  3   force =     0.00000000    0.00000000    0.00000000
     atom    9 type  3   force =     0.00000000    0.00000000    0.00000000
     atom   10 type  3   force =     0.00000000    0.00000000    0.00000000
     The Hubbard contrib.    to forces
     atom    1 type  1   force =     0.00000000    0.00000000    0.00000000
     atom    2 type  1   force =     0.00000000    0.00000000    0.00000000
     atom    3 type  2   force =     0.00000000    0.00000000    0.00000000
     atom    4 type  2   force =     0.00000000    0.00000000    0.00000000
     atom    5 type  3   force =     0.00000000    0.00000000    0.00000000
     atom    6 type  3   force =     0.00000000    0.00000000    0.00000000
     atom    7 type  3   force =     0.00000000    0.00000000    0.00000000
     atom    8 type  3   force =     0.00000000    0.00000000    0.00000000
     atom    9 type  3   force =     0.00000000    0.00000000    0.00000000
     atom   10 type  3   force =     0.00000000    0.00000000    0.00000000
     The SCF correction term to forces
     atom    1 type  1   force =    -0.00007107    0.00008850    0.00008429
     atom    2 type  1   force =     0.00006258   -0.00010999   -0.00004885
     atom    3 type  2   force =     0.00002008   -0.00000032   -0.00003063
     atom    4 type  2   force =    -0.00010231   -0.00001091   -0.00006994
     atom    5 type  3   force =     0.00004444   -0.00001044    0.00002988
     atom    6 type  3   force =    -0.00001908    0.00001211   -0.00003530
     atom    7 type  3   force =     0.00001961   -0.00007416    0.00005227
     atom    8 type  3   force =    -0.00000222   -0.00004401    0.00006963
     atom    9 type  3   force =    -0.00000500    0.00006330   -0.00003712
     atom   10 type  3   force =    -0.00005642    0.00000131    0.00000180

     Total force =     0.021172     Total SCF correction =     0.000290

     Computing stress (Cartesian axis) and pressure

          total   stress  (Ry/bohr**3)                   (kbar)     P=     -607.29
  -0.00393191   0.00019124   0.00012781         -578.40       28.13       18.80
   0.00019124  -0.00419951   0.00006693           28.13     -617.77        9.85
   0.00012781   0.00006693  -0.00425335           18.80        9.85     -625.69

     kinetic stress (kbar)  34071.11     63.17     44.03
                               63.17  33981.16     22.52
                               44.03     22.52  33963.80

     local   stress (kbar) -13028.23    980.73    666.07
                              980.73 -14410.29    345.93
                              666.07    345.93 -14682.85

     nonloc. stress (kbar)   -682.47      6.85      4.54
                                6.85   -692.01      2.38
                                4.54      2.38   -693.98

     hartree stress (kbar)  16197.32   -353.11   -239.56
                             -353.11  16694.74   -124.51
                             -239.56   -124.51  16792.87

     exc-cor stress (kbar)  -6206.97     -1.26     -0.86
                               -1.26  -6205.20     -0.44
                               -0.86     -0.44  -6204.85

     corecor stress (kbar)      0.00      0.00      0.00
                                0.00      0.00      0.00
                                0.00      0.00      0.00

     ewald   stress (kbar) -30929.16   -668.25   -455.42
                             -668.25 -29986.16   -236.04
                             -455.42   -236.04 -29800.68

     hubbard stress (kbar)      0.00      0.00      0.00
                                0.00      0.00      0.00
                                0.00      0.00      0.00

     DFT-D   stress (kbar)      0.00      0.00      0.00
                                0.00      0.00      0.00
                                0.00      0.00      0.00

     XDM     stress (kbar)      0.00      0.00      0.00
                                0.00      0.00      0.00
                                0.00      0.00      0.00

     dft-nl  stress (kbar)      0.00      0.00      0.00
                                0.00      0.00      0.00
                                0.00      0.00      0.00

     TS-vdW  stress (kbar)      0.00      0.00      0.00
                                0.00      0.00      0.00
                                0.00      0.00      0.00

[...]

                                0.00      0.00      0.00

     Writing all to output data dir new_calculations/myprefix.save/

     General routines

     Parallel routines

   This run was terminated on:  22:39:14  20May2023

   JOB DONE.