     Program PWSCF v.7.0 starts on 20May2023 at 20:58:18

     Reading input from espresso_819.pwi
Warning: card &CELL ignored
Warning: card / ignored

     Current dimensions of program PWSCF are:
     Max number of different atomic species (ntypx) = 10
     Max number of k-points (npk) =  40000
     Max angular momentum in pseudopotentials (lmaxx) =  4

     gamma-point specific algorithms are used
     Message from routine setup:
     using ibrav=0 with symmetry is DISCOURAGED, use correct ibrav instead

     Subspace diagonalization in iterative solution of the eigenvalue problem:
     a serial algorithm will be used

     Using Slab Decomposition

     bravais-lattice index     =            0
     lattice parameter (alat)  =      12.0758  a.u.
     unit-cell volume          =     960.9846 (a.u.)^3
     number of atoms/cell      =            8
     number of atomic types    =            3
     number of electrons       =        56.00
     number of Kohn-Sham states=           34
     kinetic-energy cutoff     =      30.0000  Ry
     charge density cutoff     =     240.0000  Ry
     scf convergence threshold =      1.0E-06
     mixing beta               =       0.7000
     number of iterations used =            8  plain     mixing
     Exchange-correlation= PBE
                           (   1   4   3   4   0   0   0)

     celldm(1)=  12.075808  celldm(2)=   0.000000  celldm(3)=   0.000000
     celldm(4)=   0.000000  celldm(5)=   0.000000  celldm(6)=   0.000000

     crystal axes: (cart. coord. in units of alat)
               a(1) = (   1.000000   0.000000   0.000000 )
               a(2) = (   0.331067   0.943607   0.000000 )
               a(3) = (  -0.665533  -0.471804   0.578331 )

     reciprocal axes: (cart. coord. in units 2 pi/alat)
               b(1) = (  1.000000 -0.350852  0.864557 )
               b(2) = (  0.000000  1.059763  0.864557 )
               b(3) = (  0.000000  0.000000  1.729114 )

     PseudoPot. # 1 for Be read from file:
     /home/pragov/projects/rrg-bengioy-ad/pragov/crystal_structure_design/SSSP/be_pbe_v1.4.uspp.F.UPF
     MD5 check sum: 5ecff1440924c7c98ad504bef30f5264
     Pseudo is Ultrasoft, Zval =  4.0
     Generated by new atomic code, or converted to UPF format
     Using radial grid of  769 points,  6 beta functions with:
                l(1) =   0
                l(2) =   0
                l(3) =   0
                l(4) =   1
                l(5) =   1
                l(6) =   2
     Q(r) pseudized with 10 coefficients,  rinner =    1.000   1.000   1.000
                                                       1.000   1.000

     PseudoPot. # 2 for Ge read from file:
     /home/pragov/projects/rrg-bengioy-ad/pragov/crystal_structure_design/SSSP/ge_pbe_v1.4.uspp.F.UPF
     MD5 check sum: 9c9eaa91e581c3f09632fb3098b2c6b2
     Pseudo is Ultrasoft + core correction, Zval = 14.0
     Generated by new atomic code, or converted to UPF format
     Using radial grid of  873 points,  6 beta functions with:
                l(1) =   0
                l(2) =   0
                l(3) =   1
                l(4) =   1
                l(5) =   2
                l(6) =   2
     Q(r) pseudized with  8 coefficients,  rinner =    1.400   1.400   1.400
                                                       1.400   1.400

     PseudoPot. # 3 for P  read from file:
     /home/pragov/projects/rrg-bengioy-ad/pragov/crystal_structure_design/SSSP/P.pbe-n-rrkjus_psl.1.0.0.UPF
     MD5 check sum: 8b930f418f0a4573dca56cd030ffe088
     Pseudo is Ultrasoft + core correction, Zval =  5.0
     Generated using "atomic" code by A. Dal Corso  v.5.1
     Using radial grid of 1147 points,  6 beta functions with:
                l(1) =   0
                l(2) =   0
                l(3) =   1
                l(4) =   1
                l(5) =   2
                l(6) =   2
     Q(r) pseudized with 0 coefficients

     atomic species   valence    mass     pseudopotential
        Be             4.00     9.01218     Be( 1.00)
        Ge            14.00    72.63000     Ge( 1.00)
        P              5.00    30.97376     P ( 1.00)

      2 Sym. Ops. (no inversion) found ( 1 have fractional translation)

                                    s                        frac. trans.

      isym =  1     identity

 cryst.   s( 1) = (     1          0          0      )
                  (     0          1          0      )
                  (     0          0          1      )

 cart.    s( 1) = (  1.0000000 -0.0000000  0.0000000 )
                  (  0.0000000  1.0000000  0.0000000 )
                  (  0.0000000  0.0000000  1.0000000 )

      isym =  2     inv. 180 deg rotation - cart. axis [0,0,1]

 cryst.   s( 2) = (     1          0          0      )    f =(  0.2500000 )
                  (     0          1          0      )       ( -0.2500000 )
                  (    -1         -1         -1      )       ( -0.5000000 )

 cart.    s( 2) = (  1.0000000 -0.0000000  0.0000000 )    f =(  0.5000000 )
                  (  0.0000000  1.0000000  0.0000000 )       (  0.0000000 )
                  (  0.0000000  0.0000000 -1.0000000 )       ( -0.2891655 )

   Cartesian axes

     site n.     atom                  positions (alat units)
         1           Be  tau(   1) = (   0.6655333   0.4718037   0.0000000  )
         2           Be  tau(   2) = (   0.1655333   0.4718037   0.2891655  )
         3           Ge  tau(   3) = (   0.0000000   0.0000000   0.0000000  )
         4           Ge  tau(   4) = (   0.5000000  -0.0000000   0.2891655  )
         5           P   tau(   5) = (   0.4897434   0.3671218   0.2729005  )
         6           P   tau(   6) = (  -0.1569768  -0.1312199   0.3054305  )
         7           P   tau(   7) = (   0.9897434   0.3671218   0.0162650  )
         8           P   tau(   8) = (   0.0085565   0.3405838   0.5620660  )

   Crystallographic axes

     site n.     atom                  positions (cryst. coord.)
         1           Be  tau(   1) = (  0.5000000  0.5000000  0.0000000  )
         2           Be  tau(   2) = (  0.2500000  0.7500000  0.5000000  )
         3           Ge  tau(   3) = (  0.0000000  0.0000000  0.0000000  )
         4           Ge  tau(   4) = (  0.7500000  0.2500000  0.5000000  )
         5           P   tau(   5) = (  0.5968760  0.6250000  0.4718760  )
         6           P   tau(   6) = (  0.1531240  0.1250000  0.5281240  )
         7           P   tau(   7) = (  0.8750000  0.4031240  0.0281240  )
         8           P   tau(   8) = (  0.3750000  0.8468760  0.9718760  )

     number of k points=     1  Methfessel-Paxton smearing, width (Ry)=  0.0010
                       cart. coord. in units 2pi/alat
        k(    1) = (   0.0000000   0.0000000   0.0000000), wk =   2.0000000

                       cryst. coord.
        k(    1) = (   0.0000000   0.0000000   0.0000000), wk =   2.0000000

     Initial potential from superposition of free atoms

     starting charge      55.9973, renormalised to      56.0000
     Starting wfcs are   44 randomized atomic wfcs

     Self-consistent Calculation

     iteration #  1     ecut=    30.00 Ry     beta= 0.70
     Davidson diagonalization with overlap

     ethr =  1.00E-02,  avg # of iterations =  4.0

     Threshold (ethr) on eigenvalues was too large:
     Diagonalizing with lowered threshold

     Davidson diagonalization with overlap

[...]

     total energy              =    -539.62424302 Ry
     estimated scf accuracy    <       0.43919126 Ry

[...]

     total energy              =    -539.75373462 Ry
     estimated scf accuracy    <       0.00000170 Ry

     iteration #  8     ecut=    30.00 Ry     beta= 0.70
     Davidson diagonalization with overlap

     ethr =  3.04E-09,  avg # of iterations =  3.0

     End of self-consistent calculation

          k = 0.0000 0.0000 0.0000 (  1345 PWs)   bands (ev):

   -92.3994 -92.3813 -18.1502 -18.1463 -18.1442 -18.1427 -18.1036 -18.0672
   -18.0482 -18.0152 -17.9809 -17.9570  -6.2473  -2.8046  -2.7162  -2.7159
    -2.0618   0.2519   2.3716   2.8640   2.8679   2.9108   2.9118   4.1055
     4.1100   7.0398   7.0425   7.0444   8.2273   8.2925   9.3933  10.1648
    10.2214  10.2228

     occupation numbers
     1.0000   1.0000   1.0000   1.0000   1.0000   1.0000   1.0000   1.0000
     1.0000   1.0000   1.0000   1.0000   1.0000   1.0000   1.0000   1.0000
     1.0000   1.0000   1.0000   1.0000   1.0000   1.0000   1.0000   1.0000
     1.0000   1.0000   1.0000   1.0000  -0.0000  -0.0000  -0.0000  -0.0000
    -0.0000  -0.0000

     the Fermi energy is     7.1434 ev

!    total energy              =    -539.75373505 Ry
     estimated scf accuracy    <       0.00000010 Ry
     smearing contrib. (-TS)   =       0.00000000 Ry
     internal energy E=F+TS    =    -539.75373505 Ry

     The total energy is F=E-TS. E is the sum of the following terms:
     one-electron contribution =    -338.40337643 Ry
     hartree contribution      =     197.00820716 Ry
     xc contribution           =    -144.23867518 Ry
     ewald contribution        =    -254.11989061 Ry

     convergence has been achieved in   8 iterations

     Forces acting on atoms (cartesian axes, Ry/au):

     atom    1 type  1   force =     0.00007913   -0.00013146   -0.00015425
     atom    2 type  1   force =     0.00007913   -0.00013146    0.00015425
     atom    3 type  2   force =    -0.00053548   -0.00057339   -0.00039036
     atom    4 type  2   force =    -0.00053548   -0.00057339    0.00039036
     atom    5 type  3   force =     0.00501689   -0.00653064    0.00850660
     atom    6 type  3   force =    -0.00456055    0.00723549   -0.00840954
     atom    7 type  3   force =     0.00501689   -0.00653064   -0.00850660
     atom    8 type  3   force =    -0.00456055    0.00723549    0.00840954
     The non-local contrib.  to forces
     atom    1 type  1   force =     0.00006054   -0.00035654   -0.00004331
     atom    2 type  1   force =     0.00006054   -0.00035654    0.00004331
     atom    3 type  2   force =     0.00044326    0.00211538   -0.00008463
     atom    4 type  2   force =     0.00044326    0.00211538    0.00008463
     atom    5 type  3   force =     0.10227082   -0.14388539    0.17643384
     atom    6 type  3   force =    -0.10197672    0.14398901   -0.17638704
     atom    7 type  3   force =     0.10227082   -0.14388539   -0.17643384
     atom    8 type  3   force =    -0.10197672    0.14398901    0.17638704
     The ionic contribution  to forces
     atom    1 type  1   force =     0.00000000   -0.00000000    0.00000000
     atom    2 type  1   force =     0.00000000    0.00000000    0.00000000
     atom    3 type  2   force =     0.00000000    0.00000000    0.00000000
     atom    4 type  2   force =     0.00000000    0.00000000    0.00000000
     atom    5 type  3   force =    -1.47084223    2.07479176   -2.54325338
     atom    6 type  3   force =     1.47084223   -2.07479176    2.54325337
     atom    7 type  3   force =    -1.47084223    2.07479176    2.54325337
     atom    8 type  3   force =     1.47084223   -2.07479176   -2.54325338
     The local contribution  to forces
     atom    1 type  1   force =     0.00019755    0.00022627   -0.00020253
     atom    2 type  1   force =    -0.00001607    0.00000044    0.00001556
     atom    3 type  2   force =    -0.00012232   -0.00227556   -0.00164702
     atom    4 type  2   force =    -0.00153585   -0.00264655   -0.00133709
     atom    5 type  3   force =     1.37880181   -1.94412933    2.38352871
     atom    6 type  3   force =    -1.37787004    1.94494081   -2.38347120
     atom    7 type  3   force =     1.37799682   -1.94456444   -2.38361855
     atom    8 type  3   force =    -1.37851306    1.94437590    2.38363865
     The core correction contribution to forces
     atom    1 type  1   force =     0.00000000    0.00000000    0.00000000
     atom    2 type  1   force =     0.00000000    0.00000000    0.00000000
     atom    3 type  2   force =    -0.00011569   -0.00026031   -0.00015001
     atom    4 type  2   force =    -0.00008326   -0.00024455   -0.00009736
     atom    5 type  3   force =    -0.00477206    0.00679865   -0.00826800
     atom    6 type  3   force =     0.00485170   -0.00670562    0.00829935
     atom    7 type  3   force =    -0.00478494    0.00681737    0.00829680
     atom    8 type  3   force =     0.00483021   -0.00673402   -0.00828295
     The Hubbard contrib.    to forces
     atom    1 type  1   force =     0.00000000    0.00000000    0.00000000
     atom    2 type  1   force =     0.00000000    0.00000000    0.00000000
     atom    3 type  2   force =     0.00000000    0.00000000    0.00000000
     atom    4 type  2   force =     0.00000000    0.00000000    0.00000000
     atom    5 type  3   force =     0.00000000    0.00000000    0.00000000
     atom    6 type  3   force =     0.00000000    0.00000000    0.00000000
     atom    7 type  3   force =     0.00000000    0.00000000    0.00000000
     atom    8 type  3   force =     0.00000000    0.00000000    0.00000000
     The SCF correction term to forces
     atom    1 type  1   force =    -0.00006920   -0.00001392    0.00000392
     atom    2 type  1   force =     0.00003716    0.00003948    0.00000772
     atom    3 type  2   force =     0.00002648   -0.00008273   -0.00010037
     atom    4 type  2   force =    -0.00001458   -0.00006575    0.00014851
     atom    5 type  3   force =    -0.00020403   -0.00014096   -0.00001277
     atom    6 type  3   force =    -0.00022910   -0.00016212    0.00002865
     atom    7 type  3   force =     0.00025126    0.00014678   -0.00008258
     atom    8 type  3   force =     0.00019043    0.00016364    0.00005285

     Total force =     0.023869     Total SCF correction =     0.000592

     Computing stress (Cartesian axis) and pressure

          total   stress  (Ry/bohr**3)                   (kbar)     P=      -71.44
  -0.00107991  -0.00083123  -0.00000000         -158.86     -122.28       -0.00
  -0.00083123  -0.00039412  -0.00000000         -122.28      -57.98       -0.00
  -0.00000000  -0.00000000   0.00001720           -0.00       -0.00        2.53

     kinetic stress (kbar)   6072.13   -154.57      0.00
                             -154.57   6184.29      0.00
                                0.00      0.00   6287.95

     local   stress (kbar)  -1164.69   -560.19      3.73
                             -560.19   -762.88     -1.44
                                3.73     -1.44   -367.72

     nonloc. stress (kbar)   1800.56     -8.40      0.00
                               -8.40   1813.58      0.00
                                0.00      0.00   1799.71

     hartree stress (kbar)  10266.70    300.47     -1.92
                              300.47  10051.32      0.68
                               -1.92      0.68   9839.50

     exc-cor stress (kbar)   5651.09     -0.83     -0.07
                               -0.83   5651.54      0.02
                               -0.07      0.02   5652.14

     corecor stress (kbar) -10029.11      1.37      0.09
                                1.37 -10029.88      0.01
                                0.09      0.01 -10030.51

     ewald   stress (kbar) -12755.53    299.88      0.00
                              299.88 -12965.96      0.00
                                0.00      0.00 -13178.54

     hubbard stress (kbar)      0.00      0.00      0.00
                                0.00      0.00      0.00
                                0.00      0.00      0.00

     DFT-D   stress (kbar)      0.00      0.00      0.00
                                0.00      0.00      0.00
                                0.00      0.00      0.00

     XDM     stress (kbar)      0.00      0.00      0.00
                                0.00      0.00      0.00
                                0.00      0.00      0.00

     dft-nl  stress (kbar)      0.00      0.00      0.00
                                0.00      0.00      0.00
                                0.00      0.00      0.00

     TS-vdW  stress (kbar)      0.00      0.00      0.00
                                0.00      0.00      0.00
                                0.00      0.00      0.00

[...]

                                0.00      0.00      0.00

     Writing all to output data dir new_calculations/myprefix.save/

     General routines

     Parallel routines

   This run was terminated on:  20:58:30  20May2023

   JOB DONE.