     Program PWSCF v.7.0 starts on 20May2023 at 14:42:28

     Reading input from espresso_10470.pwi
Warning: card &CELL ignored
Warning: card / ignored

     Current dimensions of program PWSCF are:
     Max number of different atomic species (ntypx) = 10
     Max number of k-points (npk) =  40000
     Max angular momentum in pseudopotentials (lmaxx) =  4
     file In.pbe-dn-rrkjus_psl.0.2.2.UPF: wavefunction(s)  5S renormalized

     gamma-point specific algorithms are used
     Message from routine setup:
     using ibrav=0 with symmetry is DISCOURAGED, use correct ibrav instead

     Subspace diagonalization in iterative solution of the eigenvalue problem:
     a serial algorithm will be used

     Using Slab Decomposition

     bravais-lattice index     =            0
     lattice parameter (alat)  =      13.2489  a.u.
     unit-cell volume          =    3248.8766 (a.u.)^3
     number of atoms/cell      =           16
     number of atomic types    =            3
     number of electrons       =       152.00
     number of Kohn-Sham states=           91
     kinetic-energy cutoff     =      30.0000  Ry
     charge density cutoff     =     240.0000  Ry
     scf convergence threshold =      1.0E-06
     mixing beta               =       0.7000
     number of iterations used =            8  plain     mixing
     Exchange-correlation= SLA  PW   PBE  PBE
                           (   1   4   3   4   0   0   0)

     celldm(1)=  13.248906  celldm(2)=   0.000000  celldm(3)=   0.000000
     celldm(4)=   0.000000  celldm(5)=   0.000000  celldm(6)=   0.000000

     crystal axes: (cart. coord. in units of alat)
               a(1) = (   1.000000   0.000000   0.000000 )
               a(2) = (   0.000000   1.181943   0.000000 )
               a(3) = (   0.000000   0.000000   1.181943 )

     reciprocal axes: (cart. coord. in units 2 pi/alat)
               b(1) = (  1.000000  0.000000  0.000000 )
               b(2) = (  0.000000  0.846064  0.000000 )
               b(3) = (  0.000000  0.000000  0.846064 )

     PseudoPot. # 1 for Tl read from file:
     /home/pragov/projects/rrg-bengioy-ad/pragov/crystal_structure_design/SSSP/Tl_pbe_v1.2.uspp.F.UPF
     MD5 check sum: b76cf1f7e72655a2b2c53cf6385d7059
     Pseudo is Ultrasoft + core correction, Zval = 13.0
     Generated by new atomic code, or converted to UPF format
     Using radial grid of  899 points,  6 beta functions with:
                l(1) =   0
                l(2) =   0
                l(3) =   1
                l(4) =   1
                l(5) =   2
                l(6) =   2
     Q(r) pseudized with  6 coefficients,  rinner =    1.100   1.100   1.100
                                                       1.100   1.100

     PseudoPot. # 2 for In read from file:
     /home/pragov/projects/rrg-bengioy-ad/pragov/crystal_structure_design/SSSP/In.pbe-dn-rrkjus_psl.0.2.2.UPF
     MD5 check sum: 25e7c42c3b55b68f4bf926be2e7201a4
     Pseudo is Ultrasoft + core correction, Zval = 13.0
     Generated using "atomic" code by A. Dal Corso  v.5.0.99 svn rev. 10869
     Using radial grid of 1241 points,  6 beta functions with:
                l(1) =   0
                l(2) =   0
                l(3) =   1
                l(4) =   1
                l(5) =   2
                l(6) =   2
     Q(r) pseudized with 0 coefficients

     PseudoPot. # 3 for Se read from file:
     /home/pragov/projects/rrg-bengioy-ad/pragov/crystal_structure_design/SSSP/Se_pbe_v1.uspp.F.UPF
     MD5 check sum: 1b3568f3a8ae88f9a2a0ad0698632c85
     Pseudo is Ultrasoft + core correction, Zval =  6.0
     Generated by new atomic code, or converted to UPF format
     Using radial grid of  877 points,  6 beta functions with:
                l(1) =   0
                l(2) =   0
                l(3) =   1
                l(4) =   1
                l(5) =   2
                l(6) =   2
     Q(r) pseudized with  8 coefficients,  rinner =    1.300   1.300   1.300
                                                       1.300   1.300

     atomic species   valence    mass     pseudopotential
        Tl            13.00   204.38000     Tl( 1.00)
        In            13.00   114.81800     In( 1.00)
        Se             6.00    78.97100     Se( 1.00)

      8 Sym. Ops. (no inversion) found ( 6 have fractional translation)

                                    s                        frac. trans.

      isym =  1     identity

 cryst.   s( 1) = (     1          0          0      )
                  (     0          1          0      )
                  (     0          0          1      )

 cart.    s( 1) = (  1.0000000  0.0000000  0.0000000 )
                  (  0.0000000  1.0000000  0.0000000 )
                  (  0.0000000  0.0000000  1.0000000 )

      isym =  2     180 deg rotation - cart. axis [0,0,1]

 cryst.   s( 2) = (    -1          0          0      )    f =(  0.5000000 )
                  (     0         -1          0      )       (  0.0000000 )
                  (     0          0          1      )       (  0.0000000 )

 cart.    s( 2) = ( -1.0000000  0.0000000  0.0000000 )    f =(  0.5000000 )
                  (  0.0000000 -1.0000000  0.0000000 )       (  0.0000000 )
                  (  0.0000000  0.0000000  1.0000000 )       (  0.0000000 )

[...]

      isym =  4     180 deg rotation - cart. axis [1,0,0]

 cryst.   s( 4) = (     1          0          0      )
                  (     0         -1          0      )
                  (     0          0         -1      )

 cart.    s( 4) = (  1.0000000  0.0000000  0.0000000 )
                  (  0.0000000 -1.0000000  0.0000000 )
                  (  0.0000000  0.0000000 -1.0000000 )

      isym =  5     inv. 180 deg rotation - cart. axis [0,1,1]

[...]

      isym =  8     inv.  90 deg rotation - cart. axis [1,0,0]

 cryst.   s( 8) = (    -1          0          0      )    f =(  0.5000000 )
                  (     0          0         -1      )       ( -0.5000000 )
                  (     0          1          0      )       (  0.5000000 )

 cart.    s( 8) = ( -1.0000000  0.0000000  0.0000000 )    f =(  0.5000000 )
                  (  0.0000000  0.0000000  1.0000000 )       ( -0.5909716 )
                  (  0.0000000 -1.0000000  0.0000000 )       (  0.5909716 )

   Cartesian axes

     site n.     atom                  positions (alat units)
         1           Tl  tau(   1) = (   0.2500000   0.0000000   0.0000000  )
         2           Tl  tau(   2) = (   0.7500000   0.5909716   0.5909716  )
         3           Tl  tau(   3) = (   0.2500000   0.5909716   0.5909716  )
         4           Tl  tau(   4) = (   0.7500000   0.0000000   0.0000000  )
         5           Tl  tau(   5) = (   0.7500000   0.0000000   0.5909716  )
         6           In  tau(   6) = (   0.2500000   0.5909716   0.0000000  )
         7           In  tau(   7) = (   0.7500000   0.5909716   0.0000000  )
         8           In  tau(   8) = (   0.2500000   0.0000000   0.5909716  )
         9           Se  tau(   9) = (   0.5002440   0.3896181   0.9805897  )
        10           Se  tau(  10) = (   0.0084110   0.9765782   0.3856066  )
        11           Se  tau(  11) = (   0.0084110   0.2053650   0.7963366  )
        12           Se  tau(  12) = (   0.5002440   0.7923251   0.2013535  )
        13           Se  tau(  13) = (   0.4915890   0.2053650   0.3856066  )
        14           Se  tau(  14) = (   0.9997560   0.7923251   0.9805897  )
        15           Se  tau(  15) = (   0.9997560   0.3896181   0.2013535  )
        16           Se  tau(  16) = (   0.4915890   0.9765782   0.7963366  )

   Crystallographic axes

     site n.     atom                  positions (cryst. coord.)
         1           Tl  tau(   1) = (  0.2500000  0.0000000  0.0000000  )
         2           Tl  tau(   2) = (  0.7500000  0.5000000  0.5000000  )
         3           Tl  tau(   3) = (  0.2500000  0.5000000  0.5000000  )
         4           Tl  tau(   4) = (  0.7500000  0.0000000  0.0000000  )
         5           Tl  tau(   5) = (  0.7500000  0.0000000  0.5000000  )
         6           In  tau(   6) = (  0.2500000  0.5000000  0.0000000  )
         7           In  tau(   7) = (  0.7500000  0.5000000  0.0000000  )
         8           In  tau(   8) = (  0.2500000  0.0000000  0.5000000  )
         9           Se  tau(   9) = (  0.5002440  0.3296420  0.8296420  )
        10           Se  tau(  10) = (  0.0084110  0.8262480  0.3262480  )
        11           Se  tau(  11) = (  0.0084110  0.1737520  0.6737520  )
        12           Se  tau(  12) = (  0.5002440  0.6703580  0.1703580  )
        13           Se  tau(  13) = (  0.4915890  0.1737520  0.3262480  )
        14           Se  tau(  14) = (  0.9997560  0.6703580  0.8296420  )
        15           Se  tau(  15) = (  0.9997560  0.3296420  0.1703580  )
        16           Se  tau(  16) = (  0.4915890  0.8262480  0.6737520  )

     number of k points=     1  Methfessel-Paxton smearing, width (Ry)=  0.0010
                       cart. coord. in units 2pi/alat
        k(    1) = (   0.0000000   0.0000000   0.0000000), wk =   2.0000000

                       cryst. coord.
        k(    1) = (   0.0000000   0.0000000   0.0000000), wk =   2.0000000

     Check: negative core charge=   -0.000003

     Initial potential from superposition of free atoms

     starting charge     151.9640, renormalised to     152.0000

     negative rho (up, down):  2.602E-01 0.000E+00
     Starting wfcs are  104 randomized atomic wfcs

     Self-consistent Calculation

     iteration #  1     ecut=    30.00 Ry     beta= 0.70
     Davidson diagonalization with overlap

     ethr =  1.00E-02,  avg # of iterations =  2.0

     Threshold (ethr) on eigenvalues was too large:
     Diagonalizing with lowered threshold

     Davidson diagonalization with overlap

[...]

     negative rho (up, down):  2.625E-01 0.000E+00

     total energy              =   -1508.48188285 Ry
     estimated scf accuracy    <       0.53106218 Ry

[...]

     c_bands:  1 eigenvalues not converged
     ethr =  2.38E-06,  avg # of iterations = 20.0

[...]

     total energy              =   -1508.70123172 Ry
     estimated scf accuracy    <       0.00001317 Ry

     iteration #  8     ecut=    30.00 Ry     beta= 0.70
     Davidson diagonalization with overlap

     ethr =  8.67E-09,  avg # of iterations =  9.0

[...]

     End of self-consistent calculation

          k = 0.0000 0.0000 0.0000 (  4516 PWs)   bands (ev):

    -8.3662  -8.3661  -8.2337  -8.2335  -8.2235  -8.2224  -8.1591  -8.0834
    -8.0742  -8.0607  -8.0606  -8.0341  -8.0115  -8.0096  -7.9398  -6.7209
    -6.2777  -6.1073  -6.1068  -6.0888  -5.7707  -5.5839  -5.5838  -4.9367
    -4.9125  -4.8622  -4.8586  -4.7358  -4.7357  -4.7314  -4.6811  -4.6811
    -4.5757  -4.5665  -4.5553  -4.5550  -4.5277  -4.5262  -4.5231  -4.5231
    -4.5080  -4.5080  -4.5058  -4.4610  -4.4609  -4.4522  -4.4377  -4.4278
    -0.2197  -0.0842   0.3638   0.6513   1.0892   1.7537   2.1423   2.3641
     2.8218   2.9459   2.9462   3.1381   3.1382   3.3529   3.6445   4.2096
     4.2097   4.2568   4.2849   4.2852   4.7710   4.7711   5.1276   5.1277
     5.1411   5.3043   5.4001   6.0842   6.8430   7.4958   8.2146   8.6827
     8.6828   8.7360   9.0064   9.2075   9.2507   9.2507   9.9928   9.9928
    10.1451  10.7609  10.7611

     occupation numbers
     1.0000   1.0000   1.0000   1.0000   1.0000   1.0000   1.0000   1.0000
     1.0000   1.0000   1.0000   1.0000   1.0000   1.0000   1.0000   1.0000
     1.0000   1.0000   1.0000   1.0000   1.0000   1.0000   1.0000   1.0000
     1.0000   1.0000   1.0000   1.0000   1.0000   1.0000   1.0000   1.0000
     1.0000   1.0000   1.0000   1.0000   1.0000   1.0000   1.0000   1.0000
     1.0000   1.0000   1.0000   1.0000   1.0000   1.0000   1.0000   1.0000
     1.0000   1.0000   1.0000   1.0000   1.0000   1.0000   1.0000   1.0000
     1.0000   1.0000   1.0000   1.0000   1.0000   1.0000   1.0000   1.0000
     1.0000   1.0000   1.0000   1.0000   1.0000   1.0000   1.0000   1.0000
     1.0000   1.0000   1.0000   1.0000  -0.0000  -0.0000  -0.0000  -0.0000
    -0.0000  -0.0000  -0.0000  -0.0000  -0.0000  -0.0000  -0.0000  -0.0000
    -0.0000  -0.0000  -0.0000

     the Fermi energy is     6.6535 ev

!    total energy              =   -1508.70124036 Ry
     estimated scf accuracy    <       0.00000079 Ry
     smearing contrib. (-TS)   =       0.00000000 Ry
     internal energy E=F+TS    =   -1508.70124036 Ry

     The total energy is F=E-TS. E is the sum of the following terms:
     one-electron contribution =    -365.63245575 Ry
     hartree contribution      =     285.81817527 Ry
     xc contribution           =    -690.76421336 Ry
     ewald contribution        =    -738.12274651 Ry

     convergence has been achieved in   8 iterations

     negative rho (up, down):  2.637E-01 0.000E+00

     Forces acting on atoms (cartesian axes, Ry/au):

     atom    1 type  1   force =     0.00000000    0.00000000    0.00000000
     atom    2 type  1   force =     0.00000000    0.00000000    0.00000000
     atom    3 type  1   force =     0.00000000    0.00000000    0.00000000
     atom    4 type  1   force =     0.00000000    0.00000000    0.00000000
     atom    5 type  1   force =     0.00000000    0.00000000    0.00000000
     atom    6 type  2   force =     0.00000000    0.00000000    0.00000000
     atom    7 type  2   force =     0.00000000    0.00000000    0.00000000
     atom    8 type  2   force =     0.00000000    0.00000000    0.00000000
     atom    9 type  3   force =     0.00055892    0.00770378    0.00770378
     atom   10 type  3   force =    -0.00040213    0.00821443    0.00821443
     atom   11 type  3   force =    -0.00040213   -0.00821443   -0.00821443
     atom   12 type  3   force =     0.00055892   -0.00770378   -0.00770378
     atom   13 type  3   force =     0.00040213   -0.00821443    0.00821443
     atom   14 type  3   force =    -0.00055892   -0.00770378    0.00770378
     atom   15 type  3   force =    -0.00055892    0.00770378   -0.00770378
     atom   16 type  3   force =     0.00040213    0.00821443   -0.00821443
     The non-local contrib.  to forces
     atom    1 type  1   force =     0.00000000    0.00000000    0.00000000
     atom    2 type  1   force =     0.00000000    0.00000000    0.00000000
     atom    3 type  1   force =     0.00000000    0.00000000    0.00000000
     atom    4 type  1   force =     0.00000000    0.00000000    0.00000000
     atom    5 type  1   force =     0.00000000    0.00000000    0.00000000
     atom    6 type  2   force =     0.00000000    0.00000000    0.00000000
     atom    7 type  2   force =     0.00000000    0.00000000    0.00000000
     atom    8 type  2   force =     0.00000000    0.00000000    0.00000000
     atom    9 type  3   force =     0.00292384    0.14184844    0.14184844
     atom   10 type  3   force =    -0.00330243    0.14004078    0.14004078
     atom   11 type  3   force =    -0.00330243   -0.14004078   -0.14004078
     atom   12 type  3   force =     0.00292384   -0.14184844   -0.14184844
     atom   13 type  3   force =     0.00330243   -0.14004078    0.14004078
     atom   14 type  3   force =    -0.00292384   -0.14184844    0.14184844
     atom   15 type  3   force =    -0.00292384    0.14184844   -0.14184844
     atom   16 type  3   force =     0.00330243    0.14004078   -0.14004078
     The ionic contribution  to forces
     atom    1 type  1   force =    -0.00000000   -0.00000000   -0.00000000
     atom    2 type  1   force =     0.00000000   -0.00000000   -0.00000000
     atom    3 type  1   force =    -0.00000000    0.00000000   -0.00000000
     atom    4 type  1   force =     0.00000000   -0.00000000   -0.00000000
     atom    5 type  1   force =     0.00000000   -0.00000000   -0.00000000
     atom    6 type  2   force =    -0.00000000    0.00000000   -0.00000000
     atom    7 type  2   force =     0.00000000   -0.00000000   -0.00000000
     atom    8 type  2   force =    -0.00000000   -0.00000000   -0.00000000
     atom    9 type  3   force =     0.08453143   -2.86368255   -2.86368255
     atom   10 type  3   force =    -0.33241443   -2.61855208   -2.61855208
     atom   11 type  3   force =    -0.33241443    2.61855208    2.61855208
     atom   12 type  3   force =     0.08453143    2.86368255    2.86368255
     atom   13 type  3   force =     0.33241443    2.61855208   -2.61855208
     atom   14 type  3   force =    -0.08453143    2.86368255   -2.86368255
     atom   15 type  3   force =    -0.08453143   -2.86368255    2.86368255
     atom   16 type  3   force =     0.33241443   -2.61855208    2.61855208
     The local contribution  to forces
     atom    1 type  1   force =    -0.00027821   -0.00028742    0.00008803
     atom    2 type  1   force =     0.00015799    0.00040518   -0.00025524
     atom    3 type  1   force =    -0.00018691    0.00052657   -0.00028989
     atom    4 type  1   force =     0.00028803   -0.00005227    0.00011302
     atom    5 type  1   force =     0.00024418   -0.00035671   -0.00011639
     atom    6 type  2   force =    -0.00003226    0.00018191    0.00005948
     atom    7 type  2   force =    -0.00005677    0.00008637    0.00017536
     atom    8 type  2   force =    -0.00026759   -0.00029758   -0.00000365
     atom    9 type  3   force =    -0.08642741    2.74535596    2.74542613
     atom   10 type  3   force =     0.33412218    2.50231190    2.50236639
     atom   11 type  3   force =     0.33419687   -2.50254272   -2.50233365
     atom   12 type  3   force =    -0.08637804   -2.74528768   -2.74529692
     atom   13 type  3   force =    -0.33408637   -2.50246262    2.50232883
     atom   14 type  3   force =     0.08641114   -2.74524507    2.74542412
     atom   15 type  3   force =     0.08636021    2.74536996   -2.74535961
     atom   16 type  3   force =    -0.33415276    2.50227806   -2.50248057
     The core correction contribution to forces
     atom    1 type  1   force =    -0.00000551    0.00000047   -0.00000327
     atom    2 type  1   force =     0.00000463   -0.00000403    0.00000072
     atom    3 type  1   force =    -0.00000671   -0.00000260   -0.00000079
     atom    4 type  1   force =     0.00000866    0.00000665   -0.00000763
     atom    5 type  1   force =    -0.00000172    0.00000617    0.00000178
     atom    6 type  2   force =    -0.00000128   -0.00000166   -0.00000689
     atom    7 type  2   force =    -0.00000800   -0.00000100   -0.00000213
     atom    8 type  2   force =    -0.00000047    0.00000889    0.00000159
     atom    9 type  3   force =    -0.00035472   -0.01564705   -0.01564957
     atom   10 type  3   force =     0.00076549   -0.01563105   -0.01563140
     atom   11 type  3   force =     0.00077312    0.01563110    0.01563576
     atom   12 type  3   force =    -0.00034652    0.01564579    0.01564649
     atom   13 type  3   force =    -0.00076552    0.01563437   -0.01562946
     atom   14 type  3   force =     0.00035043    0.01564849   -0.01564413
     atom   15 type  3   force =     0.00034795   -0.01564974    0.01564836
     atom   16 type  3   force =    -0.00076574   -0.01564051    0.01562602
     The Hubbard contrib.    to forces
     atom    1 type  1   force =     0.00000000    0.00000000    0.00000000
     atom    2 type  1   force =     0.00000000    0.00000000    0.00000000
     atom    3 type  1   force =     0.00000000    0.00000000    0.00000000
     atom    4 type  1   force =     0.00000000    0.00000000    0.00000000
     atom    5 type  1   force =     0.00000000    0.00000000    0.00000000
     atom    6 type  2   force =     0.00000000    0.00000000    0.00000000
     atom    7 type  2   force =     0.00000000    0.00000000    0.00000000
     atom    8 type  2   force =     0.00000000    0.00000000    0.00000000
     atom    9 type  3   force =     0.00000000    0.00000000    0.00000000
     atom   10 type  3   force =     0.00000000    0.00000000    0.00000000
     atom   11 type  3   force =     0.00000000    0.00000000    0.00000000
     atom   12 type  3   force =     0.00000000    0.00000000    0.00000000
     atom   13 type  3   force =     0.00000000    0.00000000    0.00000000
     atom   14 type  3   force =     0.00000000    0.00000000    0.00000000
     atom   15 type  3   force =     0.00000000    0.00000000    0.00000000
     atom   16 type  3   force =     0.00000000    0.00000000    0.00000000
     The SCF correction term to forces
     atom    1 type  1   force =     0.00028273    0.00034773   -0.00010985
     atom    2 type  1   force =    -0.00015954   -0.00042558    0.00030419
     atom    3 type  1   force =     0.00019753   -0.00060564    0.00032394
     atom    4 type  1   force =    -0.00028923    0.00008550   -0.00013749
     atom    5 type  1   force =    -0.00033622    0.00051712    0.00018237
     atom    6 type  2   force =     0.00005293   -0.00020837   -0.00006809
     atom    7 type  2   force =     0.00012525   -0.00008052   -0.00022971
     atom    8 type  2   force =     0.00035914    0.00042968   -0.00006459
     atom    9 type  3   force =    -0.00014244   -0.00017751   -0.00026397
     atom   10 type  3   force =     0.00041069    0.00004302    0.00001179
     atom   11 type  3   force =     0.00038632    0.00017912   -0.00000762
     atom   12 type  3   force =    -0.00015074    0.00009633    0.00009685
     atom   13 type  3   force =    -0.00044998    0.00011069    0.00004085
     atom   14 type  3   force =     0.00013305    0.00005392   -0.00021565
     atom   15 type  3   force =     0.00018276   -0.00019736    0.00018116
     atom   16 type  3   force =    -0.00038391    0.00003550    0.00008818

     Total force =     0.031883     Total SCF correction =     0.001746

     Computing stress (Cartesian axis) and pressure

     negative rho (up, down):  2.637E-01 0.000E+00
          total   stress  (Ry/bohr**3)                   (kbar)     P=       -3.68
  -0.00001878   0.00000000   0.00000000           -2.76        0.00        0.00
   0.00000000  -0.00002809   0.00000000            0.00       -4.13        0.00
   0.00000000   0.00000000  -0.00002809            0.00        0.00       -4.13

     kinetic stress (kbar)   5956.43      0.00      0.00
                                0.00   6070.04      0.00
                                0.00      0.00   6070.04

     local   stress (kbar)  -5664.60      0.01      0.00
                                0.01    822.79     -0.03
                                0.00     -0.03    822.81

     nonloc. stress (kbar)   5810.57      0.00      0.00
                                0.00   5837.76      0.00
                                0.00      0.00   5837.76

     hartree stress (kbar)   6017.51     -0.00      0.00
                               -0.00   3461.99      0.02
                                0.00      0.02   3461.99

     exc-cor stress (kbar)  20328.05     -0.00     -0.00
                               -0.00  20325.08      0.00
                               -0.00      0.00  20325.08

     corecor stress (kbar) -24020.94      0.00      0.00
                                0.00 -24026.06     -0.00
                                0.00     -0.00 -24026.06

     ewald   stress (kbar)  -8429.79      0.00     -0.00
                                0.00 -12495.74     -0.00
                               -0.00     -0.00 -12495.74

     hubbard stress (kbar)      0.00      0.00      0.00
                                0.00      0.00      0.00
                                0.00      0.00      0.00

     DFT-D   stress (kbar)      0.00      0.00      0.00
                                0.00      0.00      0.00
                                0.00      0.00      0.00

     XDM     stress (kbar)      0.00      0.00      0.00
                                0.00      0.00      0.00
                                0.00      0.00      0.00

     dft-nl  stress (kbar)      0.00      0.00      0.00
                                0.00      0.00      0.00
                                0.00      0.00      0.00

     TS-vdW  stress (kbar)      0.00      0.00      0.00
                                0.00      0.00      0.00
                                0.00      0.00      0.00

[...]

                                0.00      0.00      0.00

     Writing all to output data dir new_calculations/myprefix.save/

     General routines

     Parallel routines

   This run was terminated on:  14:43:27  20May2023

   JOB DONE.