     Program PWSCF v.7.0 starts on 20May2023 at  2:29:20

     Reading input from espresso_6042.pwi
Warning: card &CELL ignored
Warning: card / ignored

     Current dimensions of program PWSCF are:
     Max number of different atomic species (ntypx) = 10
     Max number of k-points (npk) =  40000
     Max angular momentum in pseudopotentials (lmaxx) =  4

     gamma-point specific algorithms are used
     Message from routine setup:
     using ibrav=0 with symmetry is DISCOURAGED, use correct ibrav instead

     Subspace diagonalization in iterative solution of the eigenvalue problem:
     a serial algorithm will be used

     Using Slab Decomposition

     bravais-lattice index     =            0
     lattice parameter (alat)  =      10.1844  a.u.
     unit-cell volume          =    2325.8104 (a.u.)^3
     number of atoms/cell      =           20
     number of atomic types    =            2
     number of electrons       =       136.00
     number of Kohn-Sham states=           82
     kinetic-energy cutoff     =      30.0000  Ry
     charge density cutoff     =     240.0000  Ry
     scf convergence threshold =      1.0E-06
     mixing beta               =       0.7000
     number of iterations used =            8  plain     mixing
     Exchange-correlation=  SLA  PW   PBX  PBC
                           (   1   4   3   4   0   0   0)

     celldm(1)=  10.184384  celldm(2)=   0.000000  celldm(3)=   0.000000
     celldm(4)=   0.000000  celldm(5)=   0.000000  celldm(6)=   0.000000

     crystal axes: (cart. coord. in units of alat)
               a(1) = (   1.000000   0.000000   0.000000 )
               a(2) = (   0.000000   1.072279   0.000000 )
               a(3) = (   0.000000   0.000000   2.053346 )

     reciprocal axes: (cart. coord. in units 2 pi/alat)
               b(1) = (  1.000000  0.000000  0.000000 )
               b(2) = (  0.000000  0.932593  0.000000 )
               b(3) = (  0.000000  0.000000  0.487010 )

     PseudoPot. # 1 for Se read from file:
     /home/pragov/projects/rrg-bengioy-ad/pragov/crystal_structure_design/SSSP/Se_pbe_v1.uspp.F.UPF
     MD5 check sum: 1b3568f3a8ae88f9a2a0ad0698632c85
     Pseudo is Ultrasoft + core correction, Zval =  6.0
     Generated by new atomic code, or converted to UPF format
     Using radial grid of  877 points,  6 beta functions with:
                l(1) =   0
                l(2) =   0
                l(3) =   1
                l(4) =   1
                l(5) =   2
                l(6) =   2
     Q(r) pseudized with  8 coefficients,  rinner =    1.300   1.300   1.300
                                                       1.300   1.300

     PseudoPot. # 2 for F  read from file:
     /home/pragov/projects/rrg-bengioy-ad/pragov/crystal_structure_design/SSSP/f_pbe_v1.4.uspp.F.UPF
     MD5 check sum: 4c38b6a325caf53ec0e86aed9459de46
     Pseudo is Ultrasoft, Zval =  7.0
     Generated by new atomic code, or converted to UPF format
     Using radial grid of  799 points,  4 beta functions with:
                l(1) =   0
                l(2) =   0
                l(3) =   1
                l(4) =   1
     Q(r) pseudized with  8 coefficients,  rinner =    0.950   0.950   0.950

     atomic species   valence    mass     pseudopotential
        Se             6.00    78.97100     Se( 1.00)
        F              7.00    18.99840     F ( 1.00)

      4 Sym. Ops. (no inversion) found ( 3 have fractional translation)

                                    s                        frac. trans.

      isym =  1     identity

 cryst.   s( 1) = (     1          0          0      )
                  (     0          1          0      )
                  (     0          0          1      )

 cart.    s( 1) = (  1.0000000  0.0000000  0.0000000 )
                  (  0.0000000  1.0000000  0.0000000 )
                  (  0.0000000  0.0000000  1.0000000 )

      isym =  2     180 deg rotation - cart. axis [0,0,1]

 cryst.   s( 2) = (    -1          0          0      )    f =(  0.5000000 )
                  (     0         -1          0      )       (  0.0000000 )
                  (     0          0          1      )       (  0.5000000 )

 cart.    s( 2) = ( -1.0000000  0.0000000  0.0000000 )    f =(  0.5000000 )
                  (  0.0000000 -1.0000000  0.0000000 )       (  0.0000000 )
                  (  0.0000000  0.0000000  1.0000000 )       (  1.0266730 )

[...]

      isym =  4     180 deg rotation - cart. axis [1,0,0]

 cryst.   s( 4) = (     1          0          0      )    f =(  0.5000000 )
                  (     0         -1          0      )       (  0.5000000 )
                  (     0          0         -1      )       (  0.0000000 )

 cart.    s( 4) = (  1.0000000  0.0000000  0.0000000 )    f =(  0.5000000 )
                  (  0.0000000 -1.0000000  0.0000000 )       (  0.5361396 )
                  (  0.0000000  0.0000000 -1.0000000 )       (  0.0000000 )

   Cartesian axes

     site n.     atom                  positions (alat units)
         1           Se  tau(   1) = (   0.3404450   0.9664655   0.2535307  )
         2           Se  tau(   2) = (   0.8404450   0.6419531   1.7998153  )
         3           Se  tau(   3) = (   0.6595550   0.4303260   0.7731423  )
         4           Se  tau(   4) = (   0.1595550   0.1058136   1.2802037  )
         5           F   tau(   5) = (   0.1609570   0.7124019   0.0980247  )
         6           F   tau(   6) = (   0.6609570   0.8960168   1.9553213  )
         7           F   tau(   7) = (   0.8390430   0.1762623   0.9286483  )
         8           F   tau(   8) = (   0.3390430   0.3598772   1.1246977  )
         9           F   tau(   9) = (   0.2787100   0.9758147   1.0594916  )
        10           F   tau(  10) = (   0.7787100   0.6326039   0.9938544  )
        11           F   tau(  11) = (   0.7212900   0.4396752   2.0205274  )
        12           F   tau(  12) = (   0.2212900   0.0964644   0.0328186  )
        13           F   tau(  13) = (   0.4071370   0.0734190   1.4842016  )
        14           F   tau(  14) = (   0.9071370   0.4627206   0.5691444  )
        15           F   tau(  15) = (   0.5928630   0.6095585   1.5958174  )
        16           F   tau(  16) = (   0.0928630   0.9988602   0.4575286  )
        17           F   tau(  17) = (   0.0139830   0.9019701   1.4323423  )
        18           F   tau(  18) = (   0.5139830   0.7064486   0.6210037  )
        19           F   tau(  19) = (   0.9860170   0.3658305   1.6476767  )
        20           F   tau(  20) = (   0.4860170   0.1703090   0.4056693  )

   Crystallographic axes

     site n.     atom                  positions (cryst. coord.)
         1           Se  tau(   1) = (  0.3404450  0.9013190  0.1234720  )
         2           Se  tau(   2) = (  0.8404450  0.5986810  0.8765280  )
         3           Se  tau(   3) = (  0.6595550  0.4013190  0.3765280  )
         4           Se  tau(   4) = (  0.1595550  0.0986810  0.6234720  )
         5           F   tau(   5) = (  0.1609570  0.6643810  0.0477390  )
         6           F   tau(   6) = (  0.6609570  0.8356190  0.9522610  )
         7           F   tau(   7) = (  0.8390430  0.1643810  0.4522610  )
         8           F   tau(   8) = (  0.3390430  0.3356190  0.5477390  )
         9           F   tau(   9) = (  0.2787100  0.9100380  0.5159830  )
        10           F   tau(  10) = (  0.7787100  0.5899620  0.4840170  )
        11           F   tau(  11) = (  0.7212900  0.4100380  0.9840170  )
        12           F   tau(  12) = (  0.2212900  0.0899620  0.0159830  )
        13           F   tau(  13) = (  0.4071370  0.0684700  0.7228210  )
        14           F   tau(  14) = (  0.9071370  0.4315300  0.2771790  )
        15           F   tau(  15) = (  0.5928630  0.5684700  0.7771790  )
        16           F   tau(  16) = (  0.0928630  0.9315300  0.2228210  )
        17           F   tau(  17) = (  0.0139830  0.8411710  0.6975650  )
        18           F   tau(  18) = (  0.5139830  0.6588290  0.3024350  )
        19           F   tau(  19) = (  0.9860170  0.3411710  0.8024350  )
        20           F   tau(  20) = (  0.4860170  0.1588290  0.1975650  )

     number of k points=     1  Methfessel-Paxton smearing, width (Ry)=  0.0010
                       cart. coord. in units 2pi/alat
        k(    1) = (   0.0000000   0.0000000   0.0000000), wk =   2.0000000

                       cryst. coord.
        k(    1) = (   0.0000000   0.0000000   0.0000000), wk =   2.0000000

     Initial potential from superposition of free atoms

     starting charge     135.9997, renormalised to     136.0000
     Starting wfcs are   80 randomized atomic wfcs +    2 random wfcs

     Self-consistent Calculation

     iteration #  1     ecut=    30.00 Ry     beta= 0.70
     Davidson diagonalization with overlap

     ethr =  1.00E-02,  avg # of iterations =  6.0

     total energy              =    -950.33097475 Ry
     estimated scf accuracy    <       3.58381891 Ry

[...]

     total energy              =    -951.98263179 Ry
     estimated scf accuracy    <       0.00001474 Ry

     iteration #  8     ecut=    30.00 Ry     beta= 0.70
     Davidson diagonalization with overlap

     ethr =  1.08E-08,  avg # of iterations =  2.0

     End of self-consistent calculation

          k = 0.0000 0.0000 0.0000 (  3216 PWs)   bands (ev):

   -24.6007 -24.5240 -24.5211 -24.4595 -23.3498 -23.3436 -23.3349 -23.3061
   -22.1750 -22.1698 -22.1593 -22.1052 -22.0418 -21.9508 -21.9485 -21.9057
   -13.0576 -12.7090 -12.6973 -12.3396  -7.0830  -6.9926  -6.8607  -6.8094
    -6.7727  -6.7485  -6.4540  -6.3239  -6.2697  -5.7909  -5.7693  -5.7429
    -4.3112  -4.2091  -4.2076  -4.1885  -4.1463  -4.0970  -4.0524  -3.9758
    -3.9339  -3.9271  -3.8000  -3.6830  -3.6149  -3.5642  -3.3742  -3.2428
    -3.1530  -2.9470  -2.9304  -2.8293  -2.8210  -2.7296  -2.6665  -2.5793
    -2.4841  -2.4555  -2.4458  -2.4248  -2.4119  -2.2822  -2.2161  -2.2105
    -1.9922  -1.5990  -1.4806  -0.8020   3.3573   3.6990   3.7170   3.7260
     4.6358   4.6528   4.7735   4.8704   5.6954   5.8151   5.9568   6.0410
     7.5812   9.1323

     occupation numbers
     1.0000   1.0000   1.0000   1.0000   1.0000   1.0000   1.0000   1.0000
     1.0000   1.0000   1.0000   1.0000   1.0000   1.0000   1.0000   1.0000
     1.0000   1.0000   1.0000   1.0000   1.0000   1.0000   1.0000   1.0000
     1.0000   1.0000   1.0000   1.0000   1.0000   1.0000   1.0000   1.0000
     1.0000   1.0000   1.0000   1.0000   1.0000   1.0000   1.0000   1.0000
     1.0000   1.0000   1.0000   1.0000   1.0000   1.0000   1.0000   1.0000
     1.0000   1.0000   1.0000   1.0000   1.0000   1.0000   1.0000   1.0000
     1.0000   1.0000   1.0000   1.0000   1.0000   1.0000   1.0000   1.0000
     1.0000   1.0000   1.0000   1.0000  -0.0000  -0.0000  -0.0000  -0.0000
    -0.0000  -0.0000  -0.0000  -0.0000  -0.0000  -0.0000  -0.0000  -0.0000
    -0.0000  -0.0000

     the Fermi energy is     0.7671 ev

!    total energy              =    -951.98263523 Ry
     estimated scf accuracy    <       0.00000076 Ry
     smearing contrib. (-TS)   =       0.00000000 Ry
     internal energy E=F+TS    =    -951.98263523 Ry

     The total energy is F=E-TS. E is the sum of the following terms:
     one-electron contribution =    -559.34698548 Ry
     hartree contribution      =     344.13052962 Ry
     xc contribution           =    -267.26693621 Ry
     ewald contribution        =    -469.49924316 Ry

     convergence has been achieved in   8 iterations

     Forces acting on atoms (cartesian axes, Ry/au):

     atom    1 type  1   force =    -0.00848052    0.00487998   -0.00106923
     atom    2 type  1   force =    -0.00848052   -0.00487998    0.00106923
     atom    3 type  1   force =     0.00848052    0.00487998    0.00106923
     atom    4 type  1   force =     0.00848052   -0.00487998   -0.00106923
     atom    5 type  2   force =    -0.00006580    0.00332615    0.00615106
     atom    6 type  2   force =    -0.00006580   -0.00332615   -0.00615106
     atom    7 type  2   force =     0.00006580    0.00332615   -0.00615106
     atom    8 type  2   force =     0.00006580   -0.00332615    0.00615106
     atom    9 type  2   force =    -0.00668484    0.00597042    0.00331911
     atom   10 type  2   force =    -0.00668484   -0.00597042   -0.00331911
     atom   11 type  2   force =     0.00668484    0.00597042   -0.00331911
     atom   12 type  2   force =     0.00668484   -0.00597042    0.00331911
     atom   13 type  2   force =    -0.00444434    0.00443803   -0.00556690
     atom   14 type  2   force =    -0.00444434   -0.00443803    0.00556690
     atom   15 type  2   force =     0.00444434    0.00443803    0.00556690
     atom   16 type  2   force =     0.00444434   -0.00443803   -0.00556690
     atom   17 type  2   force =     0.00239853    0.00002192   -0.00703043
     atom   18 type  2   force =     0.00239853   -0.00002192    0.00703043
     atom   19 type  2   force =    -0.00239853    0.00002192    0.00703043
     atom   20 type  2   force =    -0.00239853   -0.00002192   -0.00703043
     The non-local contrib.  to forces
     atom    1 type  1   force =    -0.77968057    0.50881386   -0.04650299
     atom    2 type  1   force =    -0.77968057   -0.50881386    0.04650299
     atom    3 type  1   force =     0.77968057    0.50881386    0.04650299
     atom    4 type  1   force =     0.77968057   -0.50881386   -0.04650299
     atom    5 type  2   force =     0.47705419    0.96108495    0.37082128
     atom    6 type  2   force =     0.47705419   -0.96108495   -0.37082128
     atom    7 type  2   force =    -0.47705419    0.96108495   -0.37082128
     atom    8 type  2   force =    -0.47705419   -0.96108495    0.37082128
     atom    9 type  2   force =    -0.68637176    1.22570044    1.32498223
     atom   10 type  2   force =    -0.68637176   -1.22570044   -1.32498223
     atom   11 type  2   force =     0.68637176    1.22570044   -1.32498223
     atom   12 type  2   force =     0.68637176   -1.22570044    1.32498223
     atom   13 type  2   force =    -1.44774129    0.17628564   -1.22556704
     atom   14 type  2   force =    -1.44774129   -0.17628564    1.22556704
     atom   15 type  2   force =     1.44774129    0.17628564    1.22556704
     atom   16 type  2   force =     1.44774129   -0.17628564   -1.22556704
     atom   17 type  2   force =     0.48558467    0.91000643   -0.37198606
     atom   18 type  2   force =     0.48558467   -0.91000643    0.37198606
     atom   19 type  2   force =    -0.48558467    0.91000643    0.37198606
     atom   20 type  2   force =    -0.48558467   -0.91000643   -0.37198606
     The ionic contribution  to forces
     atom    1 type  1   force =     5.59543643   -3.35093735    0.55330449
     atom    2 type  1   force =     5.59543643    3.35093735   -0.55330449
     atom    3 type  1   force =    -5.59543643   -3.35093735   -0.55330449
     atom    4 type  1   force =    -5.59543643    3.35093735    0.55330449
     atom    5 type  2   force =    -1.04520722   -6.07705533   -1.67569500
     atom    6 type  2   force =    -1.04520722    6.07705533    1.67569500
     atom    7 type  2   force =     1.04520722   -6.07705533    1.67569500
     atom    8 type  2   force =     1.04520722    6.07705533   -1.67569500
     atom    9 type  2   force =     2.88864255   -6.21205277   -6.55011511
     atom   10 type  2   force =     2.88864255    6.21205277    6.55011511
     atom   11 type  2   force =    -2.88864255   -6.21205277    6.55011511
     atom   12 type  2   force =    -2.88864255    6.21205277   -6.55011511
     atom   13 type  2   force =     7.05732515   -0.54605159    6.27848587
     atom   14 type  2   force =     7.05732515    0.54605159   -6.27848587
     atom   15 type  2   force =    -7.05732515   -0.54605159   -6.27848587
     atom   16 type  2   force =    -7.05732515    0.54605159    6.27848587
     atom   17 type  2   force =    -3.15415437   -3.94955636    1.88972526
     atom   18 type  2   force =    -3.15415437    3.94955636   -1.88972526
     atom   19 type  2   force =     3.15415437   -3.94955636   -1.88972526
     atom   20 type  2   force =     3.15415437    3.94955636    1.88972526
     The local contribution  to forces
     atom    1 type  1   force =    -4.92269683    2.91120617   -0.51418364
     atom    2 type  1   force =    -4.92268325   -2.91121560    0.51421670
     atom    3 type  1   force =     4.92268530    2.91122900    0.51413455
     atom    4 type  1   force =     4.92269889   -2.91122037   -0.51415951
     atom    5 type  2   force =     0.56808561    5.11947759    1.31095137
     atom    6 type  2   force =     0.56808384   -5.11947542   -1.31093253
     atom    7 type  2   force =    -0.56807770    5.11946090   -1.31096192
     atom    8 type  2   force =    -0.56808094   -5.11946839    1.31094624
     atom    9 type  2   force =    -2.20893028    4.99254722    5.22863877
     atom   10 type  2   force =    -2.20893845   -4.99254586   -5.22866251
     atom   11 type  2   force =     2.20893981    4.99255377   -5.22863322
     atom   12 type  2   force =     2.20894047   -4.99255804    5.22865876
     atom   13 type  2   force =    -5.61405692    0.37415350   -5.05872854
     atom   14 type  2   force =    -5.61405520   -0.37414797    5.05873025
     atom   15 type  2   force =     5.61404846    0.37415472    5.05876451
     atom   16 type  2   force =     5.61406175   -0.37415847   -5.05876726
     atom   17 type  2   force =     2.67115216    3.03970422   -1.52502519
     atom   18 type  2   force =     2.67114516   -3.03970441    1.52501514
     atom   19 type  2   force =    -2.67114307    3.03969089    1.52505323
     atom   20 type  2   force =    -2.67114420   -3.03968683   -1.52503497
     The core correction contribution to forces
     atom    1 type  1   force =     0.09831656   -0.06414586    0.00592621
     atom    2 type  1   force =     0.09831701    0.06414503   -0.00592486
     atom    3 type  1   force =    -0.09831708   -0.06414451   -0.00592811
     atom    4 type  1   force =    -0.09831743    0.06414582    0.00592733
     atom    5 type  2   force =     0.00000000    0.00000000    0.00000000
     atom    6 type  2   force =     0.00000000    0.00000000    0.00000000
     atom    7 type  2   force =     0.00000000    0.00000000    0.00000000
     atom    8 type  2   force =     0.00000000    0.00000000    0.00000000
     atom    9 type  2   force =     0.00000000    0.00000000    0.00000000
     atom   10 type  2   force =     0.00000000    0.00000000    0.00000000
     atom   11 type  2   force =     0.00000000    0.00000000    0.00000000
     atom   12 type  2   force =     0.00000000    0.00000000    0.00000000
     atom   13 type  2   force =     0.00000000    0.00000000    0.00000000
     atom   14 type  2   force =     0.00000000    0.00000000    0.00000000
     atom   15 type  2   force =     0.00000000    0.00000000    0.00000000
     atom   16 type  2   force =     0.00000000    0.00000000    0.00000000
     atom   17 type  2   force =     0.00000000    0.00000000    0.00000000
     atom   18 type  2   force =     0.00000000    0.00000000    0.00000000
     atom   19 type  2   force =     0.00000000    0.00000000    0.00000000
     atom   20 type  2   force =     0.00000000    0.00000000    0.00000000
     The Hubbard contrib.    to forces
     atom    1 type  1   force =     0.00000000    0.00000000    0.00000000
     atom    2 type  1   force =     0.00000000    0.00000000    0.00000000
     atom    3 type  1   force =     0.00000000    0.00000000    0.00000000
     atom    4 type  1   force =     0.00000000    0.00000000    0.00000000
     atom    5 type  2   force =     0.00000000    0.00000000    0.00000000
     atom    6 type  2   force =     0.00000000    0.00000000    0.00000000
     atom    7 type  2   force =     0.00000000    0.00000000    0.00000000
     atom    8 type  2   force =     0.00000000    0.00000000    0.00000000
     atom    9 type  2   force =     0.00000000    0.00000000    0.00000000
     atom   10 type  2   force =     0.00000000    0.00000000    0.00000000
     atom   11 type  2   force =     0.00000000    0.00000000    0.00000000
     atom   12 type  2   force =     0.00000000    0.00000000    0.00000000
     atom   13 type  2   force =     0.00000000    0.00000000    0.00000000
     atom   14 type  2   force =     0.00000000    0.00000000    0.00000000
     atom   15 type  2   force =     0.00000000    0.00000000    0.00000000
     atom   16 type  2   force =     0.00000000    0.00000000    0.00000000
     atom   17 type  2   force =     0.00000000    0.00000000    0.00000000
     atom   18 type  2   force =     0.00000000    0.00000000    0.00000000
     atom   19 type  2   force =     0.00000000    0.00000000    0.00000000
     atom   20 type  2   force =     0.00000000    0.00000000    0.00000000
     The SCF correction term to forces
     atom    1 type  1   force =     0.00013984   -0.00005735    0.00038512
     atom    2 type  1   force =     0.00013216    0.00006353   -0.00041527
     atom    3 type  1   force =    -0.00013183   -0.00008075   -0.00033959
     atom    4 type  1   force =    -0.00014682    0.00007438    0.00036499
     atom    5 type  2   force =     0.00000281   -0.00017744    0.00007368
     atom    6 type  2   force =     0.00000396    0.00017737   -0.00009803
     atom    7 type  2   force =    -0.00000613   -0.00016817   -0.00005589
     atom    8 type  2   force =    -0.00000789    0.00017321    0.00007950
     atom    9 type  2   force =    -0.00002819   -0.00022293   -0.00018471
     atom   10 type  2   force =    -0.00001499    0.00022051    0.00021824
     atom   11 type  2   force =     0.00001490   -0.00023179    0.00017442
     atom   12 type  2   force =     0.00001539    0.00023864   -0.00020788
     atom   13 type  2   force =     0.00002720    0.00005002    0.00023584
     atom   14 type  2   force =     0.00002596   -0.00006003   -0.00023703
     atom   15 type  2   force =    -0.00002182    0.00004793   -0.00028720
     atom   16 type  2   force =    -0.00003452   -0.00004329    0.00028759
     atom   17 type  2   force =    -0.00018644   -0.00013366    0.00025214
     atom   18 type  2   force =    -0.00017518    0.00012881   -0.00023727
     atom   19 type  2   force =     0.00017449   -0.00012301   -0.00029239
     atom   20 type  2   force =     0.00017555    0.00011346    0.00026822

     Total force =     0.038092     Total SCF correction =     0.001390

     Computing stress (Cartesian axis) and pressure

          total   stress  (Ry/bohr**3)                   (kbar)     P=     -115.77
  -0.00084893   0.00000000   0.00000000         -124.88        0.00        0.00
   0.00000000  -0.00075942   0.00000000            0.00     -111.71        0.00
   0.00000000   0.00000000  -0.00075255            0.00        0.00     -110.70

     kinetic stress (kbar)  13111.31      0.00      0.00
                                0.00  13075.64      0.00
                                0.00      0.00  13001.00

     local   stress (kbar)  -7361.72     -0.00      0.00
                               -0.00 -10285.79     -0.00
                                0.00     -0.00 -10608.32

     nonloc. stress (kbar)   2409.91      0.00      0.00
                                0.00   2380.08      0.00
                                0.00      0.00   2373.01

     hartree stress (kbar)   6502.18      0.00     -0.00
                                0.00   7585.92     -0.00
                               -0.00     -0.00   7677.80

     exc-cor stress (kbar)   2836.15      0.00      0.00
                                0.00   2839.42      0.00
                                0.00      0.00   2838.59

     corecor stress (kbar)  -6345.08      0.00     -0.00
                                0.00  -6341.20     -0.00
                               -0.00     -0.00  -6340.86

     ewald   stress (kbar) -11277.63     -0.00     -0.00
                               -0.00  -9365.78      0.00
                               -0.00      0.00  -9051.92

     hubbard stress (kbar)      0.00      0.00      0.00
                                0.00      0.00      0.00
                                0.00      0.00      0.00

     DFT-D   stress (kbar)      0.00      0.00      0.00
                                0.00      0.00      0.00
                                0.00      0.00      0.00

     XDM     stress (kbar)      0.00      0.00      0.00
                                0.00      0.00      0.00
                                0.00      0.00      0.00

     dft-nl  stress (kbar)      0.00      0.00      0.00
                                0.00      0.00      0.00
                                0.00      0.00      0.00

     TS-vdW  stress (kbar)      0.00      0.00      0.00
                                0.00      0.00      0.00
                                0.00      0.00      0.00

[...]

                                0.00      0.00      0.00

     Writing all to output data dir new_calculations/myprefix.save/

     General routines

     Parallel routines

   This run was terminated on:   2:29:56  20May2023

   JOB DONE.