     Program PWSCF v.7.0 starts on 21May2023 at  4:58:45

     Reading input from espresso_6818.pwi
Warning: card &CELL ignored
Warning: card / ignored

     Current dimensions of program PWSCF are:
     Max number of different atomic species (ntypx) = 10
     Max number of k-points (npk) =  40000
     Max angular momentum in pseudopotentials (lmaxx) =  4

     gamma-point specific algorithms are used
     Message from routine setup:
     using ibrav=0 with symmetry is DISCOURAGED, use correct ibrav instead

     Subspace diagonalization in iterative solution of the eigenvalue problem:
     a serial algorithm will be used

     Using Slab Decomposition

     bravais-lattice index     =            0
     lattice parameter (alat)  =      13.7584  a.u.
     unit-cell volume          =    1841.5884 (a.u.)^3
     number of atoms/cell      =           15
     number of atomic types    =            3
     number of electrons       =        91.00
     number of Kohn-Sham states=           55
     kinetic-energy cutoff     =      30.0000  Ry
     charge density cutoff     =     240.0000  Ry
     scf convergence threshold =      1.0E-06
     mixing beta               =       0.7000
     number of iterations used =            8  plain     mixing
     Exchange-correlation=  SLA  PW   PBX  PBC
                           (   1   4   3   4   0   0   0)

     celldm(1)=  13.758440  celldm(2)=   0.000000  celldm(3)=   0.000000
     celldm(4)=   0.000000  celldm(5)=   0.000000  celldm(6)=   0.000000

     crystal axes: (cart. coord. in units of alat)
               a(1) = (   1.000000   0.000000   0.000000 )
               a(2) = (   0.500000   0.866025   0.000000 )
               a(3) = (   0.500000   0.288675   0.816497 )

     reciprocal axes: (cart. coord. in units 2 pi/alat)
               b(1) = (  1.000000 -0.577350 -0.408248 )
               b(2) = (  0.000000  1.154701 -0.408248 )
               b(3) = (  0.000000  0.000000  1.224745 )

     PseudoPot. # 1 for Li read from file:
     /home/pragov/projects/rrg-bengioy-ad/pragov/crystal_structure_design/SSSP/li_pbe_v1.4.uspp.F.UPF
     MD5 check sum: e912e257baa3777c20ea3d68f190483c
     Pseudo is Ultrasoft, Zval =  3.0
     Generated by new atomic code, or converted to UPF format
     Using radial grid of  751 points,  5 beta functions with:
                l(1) =   0
                l(2) =   0
                l(3) =   0
                l(4) =   1
                l(5) =   1
     Q(r) pseudized with 10 coefficients,  rinner =    1.150   1.150   1.150

     PseudoPot. # 2 for Co read from file:
     /home/pragov/projects/rrg-bengioy-ad/pragov/crystal_structure_design/SSSP/Co_pbe_v1.2.uspp.F.UPF
     MD5 check sum: 5f91765df6ddd3222702df6e7b74a16d
     Pseudo is Ultrasoft + core correction, Zval = 17.0
     Generated by new atomic code, or converted to UPF format
     Using radial grid of  863 points,  6 beta functions with:
                l(1) =   0
                l(2) =   0
                l(3) =   1
                l(4) =   1
                l(5) =   2
                l(6) =   2
     Q(r) pseudized with  8 coefficients,  rinner =    1.200   1.200   1.200
                                                       1.200   1.200

     PseudoPot. # 3 for Cl read from file:
     /home/pragov/projects/rrg-bengioy-ad/pragov/crystal_structure_design/SSSP/cl_pbe_v1.4.uspp.F.UPF
     MD5 check sum: fc6f6913ecf08c9257cb748ef0700058
     Pseudo is Ultrasoft + core correction, Zval =  7.0
     Generated by new atomic code, or converted to UPF format
     Using radial grid of  909 points,  6 beta functions with:
                l(1) =   0
                l(2) =   0
                l(3) =   1
                l(4) =   1
                l(5) =   2
                l(6) =   2
     Q(r) pseudized with  8 coefficients,  rinner =    1.300   1.300   1.300
                                                       1.300   1.300

     atomic species   valence    mass     pseudopotential
        Li             3.00     6.94000     Li( 1.00)
        Co            17.00    58.93319     Co( 1.00)
        Cl             7.00    35.45000     Cl( 1.00)

     12 Sym. Ops., with inversion, found

                                    s                        frac. trans.

      isym =  1     identity

 cryst.   s( 1) = (     1          0          0      )
                  (     0          1          0      )
                  (     0          0          1      )

 cart.    s( 1) = (  1.0000000  0.0000000  0.0000000 )
                  (  0.0000000  1.0000000  0.0000000 )
                  (  0.0000000  0.0000000  1.0000000 )

      isym =  2     180 deg rotation - cart. axis [1,0,0]

[...]

      isym =  3     120 deg rotation - cryst. axis [0,0,1]

[...]

      isym =  6     180 deg rotation - cryst. axis [1,1,0]

[...]

      isym =  7     inversion

[...]

      isym =  8     inv. 180 deg rotation - cart. axis [1,0,0]

[...]

      isym =  9     inv. 120 deg rotation - cryst. axis [0,0,1]

 cryst.   s( 9) = (     1         -1          0      )
                  (     1          0          0      )
                  (     1          0         -1      )

 cart.    s( 9) = (  0.5000000  0.8660254 -0.0000000 )
                  ( -0.8660254  0.5000000 -0.0000000 )
                  (  0.0000000  0.0000000 -1.0000000 )

[...]

 cryst.   s(10) = (     0          1          0      )
                  (    -1          1          0      )
                  (     0          1         -1      )

 cart.    s(10) = (  0.5000000 -0.8660254  0.0000000 )
                  (  0.8660254  0.5000000 -0.0000000 )
                  (  0.0000000  0.0000000 -1.0000000 )

[...]

      isym = 12     inv. 180 deg rotation - cryst. axis [1,1,0]

 cryst.   s(12) = (     1         -1          0      )
                  (     0         -1          0      )
                  (     0         -1          1      )

 cart.    s(12) = (  0.5000000 -0.8660254  0.0000000 )
                  ( -0.8660254 -0.5000000  0.0000000 )
                  (  0.0000000  0.0000000  1.0000000 )

   Cartesian axes

     site n.     atom                  positions (alat units)
         1           Li  tau(   1) = (   0.7500000   0.4330127   0.0000000  )
         2           Li  tau(   2) = (   0.5000000   0.5773503   0.4082483  )
         3           Li  tau(   3) = (   0.5000000   0.0000000   0.0000000  )
         4           Li  tau(   4) = (   0.2500000   0.1443376   0.4082483  )
         5           Li  tau(   5) = (   0.2500000   0.4330127   0.0000000  )
         6           Li  tau(   6) = (   0.7500000   0.1443376   0.4082483  )
         7           Co  tau(   7) = (   0.0000000   0.0000000   0.0000000  )
         8           Cl  tau(   8) = (   1.5000000   0.8660254   0.6123724  )
         9           Cl  tau(   9) = (   0.5000000   0.2886751   0.2041241  )
        10           Cl  tau(  10) = (   0.7374420   0.4257623   0.6226260  )
        11           Cl  tau(  11) = (   1.0000000   0.8805261   0.6226260  )
        12           Cl  tau(  12) = (   1.0000000   0.2741744   0.1938706  )
        13           Cl  tau(  13) = (   0.7374420   0.7289382   0.1938706  )
        14           Cl  tau(  14) = (   1.2625580   0.4257623   0.6226260  )
        15           Cl  tau(  15) = (   1.2625580   0.7289382   0.1938706  )

   Crystallographic axes

     site n.     atom                  positions (cryst. coord.)
         1           Li  tau(   1) = (  0.5000000  0.5000000  0.0000000  )
         2           Li  tau(   2) = (  0.0000000  0.5000000  0.5000000  )
         3           Li  tau(   3) = (  0.5000000  0.0000000  0.0000000  )
         4           Li  tau(   4) = ( -0.0000000 -0.0000000  0.5000000  )
         5           Li  tau(   5) = (  0.0000000  0.5000000  0.0000000  )
         6           Li  tau(   6) = (  0.5000000 -0.0000000  0.5000000  )
         7           Co  tau(   7) = (  0.0000000  0.0000000  0.0000000  )
         8           Cl  tau(   8) = (  0.7500000  0.7500000  0.7500000  )
         9           Cl  tau(   9) = (  0.2500000  0.2500000  0.2500000  )
        10           Cl  tau(  10) = (  0.2374420  0.2374420  0.7625580  )
        11           Cl  tau(  11) = (  0.2374420  0.7625580  0.7625580  )
        12           Cl  tau(  12) = (  0.7625580  0.2374420  0.2374420  )
        13           Cl  tau(  13) = (  0.2374420  0.7625580  0.2374420  )
        14           Cl  tau(  14) = (  0.7625580  0.2374420  0.7625580  )
        15           Cl  tau(  15) = (  0.7625580  0.7625580  0.2374420  )

     number of k points=     1  Methfessel-Paxton smearing, width (Ry)=  0.0010
                       cart. coord. in units 2pi/alat
        k(    1) = (   0.0000000   0.0000000   0.0000000), wk =   2.0000000

                       cryst. coord.
        k(    1) = (   0.0000000   0.0000000   0.0000000), wk =   2.0000000

     Check: negative core charge=   -0.000003

     Initial potential from superposition of free atoms

     starting charge      87.2955, renormalised to      91.0000

     negative rho (up, down):  1.267E-01 0.000E+00
     Starting wfcs are   75 randomized atomic wfcs

     Self-consistent Calculation

     iteration #  1     ecut=    30.00 Ry     beta= 0.70
     Davidson diagonalization with overlap

     ethr =  1.00E-02,  avg # of iterations =  6.0

     negative rho (up, down):  1.287E-01 0.000E+00

     total energy              =    -617.58270748 Ry
     estimated scf accuracy    <      42.83023395 Ry

[...]

     total energy              =    -652.99921376 Ry
     estimated scf accuracy    <       0.00000187 Ry

     iteration # 27     ecut=    30.00 Ry     beta= 0.70
     Davidson diagonalization with overlap

     ethr =  2.06E-09,  avg # of iterations =  2.0

[...]

     End of self-consistent calculation

          k = 0.0000 0.0000 0.0000 (  2515 PWs)   bands (ev):

   -90.2005 -53.4728 -53.4728 -53.4728 -41.8310 -41.8305 -41.8305 -41.8305
   -41.8303 -41.8303 -11.4643 -10.8513 -10.8513 -10.8513 -10.7032 -10.6301
   -10.6301 -10.5191  -1.2889  -0.8891  -0.8891  -0.8891  -0.8434  -0.8434
    -0.8434   0.8030   0.8030   0.8814   0.8814   0.8814   0.9432   0.9432
     0.9432   1.6453   1.6453   1.6453   1.7497   1.7497   1.7497   1.9988
     1.9988   1.9988   3.7384   3.7384   3.7384   4.9159   4.9159   8.0651
     8.7073   8.9828   8.9828   8.9829   9.0419   9.7347   9.7348

     occupation numbers
     1.0000   1.0000   1.0000   1.0000   1.0000   1.0000   1.0000   1.0000
     1.0000   1.0000   1.0000   1.0000   1.0000   1.0000   1.0000   1.0000
     1.0000   1.0000   1.0000   1.0000   1.0000   1.0000   1.0000   1.0000
     1.0000   1.0000   1.0000   1.0000   1.0000   1.0000   1.0000   1.0000
     1.0000   1.0000   1.0000   1.0000   1.0000   1.0000   1.0000   1.0000
     1.0000   1.0000   1.0000   1.0000   1.0000   0.2501   0.2499  -0.0000
    -0.0000  -0.0000  -0.0000  -0.0000  -0.0000  -0.0000  -0.0000

     the Fermi energy is     4.9117 ev

!    total energy              =    -652.99921382 Ry
     estimated scf accuracy    <          3.6E-09 Ry
     smearing contrib. (-TS)   =      -0.00041261 Ry
     internal energy E=F+TS    =    -652.99880120 Ry

     The total energy is F=E-TS. E is the sum of the following terms:
     one-electron contribution =    -424.96254411 Ry
     hartree contribution      =     236.53360354 Ry
     xc contribution           =    -129.30071132 Ry
     ewald contribution        =    -335.26914931 Ry

     convergence has been achieved in  27 iterations

     negative rho (up, down):  1.181E-01 0.000E+00

     Forces acting on atoms (cartesian axes, Ry/au):

     atom    1 type  1   force =    -0.00000000    0.00000000    0.00000000
     atom    2 type  1   force =     0.00000000   -0.00000000   -0.00000000
     atom    3 type  1   force =     0.00000000   -0.00000000    0.00000000
     atom    4 type  1   force =    -0.00000000    0.00000000   -0.00000000
     atom    5 type  1   force =     0.00000000   -0.00000000    0.00000000
     atom    6 type  1   force =     0.00000000   -0.00000000    0.00000000
     atom    7 type  2   force =     0.00000000   -0.00000000   -0.00000000
     atom    8 type  3   force =    -0.00000000   -0.00000000   -0.00000908
     atom    9 type  3   force =     0.00000000    0.00000000    0.00000908
     atom   10 type  3   force =    -0.01847389   -0.01066590    0.01509452
     atom   11 type  3   force =     0.00000000    0.02133181    0.01509452
     atom   12 type  3   force =     0.00000000   -0.02133181   -0.01509452
     atom   13 type  3   force =    -0.01847389    0.01066590   -0.01509452
     atom   14 type  3   force =     0.01847389   -0.01066590    0.01509452
     atom   15 type  3   force =     0.01847389    0.01066590   -0.01509452
     The non-local contrib.  to forces
     atom    1 type  1   force =     0.00000000   -0.00000000   -0.00000000
     atom    2 type  1   force =     0.00000000   -0.00000000   -0.00000000
     atom    3 type  1   force =    -0.00000000    0.00000000    0.00000000
     atom    4 type  1   force =    -0.00000000    0.00000000   -0.00000000
     atom    5 type  1   force =     0.00000000    0.00000000   -0.00000000
     atom    6 type  1   force =     0.00000000   -0.00000000   -0.00000000
     atom    7 type  2   force =    -0.00000000   -0.00000000    0.00000000
     atom    8 type  3   force =    -0.00000000   -0.00000000   -0.00000637
     atom    9 type  3   force =     0.00000000   -0.00000000    0.00000637
     atom   10 type  3   force =    -0.09378523   -0.05414693    0.07658276
     atom   11 type  3   force =     0.00000000    0.10829385    0.07658276
     atom   12 type  3   force =     0.00000000   -0.10829385   -0.07658276
     atom   13 type  3   force =    -0.09378523    0.05414693   -0.07658276
     atom   14 type  3   force =     0.09378523   -0.05414693    0.07658276
     atom   15 type  3   force =     0.09378523    0.05414693   -0.07658276
     The ionic contribution  to forces
     atom    1 type  1   force =    -0.00000000    0.00000000   -0.00000000
     atom    2 type  1   force =     0.00000000    0.00000000   -0.00000000
     atom    3 type  1   force =    -0.00000000   -0.00000000   -0.00000000
     atom    4 type  1   force =    -0.00000000   -0.00000000   -0.00000000
     atom    5 type  1   force =     0.00000000    0.00000000   -0.00000000
     atom    6 type  1   force =     0.00000000   -0.00000000   -0.00000000
     atom    7 type  2   force =    -0.00000000    0.00000000    0.00000000
     atom    8 type  3   force =     0.00000000    0.00000000    0.00000000
     atom    9 type  3   force =    -0.00000000    0.00000000    0.00000000
     atom   10 type  3   force =     7.04540017    4.06766369   -5.75254515
     atom   11 type  3   force =    -0.00000000   -8.13532737   -5.75254515
     atom   12 type  3   force =    -0.00000000    8.13532737    5.75254515
     atom   13 type  3   force =     7.04540017   -4.06766369    5.75254515
     atom   14 type  3   force =    -7.04540017    4.06766369   -5.75254515
     atom   15 type  3   force =    -7.04540017   -4.06766369    5.75254515
     The local contribution  to forces
     atom    1 type  1   force =     0.00000177    0.00000166    0.00000416
     atom    2 type  1   force =    -0.00000797    0.00001129   -0.00000632
     atom    3 type  1   force =     0.00000166   -0.00000590    0.00000405
     atom    4 type  1   force =    -0.00000614    0.00000662   -0.00000073
     atom    5 type  1   force =    -0.00000463   -0.00000013    0.00000443
     atom    6 type  1   force =     0.00000762   -0.00000133    0.00000063
     atom    7 type  2   force =    -0.00000385    0.00000553    0.00001221
     atom    8 type  3   force =    -0.00000302   -0.00000887   -0.00000901
     atom    9 type  3   force =    -0.00000842    0.00000085    0.00000222
     atom   10 type  3   force =    -6.97289264   -4.02579858    5.69334701
     atom   11 type  3   force =    -0.00001236    8.05157879    5.69334827
     atom   12 type  3   force =     0.00000862   -8.05159422   -5.69332978
     atom   13 type  3   force =    -6.97288033    4.02578837   -5.69332154
     atom   14 type  3   force =     6.97287562   -4.02579277    5.69332499
     atom   15 type  3   force =     6.97289503    4.02580041   -5.69334493
     The core correction contribution to forces
     atom    1 type  1   force =     0.00000000    0.00000000    0.00000000
     atom    2 type  1   force =     0.00000000    0.00000000    0.00000000
     atom    3 type  1   force =     0.00000000    0.00000000    0.00000000
     atom    4 type  1   force =     0.00000000    0.00000000    0.00000000
     atom    5 type  1   force =     0.00000000    0.00000000    0.00000000
     atom    6 type  1   force =     0.00000000    0.00000000    0.00000000
     atom    7 type  2   force =     0.00000022    0.00000018    0.00000012
     atom    8 type  3   force =    -0.00000028   -0.00000086   -0.00000009
     atom    9 type  3   force =    -0.00000281   -0.00000086   -0.00000162
     atom   10 type  3   force =     0.00278484    0.00160733   -0.00227391
     atom   11 type  3   force =    -0.00000157   -0.00321457   -0.00227384
     atom   12 type  3   force =     0.00000141    0.00321697    0.00227439
     atom   13 type  3   force =     0.00278659   -0.00160839    0.00227595
     atom   14 type  3   force =    -0.00278222    0.00160824   -0.00227573
     atom   15 type  3   force =    -0.00278318   -0.00160935    0.00227303
     The Hubbard contrib.    to forces
     atom    1 type  1   force =     0.00000000    0.00000000    0.00000000
     atom    2 type  1   force =     0.00000000    0.00000000    0.00000000
     atom    3 type  1   force =     0.00000000    0.00000000    0.00000000
     atom    4 type  1   force =     0.00000000    0.00000000    0.00000000
     atom    5 type  1   force =     0.00000000    0.00000000    0.00000000
     atom    6 type  1   force =     0.00000000    0.00000000    0.00000000
     atom    7 type  2   force =     0.00000000    0.00000000    0.00000000
     atom    8 type  3   force =     0.00000000    0.00000000    0.00000000
     atom    9 type  3   force =     0.00000000    0.00000000    0.00000000
     atom   10 type  3   force =     0.00000000    0.00000000    0.00000000
     atom   11 type  3   force =     0.00000000    0.00000000    0.00000000
     atom   12 type  3   force =     0.00000000    0.00000000    0.00000000
     atom   13 type  3   force =     0.00000000    0.00000000    0.00000000
     atom   14 type  3   force =     0.00000000    0.00000000    0.00000000
     atom   15 type  3   force =     0.00000000    0.00000000    0.00000000
     The SCF correction term to forces
     atom    1 type  1   force =    -0.00000288    0.00000023   -0.00000359
     atom    2 type  1   force =     0.00000677   -0.00000877    0.00000549
     atom    3 type  1   force =    -0.00000118    0.00000522   -0.00000205
     atom    4 type  1   force =     0.00000569   -0.00000411    0.00000166
     atom    5 type  1   force =     0.00000419    0.00000064   -0.00000523
     atom    6 type  1   force =    -0.00000726    0.00000075    0.00000028
     atom    7 type  2   force =     0.00001736   -0.00000934   -0.00001877
     atom    8 type  3   force =    -0.00000382   -0.00000344    0.00000454
     atom    9 type  3   force =     0.00000277   -0.00000158    0.00000026
     atom   10 type  3   force =     0.00000747    0.00000678   -0.00000859
     atom   11 type  3   force =     0.00000279   -0.00001032   -0.00000889
     atom   12 type  3   force =    -0.00000419    0.00001398    0.00000927
     atom   13 type  3   force =     0.00000798   -0.00000569   -0.00000090
     atom   14 type  3   force =    -0.00000243    0.00000175   -0.00000125
     atom   15 type  3   force =    -0.00001455   -0.00000795    0.00000110

     Total force =     0.064010     Total SCF correction =     0.000047

     Computing stress (Cartesian axis) and pressure

     negative rho (up, down):  1.181E-01 0.000E+00
          total   stress  (Ry/bohr**3)                   (kbar)     P=      -10.61
  -0.00007213   0.00000000   0.00000000          -10.61        0.00        0.00
   0.00000000  -0.00007213   0.00000000            0.00      -10.61        0.00
   0.00000000   0.00000000  -0.00007213            0.00        0.00      -10.61

     kinetic stress (kbar)   8175.63      0.00      0.00
                                0.00   8175.63     -0.00
                                0.00     -0.00   8175.63

     local   stress (kbar)  -7932.87     -0.06      0.08
                               -0.06  -7932.89     -0.01
                                0.08     -0.01  -7932.88

     nonloc. stress (kbar)   5192.16     -0.00     -0.00
                               -0.00   5192.16     -0.00
                                0.00     -0.00   5192.16

     hartree stress (kbar)   6298.05      0.02     -0.03
                                0.02   6298.06      0.01
                               -0.03      0.01   6298.06

     exc-cor stress (kbar)   -235.04      0.00     -0.00
                                0.00   -235.04      0.00
                               -0.00      0.00   -235.04

     corecor stress (kbar)  -2581.50     -0.00      0.00
                               -0.00  -2581.50     -0.00
                                0.00     -0.00  -2581.50

     ewald   stress (kbar)  -8927.04     -0.00     -0.00
                               -0.00  -8927.04     -0.00
                               -0.00     -0.00  -8927.04

     hubbard stress (kbar)      0.00      0.00      0.00
                                0.00      0.00      0.00
                                0.00      0.00      0.00

     DFT-D   stress (kbar)      0.00      0.00      0.00
                                0.00      0.00      0.00
                                0.00      0.00      0.00

     XDM     stress (kbar)      0.00      0.00      0.00
                                0.00      0.00      0.00
                                0.00      0.00      0.00

     dft-nl  stress (kbar)      0.00      0.00      0.00
                                0.00      0.00      0.00
                                0.00      0.00      0.00

     TS-vdW  stress (kbar)      0.00      0.00      0.00
                                0.00      0.00      0.00
                                0.00      0.00      0.00

[...]

                                0.00      0.00      0.00

     Writing all to output data dir new_calculations/myprefix.save/

     General routines

     Parallel routines

   This run was terminated on:   4:59:23  21May2023

   JOB DONE.