     Program PWSCF v.7.0 starts on 20May2023 at 17:53:15

     Reading input from espresso_11506.pwi
Warning: card &CELL ignored
Warning: card / ignored

     Current dimensions of program PWSCF are:
     Max number of different atomic species (ntypx) = 10
     Max number of k-points (npk) =  40000
     Max angular momentum in pseudopotentials (lmaxx) =  4
     file In.pbe-dn-rrkjus_psl.0.2.2.UPF: wavefunction(s)  5S renormalized
     file C.pbe-n-kjpaw_psl.1.0.0.UPF: wavefunction(s)  2S 2P renormalized

     gamma-point specific algorithms are used
     Message from routine setup:
     using ibrav=0 with symmetry is DISCOURAGED, use correct ibrav instead

     Subspace diagonalization in iterative solution of the eigenvalue problem:
     a serial algorithm will be used

     Using Slab Decomposition

     bravais-lattice index     =            0
     lattice parameter (alat)  =       6.3354  a.u.
     unit-cell volume          =    1010.9767 (a.u.)^3
     number of atoms/cell      =            8
     number of atomic types    =            3
     number of electrons       =        78.00
     number of Kohn-Sham states=           47
     kinetic-energy cutoff     =      30.0000  Ry
     charge density cutoff     =     240.0000  Ry
     scf convergence threshold =      1.0E-06
     mixing beta               =       0.7000
     number of iterations used =            8  plain     mixing
     Exchange-correlation= SLA  PW   PBX  PBC
                           (   1   4   3   4   0   0   0)

     celldm(1)=   6.335367  celldm(2)=   0.000000  celldm(3)=   0.000000
     celldm(4)=   0.000000  celldm(5)=   0.000000  celldm(6)=   0.000000

     crystal axes: (cart. coord. in units of alat)
               a(1) = (   1.000000   0.000000   0.000000 )
               a(2) = (  -0.500000   0.866025   0.000000 )
               a(3) = (   0.000000   0.000000   4.590871 )

     reciprocal axes: (cart. coord. in units 2 pi/alat)
               b(1) = (  1.000000  0.577350  0.000000 )
               b(2) = (  0.000000  1.154701  0.000000 )
               b(3) = (  0.000000  0.000000  0.217824 )

     PseudoPot. # 1 for Sc read from file:
     /home/pragov/projects/rrg-bengioy-ad/pragov/crystal_structure_design/SSSP/Sc_ONCV_PBE-1.0.oncvpsp.upf
     MD5 check sum: e21af8023abb52e52cb7cd3133e4a229
     Pseudo is Norm-conserving, Zval = 11.0
     Generated using ONCVPSP code by D. R. Hamann
     Using radial grid of 1662 points,  6 beta functions with:
                l(1) =   0
                l(2) =   0
                l(3) =   1
                l(4) =   1
                l(5) =   2
                l(6) =   2

     PseudoPot. # 2 for In read from file:
     /home/pragov/projects/rrg-bengioy-ad/pragov/crystal_structure_design/SSSP/In.pbe-dn-rrkjus_psl.0.2.2.UPF
     MD5 check sum: 25e7c42c3b55b68f4bf926be2e7201a4
     Pseudo is Ultrasoft + core correction, Zval = 13.0
     Generated using "atomic" code by A. Dal Corso  v.5.0.99 svn rev. 10869
     Using radial grid of 1241 points,  6 beta functions with:
                l(1) =   0
                l(2) =   0
                l(3) =   1
                l(4) =   1
                l(5) =   2
                l(6) =   2
     Q(r) pseudized with 0 coefficients

     PseudoPot. # 3 for C  read from file:
     /home/pragov/projects/rrg-bengioy-ad/pragov/crystal_structure_design/SSSP/C.pbe-n-kjpaw_psl.1.0.0.UPF
     MD5 check sum: 5d2aebdfa2cae82b50a7e79e9516da0f
     Pseudo is Projector augmented-wave + core cor, Zval =  4.0
     Generated using "atomic" code by A. Dal Corso  v.5.1
     Shape of augmentation charge: PSQ
     Using radial grid of 1073 points,  4 beta functions with:
                l(1) =   0
                l(2) =   0
                l(3) =   1
                l(4) =   1
     Q(r) pseudized with 0 coefficients

     atomic species   valence    mass     pseudopotential
        Sc            11.00    44.95591     Sc( 1.00)
        In            13.00   114.81800     In( 1.00)
        C              4.00    12.01100     C ( 1.00)

     24 Sym. Ops., with inversion, found (12 have fractional translation)

                                    s                        frac. trans.

      isym =  1     identity

 cryst.   s( 1) = (     1          0          0      )
                  (     0          1          0      )
                  (     0          0          1      )

 cart.    s( 1) = (  1.0000000  0.0000000  0.0000000 )
                  (  0.0000000  1.0000000  0.0000000 )
                  (  0.0000000  0.0000000  1.0000000 )

      isym =  2     180 deg rotation - cart. axis [0,0,1]

 cryst.   s( 2) = (    -1          0          0      )    f =(  0.0000000 )
                  (     0         -1          0      )       (  0.0000000 )
                  (     0          0          1      )       ( -0.5000000 )

 cart.    s( 2) = ( -1.0000000 -0.0000000  0.0000000 )    f =(  0.0000000 )
                  (  0.0000000 -1.0000000  0.0000000 )       (  0.0000000 )
                  (  0.0000000  0.0000000  1.0000000 )       ( -2.2954354 )

[...]

      isym =  4     180 deg rotation - cart. axis [1,0,0]

[...]

      isym =  5      60 deg rotation - cryst. axis [0,0,1]

[...]

 cryst.   s( 8) = (    -1         -1          0      )
                  (     1          0          0      )
                  (     0          0          1      )

 cart.    s( 8) = ( -0.5000000  0.8660254  0.0000000 )
                  ( -0.8660254 -0.5000000  0.0000000 )
                  (  0.0000000  0.0000000  1.0000000 )

[...]

 cryst.   s( 9) = (     0         -1          0      )    f =(  0.0000000 )
                  (    -1          0          0      )       (  0.0000000 )
                  (     0          0         -1      )       (  0.5000000 )

 cart.    s( 9) = (  0.5000000 -0.8660254  0.0000000 )    f =(  0.0000000 )
                  ( -0.8660254 -0.5000000  0.0000000 )       (  0.0000000 )
                  (  0.0000000  0.0000000 -1.0000000 )       (  2.2954354 )

[...]

 cryst.   s(10) = (     1          1          0      )    f =(  0.0000000 )
                  (     0         -1          0      )       ( -0.0000010 )
                  (     0          0         -1      )       (  0.5000000 )

 cart.    s(10) = (  0.5000000  0.8660255  0.0000000 )    f =(  0.0000005 )
                  (  0.8660254 -0.5000000  0.0000000 )       ( -0.0000009 )
                  (  0.0000000  0.0000000 -1.0000000 )       (  2.2954354 )

[...]

 cryst.   s(11) = (    -1         -1          0      )
                  (     0          1          0      )
                  (     0          0         -1      )

 cart.    s(11) = ( -0.5000000 -0.8660255  0.0000000 )
                  ( -0.8660254  0.5000000  0.0000000 )
                  (  0.0000000  0.0000000 -1.0000000 )

      isym = 12     180 deg rotation - cryst. axis [1,1,0]

[...]

      isym = 13     inversion

[...]

      isym = 14     inv. 180 deg rotation - cart. axis [0,0,1]

[...]

      isym = 16     inv. 180 deg rotation - cart. axis [1,0,0]

[...]

      isym = 17     inv.  60 deg rotation - cryst. axis [0,0,1]

[...]

 cryst.   s(22) = (    -1         -1          0      )    f =(  0.0000000 )
                  (     0          1          0      )       ( -0.0000010 )
                  (     0          0          1      )       ( -0.5000000 )

 cart.    s(22) = ( -0.5000000 -0.8660255  0.0000000 )    f =(  0.0000005 )
                  ( -0.8660254  0.5000000  0.0000000 )       ( -0.0000009 )
                  (  0.0000000  0.0000000  1.0000000 )       ( -2.2954354 )

[...]

      isym = 24     inv. 180 deg rotation - cryst. axis [1,1,0]

 cryst.   s(24) = (     0         -1          0      )
                  (    -1          0          0      )
                  (     0          0          1      )

 cart.    s(24) = (  0.5000000 -0.8660254  0.0000000 )
                  ( -0.8660254 -0.5000000  0.0000000 )
                  (  0.0000000  0.0000000  1.0000000 )

   Cartesian axes

     site n.     atom                  positions (alat units)
         1           Sc  tau(   1) = (  -0.0000005   0.5773505   0.3658786  )
         2           Sc  tau(   2) = (  -0.0000005   0.5773505   1.9295568  )
         3           Sc  tau(   3) = (   0.5000005   0.2886748   2.6613141  )
         4           Sc  tau(   4) = (   0.5000005   0.2886748   4.2249922  )
         5           In  tau(   5) = (  -0.0000005   0.5773505   3.4431532  )
         6           In  tau(   6) = (   0.5000005   0.2886748   1.1477177  )
         7           C   tau(   7) = (   0.0000000   0.0000000   0.0000000  )
         8           C   tau(   8) = (   0.0000000   0.0000000   2.2954354  )

   Crystallographic axes

     site n.     atom                  positions (cryst. coord.)
         1           Sc  tau(   1) = (  0.3333330  0.6666670  0.0796970  )
         2           Sc  tau(   2) = (  0.3333330  0.6666670  0.4203030  )
         3           Sc  tau(   3) = (  0.6666670  0.3333330  0.5796970  )
         4           Sc  tau(   4) = (  0.6666670  0.3333330  0.9203030  )
         5           In  tau(   5) = (  0.3333330  0.6666670  0.7500000  )
         6           In  tau(   6) = (  0.6666670  0.3333330  0.2500000  )
         7           C   tau(   7) = (  0.0000000  0.0000000  0.0000000  )
         8           C   tau(   8) = (  0.0000000  0.0000000  0.5000000  )

     number of k points=     1  Methfessel-Paxton smearing, width (Ry)=  0.0010
                       cart. coord. in units 2pi/alat
        k(    1) = (   0.0000000   0.0000000   0.0000000), wk =   2.0000000

                       cryst. coord.
        k(    1) = (   0.0000000   0.0000000   0.0000000), wk =   2.0000000

     Check: negative core charge=   -0.000011

     Initial potential from superposition of free atoms

     starting charge      77.9819, renormalised to      78.0000
     Starting wfcs are   66 randomized atomic wfcs
     Checking if some PAW data can be deallocated...

     Self-consistent Calculation

     iteration #  1     ecut=    30.00 Ry     beta= 0.70
     Davidson diagonalization with overlap

     ethr =  1.00E-02,  avg # of iterations =  2.0

     total energy              =    -693.18407738 Ry
     estimated scf accuracy    <       3.01394991 Ry

[...]

     total energy              =    -694.97011131 Ry
     estimated scf accuracy    <       0.00000168 Ry

     iteration # 25     ecut=    30.00 Ry     beta= 0.70
     Davidson diagonalization with overlap

     ethr =  2.15E-09,  avg # of iterations =  2.0

     End of self-consistent calculation

          k = 0.0000 0.0000 0.0000 (  1430 PWs)   bands (ev):

   -37.6186 -37.6178 -37.5623 -37.5616 -16.5280 -16.5266 -16.2023 -16.1997
   -16.1215 -16.1214 -16.1209 -16.1208 -16.0774 -16.0774 -16.0764 -16.0764
    -5.1961  -5.1961  -5.1956  -5.1956  -4.9623  -4.9617  -4.8005  -4.8005
    -4.7999  -4.7999   0.8561   1.0236   1.9873   2.3018   6.5259   7.6182
     7.9868   9.3572   9.6825   9.6826   9.6937   9.6937  12.4498  12.8917
    13.2418  13.2418  13.2446  13.2446  14.1240  14.1246  14.2644

     occupation numbers
     1.0000   1.0000   1.0000   1.0000   1.0000   1.0000   1.0000   1.0000
     1.0000   1.0000   1.0000   1.0000   1.0000   1.0000   1.0000   1.0000
     1.0000   1.0000   1.0000   1.0000   1.0000   1.0000   1.0000   1.0000
     1.0000   1.0000   1.0000   1.0000   1.0000   1.0000   1.0000   1.0000
     1.0000   1.0000   1.0000   1.0000   1.0000   1.0000   1.0000  -0.0000
    -0.0000  -0.0000  -0.0000  -0.0000  -0.0000  -0.0000  -0.0000

     the Fermi energy is    12.7706 ev

!    total energy              =    -694.97011134 Ry
     estimated scf accuracy    <       0.00000011 Ry
     smearing contrib. (-TS)   =       0.00000000 Ry
     internal energy E=F+TS    =    -694.97011134 Ry

     The total energy is F=E-TS. E is the sum of the following terms:
     one-electron contribution =    -216.79501725 Ry
     hartree contribution      =     147.37897410 Ry
     xc contribution           =    -152.40229173 Ry
     ewald contribution        =    -460.81730256 Ry
     one-center paw contrib.   =     -12.33447390 Ry
      -> PAW hartree energy AE =      14.43285380 Ry
      -> PAW hartree energy PS =     -14.41630218 Ry
      -> PAW xc energy AE      =     -20.23195009 Ry
      -> PAW xc energy PS      =       7.88092457 Ry
      -> total E_H with PAW    =     147.39552572 Ry
      -> total E_XC with PAW   =    -164.75331725 Ry

     convergence has been achieved in  25 iterations

     Forces acting on atoms (cartesian axes, Ry/au):

     atom    1 type  1   force =     0.00000000    0.00000000   -0.18565009
     atom    2 type  1   force =     0.00000000    0.00000000    0.18565009
     atom    3 type  1   force =     0.00000000   -0.00000000   -0.18565009
     atom    4 type  1   force =    -0.00000000   -0.00000000    0.18565009
     atom    5 type  2   force =     0.00000000    0.00000000    0.00000000
     atom    6 type  2   force =     0.00000000   -0.00000000    0.00000000
     atom    7 type  3   force =     0.00000000    0.00000000    0.00000000
     atom    8 type  3   force =     0.00000000   -0.00000000    0.00000000
     The non-local contrib.  to forces
     atom    1 type  1   force =    -0.00000000    0.00000000   -0.13771490
     atom    2 type  1   force =     0.00000000    0.00000000    0.13771490
     atom    3 type  1   force =    -0.00000000   -0.00000000   -0.13771490
     atom    4 type  1   force =     0.00000000    0.00000000    0.13771490
     atom    5 type  2   force =     0.00000000    0.00000000    0.00000000
     atom    6 type  2   force =    -0.00000000   -0.00000000    0.00000000
     atom    7 type  3   force =     0.00000000    0.00000000   -0.00000000
     atom    8 type  3   force =     0.00000000    0.00000000   -0.00000000
     The ionic contribution  to forces
     atom    1 type  1   force =     0.00000814   -0.00000470    7.42344387
     atom    2 type  1   force =     0.00000814   -0.00000470   -7.42344387
     atom    3 type  1   force =    -0.00000814    0.00000470    7.42344387
     atom    4 type  1   force =    -0.00000814    0.00000470   -7.42344387
     atom    5 type  2   force =     0.00000384   -0.00000222    0.00000000
     atom    6 type  2   force =    -0.00000384    0.00000222   -0.00000000
     atom    7 type  3   force =    -0.00000000   -0.00000000    0.00000000
     atom    8 type  3   force =    -0.00000000   -0.00000000   -0.00000000
     The local contribution  to forces
     atom    1 type  1   force =    -0.00001067   -0.00000428   -7.47137627
     atom    2 type  1   force =     0.00000515   -0.00000582    7.47134722
     atom    3 type  1   force =     0.00000327    0.00000789   -7.47161882
     atom    4 type  1   force =     0.00001186   -0.00001023    7.47176428
     atom    5 type  2   force =     0.00000006   -0.00000376    0.00084268
     atom    6 type  2   force =     0.00000527   -0.00000588   -0.00088365
     atom    7 type  3   force =    -0.00001063    0.00002736    0.00006225
     atom    8 type  3   force =    -0.00000830    0.00001278   -0.00012157
     The core correction contribution to forces
     atom    1 type  1   force =     0.00000000    0.00000000    0.00000000
     atom    2 type  1   force =     0.00000000    0.00000000    0.00000000
     atom    3 type  1   force =     0.00000000    0.00000000    0.00000000
     atom    4 type  1   force =     0.00000000    0.00000000    0.00000000
     atom    5 type  2   force =     0.00000019   -0.00000028   -0.00000103
     atom    6 type  2   force =     0.00000012   -0.00000013   -0.00000041
     atom    7 type  3   force =    -0.00000019    0.00000006   -0.00000122
     atom    8 type  3   force =    -0.00000008    0.00000004   -0.00000118
     The Hubbard contrib.    to forces
     atom    1 type  1   force =     0.00000000    0.00000000    0.00000000
     atom    2 type  1   force =     0.00000000    0.00000000    0.00000000
     atom    3 type  1   force =     0.00000000    0.00000000    0.00000000
     atom    4 type  1   force =     0.00000000    0.00000000    0.00000000
     atom    5 type  2   force =     0.00000000    0.00000000    0.00000000
     atom    6 type  2   force =     0.00000000    0.00000000    0.00000000
     atom    7 type  3   force =     0.00000000    0.00000000    0.00000000
     atom    8 type  3   force =     0.00000000    0.00000000    0.00000000
     The SCF correction term to forces
     atom    1 type  1   force =     0.00000707    0.00000214   -0.00002663
     atom    2 type  1   force =    -0.00002906    0.00002370   -0.00004225
     atom    3 type  1   force =     0.00002224   -0.00004121    0.00022138
     atom    4 type  1   force =    -0.00000760    0.00001546   -0.00035331
     atom    5 type  2   force =    -0.00000916    0.00001728   -0.00084383
     atom    6 type  2   force =    -0.00000154    0.00000666    0.00085505
     atom    7 type  3   force =     0.00000080   -0.00002100   -0.00009326
     atom    8 type  3   force =     0.00000334   -0.00000744    0.00008060

     Total force =     0.371300     Total SCF correction =     0.001280

     Computing stress (Cartesian axis) and pressure

          total   stress  (Ry/bohr**3)                   (kbar)     P=     -150.96
  -0.00192421  -0.00000000   0.00000000         -283.06       -0.00        0.00
  -0.00000000  -0.00192421   0.00000000           -0.00     -283.06        0.00
   0.00000000   0.00000000   0.00076980            0.00        0.00      113.24

     kinetic stress (kbar)  19274.19      0.00      0.00
                                0.00  19274.19      0.00
                                0.00      0.00  19326.19

     local   stress (kbar)   1705.29      0.01     -0.01
                                0.01   1705.29     -0.00
                               -0.01     -0.00   5132.00

     nonloc. stress (kbar)  -2406.74     -0.00      0.00
                               -0.00  -2406.74      0.00
                                0.00      0.00  -2179.71

     hartree stress (kbar)   7677.89     -0.00     -0.00
                               -0.00   7677.90      0.00
                               -0.00      0.00   6089.01

     exc-cor stress (kbar)   4079.79     -0.00      0.00
                               -0.00   4079.79      0.00
                                0.00      0.00   4073.92

     corecor stress (kbar)  -8833.32      0.00     -0.00
                                0.00  -8833.32     -0.00
                               -0.00     -0.00  -8835.94

     ewald   stress (kbar) -21780.16      0.00      0.00
                                0.00 -21780.16      0.00
                                0.00      0.00 -23492.23

     hubbard stress (kbar)      0.00      0.00      0.00
                                0.00      0.00      0.00
                                0.00      0.00      0.00

     DFT-D   stress (kbar)      0.00      0.00      0.00
                                0.00      0.00      0.00
                                0.00      0.00      0.00

     XDM     stress (kbar)      0.00      0.00      0.00
                                0.00      0.00      0.00
                                0.00      0.00      0.00

     dft-nl  stress (kbar)      0.00      0.00      0.00
                                0.00      0.00      0.00
                                0.00      0.00      0.00

     TS-vdW  stress (kbar)      0.00      0.00      0.00
                                0.00      0.00      0.00
                                0.00      0.00      0.00

[...]

                                0.00      0.00      0.00

     Writing all to output data dir new_calculations/myprefix.save/

     General routines

     Parallel routines

     PAW routines

   This run was terminated on:  17:53:29  20May2023

   JOB DONE.