     Program PWSCF v.7.0 starts on 21May2023 at 18:58:20

     Reading input from espresso_27039.pwi
Warning: card &CELL ignored
Warning: card / ignored

     Current dimensions of program PWSCF are:
     Max number of different atomic species (ntypx) = 10
     Max number of k-points (npk) =  40000
     Max angular momentum in pseudopotentials (lmaxx) =  4
     file K.pbe-spn-kjpaw_psl.1.0.0.UPF: wavefunction(s)  3S renormalized
     file O.pbe-n-kjpaw_psl.0.1.UPF: wavefunction(s)  2P renormalized

     gamma-point specific algorithms are used
     Message from routine setup:
     using ibrav=0 with symmetry is DISCOURAGED, use correct ibrav instead

     Subspace diagonalization in iterative solution of the eigenvalue problem:
     a serial algorithm will be used

     Using Slab Decomposition

     bravais-lattice index     =            0
     lattice parameter (alat)  =       9.5265  a.u.
     unit-cell volume          =    1286.4459 (a.u.)^3
     number of atoms/cell      =           12
     number of atomic types    =            4
     number of electrons       =        80.00
     number of Kohn-Sham states=           48
     kinetic-energy cutoff     =      30.0000  Ry
     charge density cutoff     =     240.0000  Ry
     scf convergence threshold =      1.0E-06
     mixing beta               =       0.7000
     number of iterations used =            8  plain     mixing
     Exchange-correlation= SLA  PW   PBX  PBC
                           (   1   4   3   4   0   0   0)

     celldm(1)=   9.526494  celldm(2)=   0.000000  celldm(3)=   0.000000
     celldm(4)=   0.000000  celldm(5)=   0.000000  celldm(6)=   0.000000

     crystal axes: (cart. coord. in units of alat)
               a(1) = (   1.000000   0.000000   0.000000 )
               a(2) = (  -0.500000   0.866025   0.000000 )
               a(3) = (   0.000000   0.000000   1.718152 )

     reciprocal axes: (cart. coord. in units 2 pi/alat)
               b(1) = (  1.000000  0.577350  0.000000 )
               b(2) = (  0.000000  1.154700  0.000000 )
               b(3) = (  0.000000  0.000000  0.582021 )

     PseudoPot. # 1 for K  read from file:
     /home/pragov/projects/rrg-bengioy-ad/pragov/crystal_structure_design/SSSP/K.pbe-spn-kjpaw_psl.1.0.0.UPF
     MD5 check sum: 7d58810084cac21f60fbe77ea2b688fd
     Pseudo is Projector augmented-wave + core cor, Zval =  9.0
     Generated using "atomic" code by A. Dal Corso  v.5.1
     Shape of augmentation charge: PSQ
     Using radial grid of 1165 points,  6 beta functions with:
                l(1) =   0
                l(2) =   0
                l(3) =   1
                l(4) =   1
                l(5) =   2
                l(6) =   2
     Q(r) pseudized with 0 coefficients

     PseudoPot. # 2 for Sc read from file:
     /home/pragov/projects/rrg-bengioy-ad/pragov/crystal_structure_design/SSSP/Sc_ONCV_PBE-1.0.oncvpsp.upf
     MD5 check sum: e21af8023abb52e52cb7cd3133e4a229
     Pseudo is Norm-conserving, Zval = 11.0
     Generated using ONCVPSP code by D. R. Hamann
     Using radial grid of 1662 points,  6 beta functions with:
                l(1) =   0
                l(2) =   0
                l(3) =   1
                l(4) =   1
                l(5) =   2
                l(6) =   2

     PseudoPot. # 3 for S  read from file:
     /home/pragov/projects/rrg-bengioy-ad/pragov/crystal_structure_design/SSSP/s_pbe_v1.4.uspp.F.UPF
     MD5 check sum: 88d86576ff6df21479756cfb9bdac1df
     Pseudo is Ultrasoft + core correction, Zval =  6.0
     Generated by new atomic code, or converted to UPF format
     Using radial grid of  907 points,  6 beta functions with:
                l(1) =   0
                l(2) =   0
                l(3) =   1
                l(4) =   1
                l(5) =   2
                l(6) =   2
     Q(r) pseudized with  8 coefficients,  rinner =    1.300   1.300   1.300
                                                       1.300   1.300

     PseudoPot. # 4 for O  read from file:
     /home/pragov/projects/rrg-bengioy-ad/pragov/crystal_structure_design/SSSP/O.pbe-n-kjpaw_psl.0.1.UPF
     MD5 check sum: 0234752ac141de4415c5fc33072bef88
     Pseudo is Projector augmented-wave + core cor, Zval =  6.0
     Generated using "atomic" code by A. Dal Corso  v.5.0.99 svn rev. 10869
     Shape of augmentation charge: BESSEL
     Using radial grid of 1095 points,  4 beta functions with:
                l(1) =   0
                l(2) =   0
                l(3) =   1
                l(4) =   1
     Q(r) pseudized with 0 coefficients

     atomic species   valence    mass     pseudopotential
        K              9.00    39.09830     K ( 1.00)
        Sc            11.00    44.95591     Sc( 1.00)
        S              6.00    32.06000     S ( 1.00)
        O              6.00    15.99900     O ( 1.00)

      6 Sym. Ops. (no inversion) found

                                    s                        frac. trans.

      isym =  1     identity

 cryst.   s( 1) = (     1          0          0      )
                  (     0          1          0      )
                  (     0          0          1      )

 cart.    s( 1) = (  1.0000000 -0.0000000  0.0000000 )
                  (  0.0000000  1.0000000  0.0000000 )
                  (  0.0000000  0.0000000  1.0000000 )

      isym =  2     180 deg rotation - cart. axis [1,0,0]

[...]

      isym =  3     120 deg rotation - cryst. axis [0,0,1]

[...]

      isym =  6     180 deg rotation - cryst. axis [1,1,0]

 cryst.   s( 6) = (     0          1          0      )
                  (     1          0          0      )
                  (     0          0         -1      )

 cart.    s( 6) = ( -0.4999999  0.8660255  0.0000000 )
                  (  0.8660255  0.4999999  0.0000000 )
                  (  0.0000000  0.0000000 -1.0000000 )

   Cartesian axes

     site n.     atom                  positions (alat units)
         1           K   tau(   1) = (   0.0000000   0.0000000   0.8590760  )
         2           Sc  tau(   2) = (   0.0000000   0.0000000   0.0000000  )
         3           S   tau(   3) = (   0.5000005   0.2886749   1.3523059  )
         4           S   tau(   4) = (  -0.0000004   0.5773506   0.3658461  )
         5           O   tau(   5) = (   0.7705190   0.2267722   1.4556665  )
         6           O   tau(   6) = (   0.3111320   0.0853503   1.4556665  )
         7           O   tau(   7) = (   0.2705181   0.6392532   0.2624855  )
         8           O   tau(   8) = (   0.4183506   0.5539021   1.4556665  )
         9           O   tau(   9) = (  -0.1888689   0.7806752   0.2624855  )
        10           O   tau(  10) = (  -0.0816505   0.3121234   0.2624855  )
        11           O   tau(  11) = (   0.5000005   0.2886749   1.0623884  )
        12           O   tau(  12) = (  -0.0000004   0.5773506   0.6557637  )

   Crystallographic axes

     site n.     atom                  positions (cryst. coord.)
         1           K   tau(   1) = (  0.0000000  0.0000000  0.5000000  )
         2           Sc  tau(   2) = (  0.0000000  0.0000000  0.0000000  )
         3           S   tau(   3) = (  0.6666670  0.3333330  0.7870700  )
         4           S   tau(   4) = (  0.3333330  0.6666670  0.2129300  )
         5           O   tau(   5) = (  0.9014460  0.2618540  0.8472280  )
         6           O   tau(   6) = (  0.3604090  0.0985540  0.8472280  )
         7           O   tau(   7) = (  0.6395910  0.7381460  0.1527720  )
         8           O   tau(   8) = (  0.7381460  0.6395910  0.8472280  )
         9           O   tau(   9) = (  0.2618540  0.9014460  0.1527720  )
        10           O   tau(  10) = (  0.0985540  0.3604090  0.1527720  )
        11           O   tau(  11) = (  0.6666670  0.3333330  0.6183320  )
        12           O   tau(  12) = (  0.3333330  0.6666670  0.3816680  )

     number of k points=     1  Methfessel-Paxton smearing, width (Ry)=  0.0010
                       cart. coord. in units 2pi/alat
        k(    1) = (   0.0000000   0.0000000   0.0000000), wk =   2.0000000

                       cryst. coord.
        k(    1) = (   0.0000000   0.0000000   0.0000000), wk =   2.0000000

     Check: negative core charge=   -0.000012

     Initial potential from superposition of free atoms

     starting charge      79.9784, renormalised to      80.0000
     Starting wfcs are   58 randomized atomic wfcs
     Checking if some PAW data can be deallocated...

     Self-consistent Calculation

     iteration #  1     ecut=    30.00 Ry     beta= 0.70
     Davidson diagonalization with overlap

     ethr =  1.00E-02,  avg # of iterations =  2.0

     total energy              =    -584.98471883 Ry
     estimated scf accuracy    <       2.90318050 Ry

[...]

     total energy              =    -586.36095395 Ry
     estimated scf accuracy    <       0.00000197 Ry

     iteration # 10     ecut=    30.00 Ry     beta= 0.70
     Davidson diagonalization with overlap

     ethr =  2.46E-09,  avg # of iterations =  3.0

     End of self-consistent calculation

          k = 0.0000 0.0000 0.0000 (  1782 PWs)   bands (ev):

   -46.1303 -25.2667 -24.7976 -24.7432 -24.7432 -20.5472 -20.4350 -16.3119
   -16.2987 -16.2987 -16.2020 -16.2019 -16.2005  -8.7831  -8.7061  -8.7061
    -6.9127  -6.2093  -4.1429  -4.1429  -3.9245  -3.9245  -3.3521  -3.0986
    -0.8573  -0.8573  -0.8403  -0.1974  -0.1974   0.2353   0.2353   0.3444
     0.4604   0.4604   1.7243   1.9743   2.0856   2.0856   2.3323   2.3323
     6.7917   7.0080   7.0080   8.0309   8.4975   8.4975  10.1056  10.7138

     occupation numbers
     1.0000   1.0000   1.0000   1.0000   1.0000   1.0000   1.0000   1.0000
     1.0000   1.0000   1.0000   1.0000   1.0000   1.0000   1.0000   1.0000
     1.0000   1.0000   1.0000   1.0000   1.0000   1.0000   1.0000   1.0000
     1.0000   1.0000   1.0000   1.0000   1.0000   1.0000   1.0000   1.0000
     1.0000   1.0000   1.0000   1.0000   1.0000   1.0000   1.0000   1.0000
    -0.0000  -0.0000  -0.0000  -0.0000  -0.0000  -0.0000  -0.0000  -0.0000

     the Fermi energy is     3.7104 ev

!    total energy              =    -586.36095452 Ry
     estimated scf accuracy    <       0.00000003 Ry
     smearing contrib. (-TS)   =       0.00000000 Ry
     internal energy E=F+TS    =    -586.36095452 Ry

     The total energy is F=E-TS. E is the sum of the following terms:
     one-electron contribution =    -303.45868374 Ry
     hartree contribution      =     185.82145086 Ry
     xc contribution           =    -100.65675984 Ry
     ewald contribution        =    -236.51995610 Ry
     one-center paw contrib.   =    -131.54700570 Ry
      -> PAW hartree energy AE =     291.59457767 Ry
      -> PAW hartree energy PS =    -290.49068363 Ry
      -> PAW xc energy AE      =    -206.16195950 Ry
      -> PAW xc energy PS      =      73.51105976 Ry
      -> total E_H with PAW    =     186.92534489 Ry
      -> total E_XC with PAW   =    -233.30765958 Ry

     convergence has been achieved in  10 iterations

     Forces acting on atoms (cartesian axes, Ry/au):

     atom    1 type  1   force =     0.00000000    0.00000000    0.00000000
     atom    2 type  2   force =    -0.00000000    0.00000000    0.00000000
     atom    3 type  3   force =     0.00000000    0.00000000   -0.00195508
     atom    4 type  3   force =    -0.00000000    0.00000000    0.00195508
     atom    5 type  4   force =     0.01582893    0.03560932   -0.00048191
     atom    6 type  4   force =     0.02292412   -0.03151292   -0.00048191
     atom    7 type  4   force =     0.01582893   -0.03560933    0.00048191
     atom    8 type  4   force =    -0.03875305   -0.00409640   -0.00048191
     atom    9 type  4   force =     0.02292412    0.03151291    0.00048191
     atom   10 type  4   force =    -0.03875305    0.00409641    0.00048191
     atom   11 type  4   force =     0.00000000    0.00000000   -0.00789028
     atom   12 type  4   force =     0.00000000    0.00000000    0.00789028
     The non-local contrib.  to forces
     atom    1 type  1   force =     0.00000000    0.00000000    0.00000000
     atom    2 type  2   force =     0.00000000    0.00000000    0.00000000
     atom    3 type  3   force =     0.00000000   -0.00000000    0.17053084
     atom    4 type  3   force =     0.00000000   -0.00000000   -0.17053084
     atom    5 type  4   force =    -1.83381900    0.08838135   -0.40469510
     atom    6 type  4   force =     0.99344977    1.54394302   -0.40469510
     atom    7 type  4   force =    -1.83381900   -0.08838081    0.40469510
     atom    8 type  4   force =     0.84036923   -1.63232437   -0.40469510
     atom    9 type  4   force =     0.99344977   -1.54394331    0.40469510
     atom   10 type  4   force =     0.84036923    1.63232412    0.40469510
     atom   11 type  4   force =     0.00000000    0.00000000    2.23587233
     atom   12 type  4   force =     0.00000000    0.00000000   -2.23587233
     The ionic contribution  to forces
     atom    1 type  1   force =    -0.00000002   -0.00000003   -0.00000000
     atom    2 type  2   force =    -0.00000074   -0.00000129    0.00000000
     atom    3 type  3   force =    -0.00000883    0.00000276   -5.93974610
     atom    4 type  3   force =     0.00000680   -0.00000627    5.93974610
     atom    5 type  4   force =     6.20480785    1.39723729   -4.73342263
     atom    6 type  4   force =    -1.89238205   -6.07214288   -4.73340001
     atom    7 type  4   force =     6.20481058   -1.39722132    4.73339966
     atom    8 type  4   force =    -4.31243377    4.67491355   -4.73339966
     atom    9 type  4   force =    -1.89236005    6.07214015    4.73342263
     atom   10 type  4   force =    -4.31243964   -4.67492175    4.73340001
     atom   11 type  4   force =    -0.00000921    0.00000518  -15.01237892
     atom   12 type  4   force =     0.00000909   -0.00000539   15.01237892
     The local contribution  to forces
     atom    1 type  1   force =     0.00000318    0.00000004   -0.00000034
     atom    2 type  2   force =     0.00004825    0.00000740    0.00000269
     atom    3 type  3   force =    -0.00000603   -0.00000810    5.77835644
     atom    4 type  3   force =    -0.00001472    0.00000063   -5.77835515
     atom    5 type  4   force =    -4.37173631   -1.44955348    5.13415258
     atom    6 type  4   force =     0.93052852    4.51081007    5.13414003
     atom    7 type  4   force =    -4.37173829    1.44954189   -5.13412188
     atom    8 type  4   force =     3.44121674   -3.06126307    5.13413232
     atom    9 type  4   force =     0.93051029   -4.51081120   -5.13415299
     atom   10 type  4   force =     3.44122048    3.06127107   -5.13412551
     atom   11 type  4   force =     0.00000816   -0.00000489   12.78753559
     atom   12 type  4   force =    -0.00000727    0.00000253  -12.78755513
     The core correction contribution to forces
     atom    1 type  1   force =     0.00000005   -0.00000000   -0.00000001
     atom    2 type  2   force =     0.00000000    0.00000000    0.00000000
     atom    3 type  3   force =     0.00000063    0.00000081   -0.01120198
     atom    4 type  3   force =     0.00000053   -0.00000015    0.01120287
     atom    5 type  4   force =     0.01664354   -0.00047862    0.00348732
     atom    6 type  4   force =    -0.00873618   -0.01417437    0.00348729
     atom    7 type  4   force =     0.01664364    0.00047864   -0.00348725
     atom    8 type  4   force =    -0.00790718    0.01465314    0.00348736
     atom    9 type  4   force =    -0.00873632    0.01417440   -0.00348731
     atom   10 type  4   force =    -0.00790714   -0.01465310   -0.00348733
     atom   11 type  4   force =     0.00000001   -0.00000004   -0.01915019
     atom   12 type  4   force =     0.00000007   -0.00000001    0.01915029
     The Hubbard contrib.    to forces
     atom    1 type  1   force =     0.00000000    0.00000000    0.00000000
     atom    2 type  2   force =     0.00000000    0.00000000    0.00000000
     atom    3 type  3   force =     0.00000000    0.00000000    0.00000000
     atom    4 type  3   force =     0.00000000    0.00000000    0.00000000
     atom    5 type  4   force =     0.00000000    0.00000000    0.00000000
     atom    6 type  4   force =     0.00000000    0.00000000    0.00000000
     atom    7 type  4   force =     0.00000000    0.00000000    0.00000000
     atom    8 type  4   force =     0.00000000    0.00000000    0.00000000
     atom    9 type  4   force =     0.00000000    0.00000000    0.00000000
     atom   10 type  4   force =     0.00000000    0.00000000    0.00000000
     atom   11 type  4   force =     0.00000000    0.00000000    0.00000000
     atom   12 type  4   force =     0.00000000    0.00000000    0.00000000
     The SCF correction term to forces
     atom    1 type  1   force =    -0.00000049    0.00000038   -0.00000034
     atom    2 type  2   force =    -0.00005101   -0.00000642   -0.00000313
     atom    3 type  3   force =     0.00002905    0.00002008    0.00011340
     atom    4 type  3   force =     0.00001554    0.00000049   -0.00010022
     atom    5 type  4   force =    -0.00006608    0.00002774   -0.00000359
     atom    6 type  4   force =     0.00006670    0.00005242   -0.00001034
     atom    7 type  4   force =    -0.00006599   -0.00002679   -0.00000163
     atom    8 type  4   force =     0.00000687   -0.00007201   -0.00000607
     atom    9 type  4   force =     0.00006301   -0.00004834    0.00000729
     atom   10 type  4   force =     0.00000465    0.00007464   -0.00000021
     atom   11 type  4   force =     0.00000427    0.00000265    0.00023116
     atom   12 type  4   force =     0.00000140    0.00000153   -0.00021124

     Total force =     0.096151     Total SCF correction =     0.000400

     Computing stress (Cartesian axis) and pressure

          total   stress  (Ry/bohr**3)                   (kbar)     P=     -287.44
  -0.00188056   0.00000000   0.00000000         -276.64        0.00        0.00
   0.00000000  -0.00188056   0.00000000            0.00     -276.64        0.00
   0.00000000   0.00000000  -0.00210072            0.00        0.00     -309.03

     kinetic stress (kbar)  16060.09     -0.00      0.00
                               -0.00  16060.09      0.00
                                0.00      0.00  15909.96

     local   stress (kbar) -16931.25      0.02     -0.00
                                0.02 -16931.21      0.01
                               -0.00      0.01  -6259.24

     nonloc. stress (kbar)   2367.23     -0.00      0.00
                               -0.00   2367.23      0.00
                                0.00      0.00   2386.88

     hartree stress (kbar)   8918.57     -0.01     -0.00
                               -0.01   8918.55     -0.00
                               -0.00     -0.00   3411.56

     exc-cor stress (kbar)  -1778.79     -0.00      0.00
                               -0.00  -1778.79     -0.00
                                0.00     -0.00  -1774.13

     corecor stress (kbar)  -1586.92      0.00      0.00
                                0.00  -1586.92      0.00
                                0.00      0.00  -1589.15

     ewald   stress (kbar)  -7325.56     -0.02      0.01
                               -0.02  -7325.59     -0.00
                                0.01     -0.00 -12394.91

     hubbard stress (kbar)      0.00      0.00      0.00
                                0.00      0.00      0.00
                                0.00      0.00      0.00

     DFT-D   stress (kbar)      0.00      0.00      0.00
                                0.00      0.00      0.00
                                0.00      0.00      0.00

     XDM     stress (kbar)      0.00      0.00      0.00
                                0.00      0.00      0.00
                                0.00      0.00      0.00

     dft-nl  stress (kbar)      0.00      0.00      0.00
                                0.00      0.00      0.00
                                0.00      0.00      0.00

     TS-vdW  stress (kbar)      0.00      0.00      0.00
                                0.00      0.00      0.00
                                0.00      0.00      0.00

[...]

                                0.00      0.00      0.00

     Writing all to output data dir new_calculations/myprefix.save/

     General routines

     Parallel routines

     PAW routines

   This run was terminated on:  18:58:33  21May2023

   JOB DONE.