     Program PWSCF v.7.0 starts on 21May2023 at 15:16:38

     Reading input from espresso_25666.pwi
Warning: card &CELL ignored
Warning: card / ignored

     Current dimensions of program PWSCF are:
     Max number of different atomic species (ntypx) = 10
     Max number of k-points (npk) =  40000
     Max angular momentum in pseudopotentials (lmaxx) =  4

     gamma-point specific algorithms are used
     Message from routine setup:
     using ibrav=0 with symmetry is DISCOURAGED, use correct ibrav instead

     Subspace diagonalization in iterative solution of the eigenvalue problem:
     a serial algorithm will be used

     Using Slab Decomposition

     bravais-lattice index     =            0
     lattice parameter (alat)  =       8.4972  a.u.
     unit-cell volume          =     884.4860 (a.u.)^3
     number of atoms/cell      =            5
     number of atomic types    =            3
     number of electrons       =        80.00
     number of Kohn-Sham states=           48
     kinetic-energy cutoff     =      30.0000  Ry
     charge density cutoff     =     240.0000  Ry
     scf convergence threshold =      1.0E-06
     mixing beta               =       0.7000
     number of iterations used =            8  plain     mixing
     Exchange-correlation=  SLA  PW   PBX  PBC
                           (   1   4   3   4   0   0   0)

     celldm(1)=   8.497166  celldm(2)=   0.000000  celldm(3)=   0.000000
     celldm(4)=   0.000000  celldm(5)=   0.000000  celldm(6)=   0.000000

     crystal axes: (cart. coord. in units of alat)
               a(1) = (   1.000000   0.000000   0.000000 )
               a(2) = (  -0.500000   0.866025   0.000000 )
               a(3) = (   0.000000   0.000000   1.664708 )

     reciprocal axes: (cart. coord. in units 2 pi/alat)
               b(1) = (  1.000000  0.577350  0.000000 )
               b(2) = (  0.000000  1.154701  0.000000 )
               b(3) = (  0.000000  0.000000  0.600706 )

     PseudoPot. # 1 for Ca read from file:
     /home/pragov/projects/rrg-bengioy-ad/pragov/crystal_structure_design/SSSP/Ca_pbe_v1.uspp.F.UPF
     MD5 check sum: 403a4c14b9e4d4dfdc3024c9a3812218
     Pseudo is Ultrasoft + core correction, Zval = 10.0
     Generated by new atomic code, or converted to UPF format
     Using radial grid of  845 points,  6 beta functions with:
                l(1) =   0
                l(2) =   0
                l(3) =   1
                l(4) =   1
                l(5) =   2
                l(6) =   2
     Q(r) pseudized with  8 coefficients,  rinner =    1.500   1.500   1.500
                                                       1.500   1.500

     PseudoPot. # 2 for Zn read from file:
     /home/pragov/projects/rrg-bengioy-ad/pragov/crystal_structure_design/SSSP/Zn_pbe_v1.uspp.F.UPF
     MD5 check sum: df62231357ef9e81f77b2b3087fa5675
     Pseudo is Ultrasoft, Zval = 20.0
     Generated by new atomic code, or converted to UPF format
     Using radial grid of  943 points,  6 beta functions with:
                l(1) =   0
                l(2) =   0
                l(3) =   1
                l(4) =   1
                l(5) =   2
                l(6) =   2
     Q(r) pseudized with  8 coefficients,  rinner =    1.100   1.100   1.100
                                                       1.100   1.100

     PseudoPot. # 3 for Sb read from file:
     /home/pragov/projects/rrg-bengioy-ad/pragov/crystal_structure_design/SSSP/sb_pbe_v1.4.uspp.F.UPF
     MD5 check sum: 9bc50dfb53373b713f5709b9110fe27f
     Pseudo is Ultrasoft + core correction, Zval = 15.0
     Generated by new atomic code, or converted to UPF format
     Using radial grid of  891 points,  6 beta functions with:
                l(1) =   0
                l(2) =   0
                l(3) =   1
                l(4) =   1
                l(5) =   2
                l(6) =   2
     Q(r) pseudized with  8 coefficients,  rinner =    1.350   1.350   1.350
                                                       1.350   1.350

     atomic species   valence    mass     pseudopotential
        Ca            10.00    40.07800     Ca( 1.00)
        Zn            20.00    65.38000     Zn( 1.00)
        Sb            15.00   121.76000     Sb( 1.00)

     12 Sym. Ops., with inversion, found

                                    s                        frac. trans.

      isym =  1     identity

 cryst.   s( 1) = (     1          0          0      )
                  (     0          1          0      )
                  (     0          0          1      )

 cart.    s( 1) = (  1.0000000  0.0000000  0.0000000 )
                  (  0.0000000  1.0000000  0.0000000 )
                  (  0.0000000  0.0000000  1.0000000 )

      isym =  2     180 deg rotation - cart. axis [1,0,0]

[...]

      isym =  3     120 deg rotation - cryst. axis [0,0,1]

[...]

      isym =  6     180 deg rotation - cryst. axis [1,1,0]

[...]

      isym =  7     inversion

[...]

      isym =  8     inv. 180 deg rotation - cart. axis [1,0,0]

[...]

      isym =  9     inv. 120 deg rotation - cryst. axis [0,0,1]

 cryst.   s( 9) = (     0         -1          0      )
                  (     1          1          0      )
                  (     0          0         -1      )

 cart.    s( 9) = (  0.5000001  0.8660255  0.0000000 )
                  ( -0.8660253  0.4999999  0.0000000 )
                  (  0.0000000  0.0000000 -1.0000000 )

[...]

 cryst.   s(10) = (     1          1          0      )
                  (    -1          0          0      )
                  (     0          0         -1      )

 cart.    s(10) = (  0.4999999 -0.8660255  0.0000000 )
                  (  0.8660253  0.5000001  0.0000000 )
                  (  0.0000000  0.0000000 -1.0000000 )

[...]

      isym = 12     inv. 180 deg rotation - cryst. axis [1,1,0]

 cryst.   s(12) = (     0         -1          0      )
                  (    -1          0          0      )
                  (     0          0          1      )

 cart.    s(12) = (  0.5000001 -0.8660253  0.0000000 )
                  ( -0.8660253 -0.5000001  0.0000000 )
                  (  0.0000000  0.0000000  1.0000000 )

   Cartesian axes

     site n.     atom                  positions (alat units)
         1           Ca  tau(   1) = (   0.0000000   0.0000000   0.0000000  )
         2           Zn  tau(   2) = (  -0.0000006   0.5773505   1.0553983  )
         3           Zn  tau(   3) = (   0.5000005   0.2886748   0.6093098  )
         4           Sb  tau(   4) = (  -0.0000006   0.5773505   0.4280547  )
         5           Sb  tau(   5) = (   0.5000005   0.2886748   1.2366534  )

   Crystallographic axes

     site n.     atom                  positions (cryst. coord.)
         1           Ca  tau(   1) = (  0.0000000  0.0000000  0.0000000  )
         2           Zn  tau(   2) = (  0.3333330  0.6666670  0.6339840  )
         3           Zn  tau(   3) = (  0.6666670  0.3333330  0.3660160  )
         4           Sb  tau(   4) = (  0.3333330  0.6666670  0.2571350  )
         5           Sb  tau(   5) = (  0.6666670  0.3333330  0.7428650  )

     number of k points=     1  Methfessel-Paxton smearing, width (Ry)=  0.0010
                       cart. coord. in units 2pi/alat
        k(    1) = (   0.0000000   0.0000000   0.0000000), wk =   2.0000000

                       cryst. coord.
        k(    1) = (   0.0000000   0.0000000   0.0000000), wk =   2.0000000

     Check: negative core charge=   -0.000005

     Initial potential from superposition of free atoms

     starting charge      77.9942, renormalised to      80.0000
     Starting wfcs are   54 randomized atomic wfcs

     Self-consistent Calculation

     iteration #  1     ecut=    30.00 Ry     beta= 0.70
     Davidson diagonalization with overlap

     ethr =  1.00E-02,  avg # of iterations =  3.0

     total energy              =   -1278.10843659 Ry
     estimated scf accuracy    <     105.28914099 Ry

[...]

     WARNING: integrated charge=    80.00006178, expected=    80.00000000

[...]

     WARNING: integrated charge=    80.00003178, expected=    80.00000000

[...]

     total energy              =   -1366.78628655 Ry
     estimated scf accuracy    <       0.00000204 Ry

     iteration # 37     ecut=    30.00 Ry     beta= 0.70
     Davidson diagonalization with overlap

     ethr =  2.55E-09,  avg # of iterations =  1.0

     End of self-consistent calculation

          k = 0.0000 0.0000 0.0000 (  1234 PWs)   bands (ev):

  -116.9921-116.9911 -71.1119 -71.1113 -71.0824 -71.0824 -71.0775 -71.0775
   -32.5962 -18.6785 -18.6684 -18.6323 -18.6322 -18.6225 -18.6224 -18.5205
   -18.5205 -18.5090 -18.5090 -13.7547 -13.5234 -13.5234  -1.2357  -0.1118
     1.9881   1.9881   2.0166   2.0166   2.1377   2.1377   2.1881   2.2339
     2.2738   2.2738   4.3939   8.1841   8.1842   9.2172   9.6173   9.6173
     9.6232  10.6189  11.0912  11.3670  11.3671  12.0546  12.0546  12.8664

     occupation numbers
     1.0000   1.0000   1.0000   1.0000   1.0000   1.0000   1.0000   1.0000
     1.0000   1.0000   1.0000   1.0000   1.0000   1.0000   1.0000   1.0000
     1.0000   1.0000   1.0000   1.0000   1.0000   1.0000   1.0000   1.0000
     1.0000   1.0000   1.0000   1.0000   1.0000   1.0000   1.0000   1.0000
     1.0000   1.0000   1.0000   1.0000   1.0000   1.0000   0.7826   0.7813
     0.4362  -0.0000  -0.0000  -0.0000  -0.0000  -0.0000  -0.0000  -0.0000

     the Fermi energy is     9.6221 ev

!    total energy              =   -1366.78628649 Ry
     estimated scf accuracy    <       0.00000021 Ry
     smearing contrib. (-TS)   =      -0.00064725 Ry
     internal energy E=F+TS    =   -1366.78563924 Ry

     The total energy is F=E-TS. E is the sum of the following terms:
     one-electron contribution =   -1170.78557348 Ry
     hartree contribution      =     614.01738408 Ry
     xc contribution           =    -184.59209624 Ry
     ewald contribution        =    -625.42535360 Ry

     convergence has been achieved in  37 iterations

     Forces acting on atoms (cartesian axes, Ry/au):

     atom    1 type  1   force =     0.00000000   -0.00000000    0.00000000
     atom    2 type  2   force =    -0.00000000   -0.00000000   -0.00919020
     atom    3 type  2   force =    -0.00000000   -0.00000000    0.00919020
     atom    4 type  3   force =     0.00000000    0.00000000   -0.04384299
     atom    5 type  3   force =     0.00000000    0.00000000    0.04384299
     The non-local contrib.  to forces
     atom    1 type  1   force =     0.00000000    0.00000000    0.00000000
     atom    2 type  2   force =     0.00000000    0.00000000    0.14154116
     atom    3 type  2   force =     0.00000000    0.00000000   -0.14154116
     atom    4 type  3   force =    -0.00000000   -0.00000000    0.27761788
     atom    5 type  3   force =     0.00000000    0.00000000   -0.27761788
     The ionic contribution  to forces
     atom    1 type  1   force =     0.00000000    0.00000000   -0.00000000
     atom    2 type  2   force =     0.00010650   -0.00006148   19.91015080
     atom    3 type  2   force =    -0.00010650    0.00006148  -19.91015080
     atom    4 type  3   force =     0.00008300   -0.00004792  -27.08249023
     atom    5 type  3   force =    -0.00008300    0.00004792   27.08249023
     The local contribution  to forces
     atom    1 type  1   force =    -0.00000038    0.00000636   -0.00025752
     atom    2 type  2   force =    -0.00036264    0.00081228  -20.06001277
     atom    3 type  2   force =     0.00035905   -0.00080163   20.06087950
     atom    4 type  3   force =    -0.00014661    0.00018645   26.76242534
     atom    5 type  3   force =     0.00015385   -0.00021779  -26.76248913
     The core correction contribution to forces
     atom    1 type  1   force =    -0.00000003    0.00000011   -0.00000063
     atom    2 type  2   force =     0.00000000    0.00000000    0.00000000
     atom    3 type  2   force =     0.00000000    0.00000000    0.00000000
     atom    4 type  3   force =    -0.00000035    0.00000091   -0.00096167
     atom    5 type  3   force =     0.00000033   -0.00000077    0.00096008
     The Hubbard contrib.    to forces
     atom    1 type  1   force =     0.00000000    0.00000000    0.00000000
     atom    2 type  2   force =     0.00000000    0.00000000    0.00000000
     atom    3 type  2   force =     0.00000000    0.00000000    0.00000000
     atom    4 type  3   force =     0.00000000    0.00000000    0.00000000
     atom    5 type  3   force =     0.00000000    0.00000000    0.00000000
     The SCF correction term to forces
     atom    1 type  1   force =     0.00000013   -0.00000584    0.00025291
     atom    2 type  2   force =     0.00005221   -0.00069839   -0.00087135
     atom    3 type  2   force =    -0.00006852    0.00067545    0.00000070
     atom    4 type  3   force =     0.00005869   -0.00010707   -0.00045190
     atom    5 type  3   force =    -0.00006257    0.00011818    0.00048209

     Total force =     0.063351     Total SCF correction =     0.001498

     Computing stress (Cartesian axis) and pressure

          total   stress  (Ry/bohr**3)                   (kbar)     P=      -37.42
   0.00067620   0.00000000  -0.00000000           99.47        0.00       -0.00
   0.00000000   0.00067620  -0.00000000            0.00       99.47       -0.00
  -0.00000000  -0.00000000  -0.00211552           -0.00       -0.00     -311.20

     kinetic stress (kbar)  19546.85      0.00      0.00
                                0.00  19546.85      0.00
                                0.00      0.00  19046.59

     local   stress (kbar) -18877.13     -0.51     -0.08
                               -0.51 -18878.77     -0.20
                               -0.08     -0.20   5988.45

     nonloc. stress (kbar)   -223.73     -0.00      0.00
                               -0.00   -223.73      0.00
                                0.00      0.00   -391.36

     hartree stress (kbar)  38062.53      0.19     -0.05
                                0.19  38063.31      0.21
                               -0.05      0.21  25995.70

     exc-cor stress (kbar)     12.14      0.00      0.00
                                0.00     12.15     -0.00
                                0.00     -0.00      8.38

     corecor stress (kbar)  -7928.98     -0.00     -0.00
                               -0.00  -7928.99      0.00
                               -0.00      0.00  -7923.64

     ewald   stress (kbar) -30491.84      0.12     -0.02
                                0.12 -30491.71      0.01
                               -0.02      0.01 -43035.33

     hubbard stress (kbar)      0.00      0.00      0.00
                                0.00      0.00      0.00
                                0.00      0.00      0.00

     DFT-D   stress (kbar)      0.00      0.00      0.00
                                0.00      0.00      0.00
                                0.00      0.00      0.00

     XDM     stress (kbar)      0.00      0.00      0.00
                                0.00      0.00      0.00
                                0.00      0.00      0.00

     dft-nl  stress (kbar)      0.00      0.00      0.00
                                0.00      0.00      0.00
                                0.00      0.00      0.00

     TS-vdW  stress (kbar)      0.00      0.00      0.00
                                0.00      0.00      0.00
                                0.00      0.00      0.00

[...]

                                0.00      0.00      0.00

     Writing all to output data dir new_calculations/myprefix.save/

     General routines

     Parallel routines

   This run was terminated on:  15:17:32  21May2023

   JOB DONE.