     Program PWSCF v.7.0 starts on 20May2023 at 23:53:51

     Reading input from espresso_17709.pwi
Warning: card &CELL ignored
Warning: card / ignored

     Current dimensions of program PWSCF are:
     Max number of different atomic species (ntypx) = 10
     Max number of k-points (npk) =  40000
     Max angular momentum in pseudopotentials (lmaxx) =  4
     file Nb.pbe-spn-kjpaw_psl.0.3.0.UPF: wavefunction(s)  4S 4P renormalized

     gamma-point specific algorithms are used
     Message from routine setup:
     using ibrav=0 with symmetry is DISCOURAGED, use correct ibrav instead

     Subspace diagonalization in iterative solution of the eigenvalue problem:
     a serial algorithm will be used

     Using Slab Decomposition

     bravais-lattice index     =            0
     lattice parameter (alat)  =      17.9679  a.u.
     unit-cell volume          =    1999.6134 (a.u.)^3
     number of atoms/cell      =           14
     number of atomic types    =            3
     number of electrons       =       127.00
     number of Kohn-Sham states=           77
     kinetic-energy cutoff     =      30.0000  Ry
     charge density cutoff     =     240.0000  Ry
     scf convergence threshold =      1.0E-06
     mixing beta               =       0.7000
     number of iterations used =            8  plain     mixing
     Exchange-correlation= SLA  PW   PBE  PBE
                           (   1   4   3   4   0   0   0)

     celldm(1)=  17.967899  celldm(2)=   0.000000  celldm(3)=   0.000000
     celldm(4)=   0.000000  celldm(5)=   0.000000  celldm(6)=   0.000000

     crystal axes: (cart. coord. in units of alat)
               a(1) = (   1.000000   0.000000   0.000000 )
               a(2) = (   0.933820   0.357744   0.000000 )
               a(3) = (   0.223521   0.041350   0.963566 )

     reciprocal axes: (cart. coord. in units 2 pi/alat)
               b(1) = (  1.000000 -2.610299 -0.119956 )
               b(2) = (  0.000000  2.795293 -0.119956 )
               b(3) = (  0.000000  0.000000  1.037812 )

     PseudoPot. # 1 for Nb read from file:
     /home/pragov/projects/rrg-bengioy-ad/pragov/crystal_structure_design/SSSP/Nb.pbe-spn-kjpaw_psl.0.3.0.UPF
     MD5 check sum: 411d72ad547312f8017e2943ceca08cc
     Pseudo is Projector augmented-wave + core cor, Zval = 13.0
     Generated using "atomic" code by A. Dal Corso  v.5.0.99 svn rev. 10869
     Shape of augmentation charge: PSQ
     Using radial grid of 1227 points,  6 beta functions with:
                l(1) =   0
                l(2) =   0
                l(3) =   1
                l(4) =   1
                l(5) =   2
                l(6) =   2
     Q(r) pseudized with 0 coefficients

     PseudoPot. # 2 for Sn read from file:
     /home/pragov/projects/rrg-bengioy-ad/pragov/crystal_structure_design/SSSP/Sn_pbe_v1.uspp.F.UPF
     MD5 check sum: 4cf58ce39ec5d5d420df3dd08604eb00
     Pseudo is Ultrasoft + core correction, Zval = 14.0
     Generated by new atomic code, or converted to UPF format
     Using radial grid of  891 points,  6 beta functions with:
                l(1) =   0
                l(2) =   0
                l(3) =   1
                l(4) =   1
                l(5) =   2
                l(6) =   2
     Q(r) pseudized with  6 coefficients,  rinner =    1.200   1.200   1.200
                                                       1.200   1.200

     PseudoPot. # 3 for Se read from file:
     /home/pragov/projects/rrg-bengioy-ad/pragov/crystal_structure_design/SSSP/Se_pbe_v1.uspp.F.UPF
     MD5 check sum: 1b3568f3a8ae88f9a2a0ad0698632c85
     Pseudo is Ultrasoft + core correction, Zval =  6.0
     Generated by new atomic code, or converted to UPF format
     Using radial grid of  877 points,  6 beta functions with:
                l(1) =   0
                l(2) =   0
                l(3) =   1
                l(4) =   1
                l(5) =   2
                l(6) =   2
     Q(r) pseudized with  8 coefficients,  rinner =    1.300   1.300   1.300
                                                       1.300   1.300

     atomic species   valence    mass     pseudopotential
        Nb            13.00    92.90637     Nb( 1.00)
        Sn            14.00   118.71000     Sn( 1.00)
        Se             6.00    78.97100     Se( 1.00)

      2 Sym. Ops., with inversion, found

                                    s                        frac. trans.

      isym =  1     identity

 cryst.   s( 1) = (     1          0          0      )
                  (     0          1          0      )
                  (     0          0          1      )

 cart.    s( 1) = (  1.0000000  0.0000000  0.0000000 )
                  (  0.0000000  1.0000000 -0.0000000 )
                  (  0.0000000  0.0000000  1.0000000 )

      isym =  2     inversion

 cryst.   s( 2) = (    -1          0          0      )
                  (     0         -1          0      )
                  (     0          0         -1      )

 cart.    s( 2) = ( -1.0000000 -0.0000000 -0.0000000 )
                  (  0.0000000 -1.0000000  0.0000000 )
                  (  0.0000000  0.0000000 -1.0000000 )

   Cartesian axes

     site n.     atom                  positions (alat units)
         1           Nb  tau(   1) = (   0.0000000   0.0000000   0.0000000  )
         2           Nb  tau(   2) = (   0.9196248   0.1701247   0.9617313  )
         3           Nb  tau(   3) = (   1.2377162   0.2289696   0.0018346  )
         4           Nb  tau(   4) = (   0.6384192   0.1181035   0.3561706  )
         5           Nb  tau(   5) = (   1.5189219   0.2809909   0.6073953  )
         6           Sn  tau(   6) = (   1.0786705   0.1995472   0.4817830  )
         7           Se  tau(   7) = (   1.2807465   0.2369299   0.7709038  )
         8           Se  tau(   8) = (   0.8765946   0.1621644   0.1926621  )
         9           Se  tau(   9) = (   0.2050779   0.0379381   0.1886036  )
        10           Se  tau(  10) = (   1.9522631   0.3611562   0.7749623  )
        11           Se  tau(  11) = (   0.3997764   0.0739561   0.4741313  )
        12           Se  tau(  12) = (   1.7575647   0.3251383   0.4894346  )
        13           Se  tau(  13) = (   0.6535658   0.1209055   0.8117918  )
        14           Se  tau(  14) = (   1.5037753   0.2781889   0.1517742  )

   Crystallographic axes

     site n.     atom                  positions (cryst. coord.)
         1           Nb  tau(   1) = (  0.0000000  0.0000000  0.0000000  )
         2           Nb  tau(   2) = (  0.3601830  0.3601830  0.9980960  )
         3           Nb  tau(   3) = (  0.6398170  0.6398170  0.0019040  )
         4           Nb  tau(   4) = (  0.2874090  0.2874090  0.3696380  )
         5           Nb  tau(   5) = (  0.7125910  0.7125910  0.6303620  )
         6           Sn  tau(   6) = (  0.5000000  0.5000000  0.5000000  )
         7           Se  tau(   7) = (  0.5698140  0.5698140  0.8000530  )
         8           Se  tau(   8) = (  0.4301860  0.4301860  0.1999470  )
         9           Se  tau(   9) = (  0.0834240  0.0834240  0.1957350  )
        10           Se  tau(  10) = (  0.9165760  0.9165760  0.8042650  )
        11           Se  tau(  11) = (  0.1498540  0.1498540  0.4920590  )
        12           Se  tau(  12) = (  0.8501460  0.8501460  0.5079410  )
        13           Se  tau(  13) = (  0.2405870  0.2405870  0.8424870  )
        14           Se  tau(  14) = (  0.7594130  0.7594130  0.1575130  )

     number of k points=     1  Methfessel-Paxton smearing, width (Ry)=  0.0010
                       cart. coord. in units 2pi/alat
        k(    1) = (   0.0000000   0.0000000   0.0000000), wk =   2.0000000

                       cryst. coord.
        k(    1) = (   0.0000000   0.0000000   0.0000000), wk =   2.0000000

     Check: negative core charge=   -0.000007

     Initial potential from superposition of free atoms

     starting charge     125.9888, renormalised to     127.0000
     Starting wfcs are   91 randomized atomic wfcs
     Checking if some PAW data can be deallocated...

     Self-consistent Calculation

     iteration #  1     ecut=    30.00 Ry     beta= 0.70
     Davidson diagonalization with overlap

     ethr =  1.00E-02,  avg # of iterations =  3.0

     total energy              =   -2174.92304235 Ry
     estimated scf accuracy    <      11.07003844 Ry

[...]

     total energy              =   -2183.02040786 Ry
     estimated scf accuracy    <       0.00000882 Ry

     iteration # 26     ecut=    30.00 Ry     beta= 0.70
     Davidson diagonalization with overlap

     ethr =  6.94E-09,  avg # of iterations =  2.0

     End of self-consistent calculation

          k = 0.0000 0.0000 0.0000 (  2788 PWs)   bands (ev):

   -43.8003 -43.7969 -43.6859 -43.6364 -43.5790 -20.3029 -20.2666 -20.1657
   -20.0488 -19.9774 -19.9392 -19.8119 -19.6519 -19.5712 -19.5698 -19.5658
   -19.5604 -19.5316 -19.4411 -19.3971 -12.1165 -12.0233 -11.9302 -11.8958
   -11.8849  -3.3645  -2.6313  -2.4217  -2.2591  -2.1738  -1.8832  -1.8365
    -1.5992   2.2952   5.5466   5.7159   5.9257   6.1378   6.2020   6.2410
     6.5525   6.7181   7.5552   7.7724   8.2457   8.4362   8.4534   8.4676
     8.5519   8.6198   9.0146   9.0390   9.1617   9.4591   9.6786   9.8771
     9.9137  10.0400  10.5608  10.7762  10.7897  11.0328  11.4264  11.6171
    11.6327  11.7871  12.0325  12.0861  12.4570  12.5742  12.7664  13.1448
    13.5326  13.5769  13.5812  13.6747  14.1634

     occupation numbers
     1.0000   1.0000   1.0000   1.0000   1.0000   1.0000   1.0000   1.0000
     1.0000   1.0000   1.0000   1.0000   1.0000   1.0000   1.0000   1.0000
     1.0000   1.0000   1.0000   1.0000   1.0000   1.0000   1.0000   1.0000
     1.0000   1.0000   1.0000   1.0000   1.0000   1.0000   1.0000   1.0000
     1.0000   1.0000   1.0000   1.0000   1.0000   1.0000   1.0000   1.0000
     1.0000   1.0000   1.0000   1.0000   1.0000   1.0000   1.0000   1.0000
     1.0000   1.0000   1.0000   1.0000   1.0000   1.0000   1.0000   1.0000
     1.0000   1.0000   1.0000   1.0000   1.0000   1.0000   1.0000   0.5332
    -0.0332  -0.0000  -0.0000  -0.0000  -0.0000  -0.0000  -0.0000  -0.0000
    -0.0000  -0.0000  -0.0000  -0.0000  -0.0000

     the Fermi energy is    11.6176 ev

!    total energy              =   -2183.02040788 Ry
     estimated scf accuracy    <       0.00000075 Ry
     smearing contrib. (-TS)   =      -0.00016005 Ry
     internal energy E=F+TS    =   -2183.02024784 Ry

     The total energy is F=E-TS. E is the sum of the following terms:
     one-electron contribution =    -265.70878964 Ry
     hartree contribution      =     200.42129265 Ry
     xc contribution           =    -430.46031281 Ry
     ewald contribution        =    -644.86819412 Ry
     one-center paw contrib.   =   -1042.40424392 Ry
      -> PAW hartree energy AE =     343.80407287 Ry
      -> PAW hartree energy PS =    -341.96034270 Ry
      -> PAW xc energy AE      =   -1179.44333911 Ry
      -> PAW xc energy PS      =     135.19536503 Ry
      -> total E_H with PAW    =     202.26502281 Ry
      -> total E_XC with PAW   =   -1474.70828689 Ry

     convergence has been achieved in  26 iterations

     Forces acting on atoms (cartesian axes, Ry/au):

     atom    1 type  1   force =     0.00000000    0.00000000    0.00000000
     atom    2 type  1   force =     0.02958428    0.00547252    0.00388568
     atom    3 type  1   force =    -0.02958428   -0.00547252   -0.00388568
     atom    4 type  1   force =    -0.00197889   -0.00036628   -0.01781349
     atom    5 type  1   force =     0.00197889    0.00036628    0.01781349
     atom    6 type  2   force =     0.00000000    0.00000000    0.00000000
     atom    7 type  3   force =     0.03858730    0.00713732    0.06765095
     atom    8 type  3   force =    -0.03858730   -0.00713732   -0.06765095
     atom    9 type  3   force =     0.04064609    0.00751831   -0.07546724
     atom   10 type  3   force =    -0.04064609   -0.00751831    0.07546724
     atom   11 type  3   force =     0.02680976    0.00495873   -0.00309070
     atom   12 type  3   force =    -0.02680976   -0.00495873    0.00309070
     atom   13 type  3   force =    -0.02958385   -0.00547272   -0.00643884
     atom   14 type  3   force =     0.02958385    0.00547272    0.00643884
     The non-local contrib.  to forces
     atom    1 type  1   force =     0.00000000    0.00000000    0.00000000
     atom    2 type  1   force =     0.01357107    0.00251098   -0.08976088
     atom    3 type  1   force =    -0.01357107   -0.00251098    0.08976088
     atom    4 type  1   force =     0.11675820    0.02159944   -0.00442173
     atom    5 type  1   force =    -0.11675820   -0.02159944    0.00442173
     atom    6 type  2   force =     0.00000000    0.00000000    0.00000000
     atom    7 type  3   force =     0.10841184    0.02005579    0.15215892
     atom    8 type  3   force =    -0.10841184   -0.02005579   -0.15215892
     atom    9 type  3   force =    -0.08083367   -0.01495312   -0.03604778
     atom   10 type  3   force =     0.08083367    0.01495312    0.03604778
     atom   11 type  3   force =     0.03556694    0.00657899   -0.04818224
     atom   12 type  3   force =    -0.03556694   -0.00657899    0.04818224
     atom   13 type  3   force =    -0.10167378   -0.01880551   -0.08591492
     atom   14 type  3   force =     0.10167378    0.01880551    0.08591492
     The ionic contribution  to forces
     atom    1 type  1   force =     0.00000000   -0.00000000    0.00000000
     atom    2 type  1   force =    -7.14819116   -1.32236985   -4.58446547
     atom    3 type  1   force =     7.14819116    1.32236985    4.58446547
     atom    4 type  1   force =     0.29420362    0.05442580   -2.46708974
     atom    5 type  1   force =    -0.29420362   -0.05442580    2.46708974
     atom    6 type  2   force =    -0.00000000   -0.00000000   -0.00000000
     atom    7 type  3   force =    -2.75449609   -0.50956424   -7.06798445
     atom    8 type  3   force =     2.75449609    0.50956424    7.06798445
     atom    9 type  3   force =     1.93885894    0.35867656    8.60593335
     atom   10 type  3   force =    -1.93885894   -0.35867656   -8.60593335
     atom   11 type  3   force =    -7.30666176   -1.35168591   -2.76550958
     atom   12 type  3   force =     7.30666176    1.35168591    2.76550958
     atom   13 type  3   force =     4.49719344    0.83195215   -0.98137823
     atom   14 type  3   force =    -4.49719344   -0.83195216    0.98137823
     The local contribution  to forces
     atom    1 type  1   force =    -0.00003806   -0.00000930   -0.00022646
     atom    2 type  1   force =     7.16796801    1.32602643    4.67131385
     atom    3 type  1   force =    -7.16803084   -1.32603847   -4.67147810
     atom    4 type  1   force =    -0.40372752   -0.07468594    2.45744646
     atom    5 type  1   force =     0.40387103    0.07471716   -2.45735850
     atom    6 type  2   force =    -0.00002331    0.00000037    0.00016742
     atom    7 type  3   force =     2.69542183    0.49863678    6.99958419
     atom    8 type  3   force =    -2.69545115   -0.49863740   -6.99959015
     atom    9 type  3   force =    -1.82671016   -0.33793170   -8.64647701
     atom   10 type  3   force =     1.82676219    0.33793995    8.64644153
     atom   11 type  3   force =     7.30045410    1.35053742    2.80443862
     atom   12 type  3   force =    -7.30042566   -1.35053114   -2.80432832
     atom   13 type  3   force =    -4.43647696   -0.82072144    1.04878371
     atom   14 type  3   force =     4.43650252    0.82073112   -1.04880303
     The core correction contribution to forces
     atom    1 type  1   force =    -0.00000182   -0.00000039   -0.00000232
     atom    2 type  1   force =    -0.00309575   -0.00057272    0.00691531
     atom    3 type  1   force =     0.00309419    0.00057251   -0.00691780
     atom    4 type  1   force =    -0.00915426   -0.00169346   -0.00205164
     atom    5 type  1   force =     0.00915592    0.00169382    0.00205236
     atom    6 type  2   force =     0.00000002    0.00000022    0.00000391
     atom    7 type  3   force =    -0.01069041   -0.00197777   -0.01642227
     atom    8 type  3   force =     0.01069232    0.00197843    0.01642305
     atom    9 type  3   force =     0.00922125    0.00170537    0.00138870
     atom   10 type  3   force =    -0.00921937   -0.00170546   -0.00138482
     atom   11 type  3   force =    -0.00201416   -0.00037229    0.00639422
     atom   12 type  3   force =     0.00201645    0.00037339   -0.00639259
     atom   13 type  3   force =     0.01114559    0.00206142    0.01129465
     atom   14 type  3   force =    -0.01113985   -0.00205989   -0.01129501
     The Hubbard contrib.    to forces
     atom    1 type  1   force =     0.00000000    0.00000000    0.00000000
     atom    2 type  1   force =     0.00000000    0.00000000    0.00000000
     atom    3 type  1   force =     0.00000000    0.00000000    0.00000000
     atom    4 type  1   force =     0.00000000    0.00000000    0.00000000
     atom    5 type  1   force =     0.00000000    0.00000000    0.00000000
     atom    6 type  2   force =     0.00000000    0.00000000    0.00000000
     atom    7 type  3   force =     0.00000000    0.00000000    0.00000000
     atom    8 type  3   force =     0.00000000    0.00000000    0.00000000
     atom    9 type  3   force =     0.00000000    0.00000000    0.00000000
     atom   10 type  3   force =     0.00000000    0.00000000    0.00000000
     atom   11 type  3   force =     0.00000000    0.00000000    0.00000000
     atom   12 type  3   force =     0.00000000    0.00000000    0.00000000
     atom   13 type  3   force =     0.00000000    0.00000000    0.00000000
     atom   14 type  3   force =     0.00000000    0.00000000    0.00000000
     The SCF correction term to forces
     atom    1 type  1   force =    -0.00000132    0.00000099    0.00018034
     atom    2 type  1   force =    -0.00068675   -0.00012590   -0.00016241
     atom    3 type  1   force =     0.00071341    0.00013098    0.00023860
     atom    4 type  1   force =    -0.00002305   -0.00000367   -0.00165838
     atom    5 type  1   force =    -0.00005035   -0.00001102    0.00164660
     atom    6 type  2   force =     0.00000862   -0.00000206   -0.00016131
     atom    7 type  3   force =    -0.00005467   -0.00001068    0.00030875
     atom    8 type  3   force =     0.00009249    0.00001577   -0.00031522
     atom    9 type  3   force =     0.00010958    0.00002040   -0.00025329
     atom   10 type  3   force =    -0.00016379   -0.00003017    0.00030732
     atom   11 type  3   force =    -0.00052509   -0.00009693   -0.00020889
     atom   12 type  3   force =     0.00051492    0.00009466    0.00014263
     atom   13 type  3   force =     0.00024375    0.00004530    0.00076905
     atom   14 type  3   force =    -0.00024328   -0.00004723   -0.00076317

     Total force =     0.181448     Total SCF correction =     0.002991

     Computing stress (Cartesian axis) and pressure

          total   stress  (Ry/bohr**3)                   (kbar)     P=       48.17
   0.00020051  -0.00015213   0.00001815           29.50      -22.38        2.67
  -0.00015213   0.00099472   0.00000336          -22.38      146.33        0.49
   0.00001815   0.00000336  -0.00021295            2.67        0.49      -31.33

     kinetic stress (kbar)  13990.40   -115.72     83.61
                             -115.72  14594.52     15.47
                               83.61     15.47  14073.82

     local   stress (kbar)  -5118.48   1459.55   3411.07
                             1459.55 -12738.19    631.03
                             3411.07    631.03  -3634.55

     nonloc. stress (kbar)   7940.64     -1.44     -5.25
                               -1.44   7948.18     -0.97
                               -5.25     -0.97   7995.23

     hartree stress (kbar)   4073.07   -646.50  -1541.58
                             -646.50   7448.19   -285.18
                            -1541.58   -285.18   3223.08

     exc-cor stress (kbar)  18417.92     -0.51      0.94
                               -0.51  18420.59      0.17
                                0.94      0.17  18422.92

     corecor stress (kbar) -22483.09      3.16     -1.10
                                3.16 -22499.56     -0.20
                               -1.10     -0.20 -22489.35

     ewald   stress (kbar) -16790.98   -720.91  -1945.03
                             -720.91 -13027.40   -359.82
                            -1945.03   -359.82 -17622.48

     hubbard stress (kbar)      0.00      0.00      0.00
                                0.00      0.00      0.00
                                0.00      0.00      0.00

     DFT-D   stress (kbar)      0.00      0.00      0.00
                                0.00      0.00      0.00
                                0.00      0.00      0.00

     XDM     stress (kbar)      0.00      0.00      0.00
                                0.00      0.00      0.00
                                0.00      0.00      0.00

     dft-nl  stress (kbar)      0.00      0.00      0.00
                                0.00      0.00      0.00
                                0.00      0.00      0.00

     TS-vdW  stress (kbar)      0.00      0.00      0.00
                                0.00      0.00      0.00
                                0.00      0.00      0.00

[...]

                                0.00      0.00      0.00

     Writing all to output data dir new_calculations/myprefix.save/

     General routines

     Parallel routines

     PAW routines

   This run was terminated on:  23:54:44  20May2023

   JOB DONE.