     Program PWSCF v.7.0 starts on 20May2023 at 22:47: 0

     Reading input from espresso_26183.pwi
Warning: card &CELL ignored
Warning: card / ignored

     Current dimensions of program PWSCF are:
     Max number of different atomic species (ntypx) = 10
     Max number of k-points (npk) =  40000
     Max angular momentum in pseudopotentials (lmaxx) =  4

     gamma-point specific algorithms are used
     Message from routine setup:
     using ibrav=0 with symmetry is DISCOURAGED, use correct ibrav instead

     Subspace diagonalization in iterative solution of the eigenvalue problem:
     a serial algorithm will be used

     Using Slab Decomposition

     bravais-lattice index     =            0
     lattice parameter (alat)  =      15.2321  a.u.
     unit-cell volume          =     906.9614 (a.u.)^3
     number of atoms/cell      =            4
     number of atomic types    =            3
     number of electrons       =        36.00
     number of Kohn-Sham states=           22
     kinetic-energy cutoff     =      30.0000  Ry
     charge density cutoff     =     240.0000  Ry
     scf convergence threshold =      1.0E-06
     mixing beta               =       0.7000
     number of iterations used =            8  plain     mixing
     Exchange-correlation= SLA  PW   PBE  PBE
                           (   1   4   3   4   0   0   0)

     celldm(1)=  15.232100  celldm(2)=   0.000000  celldm(3)=   0.000000
     celldm(4)=   0.000000  celldm(5)=   0.000000  celldm(6)=   0.000000

     crystal axes: (cart. coord. in units of alat)
               a(1) = (   1.000000   0.000000   0.000000 )
               a(2) = (   0.843438   0.537226   0.000000 )
               a(3) = (   0.843438   0.245800   0.477697 )

     reciprocal axes: (cart. coord. in units 2 pi/alat)
               b(1) = (  1.000000 -1.569987 -0.957794 )
               b(2) = (  0.000000  1.861414 -0.957794 )
               b(3) = (  0.000000  0.000000  2.093378 )

     PseudoPot. # 1 for Na read from file:
     /home/pragov/projects/rrg-bengioy-ad/pragov/crystal_structure_design/SSSP/na_pbe_v1.5.uspp.F.UPF
     MD5 check sum: 44600605ef58000f06b90626533354dc
     Pseudo is Ultrasoft, Zval =  9.0
     Generated by new atomic code, or converted to UPF format
     Using radial grid of  819 points,  5 beta functions with:
                l(1) =   0
                l(2) =   0
                l(3) =   1
                l(4) =   1
                l(5) =   2
     Q(r) pseudized with  8 coefficients,  rinner =    1.250   1.250   1.250
                                                       1.250   1.250

     PseudoPot. # 2 for Bi read from file:
     /home/pragov/projects/rrg-bengioy-ad/pragov/crystal_structure_design/SSSP/Bi_pbe_v1.uspp.F.UPF
     MD5 check sum: cceb9f28ec65b6d7ff33140f5b0b1758
     Pseudo is Ultrasoft + core correction, Zval = 15.0
     Generated by new atomic code, or converted to UPF format
     Using radial grid of  899 points,  6 beta functions with:
                l(1) =   0
                l(2) =   0
                l(3) =   1
                l(4) =   1
                l(5) =   2
                l(6) =   2
     Q(r) pseudized with  6 coefficients,  rinner =    1.000   1.000   1.000
                                                       1.000   1.000

     PseudoPot. # 3 for Te read from file:
     /home/pragov/projects/rrg-bengioy-ad/pragov/crystal_structure_design/SSSP/Te_pbe_v1.uspp.F.UPF
     MD5 check sum: c319670d6894cc26e93307826a071b75
     Pseudo is Ultrasoft + core correction, Zval =  6.0
     Generated by new atomic code, or converted to UPF format
     Using radial grid of  891 points,  5 beta functions with:
                l(1) =   0
                l(2) =   0
                l(3) =   1
                l(4) =   1
                l(5) =   2
     Q(r) pseudized with  6 coefficients,  rinner =    1.800   1.800   1.800
                                                       1.800   1.800

     atomic species   valence    mass     pseudopotential
        Na             9.00    22.98977     Na( 1.00)
        Bi            15.00   208.98040     Bi( 1.00)
        Te             6.00   127.60000     Te( 1.00)

      2 Sym. Ops., with inversion, found

                                    s                        frac. trans.

      isym =  1     identity

 cryst.   s( 1) = (     1          0          0      )
                  (     0          1          0      )
                  (     0          0          1      )

 cart.    s( 1) = (  1.0000000 -0.0000000  0.0000000 )
                  (  0.0000000  1.0000000 -0.0000000 )
                  (  0.0000000  0.0000000  1.0000000 )

      isym =  2     inversion

 cryst.   s( 2) = (    -1          0          0      )
                  (     0         -1          0      )
                  (     0          0         -1      )

 cart.    s( 2) = ( -1.0000000  0.0000000 -0.0000000 )
                  (  0.0000000 -1.0000000  0.0000000 )
                  (  0.0000000  0.0000000 -1.0000000 )

   Cartesian axes

     site n.     atom                  positions (alat units)
         1           Na  tau(   1) = (   1.3434383   0.3915130   0.2388484  )
         2           Bi  tau(   2) = (   0.0000000   0.0000000   0.0000000  )
         3           Te  tau(   3) = (   0.6830739   0.1990656   0.1214430  )
         4           Te  tau(   4) = (   2.0038026   0.5839605   0.3562539  )

   Crystallographic axes

     site n.     atom                  positions (cryst. coord.)
         1           Na  tau(   1) = (  0.5000000  0.5000000  0.5000000  )
         2           Bi  tau(   2) = (  0.0000000  0.0000000  0.0000000  )
         3           Te  tau(   3) = (  0.2542260  0.2542260  0.2542260  )
         4           Te  tau(   4) = (  0.7457740  0.7457740  0.7457740  )

     number of k points=     1  Methfessel-Paxton smearing, width (Ry)=  0.0010
                       cart. coord. in units 2pi/alat
        k(    1) = (   0.0000000   0.0000000   0.0000000), wk =   2.0000000

                       cryst. coord.
        k(    1) = (   0.0000000   0.0000000   0.0000000), wk =   2.0000000

     Check: negative core charge=   -0.000001

     Initial potential from superposition of free atoms

     starting charge      34.9932, renormalised to      36.0000

     negative rho (up, down):  4.357E-02 0.000E+00
     Starting wfcs are   22 randomized atomic wfcs

     Self-consistent Calculation

     iteration #  1     ecut=    30.00 Ry     beta= 0.70
     Davidson diagonalization with overlap

     ethr =  1.00E-02,  avg # of iterations =  3.0

     negative rho (up, down):  4.126E-02 0.000E+00

     total energy              =    -332.84604020 Ry
     estimated scf accuracy    <       0.64061533 Ry

[...]

     total energy              =    -333.08600263 Ry
     estimated scf accuracy    <       0.00000285 Ry

     iteration #  9     ecut=    30.00 Ry     beta= 0.70
     Davidson diagonalization with overlap

     ethr =  7.92E-09,  avg # of iterations =  2.0

[...]

     End of self-consistent calculation

          k = 0.0000 0.0000 0.0000 (  1267 PWs)   bands (ev):

   -46.8359 -18.7809 -18.7175 -18.7175 -16.8114 -16.7808 -16.7807 -16.7336
   -16.7336  -6.5252  -4.3873  -2.4727   3.9298   4.5305   4.5305   4.6802
     5.1532   5.1532   6.9656   7.4637   7.4637   9.8999

     occupation numbers
     1.0000   1.0000   1.0000   1.0000   1.0000   1.0000   1.0000   1.0000
     1.0000   1.0000   1.0000   1.0000   1.0000   1.0000   1.0000   1.0000
     1.0000   1.0000  -0.0000  -0.0000  -0.0000  -0.0000

     the Fermi energy is     6.4730 ev

!    total energy              =    -333.08600298 Ry
     estimated scf accuracy    <       0.00000013 Ry
     smearing contrib. (-TS)   =       0.00000000 Ry
     internal energy E=F+TS    =    -333.08600298 Ry

     The total energy is F=E-TS. E is the sum of the following terms:
     one-electron contribution =    -155.64322646 Ry
     hartree contribution      =      93.09542964 Ry
     xc contribution           =    -108.17691584 Ry
     ewald contribution        =    -162.36129033 Ry

     convergence has been achieved in   9 iterations

     negative rho (up, down):  4.318E-02 0.000E+00

     Forces acting on atoms (cartesian axes, Ry/au):

     atom    1 type  1   force =     0.00000000    0.00000000    0.00000000
     atom    2 type  2   force =     0.00000000    0.00000000    0.00000000
     atom    3 type  3   force =     0.02139311    0.00623340    0.00380438
     atom    4 type  3   force =    -0.02139311   -0.00623340   -0.00380438
     The non-local contrib.  to forces
     atom    1 type  1   force =     0.00000000    0.00000000    0.00000000
     atom    2 type  2   force =     0.00000000    0.00000000    0.00000000
     atom    3 type  3   force =     0.02870624    0.00836493    0.00509902
     atom    4 type  3   force =    -0.02870624   -0.00836493   -0.00509902
     The ionic contribution  to forces
     atom    1 type  1   force =    -0.00000000   -0.00000000   -0.00000000
     atom    2 type  2   force =     0.00000000    0.00000000    0.00000000
     atom    3 type  3   force =    -3.15905426   -0.92063101   -0.56164492
     atom    4 type  3   force =     3.15905427    0.92063101    0.56164492
     The local contribution  to forces
     atom    1 type  1   force =    -0.00030119   -0.00008800   -0.00005647
     atom    2 type  2   force =     0.00074170    0.00020725    0.00026044
     atom    3 type  3   force =     3.15134875    0.91839459    0.56027704
     atom    4 type  3   force =    -3.15131331   -0.91836958   -0.56027713
     The core correction contribution to forces
     atom    1 type  1   force =     0.00000000    0.00000000    0.00000000
     atom    2 type  2   force =     0.00000704    0.00000130    0.00000484
     atom    3 type  3   force =     0.00007611    0.00002167    0.00001326
     atom    4 type  3   force =    -0.00007415   -0.00002182   -0.00001254
     The Hubbard contrib.    to forces
     atom    1 type  1   force =     0.00000000    0.00000000    0.00000000
     atom    2 type  2   force =     0.00000000    0.00000000    0.00000000
     atom    3 type  3   force =     0.00000000    0.00000000    0.00000000
     atom    4 type  3   force =     0.00000000    0.00000000    0.00000000
     The SCF correction term to forces
     atom    1 type  1   force =     0.00020167    0.00005431    0.00003692
     atom    2 type  2   force =    -0.00088759   -0.00026660   -0.00033922
     atom    3 type  3   force =     0.00030388    0.00008442    0.00005519
     atom    4 type  3   force =    -0.00036608   -0.00010686   -0.00006540

     Total force =     0.031969     Total SCF correction =     0.001127

     Computing stress (Cartesian axis) and pressure

     negative rho (up, down):  4.318E-02 0.000E+00
          total   stress  (Ry/bohr**3)                   (kbar)     P=      154.93
   0.00016675  -0.00041150  -0.00025106           24.53      -60.53      -36.93
  -0.00041150   0.00145883  -0.00007315          -60.53      214.60      -10.76
  -0.00025106  -0.00007315   0.00153410          -36.93      -10.76      225.67

     kinetic stress (kbar)   4388.84    -65.54    -39.98
                              -65.54   4594.62    -11.65
                              -39.98    -11.65   4606.61

     local   stress (kbar)   9208.52    859.83    524.55
                              859.83   6508.67    152.86
                              524.55    152.86   6351.36

     nonloc. stress (kbar)  -4930.20     17.08     10.42
                               17.08  -4983.84      3.04
                               10.42      3.04  -4986.97

     hartree stress (kbar)   4180.14   -395.99   -241.58
                             -395.99   5423.54    -70.40
                             -241.58    -70.40   5495.99

     exc-cor stress (kbar)   8298.28      0.04      0.03
                                0.04   8298.14      0.01
                                0.03      0.01   8298.13

     corecor stress (kbar) -11309.49      3.76      2.29
                                3.76 -11321.28      0.67
                                2.29      0.67 -11321.97

     ewald   stress (kbar)  -9811.55   -479.72   -292.66
                             -479.72  -8305.25    -85.29
                             -292.66    -85.29  -8217.48

     hubbard stress (kbar)      0.00      0.00      0.00
                                0.00      0.00      0.00
                                0.00      0.00      0.00

     DFT-D   stress (kbar)      0.00      0.00      0.00
                                0.00      0.00      0.00
                                0.00      0.00      0.00

     XDM     stress (kbar)      0.00      0.00      0.00
                                0.00      0.00      0.00
                                0.00      0.00      0.00

     dft-nl  stress (kbar)      0.00      0.00      0.00
                                0.00      0.00      0.00
                                0.00      0.00      0.00

     TS-vdW  stress (kbar)      0.00      0.00      0.00
                                0.00      0.00      0.00
                                0.00      0.00      0.00

[...]

                                0.00      0.00      0.00

     Writing all to output data dir new_calculations/myprefix.save/

     General routines

     Parallel routines

   This run was terminated on:  22:47:16  20May2023

   JOB DONE.