     Program PWSCF v.7.0 starts on 21May2023 at  9:16:40

     Reading input from espresso_20537.pwi
Warning: card &CELL ignored
Warning: card / ignored

     Current dimensions of program PWSCF are:
     Max number of different atomic species (ntypx) = 10
     Max number of k-points (npk) =  40000
     Max angular momentum in pseudopotentials (lmaxx) =  4

     gamma-point specific algorithms are used
     Message from routine setup:
     using ibrav=0 with symmetry is DISCOURAGED, use correct ibrav instead

     Subspace diagonalization in iterative solution of the eigenvalue problem:
     a serial algorithm will be used

     Using Slab Decomposition

     bravais-lattice index     =            0
     lattice parameter (alat)  =       7.6537  a.u.
     unit-cell volume          =     564.5850 (a.u.)^3
     number of atoms/cell      =            5
     number of atomic types    =            3
     number of electrons       =        65.00
     number of Kohn-Sham states=           40
     kinetic-energy cutoff     =      30.0000  Ry
     charge density cutoff     =     240.0000  Ry
     scf convergence threshold =      1.0E-06
     mixing beta               =       0.7000
     number of iterations used =            8  plain     mixing
     Exchange-correlation=  SLA  PW   PBX  PBC
                           (   1   4   3   4   0   0   0)

     celldm(1)=   7.653748  celldm(2)=   0.000000  celldm(3)=   0.000000
     celldm(4)=   0.000000  celldm(5)=   0.000000  celldm(6)=   0.000000

     crystal axes: (cart. coord. in units of alat)
               a(1) = (   1.000000   0.000000   0.000000 )
               a(2) = (   0.000000   1.000000   0.000000 )
               a(3) = (   0.000000   0.000000   1.259235 )

     reciprocal axes: (cart. coord. in units 2 pi/alat)
               b(1) = (  1.000000  0.000000  0.000000 )
               b(2) = (  0.000000  1.000000  0.000000 )
               b(3) = (  0.000000  0.000000  0.794133 )

     PseudoPot. # 1 for Nd read from file:
     /home/pragov/projects/rrg-bengioy-ad/pragov/crystal_structure_design/SSSP/Nd.GGA-PBE-paw-v1.0.UPF
     MD5 check sum: 1d1e94942b6eb1cde76049b71bb7dcb0
     Pseudo is Projector augmented-wave + core cor, Zval = 14.0
     Generated using ATOMPAW code
     Shape of augmentation charge: BESSEL
     Using radial grid of 1105 points,  8 beta functions with:
                l(1) =   0
                l(2) =   0
                l(3) =   1
                l(4) =   1
                l(5) =   2
                l(6) =   2
                l(7) =   3
                l(8) =   3
     Q(r) pseudized with 0 coefficients

     PseudoPot. # 2 for B  read from file:
     /home/pragov/projects/rrg-bengioy-ad/pragov/crystal_structure_design/SSSP/b_pbe_v1.4.uspp.F.UPF
     MD5 check sum: cc6de2960df11db49a60e589f9ebb39b
     Pseudo is Ultrasoft + core correction, Zval =  3.0
     Generated by new atomic code, or converted to UPF format
     Using radial grid of  781 points,  4 beta functions with:
                l(1) =   0
                l(2) =   0
                l(3) =   1
                l(4) =   1
     Q(r) pseudized with  8 coefficients,  rinner =    1.100   1.100   1.100

     PseudoPot. # 3 for Pt read from file:
     /home/pragov/projects/rrg-bengioy-ad/pragov/crystal_structure_design/SSSP/pt_pbe_v1.4.uspp.F.UPF
     MD5 check sum: f09d6de1a584b5a045c4fc126da2d0c4
     Pseudo is Ultrasoft + core correction, Zval = 16.0
     Generated by new atomic code, or converted to UPF format
     Using radial grid of  985 points,  6 beta functions with:
                l(1) =   0
                l(2) =   0
                l(3) =   1
                l(4) =   1
                l(5) =   2
                l(6) =   2
     Q(r) pseudized with  8 coefficients,  rinner =    1.300   1.300   1.300
                                                       1.300   1.300

     atomic species   valence    mass     pseudopotential
        Nd            14.00   144.24200     Nd( 1.00)
        B              3.00    10.81000     B ( 1.00)
        Pt            16.00   195.08400     Pt( 1.00)

      8 Sym. Ops. (no inversion) found

                                    s                        frac. trans.

      isym =  1     identity

 cryst.   s( 1) = (     1          0          0      )
                  (     0          1          0      )
                  (     0          0          1      )

 cart.    s( 1) = (  1.0000000  0.0000000  0.0000000 )
                  (  0.0000000  1.0000000  0.0000000 )
                  (  0.0000000  0.0000000  1.0000000 )

      isym =  2     180 deg rotation - cart. axis [0,0,1]

[...]

      isym =  4      90 deg rotation - cart. axis [0,0,1]

[...]

      isym =  5     inv. 180 deg rotation - cart. axis [0,1,0]

[...]

      isym =  8     inv. 180 deg rotation - cart. axis [1,-1,0]

 cryst.   s( 8) = (     0          1          0      )
                  (     1          0          0      )
                  (     0          0          1      )

 cart.    s( 8) = (  0.0000000  1.0000000  0.0000000 )
                  (  1.0000000  0.0000000  0.0000000 )
                  (  0.0000000  0.0000000  1.0000000 )

   Cartesian axes

     site n.     atom                  positions (alat units)
         1           Nd  tau(   1) = (   0.0000000   0.0000000   1.2392701  )
         2           B   tau(   2) = (   0.5000000   0.5000000   0.8630774  )
         3           Pt  tau(   3) = (   0.0000000   0.5000000   0.6301314  )
         4           Pt  tau(   4) = (   0.5000000   0.5000000   0.1228271  )
         5           Pt  tau(   5) = (   0.5000000   0.0000000   0.6301314  )

   Crystallographic axes

     site n.     atom                  positions (cryst. coord.)
         1           Nd  tau(   1) = (  0.0000000  0.0000000  0.9841450  )
         2           B   tau(   2) = (  0.5000000  0.5000000  0.6853980  )
         3           Pt  tau(   3) = (  0.0000000  0.5000000  0.5004080  )
         4           Pt  tau(   4) = (  0.5000000  0.5000000  0.0975410  )
         5           Pt  tau(   5) = (  0.5000000  0.0000000  0.5004080  )

     number of k points=     1  Methfessel-Paxton smearing, width (Ry)=  0.0010
                       cart. coord. in units 2pi/alat
        k(    1) = (   0.0000000   0.0000000   0.0000000), wk =   2.0000000

                       cryst. coord.
        k(    1) = (   0.0000000   0.0000000   0.0000000), wk =   2.0000000

     Initial potential from superposition of free atoms

     starting charge      63.4935, renormalised to      65.0000

     negative rho (up, down):  5.477E-01 0.000E+00
     Starting wfcs are   72 randomized atomic wfcs
     Checking if some PAW data can be deallocated...

     Self-consistent Calculation

     iteration #  1     ecut=    30.00 Ry     beta= 0.70
     Davidson diagonalization with overlap

     ethr =  1.00E-02,  avg # of iterations =  2.0

     negative rho (up, down):  4.703E-01 0.000E+00

     total energy              =   -1124.55045161 Ry
     estimated scf accuracy    <      55.59862773 Ry

[...]

     total energy              =   -1175.69901932 Ry
     estimated scf accuracy    <       0.00000154 Ry

     iteration # 53     ecut=    30.00 Ry     beta= 0.70
     Davidson diagonalization with overlap

     ethr =  2.36E-09,  avg # of iterations =  1.0

[...]

     End of self-consistent calculation

          k = 0.0000 0.0000 0.0000 (   789 PWs)   bands (ev):

   -35.1478 -35.1477 -34.8040 -34.7697 -34.7696 -34.7645 -34.6955 -34.6955
   -34.2200 -19.0428  -0.4241  -0.1319  -0.1319   7.2451  11.5091  12.1381
    12.2455  12.2939  12.2940  12.7740  13.9633  14.3754  15.2387  15.2387
    16.0443  16.0443  16.1429  16.6493  16.7732  17.3865  17.6497  17.6497
    17.6498  17.6569  17.8420  17.8420  17.8982  17.9695  18.7111  18.7111

     occupation numbers
     1.0000   1.0000   1.0000   1.0000   1.0000   1.0000   1.0000   1.0000
     1.0000   1.0000   1.0000   1.0000   1.0000   1.0000   1.0000   1.0000
     1.0000   1.0000   1.0000   1.0000   1.0000   1.0000   1.0000   1.0000
     1.0000   1.0000   1.0000   1.0000   1.0000   1.0000   0.7319   0.7318
     0.7301   0.3062  -0.0000  -0.0000  -0.0000  -0.0000  -0.0000  -0.0000

     the Fermi energy is    17.6536 ev

!    total energy              =   -1175.69901901 Ry
     estimated scf accuracy    <       0.00000042 Ry
     smearing contrib. (-TS)   =      -0.00088947 Ry
     internal energy E=F+TS    =   -1175.69812953 Ry

     The total energy is F=E-TS. E is the sum of the following terms:
     one-electron contribution =    -130.88169837 Ry
     hartree contribution      =     118.36530514 Ry
     xc contribution           =    -187.70117145 Ry
     ewald contribution        =    -545.44102946 Ry
     one-center paw contrib.   =    -430.03953538 Ry
      -> PAW hartree energy AE =      80.75380408 Ry
      -> PAW hartree energy PS =     -80.42954982 Ry
      -> PAW xc energy AE      =    -442.85337609 Ry
      -> PAW xc energy PS      =      12.48958645 Ry
      -> total E_H with PAW    =     118.68955940 Ry
      -> total E_XC with PAW   =    -618.06496110 Ry

     convergence has been achieved in  53 iterations

     negative rho (up, down):  5.147E-01 0.000E+00

     Forces acting on atoms (cartesian axes, Ry/au):

     atom    1 type  1   force =     0.00000000    0.00000000    0.04455894
     atom    2 type  2   force =     0.00000000    0.00000000    0.09528108
     atom    3 type  3   force =     0.00000000    0.00000000   -0.04257571
     atom    4 type  3   force =     0.00000000    0.00000000   -0.05468860
     atom    5 type  3   force =     0.00000000    0.00000000   -0.04257571
     The non-local contrib.  to forces
     atom    1 type  1   force =     0.00000000    0.00000000   -0.44168070
     atom    2 type  2   force =     0.00000000    0.00000000   -0.14642979
     atom    3 type  3   force =     0.00000000    0.00000000   -0.03723728
     atom    4 type  3   force =     0.00000000    0.00000000    0.04069491
     atom    5 type  3   force =     0.00000000    0.00000000   -0.03723728
     The ionic contribution  to forces
     atom    1 type  1   force =    -0.00000000   -0.00000000   -2.21092520
     atom    2 type  2   force =     0.00000000    0.00000000    1.82537291
     atom    3 type  3   force =    -0.00000000   -0.00000000    4.08650148
     atom    4 type  3   force =     0.00000000    0.00000000   -7.78745066
     atom    5 type  3   force =    -0.00000000   -0.00000000    4.08650148
     The local contribution  to forces
     atom    1 type  1   force =    -0.00007987    0.00023895    2.69702941
     atom    2 type  2   force =     0.00002025   -0.00003907   -1.58814092
     atom    3 type  3   force =    -0.00003540   -0.00002305   -4.02688068
     atom    4 type  3   force =     0.00000625    0.00000402    7.71616678
     atom    5 type  3   force =    -0.00000762   -0.00000530   -4.02663419
     The core correction contribution to forces
     atom    1 type  1   force =    -0.00000001    0.00000003    0.00006891
     atom    2 type  2   force =     0.00000011   -0.00000028    0.00445041
     atom    3 type  3   force =     0.00000364    0.00000483   -0.06508035
     atom    4 type  3   force =    -0.00000251    0.00000654   -0.02396725
     atom    5 type  3   force =     0.00000635    0.00000631   -0.06513761
     The Hubbard contrib.    to forces
     atom    1 type  1   force =     0.00000000    0.00000000    0.00000000
     atom    2 type  2   force =     0.00000000    0.00000000    0.00000000
     atom    3 type  3   force =     0.00000000    0.00000000    0.00000000
     atom    4 type  3   force =     0.00000000    0.00000000    0.00000000
     atom    5 type  3   force =     0.00000000    0.00000000    0.00000000
     The SCF correction term to forces
     atom    1 type  1   force =     0.00003783   -0.00013103    0.00006454
     atom    2 type  2   force =    -0.00001078    0.00002005    0.00002647
     atom    3 type  3   force =     0.00003172    0.00003001    0.00011387
     atom    4 type  3   force =    -0.00000501   -0.00001104   -0.00013437
     atom    5 type  3   force =     0.00000033   -0.00000141   -0.00006486

     Total force =     0.132967     Total SCF correction =     0.000248

     Computing stress (Cartesian axis) and pressure

     negative rho (up, down):  5.147E-01 0.000E+00
          total   stress  (Ry/bohr**3)                   (kbar)     P=       39.40
  -0.00104226   0.00000000   0.00000000         -153.32        0.00        0.00
   0.00000000  -0.00104226   0.00000000            0.00     -153.32        0.00
   0.00000000   0.00000000   0.00288800            0.00        0.00      424.84

     kinetic stress (kbar)  33826.53      0.00      0.00
                                0.00  33826.53      0.00
                                0.00      0.00  34656.27

     local   stress (kbar)   6686.65      0.07     -0.28
                                0.07   6689.35      0.58
                               -0.28      0.58  14167.90

     nonloc. stress (kbar)   3293.20      0.00      0.00
                                0.00   3293.20      0.00
                                0.00      0.00   3840.85

     hartree stress (kbar)  11308.20     -0.03      0.06
                               -0.03  11307.53     -0.12
                                0.06     -0.12   8224.87

     exc-cor stress (kbar)  20704.10      0.00     -0.00
                                0.00  20704.09      0.00
                               -0.00      0.00  20712.08

     corecor stress (kbar) -30336.48     -0.00     -0.00
                               -0.00 -30336.45     -0.00
                               -0.00     -0.00 -30333.19

     ewald   stress (kbar) -45636.54      0.00      0.00
                                0.00 -45636.54      0.00
                                0.00      0.00 -50843.94

     hubbard stress (kbar)      0.00      0.00      0.00
                                0.00      0.00      0.00
                                0.00      0.00      0.00

     DFT-D   stress (kbar)      0.00      0.00      0.00
                                0.00      0.00      0.00
                                0.00      0.00      0.00

     XDM     stress (kbar)      0.00      0.00      0.00
                                0.00      0.00      0.00
                                0.00      0.00      0.00

     dft-nl  stress (kbar)      0.00      0.00      0.00
                                0.00      0.00      0.00
                                0.00      0.00      0.00

     TS-vdW  stress (kbar)      0.00      0.00      0.00
                                0.00      0.00      0.00
                                0.00      0.00      0.00

[...]

                                0.00      0.00      0.00

     Writing all to output data dir new_calculations/myprefix.save/

     General routines

     Parallel routines

     PAW routines

   This run was terminated on:   9:17:57  21May2023

   JOB DONE.