     Program PWSCF v.7.0 starts on 20May2023 at 17:49:52

     Reading input from espresso_12421.pwi
Warning: card &CELL ignored
Warning: card / ignored

     Current dimensions of program PWSCF are:
     Max number of different atomic species (ntypx) = 10
     Max number of k-points (npk) =  40000
     Max angular momentum in pseudopotentials (lmaxx) =  4
     file Pb.pbe-dn-kjpaw_psl.0.2.2.UPF: wavefunction(s)  6S renormalized

     gamma-point specific algorithms are used
     Message from routine setup:
     using ibrav=0 with symmetry is DISCOURAGED, use correct ibrav instead

     Subspace diagonalization in iterative solution of the eigenvalue problem:
     a serial algorithm will be used

     Using Slab Decomposition

     bravais-lattice index     =            0
     lattice parameter (alat)  =      15.1672  a.u.
     unit-cell volume          =    3288.4600 (a.u.)^3
     number of atoms/cell      =           20
     number of atomic types    =            5
     number of electrons       =       172.00
     number of Kohn-Sham states=          103
     kinetic-energy cutoff     =      30.0000  Ry
     charge density cutoff     =     240.0000  Ry
     scf convergence threshold =      1.0E-06
     mixing beta               =       0.7000
     number of iterations used =            8  plain     mixing
     Exchange-correlation=  SLA  PW   PBX  PBC
                           (   1   4   3   4   0   0   0)

     celldm(1)=  15.167244  celldm(2)=   0.000000  celldm(3)=   0.000000
     celldm(4)=   0.000000  celldm(5)=   0.000000  celldm(6)=   0.000000

     crystal axes: (cart. coord. in units of alat)
               a(1) = (   1.000000   0.000000   0.000000 )
               a(2) = (   0.444653   0.917205   0.000000 )
               a(3) = (   0.319915   0.365947   1.027557 )

     reciprocal axes: (cart. coord. in units 2 pi/alat)
               b(1) = (  1.000000 -0.484791 -0.138685 )
               b(2) = (  0.000000  1.090268 -0.388281 )
               b(3) = (  0.000000  0.000000  0.973182 )

     PseudoPot. # 1 for Tl read from file:
     /home/pragov/projects/rrg-bengioy-ad/pragov/crystal_structure_design/SSSP/Tl_pbe_v1.2.uspp.F.UPF
     MD5 check sum: b76cf1f7e72655a2b2c53cf6385d7059
     Pseudo is Ultrasoft + core correction, Zval = 13.0
     Generated by new atomic code, or converted to UPF format
     Using radial grid of  899 points,  6 beta functions with:
                l(1) =   0
                l(2) =   0
                l(3) =   1
                l(4) =   1
                l(5) =   2
                l(6) =   2
     Q(r) pseudized with  6 coefficients,  rinner =    1.100   1.100   1.100
                                                       1.100   1.100

     PseudoPot. # 2 for Cu read from file:
     /home/pragov/projects/rrg-bengioy-ad/pragov/crystal_structure_design/SSSP/Cu_pbe_v1.2.uspp.F.UPF
     MD5 check sum: 6e991ff952a84172a2a52a1c1e996048
     Pseudo is Ultrasoft + core correction, Zval = 19.0
     Generated by new atomic code, or converted to UPF format
     Using radial grid of  867 points,  6 beta functions with:
                l(1) =   0
                l(2) =   0
                l(3) =   1
                l(4) =   1
                l(5) =   2
                l(6) =   2
     Q(r) pseudized with  8 coefficients,  rinner =    1.150   1.150   1.150
                                                       1.150   1.150

     PseudoPot. # 3 for As read from file:
     /home/pragov/projects/rrg-bengioy-ad/pragov/crystal_structure_design/SSSP/As.pbe-n-rrkjus_psl.0.2.UPF
     MD5 check sum: 767315de957beeeb34f87d97bf945c8f
     Pseudo is Ultrasoft + core correction, Zval =  5.0
     Generated using "atomic" code by A. Dal Corso  v.5.0.99 svn rev. 10869
     Using radial grid of 1209 points,  4 beta functions with:
                l(1) =   0
                l(2) =   0
                l(3) =   1
                l(4) =   1
     Q(r) pseudized with 0 coefficients

     PseudoPot. # 4 for Pb read from file:
     /home/pragov/projects/rrg-bengioy-ad/pragov/crystal_structure_design/SSSP/Pb.pbe-dn-kjpaw_psl.0.2.2.UPF
     MD5 check sum: 9d431e6316058b74ade52399a6cf67da
     Pseudo is Projector augmented-wave + core cor, Zval = 14.0
     Generated using "atomic" code by A. Dal Corso  v.5.0.99 svn rev. 10869
     Shape of augmentation charge: PSQ
     Using radial grid of 1281 points,  6 beta functions with:
                l(1) =   0
                l(2) =   0
                l(3) =   1
                l(4) =   1
                l(5) =   2
                l(6) =   2
     Q(r) pseudized with 0 coefficients

     PseudoPot. # 5 for S  read from file:
     /home/pragov/projects/rrg-bengioy-ad/pragov/crystal_structure_design/SSSP/s_pbe_v1.4.uspp.F.UPF
     MD5 check sum: 88d86576ff6df21479756cfb9bdac1df
     Pseudo is Ultrasoft + core correction, Zval =  6.0
     Generated by new atomic code, or converted to UPF format
     Using radial grid of  907 points,  6 beta functions with:
                l(1) =   0
                l(2) =   0
                l(3) =   1
                l(4) =   1
                l(5) =   2
                l(6) =   2
     Q(r) pseudized with  8 coefficients,  rinner =    1.300   1.300   1.300
                                                       1.300   1.300

     atomic species   valence    mass     pseudopotential
        Tl            13.00   204.38000     Tl( 1.00)
        Cu            19.00    63.54600     Cu( 1.00)
        As             5.00    74.92159     As( 1.00)
        Pb            14.00   207.20000     Pb( 1.00)
        S              6.00    32.06000     S ( 1.00)

      2 Sym. Ops., with inversion, found

                                    s                        frac. trans.

      isym =  1     identity

 cryst.   s( 1) = (     1          0          0      )
                  (     0          1          0      )
                  (     0          0          1      )

 cart.    s( 1) = (  1.0000000  0.0000000 -0.0000000 )
                  (  0.0000000  1.0000000 -0.0000000 )
                  (  0.0000000  0.0000000  1.0000000 )

      isym =  2     inversion

 cryst.   s( 2) = (    -1          0          0      )
                  (     0         -1          0      )
                  (     0          0         -1      )

 cart.    s( 2) = ( -1.0000000 -0.0000000  0.0000000 )
                  (  0.0000000 -1.0000000  0.0000000 )
                  (  0.0000000  0.0000000 -1.0000000 )

   Cartesian axes

     site n.     atom                  positions (alat units)
         1           Tl  tau(   1) = (   1.0736372   0.3694831   0.6428899  )
         2           Tl  tau(   2) = (   0.6909299   0.9136694   0.3846669  )
         3           Cu  tau(   3) = (   0.6226333   0.3779732   0.4174306  )
         4           Cu  tau(   4) = (   1.1419338   0.9051793   0.6101263  )
         5           As  tau(   5) = (   0.6585669   0.0887002   0.1453356  )
         6           As  tau(   6) = (   1.1060002   1.1944523   0.8822213  )
         7           As  tau(   7) = (   1.3301726   0.6858154   0.3217126  )
         8           As  tau(   8) = (   0.4343945   0.5973370   0.7058442  )
         9           Pb  tau(   9) = (   0.9792689   0.4552645   0.0966787  )
        10           Pb  tau(  10) = (   0.7852982   0.8278879   0.9308782  )
        11           S   tau(  11) = (   1.2449138   0.7634679   0.0566441  )
        12           S   tau(  12) = (   0.5196534   0.5196846   0.9709128  )
        13           S   tau(  13) = (   0.8271100   0.2007039   0.3413821  )
        14           S   tau(  14) = (   0.9374571   1.0824486   0.6861747  )
        15           S   tau(  15) = (   0.7092327   0.6760658   0.0825488  )
        16           S   tau(  16) = (   1.0553345   0.6070866   0.9450081  )
        17           S   tau(  17) = (   1.0729121   0.6888363   0.4384082  )
        18           S   tau(  18) = (   0.6916550   0.5943161   0.5891487  )
        19           S   tau(  19) = (   1.3826010   0.8716184   0.7610446  )
        20           S   tau(  20) = (   0.3819662   0.4115341   0.2665123  )

   Crystallographic axes

     site n.     atom                  positions (cryst. coord.)
         1           Tl  tau(   1) = (  0.8053560  0.1532140  0.6256490  )
         2           Tl  tau(   2) = (  0.1946440  0.8467860  0.3743510  )
         3           Cu  tau(   3) = (  0.3815040  0.2500120  0.4062360  )
         4           Cu  tau(   4) = (  0.6184960  0.7499880  0.5937640  )
         5           As  tau(   5) = (  0.5954100  0.0402760  0.1414380  )
         6           As  tau(   6) = (  0.4045900  0.9597240  0.8585620  )
         7           As  tau(   7) = (  0.9530790  0.6228080  0.3130850  )
         8           As  tau(   8) = (  0.0469210  0.3771920  0.6869150  )
         9           Pb  tau(   9) = (  0.7451530  0.4588220  0.0940860  )
        10           Pb  tau(  10) = (  0.2548470  0.5411780  0.9059140  )
        11           S   tau(  11) = (  0.8669360  0.8103910  0.0551250  )
        12           S   tau(  12) = (  0.1330640  0.1896090  0.9448750  )
        13           S   tau(  13) = (  0.6824660  0.0862690  0.3322270  )
        14           S   tau(  14) = (  0.3175340  0.9137310  0.6677730  )
        15           S   tau(  15) = (  0.3700340  0.7050410  0.0803350  )
        16           S   tau(  16) = (  0.6299660  0.2949590  0.9196650  )
        17           S   tau(  17) = (  0.6781700  0.5807910  0.4266510  )
        18           S   tau(  18) = (  0.3218300  0.4192090  0.5733490  )
        19           S   tau(  19) = (  0.8545030  0.6547990  0.7406350  )
        20           S   tau(  20) = (  0.1454970  0.3452010  0.2593650  )

     number of k points=     1  Methfessel-Paxton smearing, width (Ry)=  0.0010
                       cart. coord. in units 2pi/alat
        k(    1) = (   0.0000000   0.0000000   0.0000000), wk =   2.0000000

                       cryst. coord.
        k(    1) = (   0.0000000   0.0000000   0.0000000), wk =   2.0000000

     Check: negative core charge=   -0.000002

     Initial potential from superposition of free atoms

     starting charge     169.9842, renormalised to     172.0000

     negative rho (up, down):  1.019E-01 0.000E+00
     Starting wfcs are  118 randomized atomic wfcs
     Checking if some PAW data can be deallocated...

     Self-consistent Calculation

     iteration #  1     ecut=    30.00 Ry     beta= 0.70
     Davidson diagonalization with overlap

     ethr =  1.00E-02,  avg # of iterations =  2.0

     negative rho (up, down):  1.006E-01 0.000E+00

     total energy              =   -3148.50262871 Ry
     estimated scf accuracy    <       6.86230098 Ry

[...]

     total energy              =   -3152.65048194 Ry
     estimated scf accuracy    <       0.00000387 Ry

     iteration # 15     ecut=    30.00 Ry     beta= 0.70
     Davidson diagonalization with overlap

     ethr =  2.25E-09,  avg # of iterations =  5.0

[...]

     End of self-consistent calculation

          k = 0.0000 0.0000 0.0000 (  4557 PWs)   bands (ev):

  -105.0754-105.0753 -62.5323 -62.5318 -62.5078 -62.5076 -62.3444 -62.3440
   -10.3321 -10.2894 -10.2833 -10.2794 -10.2739 -10.2723 -10.2649 -10.2573
   -10.2545 -10.2470  -8.4801  -8.0642  -7.4435  -7.3169  -6.3261  -6.2086
    -6.1467  -6.0534  -5.9688  -5.9626  -4.4838  -4.4703  -4.4640  -4.4469
    -4.4387  -4.4305  -4.4244  -4.3949  -4.3867  -4.3751  -3.4510  -3.1840
    -3.0359  -2.3085  -1.6609  -1.0815   0.6423   0.8621   1.4053   1.4549
     1.5123   1.7214   1.8486   1.9544   2.1561   2.2524   2.3777   2.6537
     2.6759   2.9497   3.0312   3.3528   3.5491   3.6374   3.7325   3.8308
     3.8882   4.1147   4.1482   4.2155   4.2743   4.5071   4.6116   4.6432
     4.7056   4.7711   4.9525   5.1872   5.2214   5.2851   5.2981   5.4372
     5.5515   5.5568   5.7554   5.8296   5.9757   6.1725   7.6564   7.9060
     8.1731   8.2820   8.5256   8.8676   8.9328   9.1234   9.2534   9.5057
     9.7082   9.7177   9.9987  10.1239  10.2220  10.2350  10.4527

     occupation numbers
     1.0000   1.0000   1.0000   1.0000   1.0000   1.0000   1.0000   1.0000
     1.0000   1.0000   1.0000   1.0000   1.0000   1.0000   1.0000   1.0000
     1.0000   1.0000   1.0000   1.0000   1.0000   1.0000   1.0000   1.0000
     1.0000   1.0000   1.0000   1.0000   1.0000   1.0000   1.0000   1.0000
     1.0000   1.0000   1.0000   1.0000   1.0000   1.0000   1.0000   1.0000
     1.0000   1.0000   1.0000   1.0000   1.0000   1.0000   1.0000   1.0000
     1.0000   1.0000   1.0000   1.0000   1.0000   1.0000   1.0000   1.0000
     1.0000   1.0000   1.0000   1.0000   1.0000   1.0000   1.0000   1.0000
     1.0000   1.0000   1.0000   1.0000   1.0000   1.0000   1.0000   1.0000
     1.0000   1.0000   1.0000   1.0000   1.0000   1.0000   1.0000   1.0000
     1.0000   1.0000   1.0000   1.0000   1.0000   1.0000  -0.0000  -0.0000
    -0.0000  -0.0000  -0.0000  -0.0000  -0.0000  -0.0000  -0.0000  -0.0000
    -0.0000  -0.0000  -0.0000  -0.0000  -0.0000  -0.0000  -0.0000

     the Fermi energy is     6.9700 ev

!    total energy              =   -3152.65048283 Ry
     estimated scf accuracy    <       0.00000050 Ry
     smearing contrib. (-TS)   =       0.00000000 Ry
     internal energy E=F+TS    =   -3152.65048283 Ry

     The total energy is F=E-TS. E is the sum of the following terms:
     one-electron contribution =   -1097.24922638 Ry
     hartree contribution      =     639.09259518 Ry
     xc contribution           =    -411.32025804 Ry
     ewald contribution        =    -826.21955507 Ry
     one-center paw contrib.   =   -1456.95403851 Ry
      -> PAW hartree energy AE =     193.71118478 Ry
      -> PAW hartree energy PS =    -193.28980913 Ry
      -> PAW xc energy AE      =   -1544.71117229 Ry
      -> PAW xc energy PS      =      87.33575812 Ry
      -> total E_H with PAW    =     639.51397083 Ry
      -> total E_XC with PAW   =   -1868.69567221 Ry

     convergence has been achieved in  15 iterations

     negative rho (up, down):  9.982E-02 0.000E+00

     Forces acting on atoms (cartesian axes, Ry/au):

     atom    1 type  1   force =    -0.00429950    0.00356560    0.00381510
     atom    2 type  1   force =     0.00429950   -0.00356560   -0.00381510
     atom    3 type  2   force =    -0.00884386    0.00003205   -0.00506766
     atom    4 type  2   force =     0.00884386   -0.00003205    0.00506766
     atom    5 type  3   force =    -0.00963351    0.00319612   -0.00958036
     atom    6 type  3   force =     0.00963351   -0.00319612    0.00958036
     atom    7 type  3   force =    -0.00225079    0.01546454   -0.00116923
     atom    8 type  3   force =     0.00225079   -0.01546454    0.00116923
     atom    9 type  4   force =     0.01166148   -0.00037938    0.00011919
     atom   10 type  4   force =    -0.01166148    0.00037938   -0.00011919
     atom   11 type  5   force =     0.00341204   -0.01368950   -0.01523150
     atom   12 type  5   force =    -0.00341204    0.01368950    0.01523150
     atom   13 type  5   force =     0.01152409    0.00299077    0.00146550
     atom   14 type  5   force =    -0.01152409   -0.00299077   -0.00146550
     atom   15 type  5   force =     0.00386452    0.00499943   -0.01481547
     atom   16 type  5   force =    -0.00386452   -0.00499943    0.01481547
     atom   17 type  5   force =    -0.00740645   -0.01121704    0.00455221
     atom   18 type  5   force =     0.00740645    0.01121704   -0.00455221
     atom   19 type  5   force =    -0.01632089    0.00822621    0.00542795
     atom   20 type  5   force =     0.01632089   -0.00822621   -0.00542795
     The non-local contrib.  to forces
     atom    1 type  1   force =     0.00165858    0.14781608    0.01579113
     atom    2 type  1   force =    -0.00165858   -0.14781608   -0.01579113
     atom    3 type  2   force =    -0.04265855   -0.09688238    0.05908775
     atom    4 type  2   force =     0.04265855    0.09688238   -0.05908775
     atom    5 type  3   force =     0.43248525    0.10140660   -0.10638700
     atom    6 type  3   force =    -0.43248525   -0.10140660    0.10638700
     atom    7 type  3   force =    -0.33595863   -0.24382842   -0.19679870
     atom    8 type  3   force =     0.33595863    0.24382842    0.19679870
     atom    9 type  4   force =    -0.17396662    0.03331594   -0.11797725
     atom   10 type  4   force =     0.17396662   -0.03331594    0.11797725
     atom   11 type  5   force =    -0.05278152    0.04773123    0.23225574
     atom   12 type  5   force =     0.05278152   -0.04773123   -0.23225574
     atom   13 type  5   force =    -0.20478748   -0.02005964   -0.10395666
     atom   14 type  5   force =     0.20478748    0.02005964    0.10395666
     atom   15 type  5   force =     0.13817643    0.07475211   -0.15094436
     atom   16 type  5   force =    -0.13817643   -0.07475211    0.15094436
     atom   17 type  5   force =     0.21273014    0.08646187   -0.00817531
     atom   18 type  5   force =    -0.21273014   -0.08646187    0.00817531
     atom   19 type  5   force =    -0.07473019   -0.19896450   -0.08230407
     atom   20 type  5   force =     0.07473019    0.19896450    0.08230407
     The ionic contribution  to forces
     atom    1 type  1   force =     3.01819902   -2.63620424    4.35184646
     atom    2 type  1   force =    -3.01819901    2.63620424   -4.35184646
     atom    3 type  2   force =    -3.02475196    4.66531871   -2.09601344
     atom    4 type  2   force =     3.02475196   -4.66531871    2.09601344
     atom    5 type  3   force =    -2.05607621   -2.96786101   -3.31545274
     atom    6 type  3   force =     2.05607621    2.96786102    3.31545274
     atom    7 type  3   force =     1.50519675    1.40583910   -1.71625379
     atom    8 type  3   force =    -1.50519675   -1.40583910    1.71625379
     atom    9 type  4   force =     5.18215691   -0.33010583    0.19157835
     atom   10 type  4   force =    -5.18215692    0.33010583   -0.19157835
     atom   11 type  5   force =     0.68019229    1.66588961   -2.98729313
     atom   12 type  5   force =    -0.68019229   -1.66588961    2.98729313
     atom   13 type  5   force =     9.10001125   -4.42335087   -4.45403108
     atom   14 type  5   force =    -9.10001125    4.42335087    4.45403108
     atom   15 type  5   force =    -0.79376625    3.83653285    0.71980753
     atom   16 type  5   force =     0.79376626   -3.83653285   -0.71980753
     atom   17 type  5   force =    -2.94023891   -5.53251749   -5.06941020
     atom   18 type  5   force =     2.94023891    5.53251749    5.06941020
     atom   19 type  5   force =     7.46310299    1.22225730    3.97557970
     atom   20 type  5   force =    -7.46310299   -1.22225730   -3.97557970
     The local contribution  to forces
     atom    1 type  1   force =    -3.02408924    2.49286471   -4.36350195
     atom    2 type  1   force =     3.02400612   -2.49294865    4.36387068
     atom    3 type  2   force =     3.05939087   -4.56842483    2.03221299
     atom    4 type  2   force =    -3.05919986    4.56833108   -2.03158098
     atom    5 type  3   force =     1.65381623    2.87675413    3.40211472
     atom    6 type  3   force =    -1.65376748   -2.87687410   -3.40222532
     atom    7 type  3   force =    -1.20132711   -1.16965666    1.89296024
     atom    8 type  3   force =     1.20128860    1.16978603   -1.89293192
     atom    9 type  4   force =    -5.00245635    0.29689928   -0.07673415
     atom   10 type  4   force =     5.00239943   -0.29659968    0.07604947
     atom   11 type  5   force =    -0.62710954   -1.72451179    2.75215519
     atom   12 type  5   force =     0.62704646    1.72449637   -2.75233721
     atom   13 type  5   force =    -8.89441772    4.44522977    4.55390906
     atom   14 type  5   force =     8.89444168   -4.44526168   -4.55371230
     atom   15 type  5   force =     0.66733810   -3.90219663   -0.59180283
     atom   16 type  5   force =    -0.66727950    3.90220561    0.59158486
     atom   17 type  5   force =     2.73104819    5.43939844    5.08174314
     atom   18 type  5   force =    -2.73103785   -5.43942177   -5.08161340
     atom   19 type  5   force =    -7.40868771   -1.02545397   -3.89235051
     atom   20 type  5   force =     7.40870316    1.02551109    3.89238936
     The core correction contribution to forces
     atom    1 type  1   force =    -0.00035606   -0.00082721   -0.00025488
     atom    2 type  1   force =     0.00035576    0.00082524    0.00025689
     atom    3 type  2   force =    -0.00003830    0.00006040   -0.00010805
     atom    4 type  2   force =     0.00003824   -0.00006033    0.00010790
     atom    5 type  3   force =    -0.03982870   -0.00710277    0.01000352
     atom    6 type  3   force =     0.03982919    0.00709842   -0.01000522
     atom    7 type  3   force =     0.02971320    0.02328765    0.01897984
     atom    8 type  3   force =    -0.02971369   -0.02328356   -0.01897922
     atom    9 type  4   force =     0.00517724   -0.00031900    0.00361274
     atom   10 type  4   force =    -0.00517894    0.00032509   -0.00362532
     atom   11 type  5   force =     0.00290987   -0.00253166   -0.01246451
     atom   12 type  5   force =    -0.00291047    0.00253159    0.01246575
     atom   13 type  5   force =     0.01088171    0.00118601    0.00542040
     atom   14 type  5   force =    -0.01088155   -0.00118543   -0.00541719
     atom   15 type  5   force =    -0.00768728   -0.00401684    0.00788708
     atom   16 type  5   force =     0.00768721    0.00401648   -0.00788806
     atom   17 type  5   force =    -0.01125740   -0.00469275    0.00037420
     atom   18 type  5   force =     0.01125953    0.00469059   -0.00037399
     atom   19 type  5   force =     0.00403794    0.01058803    0.00454998
     atom   20 type  5   force =    -0.00403748   -0.01058876   -0.00454965
     The Hubbard contrib.    to forces
     atom    1 type  1   force =     0.00000000    0.00000000    0.00000000
     atom    2 type  1   force =     0.00000000    0.00000000    0.00000000
     atom    3 type  2   force =     0.00000000    0.00000000    0.00000000
     atom    4 type  2   force =     0.00000000    0.00000000    0.00000000
     atom    5 type  3   force =     0.00000000    0.00000000    0.00000000
     atom    6 type  3   force =     0.00000000    0.00000000    0.00000000
     atom    7 type  3   force =     0.00000000    0.00000000    0.00000000
     atom    8 type  3   force =     0.00000000    0.00000000    0.00000000
     atom    9 type  4   force =     0.00000000    0.00000000    0.00000000
     atom   10 type  4   force =     0.00000000    0.00000000    0.00000000
     atom   11 type  5   force =     0.00000000    0.00000000    0.00000000
     atom   12 type  5   force =     0.00000000    0.00000000    0.00000000
     atom   13 type  5   force =     0.00000000    0.00000000    0.00000000
     atom   14 type  5   force =     0.00000000    0.00000000    0.00000000
     atom   15 type  5   force =     0.00000000    0.00000000    0.00000000
     atom   16 type  5   force =     0.00000000    0.00000000    0.00000000
     atom   17 type  5   force =     0.00000000    0.00000000    0.00000000
     atom   18 type  5   force =     0.00000000    0.00000000    0.00000000
     atom   19 type  5   force =     0.00000000    0.00000000    0.00000000
     atom   20 type  5   force =     0.00000000    0.00000000    0.00000000
     The SCF correction term to forces
     atom    1 type  1   force =     0.00028039   -0.00008575   -0.00008427
     atom    2 type  1   force =    -0.00021259    0.00016763   -0.00032368
     atom    3 type  2   force =    -0.00085312   -0.00001748   -0.00027232
     atom    4 type  2   force =     0.00052777    0.00015589   -0.00041035
     atom    5 type  3   force =    -0.00003153   -0.00000839    0.00013920
     atom    6 type  3   force =    -0.00002064    0.00011759   -0.00003078
     atom    7 type  3   force =     0.00012609   -0.00016919   -0.00005534
     atom    8 type  3   force =    -0.00008491    0.00005159    0.00002935
     atom    9 type  4   force =     0.00073905   -0.00017534   -0.00034485
     atom   10 type  4   force =    -0.00070293   -0.00014148    0.00107340
     atom   11 type  5   force =     0.00019459   -0.00026869    0.00012399
     atom   12 type  5   force =    -0.00014360    0.00028058    0.00007436
     atom   13 type  5   force =    -0.00015741   -0.00001491    0.00014982
     atom   14 type  5   force =     0.00014581    0.00004542   -0.00029770
     atom   15 type  5   force =    -0.00019572   -0.00006992    0.00022986
     atom   16 type  5   force =     0.00013870    0.00006558   -0.00002540
     atom   17 type  5   force =     0.00032258    0.00011602    0.00002623
     atom   18 type  5   force =    -0.00031295   -0.00012426   -0.00014448
     atom   19 type  5   force =    -0.00004337   -0.00020168   -0.00004753
     atom   20 type  5   force =     0.00002856    0.00014324    0.00000759

     Total force =     0.065199     Total SCF correction =     0.002198

     Computing stress (Cartesian axis) and pressure

     negative rho (up, down):  9.982E-02 0.000E+00
          total   stress  (Ry/bohr**3)                   (kbar)     P=      -54.83
  -0.00035223   0.00001833   0.00004096          -51.81        2.70        6.03
   0.00001833  -0.00028868   0.00000505            2.70      -42.47        0.74
   0.00004096   0.00000505  -0.00047736            6.03        0.74      -70.22

     kinetic stress (kbar)   8026.85     69.33     -9.30
                               69.33   7962.86    -40.97
                               -9.30    -40.97   7948.50

     local   stress (kbar)  -6197.80   1868.79   -513.87
                             1868.79  -8169.46   -187.70
                             -513.87   -187.70  -6490.08

     nonloc. stress (kbar)   5340.36      0.77      3.71
                                0.77   5337.66    -13.19
                                3.71    -13.19   5336.98

     hartree stress (kbar)   9230.98   -667.16    165.19
                             -667.16  10072.21   -189.28
                              165.19   -189.28   9285.80

     exc-cor stress (kbar)   6120.44     -1.50      0.81
                               -1.50   6122.53      1.40
                                0.81      1.40   6121.66

     corecor stress (kbar)  -9753.72     -2.11     -0.48
                               -2.11  -9750.37      0.12
                               -0.48      0.12  -9750.02

     ewald   stress (kbar) -12818.93  -1265.43    359.96
                            -1265.43 -11617.90    430.37
                              359.96    430.37 -12523.06

     hubbard stress (kbar)      0.00      0.00      0.00
                                0.00      0.00      0.00
                                0.00      0.00      0.00

     DFT-D   stress (kbar)      0.00      0.00      0.00
                                0.00      0.00      0.00
                                0.00      0.00      0.00

     XDM     stress (kbar)      0.00      0.00      0.00
                                0.00      0.00      0.00
                                0.00      0.00      0.00

     dft-nl  stress (kbar)      0.00      0.00      0.00
                                0.00      0.00      0.00
                                0.00      0.00      0.00

     TS-vdW  stress (kbar)      0.00      0.00      0.00
                                0.00      0.00      0.00
                                0.00      0.00      0.00

[...]

                                0.00      0.00      0.00

     Writing all to output data dir new_calculations/myprefix.save/

     General routines

     Parallel routines

     PAW routines

   This run was terminated on:  17:50:44  20May2023

   JOB DONE.