     Program PWSCF v.7.0 starts on 20May2023 at 10:12:33

     Reading input from espresso_3377.pwi
Warning: card &CELL ignored
Warning: card / ignored

     Current dimensions of program PWSCF are:
     Max number of different atomic species (ntypx) = 10
     Max number of k-points (npk) =  40000
     Max angular momentum in pseudopotentials (lmaxx) =  4

     gamma-point specific algorithms are used
     Message from routine setup:
     using ibrav=0 with symmetry is DISCOURAGED, use correct ibrav instead

     Subspace diagonalization in iterative solution of the eigenvalue problem:
     a serial algorithm will be used

     Using Slab Decomposition

     bravais-lattice index     =            0
     lattice parameter (alat)  =      14.4432  a.u.
     unit-cell volume          =    1207.4968 (a.u.)^3
     number of atoms/cell      =           16
     number of atomic types    =            3
     number of electrons       =       138.00
     number of Kohn-Sham states=           83
     kinetic-energy cutoff     =      30.0000  Ry
     charge density cutoff     =     240.0000  Ry
     scf convergence threshold =      1.0E-06
     mixing beta               =       0.7000
     number of iterations used =            8  plain     mixing
     Exchange-correlation= SLA  PW   PBE  PBE
                           (   1   4   3   4   0   0   0)

     celldm(1)=  14.443204  celldm(2)=   0.000000  celldm(3)=   0.000000
     celldm(4)=   0.000000  celldm(5)=   0.000000  celldm(6)=   0.000000

     crystal axes: (cart. coord. in units of alat)
               a(1) = (   1.000000   0.000000   0.000000 )
               a(2) = (  -0.500000   0.866025   0.000000 )
               a(3) = (   0.000000   0.000000   0.462769 )

     reciprocal axes: (cart. coord. in units 2 pi/alat)
               b(1) = (  1.000000  0.577350  0.000000 )
               b(2) = (  0.000000  1.154701  0.000000 )
               b(3) = (  0.000000  0.000000  2.160903 )

     PseudoPot. # 1 for Zr read from file:
     /home/pragov/projects/rrg-bengioy-ad/pragov/crystal_structure_design/SSSP/Zr_pbe_v1.uspp.F.UPF
     MD5 check sum: 5db81b1e868ab7776c4564c113de050b
     Pseudo is Ultrasoft + core correction, Zval = 12.0
     Generated by new atomic code, or converted to UPF format
     Using radial grid of  887 points,  6 beta functions with:
                l(1) =   0
                l(2) =   0
                l(3) =   1
                l(4) =   1
                l(5) =   2
                l(6) =   2
     Q(r) pseudized with  6 coefficients,  rinner =    1.200   1.200   1.200
                                                       1.200   1.200

     PseudoPot. # 2 for B  read from file:
     /home/pragov/projects/rrg-bengioy-ad/pragov/crystal_structure_design/SSSP/b_pbe_v1.4.uspp.F.UPF
     MD5 check sum: cc6de2960df11db49a60e589f9ebb39b
     Pseudo is Ultrasoft + core correction, Zval =  3.0
     Generated by new atomic code, or converted to UPF format
     Using radial grid of  781 points,  4 beta functions with:
                l(1) =   0
                l(2) =   0
                l(3) =   1
                l(4) =   1
     Q(r) pseudized with  8 coefficients,  rinner =    1.100   1.100   1.100

     PseudoPot. # 3 for Ir read from file:
     /home/pragov/projects/rrg-bengioy-ad/pragov/crystal_structure_design/SSSP/Ir_pbe_v1.2.uspp.F.UPF
     MD5 check sum: 8836f839c3459d2b385c504ce6d91f2c
     Pseudo is Ultrasoft + core correction, Zval = 15.0
     Generated by new atomic code, or converted to UPF format
     Using radial grid of  983 points,  7 beta functions with:
                l(1) =   0
                l(2) =   0
                l(3) =   1
                l(4) =   1
                l(5) =   1
                l(6) =   2
                l(7) =   2
     Q(r) pseudized with  8 coefficients,  rinner =    1.400   1.400   1.400
                                                       1.400   1.400

     atomic species   valence    mass     pseudopotential
        Zr            12.00    91.22400     Zr( 1.00)
        B              3.00    10.81000     B ( 1.00)
        Ir            15.00   192.21700     Ir( 1.00)

     12 Sym. Ops., with inversion, found ( 6 have fractional translation)

                                    s                        frac. trans.

      isym =  1     identity

 cryst.   s( 1) = (     1          0          0      )
                  (     0          1          0      )
                  (     0          0          1      )

 cart.    s( 1) = (  1.0000000 -0.0000000  0.0000000 )
                  (  0.0000000  1.0000000  0.0000000 )
                  (  0.0000000  0.0000000  1.0000000 )

      isym =  2     180 deg rotation - cart. axis [0,0,1]

 cryst.   s( 2) = (    -1          0          0      )    f =( -0.0000000 )
                  (     0         -1          0      )       (  0.0000000 )
                  (     0          0          1      )       ( -0.5000000 )

 cart.    s( 2) = ( -1.0000000  0.0000000  0.0000000 )    f =( -0.0000000 )
                  (  0.0000000 -1.0000000  0.0000000 )       (  0.0000000 )
                  (  0.0000000  0.0000000  1.0000000 )       ( -0.2313847 )

      isym =  3      60 deg rotation - cryst. axis [0,0,1]

[...]

      isym =  6     120 deg rotation - cryst. axis [0,0,-1]

[...]

      isym =  7     inversion

 cryst.   s( 7) = (    -1          0          0      )
                  (     0         -1          0      )
                  (     0          0         -1      )

 cart.    s( 7) = ( -1.0000000  0.0000000  0.0000000 )
                  (  0.0000000 -1.0000000  0.0000000 )
                  (  0.0000000  0.0000000 -1.0000000 )

      isym =  8     inv. 180 deg rotation - cart. axis [0,0,1]

[...]

      isym =  9     inv.  60 deg rotation - cryst. axis [0,0,1]

 cryst.   s( 9) = (    -1         -1          0      )    f =(  0.0000010 )
                  (     1          0          0      )       ( -0.0000000 )
                  (     0          0         -1      )       (  0.5000000 )

 cart.    s( 9) = ( -0.4999999  0.8660255  0.0000000 )    f =(  0.0000010 )
                  ( -0.8660254 -0.5000001  0.0000000 )       ( -0.0000000 )
                  (  0.0000000  0.0000000 -1.0000000 )       (  0.2313847 )

[...]

 cryst.   s(10) = (     0          1          0      )    f =( -0.0000000 )
                  (    -1         -1          0      )       ( -0.0000010 )
                  (     0          0         -1      )       (  0.5000000 )

 cart.    s(10) = ( -0.5000001 -0.8660255  0.0000000 )    f =(  0.0000005 )
                  (  0.8660254 -0.4999999  0.0000000 )       ( -0.0000009 )
                  (  0.0000000  0.0000000 -1.0000000 )       (  0.2313847 )

[...]

 cryst.   s(11) = (     0         -1          0      )
                  (     1          1          0      )
                  (     0          0         -1      )

 cart.    s(11) = (  0.5000001  0.8660255  0.0000000 )
                  ( -0.8660254  0.4999999  0.0000000 )
                  (  0.0000000  0.0000000 -1.0000000 )

      isym = 12     inv. 120 deg rotation - cryst. axis [0,0,-1]

 cryst.   s(12) = (     1          1          0      )
                  (    -1          0          0      )
                  (     0          0         -1      )

 cart.    s(12) = (  0.4999999 -0.8660255  0.0000000 )
                  (  0.8660254  0.5000001  0.0000000 )
                  (  0.0000000  0.0000000 -1.0000000 )

   Cartesian axes

     site n.     atom                  positions (alat units)
         1           Zr  tau(   1) = (  -0.0000006   0.5773505   0.1156924  )
         2           Zr  tau(   2) = (   0.5000005   0.2886748   0.3470771  )
         3           B   tau(   3) = (  -0.0779541   0.8215619   0.3470771  )
         4           B   tau(   4) = (  -0.1725165   0.3877343   0.3470771  )
         5           B   tau(   5) = (   0.2504705   0.5227546   0.3470771  )
         6           B   tau(   6) = (   0.5779540   0.0444635   0.1156924  )
         7           B   tau(   7) = (   0.6725165   0.4782911   0.1156924  )
         8           B   tau(   8) = (   0.2495295   0.3432708   0.1156924  )
         9           B   tau(   9) = (   0.0000000   0.0000000   0.2313847  )
        10           B   tau(  10) = (   0.0000000   0.0000000   0.0000000  )
        11           Ir  tau(  11) = (  -0.2986236   0.6432897   0.3470771  )
        12           Ir  tau(  12) = (   0.0922065   0.2857650   0.3470771  )
        13           Ir  tau(  13) = (   0.2064169   0.8029960   0.3470771  )
        14           Ir  tau(  14) = (   0.7986235   0.2227357   0.1156924  )
        15           Ir  tau(  15) = (   0.4077934   0.5802604   0.1156924  )
        16           Ir  tau(  16) = (   0.2935830   0.0630293   0.1156924  )

   Crystallographic axes

     site n.     atom                  positions (cryst. coord.)
         1           Zr  tau(   1) = (  0.3333330  0.6666670  0.2500000  )
         2           Zr  tau(   2) = (  0.6666670  0.3333330  0.7500000  )
         3           B   tau(   3) = (  0.3963750  0.9486580  0.7500000  )
         4           B   tau(   4) = (  0.0513420  0.4477170  0.7500000  )
         5           B   tau(   5) = (  0.5522830  0.6036250  0.7500000  )
         6           B   tau(   6) = (  0.6036250  0.0513420  0.2500000  )
         7           B   tau(   7) = (  0.9486580  0.5522830  0.2500000  )
         8           B   tau(   8) = (  0.4477170  0.3963750  0.2500000  )
         9           B   tau(   9) = (  0.0000000  0.0000000  0.5000000  )
        10           B   tau(  10) = (  0.0000000  0.0000000  0.0000000  )
        11           Ir  tau(  11) = (  0.0727800  0.7428070  0.7500000  )
        12           Ir  tau(  12) = (  0.2571930  0.3299730  0.7500000  )
        13           Ir  tau(  13) = (  0.6700270  0.9272200  0.7500000  )
        14           Ir  tau(  14) = (  0.9272200  0.2571930  0.2500000  )
        15           Ir  tau(  15) = (  0.7428070  0.6700270  0.2500000  )
        16           Ir  tau(  16) = (  0.3299730  0.0727800  0.2500000  )

     number of k points=     1  Methfessel-Paxton smearing, width (Ry)=  0.0010
                       cart. coord. in units 2pi/alat
        k(    1) = (   0.0000000   0.0000000   0.0000000), wk =   2.0000000

                       cryst. coord.
        k(    1) = (   0.0000000   0.0000000   0.0000000), wk =   2.0000000

     Check: negative core charge=   -0.000001

     Initial potential from superposition of free atoms

     starting charge     134.9933, renormalised to     138.0000

     negative rho (up, down):  2.324E+00 0.000E+00
     Starting wfcs are  130 randomized atomic wfcs

     Self-consistent Calculation

     iteration #  1     ecut=    30.00 Ry     beta= 0.70
     Davidson diagonalization with overlap

     ethr =  1.00E-02,  avg # of iterations =  2.0

     negative rho (up, down):  1.788E+00 0.000E+00

     total energy              =   -1329.84631245 Ry
     estimated scf accuracy    <      17.92883294 Ry

[...]

     total energy              =   -1340.71308239 Ry
     estimated scf accuracy    <       0.00000368 Ry

     iteration # 16     ecut=    30.00 Ry     beta= 0.70
     Davidson diagonalization with overlap

     ethr =  2.67E-09,  avg # of iterations =  2.0

[...]

     End of self-consistent calculation

          k = 0.0000 0.0000 0.0000 (  1674 PWs)   bands (ev):

   -30.9496 -30.9140 -30.9132 -30.8497 -30.8488 -30.8136 -30.6452 -30.6008
   -30.6000 -30.5250 -30.5243 -30.5222 -30.3933 -30.3834 -30.3829 -30.3821
   -30.3747 -30.3739 -29.9694 -29.9607  -8.1171  -8.1170  -8.0996  -8.0995
    -8.0508  -8.0473   6.2219   8.4972   8.4981   8.7908   9.7688   9.7695
    10.9409  11.8266  12.4169  12.4174  12.5725  12.6301  12.6310  12.6587
    12.6593  13.1194  13.4684  13.7985  14.1226  14.4821  14.4822  14.5914
    14.5919  14.8385  14.8390  15.2559  15.2566  15.9768  15.9770  16.0258
    16.0327  16.0333  16.4321  16.6149  16.6826  16.6830  17.0030  17.0233
    17.7608  17.7613  18.5634  18.5637  18.6702  19.0309  19.5666  20.2905
    20.2907  20.5367  20.8996  20.8998  21.1115  21.1119  22.7264  23.1614
    23.1618  23.2256  23.2262

     occupation numbers
     1.0000   1.0000   1.0000   1.0000   1.0000   1.0000   1.0000   1.0000
     1.0000   1.0000   1.0000   1.0000   1.0000   1.0000   1.0000   1.0000
     1.0000   1.0000   1.0000   1.0000   1.0000   1.0000   1.0000   1.0000
     1.0000   1.0000   1.0000   1.0000   1.0000   1.0000   1.0000   1.0000
     1.0000   1.0000   1.0000   1.0000   1.0000   1.0000   1.0000   1.0000
     1.0000   1.0000   1.0000   1.0000   1.0000   1.0000   1.0000   1.0000
     1.0000   1.0000   1.0000   1.0000   1.0000   1.0000   1.0000   1.0000
     1.0000   1.0000   1.0000   1.0000   1.0000   1.0000   1.0000   1.0000
     1.0000   1.0000   1.0000   1.0000   1.0000  -0.0000  -0.0000  -0.0000
    -0.0000  -0.0000  -0.0000  -0.0000  -0.0000  -0.0000  -0.0000  -0.0000
    -0.0000  -0.0000  -0.0000

     the Fermi energy is    18.8958 ev

!    total energy              =   -1340.71308218 Ry
     estimated scf accuracy    <       0.00000097 Ry
     smearing contrib. (-TS)   =       0.00000000 Ry
     internal energy E=F+TS    =   -1340.71308218 Ry

     The total energy is F=E-TS. E is the sum of the following terms:
     one-electron contribution =    -141.66028162 Ry
     hartree contribution      =     171.89140213 Ry
     xc contribution           =    -362.20222596 Ry
     ewald contribution        =   -1008.74197672 Ry

     convergence has been achieved in  16 iterations

     negative rho (up, down):  1.991E+00 0.000E+00

     Forces acting on atoms (cartesian axes, Ry/au):

     atom    1 type  1   force =    -0.00000000   -0.00000000    0.00000000
     atom    2 type  1   force =     0.00000000    0.00000000    0.00000000
     atom    3 type  2   force =     0.01172191    0.02044649    0.00000000
     atom    4 type  2   force =    -0.02356813   -0.00007177   -0.00000000
     atom    5 type  2   force =     0.01184622   -0.02037471    0.00000000
     atom    6 type  2   force =    -0.01172191   -0.02044649    0.00000000
     atom    7 type  2   force =     0.02356813    0.00007177    0.00000000
     atom    8 type  2   force =    -0.01184622    0.02037471    0.00000000
     atom    9 type  2   force =     0.00000000    0.00000000    0.00000000
     atom   10 type  2   force =     0.00000000   -0.00000000    0.00000000
     atom   11 type  3   force =     0.07840991   -0.10119882    0.00000000
     atom   12 type  3   force =     0.04843579    0.11850440    0.00000000
     atom   13 type  3   force =    -0.12684571   -0.01730558   -0.00000000
     atom   14 type  3   force =    -0.07840991    0.10119882    0.00000000
     atom   15 type  3   force =    -0.04843579   -0.11850440    0.00000000
     atom   16 type  3   force =     0.12684571    0.01730558    0.00000000
     The non-local contrib.  to forces
     atom    1 type  1   force =     0.00000000    0.00000000    0.00000000
     atom    2 type  1   force =     0.00000000    0.00000000    0.00000000
     atom    3 type  2   force =     0.07070512    0.13031551    0.00000000
     atom    4 type  2   force =    -0.14820909   -0.00392533    0.00000000
     atom    5 type  2   force =     0.07750397   -0.12639017    0.00000000
     atom    6 type  2   force =    -0.07070512   -0.13031551   -0.00000000
     atom    7 type  2   force =     0.14820909    0.00392533   -0.00000000
     atom    8 type  2   force =    -0.07750397    0.12639017    0.00000000
     atom    9 type  2   force =     0.00000000    0.00000000    0.00000000
     atom   10 type  2   force =     0.00000000    0.00000000    0.00000000
     atom   11 type  3   force =    -0.08305390    0.05692827    0.00000000
     atom   12 type  3   force =    -0.00777438   -0.10039093    0.00000000
     atom   13 type  3   force =     0.09082828    0.04346266   -0.00000000
     atom   14 type  3   force =     0.08305390   -0.05692827   -0.00000000
     atom   15 type  3   force =     0.00777438    0.10039093   -0.00000000
     atom   16 type  3   force =    -0.09082828   -0.04346266   -0.00000000
     The ionic contribution  to forces
     atom    1 type  1   force =     0.00010406   -0.00006022    0.00000000
     atom    2 type  1   force =    -0.00010406    0.00006022   -0.00000000
     atom    3 type  2   force =     0.94486116   -0.15531268    0.00000000
     atom    4 type  2   force =    -0.33790910    0.89593331   -0.00000000
     atom    5 type  2   force =    -0.60694089   -0.74062557    0.00000000
     atom    6 type  2   force =    -0.94486116    0.15531268   -0.00000000
     atom    7 type  2   force =     0.33790910   -0.89593330    0.00000000
     atom    8 type  2   force =     0.60694089    0.74062557   -0.00000000
     atom    9 type  2   force =    -0.00000000   -0.00000000   -0.00000000
     atom   10 type  2   force =    -0.00000000   -0.00000000    0.00000000
     atom   11 type  3   force =     0.01459842    0.01035741   -0.00000000
     atom   12 type  3   force =    -0.01624243    0.00755803   -0.00000000
     atom   13 type  3   force =     0.00166675   -0.01793131   -0.00000000
     atom   14 type  3   force =    -0.01459842   -0.01035741   -0.00000000
     atom   15 type  3   force =     0.01624243   -0.00755803    0.00000000
     atom   16 type  3   force =    -0.00166675    0.01793130    0.00000000
     The local contribution  to forces
     atom    1 type  1   force =    -0.00047945    0.00154043    0.00002611
     atom    2 type  1   force =     0.00062636   -0.00195664   -0.00004030
     atom    3 type  2   force =    -1.00130012    0.04901320   -0.00000894
     atom    4 type  2   force =     0.45834971   -0.89188173   -0.00001198
     atom    5 type  2   force =     0.54294850    0.84296239   -0.00001306
     atom    6 type  2   force =     1.00140072   -0.04909796    0.00000847
     atom    7 type  2   force =    -0.45813215    0.89185281    0.00001141
     atom    8 type  2   force =    -0.54320358   -0.84298341    0.00001359
     atom    9 type  2   force =    -0.00003669    0.00009399   -0.00005507
     atom   10 type  2   force =    -0.00003413    0.00009560    0.00005437
     atom   11 type  3   force =     0.11880000   -0.19073113   -0.00009340
     atom   12 type  3   force =     0.10726738    0.19723626   -0.00010740
     atom   13 type  3   force =    -0.22693327   -0.00354338   -0.00009544
     atom   14 type  3   force =    -0.11805179    0.19043502    0.00011852
     atom   15 type  3   force =    -0.10787833   -0.19704540    0.00011303
     atom   16 type  3   force =     0.22668246    0.00386850    0.00009570
     The core correction contribution to forces
     atom    1 type  1   force =    -0.00000113    0.00000299    0.00000024
     atom    2 type  1   force =     0.00000126   -0.00000593   -0.00000045
     atom    3 type  2   force =    -0.00251384   -0.00351652   -0.00000004
     atom    4 type  2   force =     0.00430366   -0.00042000   -0.00000009
     atom    5 type  2   force =    -0.00178799    0.00393527   -0.00000010
     atom    6 type  2   force =     0.00251469    0.00351502    0.00000000
     atom    7 type  2   force =    -0.00430322    0.00042237    0.00000008
     atom    8 type  2   force =     0.00178645   -0.00393549    0.00000012
     atom    9 type  2   force =    -0.00000007   -0.00000027   -0.00000024
     atom   10 type  2   force =     0.00000005   -0.00000018    0.00000014
     atom   11 type  3   force =     0.02832508    0.02502149   -0.00000216
     atom   12 type  3   force =    -0.03582780    0.01201258   -0.00000279
     atom   13 type  3   force =     0.00749517   -0.03700954   -0.00000237
     atom   14 type  3   force =    -0.02831843   -0.02501865    0.00000224
     atom   15 type  3   force =     0.03581864   -0.01201795    0.00000285
     atom   16 type  3   force =    -0.00748788    0.03700870    0.00000217
     The Hubbard contrib.    to forces
     atom    1 type  1   force =     0.00000000    0.00000000    0.00000000
     atom    2 type  1   force =     0.00000000    0.00000000    0.00000000
     atom    3 type  2   force =     0.00000000    0.00000000    0.00000000
     atom    4 type  2   force =     0.00000000    0.00000000    0.00000000
     atom    5 type  2   force =     0.00000000    0.00000000    0.00000000
     atom    6 type  2   force =     0.00000000    0.00000000    0.00000000
     atom    7 type  2   force =     0.00000000    0.00000000    0.00000000
     atom    8 type  2   force =     0.00000000    0.00000000    0.00000000
     atom    9 type  2   force =     0.00000000    0.00000000    0.00000000
     atom   10 type  2   force =     0.00000000    0.00000000    0.00000000
     atom   11 type  3   force =     0.00000000    0.00000000    0.00000000
     atom   12 type  3   force =     0.00000000    0.00000000    0.00000000
     atom   13 type  3   force =     0.00000000    0.00000000    0.00000000
     atom   14 type  3   force =     0.00000000    0.00000000    0.00000000
     atom   15 type  3   force =     0.00000000    0.00000000    0.00000000
     atom   16 type  3   force =     0.00000000    0.00000000    0.00000000
     The SCF correction term to forces
     atom    1 type  1   force =     0.00036438   -0.00143291   -0.00002273
     atom    2 type  1   force =    -0.00050476    0.00182780    0.00003448
     atom    3 type  2   force =     0.00001216   -0.00008138    0.00000710
     atom    4 type  2   force =    -0.00006021    0.00023573    0.00000920
     atom    5 type  2   force =     0.00010105   -0.00027524    0.00000963
     atom    6 type  2   force =    -0.00007898    0.00011338   -0.00000778
     atom    7 type  2   force =    -0.00013474   -0.00012746   -0.00000899
     atom    8 type  2   force =     0.00010040    0.00029854   -0.00001010
     atom    9 type  2   force =     0.00003483   -0.00010023    0.00004730
     atom   10 type  2   force =     0.00003389   -0.00010021   -0.00004730
     atom   11 type  3   force =    -0.00025513   -0.00280647    0.00009958
     atom   12 type  3   force =     0.00102411    0.00208022    0.00011406
     atom   13 type  3   force =     0.00013480   -0.00236114    0.00010244
     atom   14 type  3   force =    -0.00049624    0.00309632   -0.00012631
     atom   15 type  3   force =    -0.00043526   -0.00225084   -0.00012345
     atom   16 type  3   force =     0.00012942    0.00196956   -0.00010400

     Total force =     0.318855     Total SCF correction =     0.006640

     Computing stress (Cartesian axis) and pressure

     negative rho (up, down):  1.991E+00 0.000E+00
          total   stress  (Ry/bohr**3)                   (kbar)     P=     -106.97
  -0.00016143  -0.00000000   0.00000000          -23.75       -0.00        0.00
  -0.00000000  -0.00016143   0.00000000           -0.00      -23.75        0.00
   0.00000000   0.00000000  -0.00185861            0.00        0.00     -273.41

     kinetic stress (kbar)  29871.95      0.00      0.00
                                0.00  29871.95      0.00
                                0.00      0.00  29101.95

     local   stress (kbar)   6769.18     -0.17     -0.00
                               -0.17   6769.09      0.00
                               -0.00      0.00   6787.87

     nonloc. stress (kbar)   6630.03      0.00     -0.00
                                0.00   6630.03     -0.00
                               -0.00     -0.00   6317.27

     hartree stress (kbar)   6835.73      0.08      0.00
                                0.08   6835.71     -0.00
                                0.00     -0.00   7269.48

     exc-cor stress (kbar)  18203.54      0.00      0.00
                                0.00  18203.54     -0.00
                                0.00     -0.00  18193.47

     corecor stress (kbar) -27256.12     -0.00     -0.00
                               -0.00 -27256.12     -0.00
                               -0.00     -0.00 -27207.97

     ewald   stress (kbar) -41077.99     -0.01     -0.00
                               -0.01 -41078.00      0.00
                               -0.00      0.00 -40735.48

     hubbard stress (kbar)      0.00      0.00      0.00
                                0.00      0.00      0.00
                                0.00      0.00      0.00

     DFT-D   stress (kbar)      0.00      0.00      0.00
                                0.00      0.00      0.00
                                0.00      0.00      0.00

     XDM     stress (kbar)      0.00      0.00      0.00
                                0.00      0.00      0.00
                                0.00      0.00      0.00

     dft-nl  stress (kbar)      0.00      0.00      0.00
                                0.00      0.00      0.00
                                0.00      0.00      0.00

     TS-vdW  stress (kbar)      0.00      0.00      0.00
                                0.00      0.00      0.00
                                0.00      0.00      0.00

[...]

                                0.00      0.00      0.00

     Writing all to output data dir new_calculations/myprefix.save/

     General routines

     Parallel routines

   This run was terminated on:  10:13: 8  20May2023

   JOB DONE.