     Program PWSCF v.7.0 starts on 21May2023 at 21:22:50

     Reading input from espresso_26061.pwi
Warning: card &CELL ignored
Warning: card / ignored

     Current dimensions of program PWSCF are:
     Max number of different atomic species (ntypx) = 10
     Max number of k-points (npk) =  40000
     Max angular momentum in pseudopotentials (lmaxx) =  4
     file O.pbe-n-kjpaw_psl.0.1.UPF: wavefunction(s)  2P renormalized

     gamma-point specific algorithms are used
     Message from routine setup:
     using ibrav=0 with symmetry is DISCOURAGED, use correct ibrav instead

     Subspace diagonalization in iterative solution of the eigenvalue problem:
     a serial algorithm will be used

     Using Slab Decomposition

     bravais-lattice index     =            0
     lattice parameter (alat)  =      16.3567  a.u.
     unit-cell volume          =    1866.0183 (a.u.)^3
     number of atoms/cell      =           12
     number of atomic types    =            3
     number of electrons       =        96.00
     number of Kohn-Sham states=           58
     kinetic-energy cutoff     =      30.0000  Ry
     charge density cutoff     =     240.0000  Ry
     scf convergence threshold =      1.0E-06
     mixing beta               =       0.7000
     number of iterations used =            8  plain     mixing
     Exchange-correlation= SLA  PW   PBX  PBC
                           (   1   4   3   4   0   0   0)

     celldm(1)=  16.356728  celldm(2)=   0.000000  celldm(3)=   0.000000
     celldm(4)=   0.000000  celldm(5)=   0.000000  celldm(6)=   0.000000

     crystal axes: (cart. coord. in units of alat)
               a(1) = (   1.000000   0.000000   0.000000 )
               a(2) = (   0.509114   0.860699   0.000000 )
               a(3) = (  -0.754557  -0.430350   0.495422 )

     reciprocal axes: (cart. coord. in units 2 pi/alat)
               b(1) = (  1.000000 -0.591512  1.009241 )
               b(2) = (  0.000000  1.161846  1.009241 )
               b(3) = (  0.000000  0.000000  2.018481 )

     PseudoPot. # 1 for Cs read from file:
     /home/pragov/projects/rrg-bengioy-ad/pragov/crystal_structure_design/SSSP/Cs_pbe_v1.uspp.F.UPF
     MD5 check sum: 3476d69cb178dfad3ffaa59df4e07ca4
     Pseudo is Ultrasoft + core correction, Zval =  9.0
     Generated by new atomic code, or converted to UPF format
     Using radial grid of  905 points,  6 beta functions with:
                l(1) =   0
                l(2) =   0
                l(3) =   1
                l(4) =   1
                l(5) =   2
                l(6) =   2
     Q(r) pseudized with  6 coefficients,  rinner =    1.500   1.500   1.500
                                                       1.500   1.500

     PseudoPot. # 2 for Re read from file:
     /home/pragov/projects/rrg-bengioy-ad/pragov/crystal_structure_design/SSSP/Re_pbe_v1.2.uspp.F.UPF
     MD5 check sum: 85f993410f3e006da9d71c142b4ad953
     Pseudo is Ultrasoft + core correction, Zval = 15.0
     Generated by new atomic code, or converted to UPF format
     Using radial grid of  981 points,  8 beta functions with:
                l(1) =   0
                l(2) =   0
                l(3) =   1
                l(4) =   1
                l(5) =   2
                l(6) =   2
                l(7) =   3
                l(8) =   3
     Q(r) pseudized with  8 coefficients,  rinner =    1.150   1.150   1.150
                                                       1.150   1.150   1.150
                                                       1.150

     PseudoPot. # 3 for O  read from file:
     /home/pragov/projects/rrg-bengioy-ad/pragov/crystal_structure_design/SSSP/O.pbe-n-kjpaw_psl.0.1.UPF
     MD5 check sum: 0234752ac141de4415c5fc33072bef88
     Pseudo is Projector augmented-wave + core cor, Zval =  6.0
     Generated using "atomic" code by A. Dal Corso  v.5.0.99 svn rev. 10869
     Shape of augmentation charge: BESSEL
     Using radial grid of 1095 points,  4 beta functions with:
                l(1) =   0
                l(2) =   0
                l(3) =   1
                l(4) =   1
     Q(r) pseudized with 0 coefficients

     atomic species   valence    mass     pseudopotential
        Cs             9.00   132.90545     Cs( 1.00)
        Re            15.00   186.20700     Re( 1.00)
        O              6.00    15.99900     O ( 1.00)

      4 Sym. Ops., with inversion, found ( 2 have fractional translation)

                                    s                        frac. trans.

      isym =  1     identity

 cryst.   s( 1) = (     1          0          0      )
                  (     0          1          0      )
                  (     0          0          1      )

 cart.    s( 1) = (  1.0000000  0.0000000  0.0000000 )
                  (  0.0000000  1.0000000 -0.0000000 )
                  (  0.0000000  0.0000000  1.0000000 )

      isym =  2     180 deg rotation - cart. axis [0,0,1]

 cryst.   s( 2) = (    -1          0          0      )
                  (     0         -1          0      )
                  (     1          1          1      )

 cart.    s( 2) = ( -1.0000000 -0.0000000 -0.0000000 )
                  (  0.0000000 -1.0000000 -0.0000000 )
                  (  0.0000000  0.0000000  1.0000000 )

      isym =  3     inversion

 cryst.   s( 3) = (    -1          0          0      )    f =(  0.2500000 )
                  (     0         -1          0      )       ( -0.2500000 )
                  (     0          0         -1      )       ( -0.5000000 )

 cart.    s( 3) = ( -1.0000000 -0.0000000 -0.0000000 )    f =(  0.5000000 )
                  (  0.0000000 -1.0000000  0.0000000 )       (  0.0000000 )
                  (  0.0000000  0.0000000 -1.0000000 )       ( -0.2477110 )

      isym =  4     inv. 180 deg rotation - cart. axis [0,0,1]

 cryst.   s( 4) = (     1          0          0      )    f =(  0.2500000 )
                  (     0          1          0      )       ( -0.2500000 )
                  (    -1         -1         -1      )       ( -0.5000000 )

 cart.    s( 4) = (  1.0000000  0.0000000  0.0000000 )    f =(  0.5000000 )
                  (  0.0000000  1.0000000  0.0000000 )       (  0.0000000 )
                  (  0.0000000  0.0000000 -1.0000000 )       ( -0.2477110 )

   Cartesian axes

     site n.     atom                  positions (alat units)
         1           Cs  tau(   1) = (   0.5000000  -0.0000000   0.2477110  )
         2           Cs  tau(   2) = (   0.0000000   0.0000000   0.0000000  )
         3           Re  tau(   3) = (   0.7545571   0.4303495   0.0000000  )
         4           Re  tau(   4) = (   0.2545571   0.4303495   0.2477110  )
         5           O   tau(   5) = (   0.2969339   0.5900686   0.1299650  )
         6           O   tau(   6) = (   0.7969344   0.5900694   0.1177459  )
         7           O   tau(   7) = (   0.1590447  -0.0448416   0.3776760  )
         8           O   tau(   8) = (   0.7121803   0.2706305   0.1177459  )
         9           O   tau(   9) = (  -0.1590457   0.0448416   0.3776760  )
        10           O   tau(  10) = (   0.2121798   0.2706296   0.1299650  )
        11           O   tau(  11) = (   0.0955124   0.4751911   0.3654569  )
        12           O   tau(  12) = (   0.4136027   0.3855079   0.3654569  )

   Crystallographic axes

     site n.     atom                  positions (cryst. coord.)
         1           Cs  tau(   1) = (  0.7500000  0.2500000  0.5000000  )
         2           Cs  tau(   2) = (  0.0000000  0.0000000  0.0000000  )
         3           Re  tau(   3) = (  0.5000000  0.5000000  0.0000000  )
         4           Re  tau(   4) = (  0.2500000  0.7500000  0.5000000  )
         5           O   tau(   5) = (  0.0790670  0.8167350  0.2623320  )
         6           O   tau(   6) = (  0.5667350  0.8044040  0.2376680  )
         7           O   tau(   7) = (  0.5667350  0.3290670  0.7623320  )
         8           O   tau(   8) = (  0.6709330  0.4332650  0.2376680  )
         9           O   tau(   9) = (  0.1955960  0.4332650  0.7623320  )
        10           O   tau(  10) = (  0.1832650  0.4455960  0.2623320  )
        11           O   tau(  11) = (  0.1832650  0.9209330  0.7376680  )
        12           O   tau(  12) = (  0.5544040  0.8167350  0.7376680  )

     number of k points=     1  Methfessel-Paxton smearing, width (Ry)=  0.0010
                       cart. coord. in units 2pi/alat
        k(    1) = (   0.0000000   0.0000000   0.0000000), wk =   2.0000000

                       cryst. coord.
        k(    1) = (   0.0000000   0.0000000   0.0000000), wk =   2.0000000

     Check: negative core charge=   -0.000008

     Initial potential from superposition of free atoms

     starting charge      94.9211, renormalised to      96.0000

     negative rho (up, down):  2.627E-01 0.000E+00
     Starting wfcs are   84 randomized atomic wfcs
     Checking if some PAW data can be deallocated...

     Self-consistent Calculation

     iteration #  1     ecut=    30.00 Ry     beta= 0.70
     Davidson diagonalization with overlap

     ethr =  1.00E-02,  avg # of iterations =  4.0

     negative rho (up, down):  2.980E-01 0.000E+00

     total energy              =    -838.86727561 Ry
     estimated scf accuracy    <       3.90787060 Ry

[...]

     total energy              =    -841.21057052 Ry
     estimated scf accuracy    <       0.00000862 Ry

     iteration # 11     ecut=    30.00 Ry     beta= 0.70
     Davidson diagonalization with overlap

     ethr =  8.98E-09,  avg # of iterations =  2.0

[...]

     End of self-consistent calculation

          k = 0.0000 0.0000 0.0000 (  2571 PWs)   bands (ev):

   -78.6377 -78.5830 -40.6476 -40.4546 -40.3602 -40.2594 -40.0606 -39.3656
   -16.0317 -15.9284 -15.4280 -15.2730 -14.9980 -14.8515 -14.7727 -14.5955
   -14.4299 -14.3310  -4.5648  -3.5755  -3.2605  -3.2164  -3.1221  -2.6956
    -1.9002  -1.8269  -1.8022  -1.7337  -1.6903  -1.5820  -1.5380  -1.4225
    -1.3738  -1.3569  -0.8442  -0.6130   0.5954   0.8298   0.9238   1.0115
     1.0496   1.0727   1.5291   1.6548   1.7750   1.8238   1.9335   1.9658
     5.9587   6.1753   6.5087   6.6176   7.1228   7.9838   8.0679   8.1159
     8.2727   8.4203

     occupation numbers
     1.0000   1.0000   1.0000   1.0000   1.0000   1.0000   1.0000   1.0000
     1.0000   1.0000   1.0000   1.0000   1.0000   1.0000   1.0000   1.0000
     1.0000   1.0000   1.0000   1.0000   1.0000   1.0000   1.0000   1.0000
     1.0000   1.0000   1.0000   1.0000   1.0000   1.0000   1.0000   1.0000
     1.0000   1.0000   1.0000   1.0000   1.0000   1.0000   1.0000   1.0000
     1.0000   1.0000   1.0000   1.0000   1.0000   1.0000   1.0000   1.0000
    -0.0000  -0.0000  -0.0000  -0.0000  -0.0000  -0.0000  -0.0000  -0.0000
    -0.0000  -0.0000

     the Fermi energy is     3.0983 ev

!    total energy              =    -841.21057146 Ry
     estimated scf accuracy    <       0.00000031 Ry
     smearing contrib. (-TS)   =       0.00000000 Ry
     internal energy E=F+TS    =    -841.21057146 Ry

     The total energy is F=E-TS. E is the sum of the following terms:
     one-electron contribution =    -449.11709372 Ry
     hartree contribution      =     254.79566297 Ry
     xc contribution           =    -224.38793859 Ry
     ewald contribution        =    -346.19320273 Ry
     one-center paw contrib.   =     -76.30799940 Ry
      -> PAW hartree energy AE =     228.77734041 Ry
      -> PAW hartree energy PS =    -228.09760998 Ry
      -> PAW xc energy AE      =    -136.01342136 Ry
      -> PAW xc energy PS      =      59.02569154 Ry
      -> total E_H with PAW    =     255.47539340 Ry
      -> total E_XC with PAW   =    -301.37566841 Ry

     convergence has been achieved in  11 iterations

     negative rho (up, down):  2.747E-01 0.000E+00

     Forces acting on atoms (cartesian axes, Ry/au):

     atom    1 type  1   force =     0.00000000    0.00000000   -0.02471630
     atom    2 type  1   force =     0.00000000    0.00000000    0.02471630
     atom    3 type  2   force =     0.00000000    0.00000000    0.01706400
     atom    4 type  2   force =     0.00000000    0.00000000   -0.01706400
     atom    5 type  3   force =    -0.00856458   -0.01051197    0.04139640
     atom    6 type  3   force =    -0.00856458   -0.01051197   -0.04139640
     atom    7 type  3   force =    -0.03780520    0.02742809    0.03505235
     atom    8 type  3   force =     0.00856458    0.01051197   -0.04139640
     atom    9 type  3   force =     0.03780520   -0.02742809    0.03505235
     atom   10 type  3   force =     0.00856458    0.01051197    0.04139640
     atom   11 type  3   force =     0.03780520   -0.02742809   -0.03505235
     atom   12 type  3   force =    -0.03780520    0.02742809   -0.03505235
     The non-local contrib.  to forces
     atom    1 type  1   force =     0.00000000    0.00000000   -0.02149411
     atom    2 type  1   force =     0.00000000    0.00000000    0.02149411
     atom    3 type  2   force =     0.00000000    0.00000000    0.01247277
     atom    4 type  2   force =     0.00000000    0.00000000   -0.01247277
     atom    5 type  3   force =    -0.27370694   -1.14909984    0.86735716
     atom    6 type  3   force =    -0.27370694   -1.14909984   -0.86735716
     atom    7 type  3   force =    -1.13837557    0.36486866    0.87327422
     atom    8 type  3   force =     0.27370694    1.14909984   -0.86735716
     atom    9 type  3   force =     1.13837557   -0.36486866    0.87327422
     atom   10 type  3   force =     0.27370694    1.14909984    0.86735716
     atom   11 type  3   force =     1.13837557   -0.36486866   -0.87327422
     atom   12 type  3   force =    -1.13837557    0.36486866   -0.87327422
     The ionic contribution  to forces
     atom    1 type  1   force =    -0.00000242    0.00000425    0.00000000
     atom    2 type  1   force =     0.00000242   -0.00000425    0.00000000
     atom    3 type  2   force =    -0.00007405    0.00012983   -0.00000000
     atom    4 type  2   force =     0.00007405   -0.00012983    0.00000000
     atom    5 type  3   force =     2.85739766   11.95270851   -8.96713642
     atom    6 type  3   force =     2.85738384   11.95260897    8.96702038
     atom    7 type  3   force =    11.74242599   -3.62593354   -8.96713642
     atom    8 type  3   force =    -2.85739766  -11.95270851    8.96713642
     atom    9 type  3   force =   -11.74233328    3.62589475   -8.96702038
     atom   10 type  3   force =    -2.85738385  -11.95260897   -8.96702038
     atom   11 type  3   force =   -11.74242598    3.62593354    8.96713642
     atom   12 type  3   force =    11.74233328   -3.62589475    8.96702038
     The local contribution  to forces
     atom    1 type  1   force =     0.01263393   -0.00569071   -0.01935911
     atom    2 type  1   force =     0.00925555   -0.02133838   -0.01678258
     atom    3 type  2   force =     0.01258303    0.00960121   -0.00325484
     atom    4 type  2   force =    -0.03045800    0.02046440   -0.00484485
     atom    5 type  3   force =    -2.60606623  -10.77902825    8.13655647
     atom    6 type  3   force =    -2.60283215  -10.81977786   -8.16387594
     atom    7 type  3   force =   -10.66295223    3.29968741    8.15829060
     atom    8 type  3   force =     2.59568973   10.81220662   -8.15897860
     atom    9 type  3   force =    10.63221720   -3.32137809    8.10291962
     atom   10 type  3   force =     2.57337520   10.88432481    8.13469073
     atom   11 type  3   force =    10.69135433   -3.29975666   -8.16427956
     atom   12 type  3   force =   -10.62100884    3.24655054   -8.11958693
     The core correction contribution to forces
     atom    1 type  1   force =     0.00380753   -0.00198841   -0.00595387
     atom    2 type  1   force =     0.00072989   -0.00278591   -0.00194126
     atom    3 type  2   force =     0.00324686   -0.00241918    0.00177317
     atom    4 type  2   force =     0.00091249   -0.00400708   -0.00553753
     atom    5 type  3   force =     0.00214335    0.01069454   -0.00784371
     atom    6 type  3   force =     0.00186791    0.01007879    0.00679001
     atom    7 type  3   force =     0.01025210   -0.00366218   -0.00693702
     atom    8 type  3   force =    -0.00234725   -0.00970432    0.00727175
     atom    9 type  3   force =    -0.01050072    0.00295672   -0.00764976
     atom   10 type  3   force =    -0.00271444   -0.00881451   -0.00750161
     atom   11 type  3   force =    -0.00907624    0.00267932    0.00716397
     atom   12 type  3   force =     0.01028256   -0.00402613    0.00799458
     The Hubbard contrib.    to forces
     atom    1 type  1   force =     0.00000000    0.00000000    0.00000000
     atom    2 type  1   force =     0.00000000    0.00000000    0.00000000
     atom    3 type  2   force =     0.00000000    0.00000000    0.00000000
     atom    4 type  2   force =     0.00000000    0.00000000    0.00000000
     atom    5 type  3   force =     0.00000000    0.00000000    0.00000000
     atom    6 type  3   force =     0.00000000    0.00000000    0.00000000
     atom    7 type  3   force =     0.00000000    0.00000000    0.00000000
     atom    8 type  3   force =     0.00000000    0.00000000    0.00000000
     atom    9 type  3   force =     0.00000000    0.00000000    0.00000000
     atom   10 type  3   force =     0.00000000    0.00000000    0.00000000
     atom   11 type  3   force =     0.00000000    0.00000000    0.00000000
     atom   12 type  3   force =     0.00000000    0.00000000    0.00000000
     The SCF correction term to forces
     atom    1 type  1   force =    -0.00004413    0.00007437    0.00016108
     atom    2 type  1   force =    -0.00000027    0.00003769    0.00001634
     atom    3 type  2   force =     0.00003461   -0.00007915   -0.00015848
     atom    4 type  2   force =     0.00029995   -0.00011860   -0.00044023
     atom    5 type  3   force =     0.00012552    0.00005796   -0.00016367
     atom    6 type  3   force =    -0.00015712   -0.00012693    0.00001131
     atom    7 type  3   force =    -0.00007493   -0.00005295    0.00001442
     atom    8 type  3   force =     0.00003311    0.00022176   -0.00006811
     atom    9 type  3   force =     0.00008128    0.00001028    0.00011997
     atom   10 type  3   force =     0.00003849   -0.00005264   -0.00011724
     atom   11 type  3   force =    -0.00018677    0.00003078    0.00006468
     atom   12 type  3   force =     0.00015333   -0.00006002   -0.00002503

     Total force =     0.151773     Total SCF correction =     0.000789

     Computing stress (Cartesian axis) and pressure

     negative rho (up, down):  2.747E-01 0.000E+00
          total   stress  (Ry/bohr**3)                   (kbar)     P=     -169.11
  -0.00140924  -0.00043103  -0.00000000         -207.31      -63.41       -0.00
  -0.00043103  -0.00136896  -0.00000000          -63.41     -201.38       -0.00
  -0.00000000  -0.00000000  -0.00067050           -0.00       -0.00      -98.63

     kinetic stress (kbar)  13759.25    -11.58      0.00
                              -11.58  13760.49      0.00
                                0.00      0.00  13810.13

     local   stress (kbar)  -8826.84   -481.97     -9.62
                             -481.97  -8331.46      9.03
                               -9.62      9.03  -8025.67

     nonloc. stress (kbar)    337.59      6.43      0.00
                                6.43    346.95      0.00
                                0.00      0.00    352.24

     hartree stress (kbar)   6914.91    222.88     -3.25
                              222.88   6655.64      8.07
                               -3.25      8.07   6515.92

     exc-cor stress (kbar)   6254.58      0.36     -0.04
                                0.36   6254.49     -0.03
                               -0.04     -0.03   6254.04

     corecor stress (kbar)  -9747.12     -1.35      0.82
                               -1.35  -9749.06     -0.27
                                0.82     -0.27  -9751.73

     ewald   stress (kbar)  -8899.68    201.81     -0.03
                              201.81  -9138.43     -0.02
                               -0.03     -0.02  -9253.57

     hubbard stress (kbar)      0.00      0.00      0.00
                                0.00      0.00      0.00
                                0.00      0.00      0.00

     DFT-D   stress (kbar)      0.00      0.00      0.00
                                0.00      0.00      0.00
                                0.00      0.00      0.00

     XDM     stress (kbar)      0.00      0.00      0.00
                                0.00      0.00      0.00
                                0.00      0.00      0.00

     dft-nl  stress (kbar)      0.00      0.00      0.00
                                0.00      0.00      0.00
                                0.00      0.00      0.00

     TS-vdW  stress (kbar)      0.00      0.00      0.00
                                0.00      0.00      0.00
                                0.00      0.00      0.00

[...]

                                0.00      0.00      0.00

     Writing all to output data dir new_calculations/myprefix.save/

     General routines

     Parallel routines

     PAW routines

   This run was terminated on:  21:23:24  21May2023

   JOB DONE.