     Program PWSCF v.7.0 starts on 21May2023 at 14:57:57

     Reading input from espresso_22833.pwi
Warning: card &CELL ignored
Warning: card / ignored

     Current dimensions of program PWSCF are:
     Max number of different atomic species (ntypx) = 10
     Max number of k-points (npk) =  40000
     Max angular momentum in pseudopotentials (lmaxx) =  4
     file Pb.pbe-dn-kjpaw_psl.0.2.2.UPF: wavefunction(s)  6S renormalized
     file O.pbe-n-kjpaw_psl.0.1.UPF: wavefunction(s)  2P renormalized

     gamma-point specific algorithms are used
     Message from routine setup:
     using ibrav=0 with symmetry is DISCOURAGED, use correct ibrav instead

     Subspace diagonalization in iterative solution of the eigenvalue problem:
     a serial algorithm will be used

     Using Slab Decomposition

     bravais-lattice index     =            0
     lattice parameter (alat)  =      11.1292  a.u.
     unit-cell volume          =    1968.0601 (a.u.)^3
     number of atoms/cell      =           20
     number of atomic types    =            3
     number of electrons       =       176.00
     number of Kohn-Sham states=          106
     kinetic-energy cutoff     =      30.0000  Ry
     charge density cutoff     =     240.0000  Ry
     scf convergence threshold =      1.0E-06
     mixing beta               =       0.7000
     number of iterations used =            8  plain     mixing
     Exchange-correlation= SLA  PW   PBX  PBC
                           (   1   4   3   4   0   0   0)

     celldm(1)=  11.129211  celldm(2)=   0.000000  celldm(3)=   0.000000
     celldm(4)=   0.000000  celldm(5)=   0.000000  celldm(6)=   0.000000

     crystal axes: (cart. coord. in units of alat)
               a(1) = (   1.000000   0.000000   0.000000 )
               a(2) = (   0.000000   1.006468   0.000000 )
               a(3) = (   0.000000   0.000000   1.418551 )

     reciprocal axes: (cart. coord. in units 2 pi/alat)
               b(1) = (  1.000000  0.000000  0.000000 )
               b(2) = (  0.000000  0.993573  0.000000 )
               b(3) = (  0.000000  0.000000  0.704945 )

     PseudoPot. # 1 for Zr read from file:
     /home/pragov/projects/rrg-bengioy-ad/pragov/crystal_structure_design/SSSP/Zr_pbe_v1.uspp.F.UPF
     MD5 check sum: 5db81b1e868ab7776c4564c113de050b
     Pseudo is Ultrasoft + core correction, Zval = 12.0
     Generated by new atomic code, or converted to UPF format
     Using radial grid of  887 points,  6 beta functions with:
                l(1) =   0
                l(2) =   0
                l(3) =   1
                l(4) =   1
                l(5) =   2
                l(6) =   2
     Q(r) pseudized with  6 coefficients,  rinner =    1.200   1.200   1.200
                                                       1.200   1.200

     PseudoPot. # 2 for Pb read from file:
     /home/pragov/projects/rrg-bengioy-ad/pragov/crystal_structure_design/SSSP/Pb.pbe-dn-kjpaw_psl.0.2.2.UPF
     MD5 check sum: 9d431e6316058b74ade52399a6cf67da
     Pseudo is Projector augmented-wave + core cor, Zval = 14.0
     Generated using "atomic" code by A. Dal Corso  v.5.0.99 svn rev. 10869
     Shape of augmentation charge: PSQ
     Using radial grid of 1281 points,  6 beta functions with:
                l(1) =   0
                l(2) =   0
                l(3) =   1
                l(4) =   1
                l(5) =   2
                l(6) =   2
     Q(r) pseudized with 0 coefficients

     PseudoPot. # 3 for O  read from file:
     /home/pragov/projects/rrg-bengioy-ad/pragov/crystal_structure_design/SSSP/O.pbe-n-kjpaw_psl.0.1.UPF
     MD5 check sum: 0234752ac141de4415c5fc33072bef88
     Pseudo is Projector augmented-wave + core cor, Zval =  6.0
     Generated using "atomic" code by A. Dal Corso  v.5.0.99 svn rev. 10869
     Shape of augmentation charge: BESSEL
     Using radial grid of 1095 points,  4 beta functions with:
                l(1) =   0
                l(2) =   0
                l(3) =   1
                l(4) =   1
     Q(r) pseudized with 0 coefficients

     atomic species   valence    mass     pseudopotential
        Zr            12.00    91.22400     Zr( 1.00)
        Pb            14.00   207.20000     Pb( 1.00)
        O              6.00    15.99900     O ( 1.00)

      8 Sym. Ops., with inversion, found ( 6 have fractional translation)

                                    s                        frac. trans.

      isym =  1     identity

 cryst.   s( 1) = (     1          0          0      )
                  (     0          1          0      )
                  (     0          0          1      )

 cart.    s( 1) = (  1.0000000  0.0000000  0.0000000 )
                  (  0.0000000  1.0000000  0.0000000 )
                  (  0.0000000  0.0000000  1.0000000 )

      isym =  2     180 deg rotation - cart. axis [0,0,1]

 cryst.   s( 2) = (    -1          0          0      )    f =(  0.0000000 )
                  (     0         -1          0      )       (  0.0000000 )
                  (     0          0          1      )       (  0.5000000 )

 cart.    s( 2) = ( -1.0000000  0.0000000  0.0000000 )    f =(  0.0000000 )
                  (  0.0000000 -1.0000000  0.0000000 )       (  0.0000000 )
                  (  0.0000000  0.0000000  1.0000000 )       (  0.7092756 )

[...]

      isym =  4     180 deg rotation - cart. axis [1,0,0]

[...]

      isym =  5     inversion

 cryst.   s( 5) = (    -1          0          0      )
                  (     0         -1          0      )
                  (     0          0         -1      )

 cart.    s( 5) = ( -1.0000000  0.0000000  0.0000000 )
                  (  0.0000000 -1.0000000  0.0000000 )
                  (  0.0000000  0.0000000 -1.0000000 )

      isym =  6     inv. 180 deg rotation - cart. axis [0,0,1]

[...]

      isym =  8     inv. 180 deg rotation - cart. axis [1,0,0]

 cryst.   s( 8) = (    -1          0          0      )    f =(  0.5000000 )
                  (     0          1          0      )       ( -0.5000000 )
                  (     0          0          1      )       (  0.0000000 )

 cart.    s( 8) = ( -1.0000000  0.0000000  0.0000000 )    f =(  0.5000000 )
                  (  0.0000000  1.0000000  0.0000000 )       ( -0.5032342 )
                  (  0.0000000  0.0000000  1.0000000 )       (  0.0000000 )

   Cartesian axes

     site n.     atom                  positions (alat units)
         1           Zr  tau(   1) = (   0.0000000   0.0000000   0.0000000  )
         2           Zr  tau(   2) = (   0.0000000   0.0000000   0.7092756  )
         3           Zr  tau(   3) = (   0.5000000   0.5032342   0.0000000  )
         4           Zr  tau(   4) = (   0.5000000   0.5032342   0.7092756  )
         5           Pb  tau(   5) = (   0.0069270   0.5272506   0.3546378  )
         6           Pb  tau(   6) = (   0.4930730   0.0240164   0.3546378  )
         7           Pb  tau(   7) = (   0.5069270   0.9824521   1.0639134  )
         8           Pb  tau(   8) = (   0.9930730   0.4792179   1.0639134  )
         9           O   tau(   9) = (   0.0772290   0.0158841   1.0639134  )
        10           O   tau(  10) = (   0.2115090   0.2893718   0.0570144  )
        11           O   tau(  11) = (   0.2115090   0.2893718   0.6522612  )
        12           O   tau(  12) = (   0.2884910   0.7926060   0.0570144  )
        13           O   tau(  13) = (   0.2884910   0.7926060   0.6522612  )
        14           O   tau(  14) = (   0.4227710   0.5191183   1.0639134  )
        15           O   tau(  15) = (   0.5772290   0.4873502   0.3546378  )
        16           O   tau(  16) = (   0.7115090   0.2138625   0.7662900  )
        17           O   tau(  17) = (   0.7115090   0.2138625   1.3615368  )
        18           O   tau(  18) = (   0.7884910   0.7170967   0.7662900  )
        19           O   tau(  19) = (   0.7884910   0.7170967   1.3615368  )
        20           O   tau(  20) = (   0.9227710   0.9905844   0.3546378  )

   Crystallographic axes

     site n.     atom                  positions (cryst. coord.)
         1           Zr  tau(   1) = (  0.0000000  0.0000000  0.0000000  )
         2           Zr  tau(   2) = (  0.0000000  0.0000000  0.5000000  )
         3           Zr  tau(   3) = (  0.5000000  0.5000000  0.0000000  )
         4           Zr  tau(   4) = (  0.5000000  0.5000000  0.5000000  )
         5           Pb  tau(   5) = (  0.0069270  0.5238620  0.2500000  )
         6           Pb  tau(   6) = (  0.4930730  0.0238620  0.2500000  )
         7           Pb  tau(   7) = (  0.5069270  0.9761380  0.7500000  )
         8           Pb  tau(   8) = (  0.9930730  0.4761380  0.7500000  )
         9           O   tau(   9) = (  0.0772290  0.0157820  0.7500000  )
        10           O   tau(  10) = (  0.2115090  0.2875120  0.0401920  )
        11           O   tau(  11) = (  0.2115090  0.2875120  0.4598080  )
        12           O   tau(  12) = (  0.2884910  0.7875120  0.0401920  )
        13           O   tau(  13) = (  0.2884910  0.7875120  0.4598080  )
        14           O   tau(  14) = (  0.4227710  0.5157820  0.7500000  )
        15           O   tau(  15) = (  0.5772290  0.4842180  0.2500000  )
        16           O   tau(  16) = (  0.7115090  0.2124880  0.5401920  )
        17           O   tau(  17) = (  0.7115090  0.2124880  0.9598080  )
        18           O   tau(  18) = (  0.7884910  0.7124880  0.5401920  )
        19           O   tau(  19) = (  0.7884910  0.7124880  0.9598080  )
        20           O   tau(  20) = (  0.9227710  0.9842180  0.2500000  )

     number of k points=     1  Methfessel-Paxton smearing, width (Ry)=  0.0010
                       cart. coord. in units 2pi/alat
        k(    1) = (   0.0000000   0.0000000   0.0000000), wk =   2.0000000

                       cryst. coord.
        k(    1) = (   0.0000000   0.0000000   0.0000000), wk =   2.0000000

     Check: negative core charge=   -0.000011

     Initial potential from superposition of free atoms

     starting charge     175.9820, renormalised to     176.0000

     negative rho (up, down):  2.383E-01 0.000E+00
     Starting wfcs are  136 randomized atomic wfcs
     Checking if some PAW data can be deallocated...

     Self-consistent Calculation

     iteration #  1     ecut=    30.00 Ry     beta= 0.70
     Davidson diagonalization with overlap

     ethr =  1.00E-02,  avg # of iterations =  2.0

     negative rho (up, down):  2.483E-01 0.000E+00

     total energy              =   -4376.33980658 Ry
     estimated scf accuracy    <       6.80754017 Ry

[...]

     total energy              =   -4379.88404274 Ry
     estimated scf accuracy    <       0.00000137 Ry

     iteration # 12     ecut=    30.00 Ry     beta= 0.70
     Davidson diagonalization with overlap

     ethr =  7.78E-10,  avg # of iterations =  6.0

[...]

     End of self-consistent calculation

          k = 0.0000 0.0000 0.0000 (  2740 PWs)   bands (ev):

   -38.4678 -38.4649 -38.4623 -38.4594 -16.7162 -16.7060 -16.6670 -16.6606
   -16.6565 -16.6553 -16.5179 -16.5056 -16.4914 -16.4864 -16.4855 -16.4797
    -7.5036  -7.3772  -6.8885  -6.8470  -6.7078  -6.6431  -6.6330  -6.5770
    -6.2315  -6.2305  -5.9756  -5.8819  -5.5768  -5.5652  -5.5643  -5.5436
    -5.5381  -5.5282  -5.5250  -5.5079  -5.4622  -5.4581  -5.4541  -5.4309
    -5.4298  -5.4001  -5.3944  -5.3860  -5.2982  -5.2054  -4.9931  -4.9798
     2.5095   3.0440   3.5022   3.8383   5.1769   5.2139   5.3900   5.4546
     5.6079   5.8915   5.9514   5.9832   6.1897   6.7658   6.8758   6.9232
     7.0745   7.0902   7.0988   7.3351   7.8651   7.8818   7.9324   8.1493
     8.2116   8.4029   8.5590   8.6023   8.7329   8.8174   9.0445   9.0875
     9.1607   9.2009   9.2219   9.2726   9.3744   9.4500   9.4880  10.1488
    12.5488  12.8434  12.8810  12.9032  13.1404  14.0251  14.1335  14.1912
    14.4509  14.5819  14.6538  14.8079  14.9327  15.0332  15.2617  15.4712
    15.5830  15.7528

     occupation numbers
     1.0000   1.0000   1.0000   1.0000   1.0000   1.0000   1.0000   1.0000
     1.0000   1.0000   1.0000   1.0000   1.0000   1.0000   1.0000   1.0000
     1.0000   1.0000   1.0000   1.0000   1.0000   1.0000   1.0000   1.0000
     1.0000   1.0000   1.0000   1.0000   1.0000   1.0000   1.0000   1.0000
     1.0000   1.0000   1.0000   1.0000   1.0000   1.0000   1.0000   1.0000
     1.0000   1.0000   1.0000   1.0000   1.0000   1.0000   1.0000   1.0000
     1.0000   1.0000   1.0000   1.0000   1.0000   1.0000   1.0000   1.0000
     1.0000   1.0000   1.0000   1.0000   1.0000   1.0000   1.0000   1.0000
     1.0000   1.0000   1.0000   1.0000   1.0000   1.0000   1.0000   1.0000
     1.0000   1.0000   1.0000   1.0000   1.0000   1.0000   1.0000   1.0000
     1.0000   1.0000   1.0000   1.0000   1.0000   1.0000   1.0000   1.0000
    -0.0000  -0.0000  -0.0000  -0.0000  -0.0000  -0.0000  -0.0000  -0.0000
    -0.0000  -0.0000  -0.0000  -0.0000  -0.0000  -0.0000  -0.0000  -0.0000
    -0.0000  -0.0000

     the Fermi energy is    12.4831 ev

!    total energy              =   -4379.88404381 Ry
     estimated scf accuracy    <       0.00000028 Ry
     smearing contrib. (-TS)   =       0.00000000 Ry
     internal energy E=F+TS    =   -4379.88404381 Ry

     The total energy is F=E-TS. E is the sum of the following terms:
     one-electron contribution =    -242.53229291 Ry
     hartree contribution      =     246.35711078 Ry
     xc contribution           =    -338.01576044 Ry
     ewald contribution        =   -1017.51888004 Ry
     one-center paw contrib.   =   -3028.17422119 Ry
      -> PAW hartree energy AE =     739.10362174 Ry
      -> PAW hartree energy PS =    -737.00181600 Ry
      -> PAW xc energy AE      =   -3295.12978625 Ry
      -> PAW xc energy PS      =     264.85375933 Ry
      -> total E_H with PAW    =     248.45891652 Ry
      -> total E_XC with PAW   =   -3368.29178737 Ry

     convergence has been achieved in  12 iterations

     negative rho (up, down):  2.575E-01 0.000E+00

     Forces acting on atoms (cartesian axes, Ry/au):

     atom    1 type  1   force =     0.00000000    0.00000000    0.00000000
     atom    2 type  1   force =     0.00000000    0.00000000    0.00000000
     atom    3 type  1   force =     0.00000000    0.00000000    0.00000000
     atom    4 type  1   force =     0.00000000    0.00000000    0.00000000
     atom    5 type  2   force =     0.00931606   -0.01970479   -0.00000000
     atom    6 type  2   force =    -0.00931606   -0.01970479    0.00000000
     atom    7 type  2   force =     0.00931606    0.01970479    0.00000000
     atom    8 type  2   force =    -0.00931606    0.01970479   -0.00000000
     atom    9 type  3   force =    -0.01436604   -0.01354985   -0.00000000
     atom   10 type  3   force =    -0.00957473    0.00837516   -0.00418390
     atom   11 type  3   force =    -0.00957473    0.00837516    0.00418390
     atom   12 type  3   force =     0.00957473    0.00837516   -0.00418390
     atom   13 type  3   force =     0.00957473    0.00837516    0.00418390
     atom   14 type  3   force =     0.01436604   -0.01354985    0.00000000
     atom   15 type  3   force =    -0.01436604    0.01354985    0.00000000
     atom   16 type  3   force =    -0.00957473   -0.00837516   -0.00418390
     atom   17 type  3   force =    -0.00957473   -0.00837516    0.00418390
     atom   18 type  3   force =     0.00957473   -0.00837516   -0.00418390
     atom   19 type  3   force =     0.00957473   -0.00837516    0.00418390
     atom   20 type  3   force =     0.01436604    0.01354985    0.00000000
     The non-local contrib.  to forces
     atom    1 type  1   force =     0.00000000    0.00000000   -0.00000000
     atom    2 type  1   force =     0.00000000    0.00000000    0.00000000
     atom    3 type  1   force =     0.00000000    0.00000000    0.00000000
     atom    4 type  1   force =     0.00000000    0.00000000    0.00000000
     atom    5 type  2   force =     0.01912553   -0.03452222    0.00000000
     atom    6 type  2   force =    -0.01912553   -0.03452222    0.00000000
     atom    7 type  2   force =     0.01912553    0.03452222    0.00000000
     atom    8 type  2   force =    -0.01912553    0.03452222    0.00000000
     atom    9 type  3   force =    -0.06125914    0.01477068    0.00000000
     atom   10 type  3   force =     0.02300955   -0.00365695   -0.12151350
     atom   11 type  3   force =     0.02300955   -0.00365695    0.12151350
     atom   12 type  3   force =    -0.02300955   -0.00365695   -0.12151350
     atom   13 type  3   force =    -0.02300955   -0.00365695    0.12151350
     atom   14 type  3   force =     0.06125914    0.01477068    0.00000000
     atom   15 type  3   force =    -0.06125914   -0.01477068    0.00000000
     atom   16 type  3   force =     0.02300955    0.00365695   -0.12151350
     atom   17 type  3   force =     0.02300955    0.00365695    0.12151350
     atom   18 type  3   force =    -0.02300955    0.00365695   -0.12151350
     atom   19 type  3   force =    -0.02300955    0.00365695    0.12151350
     atom   20 type  3   force =     0.06125914   -0.01477068    0.00000000
     The ionic contribution  to forces
     atom    1 type  1   force =     0.00000000    0.00000000   -0.00000000
     atom    2 type  1   force =     0.00000000    0.00000000    0.00000000
     atom    3 type  1   force =    -0.00000000    0.00000000   -0.00000000
     atom    4 type  1   force =    -0.00000000    0.00000000    0.00000000
     atom    5 type  2   force =    -0.76492643   -0.65806586    0.00000000
     atom    6 type  2   force =     0.76492643   -0.65806586    0.00000000
     atom    7 type  2   force =    -0.76492643    0.65806586    0.00000000
     atom    8 type  2   force =     0.76492643    0.65806586    0.00000000
     atom    9 type  3   force =     0.85532103   -0.41141246    0.00000000
     atom   10 type  3   force =    -0.45595265    0.26016750    0.18121544
     atom   11 type  3   force =    -0.45595265    0.26016750   -0.18121544
     atom   12 type  3   force =     0.45595265    0.26016750    0.18121544
     atom   13 type  3   force =     0.45595265    0.26016750   -0.18121544
     atom   14 type  3   force =    -0.85532103   -0.41141246    0.00000000
     atom   15 type  3   force =     0.85532103    0.41141246   -0.00000000
     atom   16 type  3   force =    -0.45595265   -0.26016750    0.18121544
     atom   17 type  3   force =    -0.45595265   -0.26016750   -0.18121544
     atom   18 type  3   force =     0.45595265   -0.26016750    0.18121544
     atom   19 type  3   force =     0.45595265   -0.26016750   -0.18121544
     atom   20 type  3   force =    -0.85532103    0.41141246    0.00000000
     The local contribution  to forces
     atom    1 type  1   force =    -0.00014873   -0.00044669    0.00021771
     atom    2 type  1   force =    -0.00012309   -0.00043955   -0.00022896
     atom    3 type  1   force =     0.00010982    0.00036668   -0.00021668
     atom    4 type  1   force =     0.00011043    0.00038802    0.00019953
     atom    5 type  2   force =     0.75720610    0.67282661   -0.00034515
     atom    6 type  2   force =    -0.75712032    0.67172487   -0.00048344
     atom    7 type  2   force =     0.75744873   -0.67237735    0.00047010
     atom    8 type  2   force =    -0.75744263   -0.67174362    0.00032083
     atom    9 type  3   force =    -0.80879872    0.38317606    0.00010689
     atom   10 type  3   force =     0.42346991   -0.24794869   -0.06523784
     atom   11 type  3   force =     0.42343960   -0.24798001    0.06518844
     atom   12 type  3   force =    -0.42334614   -0.24795570   -0.06514780
     atom   13 type  3   force =    -0.42343519   -0.24799846    0.06511597
     atom   14 type  3   force =     0.80881179    0.38338420    0.00015017
     atom   15 type  3   force =    -0.80880186   -0.38315484   -0.00014799
     atom   16 type  3   force =     0.42344452    0.24798802   -0.06515156
     atom   17 type  3   force =     0.42334943    0.24796058    0.06516059
     atom   18 type  3   force =    -0.42340054    0.24798469   -0.06516774
     atom   19 type  3   force =    -0.42343609    0.24796464    0.06523113
     atom   20 type  3   force =     0.80879742   -0.38349317   -0.00012148
     The core correction contribution to forces
     atom    1 type  1   force =    -0.00000079   -0.00000269    0.00000018
     atom    2 type  1   force =     0.00000020   -0.00000228   -0.00000084
     atom    3 type  1   force =    -0.00000003    0.00000307   -0.00000252
     atom    4 type  1   force =     0.00000040    0.00000245    0.00000211
     atom    5 type  2   force =    -0.00216264    0.00073974   -0.00000354
     atom    6 type  2   force =     0.00216287    0.00072403   -0.00000656
     atom    7 type  2   force =    -0.00215815   -0.00072858    0.00000524
     atom    8 type  2   force =     0.00215866   -0.00072106    0.00000311
     atom    9 type  3   force =     0.00040220   -0.00018906   -0.00000030
     atom   10 type  3   force =    -0.00005492   -0.00016002    0.00128882
     atom   11 type  3   force =    -0.00005461   -0.00016004   -0.00128847
     atom   12 type  3   force =     0.00005552   -0.00015912    0.00128918
     atom   13 type  3   force =     0.00005498   -0.00015986   -0.00128865
     atom   14 type  3   force =    -0.00040246   -0.00018916   -0.00000028
     atom   15 type  3   force =     0.00040170    0.00018922    0.00000029
     atom   16 type  3   force =    -0.00005465    0.00016026    0.00128835
     atom   17 type  3   force =    -0.00005509    0.00015957   -0.00128934
     atom   18 type  3   force =     0.00005524    0.00015962    0.00128873
     atom   19 type  3   force =     0.00005534    0.00015953   -0.00128886
     atom   20 type  3   force =    -0.00040189    0.00018930    0.00000018
     The Hubbard contrib.    to forces
     atom    1 type  1   force =     0.00000000    0.00000000    0.00000000
     atom    2 type  1   force =     0.00000000    0.00000000    0.00000000
     atom    3 type  1   force =     0.00000000    0.00000000    0.00000000
     atom    4 type  1   force =     0.00000000    0.00000000    0.00000000
     atom    5 type  2   force =     0.00000000    0.00000000    0.00000000
     atom    6 type  2   force =     0.00000000    0.00000000    0.00000000
     atom    7 type  2   force =     0.00000000    0.00000000    0.00000000
     atom    8 type  2   force =     0.00000000    0.00000000    0.00000000
     atom    9 type  3   force =     0.00000000    0.00000000    0.00000000
     atom   10 type  3   force =     0.00000000    0.00000000    0.00000000
     atom   11 type  3   force =     0.00000000    0.00000000    0.00000000
     atom   12 type  3   force =     0.00000000    0.00000000    0.00000000
     atom   13 type  3   force =     0.00000000    0.00000000    0.00000000
     atom   14 type  3   force =     0.00000000    0.00000000    0.00000000
     atom   15 type  3   force =     0.00000000    0.00000000    0.00000000
     atom   16 type  3   force =     0.00000000    0.00000000    0.00000000
     atom   17 type  3   force =     0.00000000    0.00000000    0.00000000
     atom   18 type  3   force =     0.00000000    0.00000000    0.00000000
     atom   19 type  3   force =     0.00000000    0.00000000    0.00000000
     atom   20 type  3   force =     0.00000000    0.00000000    0.00000000
     The SCF correction term to forces
     atom    1 type  1   force =     0.00014255    0.00042642   -0.00020555
     atom    2 type  1   force =     0.00012656    0.00042747    0.00020747
     atom    3 type  1   force =    -0.00011737   -0.00035189    0.00020463
     atom    4 type  1   force =    -0.00011526   -0.00037437   -0.00019219
     atom    5 type  2   force =     0.00009350   -0.00070180    0.00035538
     atom    6 type  2   force =    -0.00015316    0.00043105    0.00050502
     atom    7 type  2   force =    -0.00017193    0.00022310   -0.00049311
     atom    8 type  2   force =     0.00018237   -0.00044116   -0.00033714
     atom    9 type  3   force =    -0.00003468    0.00011796   -0.00012368
     atom   10 type  3   force =    -0.00004285   -0.00004720    0.00006530
     atom   11 type  3   force =     0.00000656   -0.00001778    0.00000506
     atom   12 type  3   force =    -0.00005367    0.00001797   -0.00000352
     atom   13 type  3   force =     0.00001117    0.00002040    0.00006771
     atom   14 type  3   force =     0.00000552   -0.00010726   -0.00017362
     atom   15 type  3   force =    -0.00004558   -0.00013151    0.00016895
     atom   16 type  3   force =     0.00000662    0.00001583   -0.00005428
     atom   17 type  3   force =     0.00007627    0.00000520   -0.00001283
     atom   18 type  3   force =    -0.00000972   -0.00001901   -0.00001001
     atom   19 type  3   force =     0.00003290   -0.00000432   -0.00006641
     atom   20 type  3   force =     0.00002440    0.00022602    0.00013591

     Total force =     0.069963     Total SCF correction =     0.001684

     Computing stress (Cartesian axis) and pressure

     negative rho (up, down):  2.575E-01 0.000E+00
          total   stress  (Ry/bohr**3)                   (kbar)     P=     -312.31
  -0.00238390   0.00000000   0.00000000         -350.68        0.00        0.00
   0.00000000  -0.00222503   0.00000000            0.00     -327.31        0.00
   0.00000000   0.00000000  -0.00176012            0.00        0.00     -258.92

     kinetic stress (kbar)  22007.66      0.00      0.00
                                0.00  22081.95      0.00
                                0.00      0.00  22103.28

     local   stress (kbar)  -4260.96      0.03      0.00
                                0.03  -2840.03      0.00
                                0.00      0.00  -3482.92

     nonloc. stress (kbar)   6362.50      0.00      0.00
                                0.00   6347.90      0.00
                                0.00      0.00   6360.05

     hartree stress (kbar)   6383.55     -0.03     -0.00
                               -0.03   5910.79      0.00
                               -0.00      0.00   6119.92

     exc-cor stress (kbar)   4845.29      0.00      0.00
                                0.00   4842.79     -0.00
                                0.00     -0.00   4843.28

     corecor stress (kbar) -10835.44     -0.00      0.00
                               -0.00 -10834.98      0.00
                                0.00      0.00 -10835.85

     ewald   stress (kbar) -24853.28      0.00     -0.00
                                0.00 -25835.73      0.00
                               -0.00      0.00 -25366.70

     hubbard stress (kbar)      0.00      0.00      0.00
                                0.00      0.00      0.00
                                0.00      0.00      0.00

     DFT-D   stress (kbar)      0.00      0.00      0.00
                                0.00      0.00      0.00
                                0.00      0.00      0.00

     XDM     stress (kbar)      0.00      0.00      0.00
                                0.00      0.00      0.00
                                0.00      0.00      0.00

     dft-nl  stress (kbar)      0.00      0.00      0.00
                                0.00      0.00      0.00
                                0.00      0.00      0.00

     TS-vdW  stress (kbar)      0.00      0.00      0.00
                                0.00      0.00      0.00
                                0.00      0.00      0.00

[...]

                                0.00      0.00      0.00

     Writing all to output data dir new_calculations/myprefix.save/

     General routines

     Parallel routines

     PAW routines

   This run was terminated on:  14:58:29  21May2023

   JOB DONE.