     Program PWSCF v.7.0 starts on 21May2023 at  4:48:38

     Reading input from espresso_22491.pwi
Warning: card &CELL ignored
Warning: card / ignored

     Current dimensions of program PWSCF are:
     Max number of different atomic species (ntypx) = 10
     Max number of k-points (npk) =  40000
     Max angular momentum in pseudopotentials (lmaxx) =  4
     file O.pbe-n-kjpaw_psl.0.1.UPF: wavefunction(s)  2P renormalized

     gamma-point specific algorithms are used

     Subspace diagonalization in iterative solution of the eigenvalue problem:
     a serial algorithm will be used

     Using Slab Decomposition

     bravais-lattice index     =            0
     lattice parameter (alat)  =       9.4310  a.u.
     unit-cell volume          =    1474.6980 (a.u.)^3
     number of atoms/cell      =           19
     number of atomic types    =            4
     number of electrons       =       134.00
     number of Kohn-Sham states=           80
     kinetic-energy cutoff     =      30.0000  Ry
     charge density cutoff     =     240.0000  Ry
     scf convergence threshold =      1.0E-06
     mixing beta               =       0.7000
     number of iterations used =            8  plain     mixing
     Exchange-correlation=  SLA  PW   PBX  PBC
                           (   1   4   3   4   0   0   0)

     celldm(1)=   9.430962  celldm(2)=   0.000000  celldm(3)=   0.000000
     celldm(4)=   0.000000  celldm(5)=   0.000000  celldm(6)=   0.000000

     crystal axes: (cart. coord. in units of alat)
               a(1) = (   1.000000   0.000000   0.000000 )
               a(2) = (  -0.461313   0.887409   0.000000 )
               a(3) = (  -0.278634  -0.164821   1.981122 )

     reciprocal axes: (cart. coord. in units 2 pi/alat)
               b(1) = (  1.000000  0.519842  0.183893 )
               b(2) = (  0.000000  1.126876  0.093751 )
               b(3) = (  0.000000  0.000000  0.504764 )

     PseudoPot. # 1 for Li read from file:
     /home/pragov/projects/rrg-bengioy-ad/pragov/crystal_structure_design/SSSP/li_pbe_v1.4.uspp.F.UPF
     MD5 check sum: e912e257baa3777c20ea3d68f190483c
     Pseudo is Ultrasoft, Zval =  3.0
     Generated by new atomic code, or converted to UPF format
     Using radial grid of  751 points,  5 beta functions with:
                l(1) =   0
                l(2) =   0
                l(3) =   0
                l(4) =   1
                l(5) =   1
     Q(r) pseudized with 10 coefficients,  rinner =    1.150   1.150   1.150

     PseudoPot. # 2 for V  read from file:
     /home/pragov/projects/rrg-bengioy-ad/pragov/crystal_structure_design/SSSP/v_pbe_v1.4.uspp.F.UPF
     MD5 check sum: 22b79981416ebb76fdaf5b1b8640f6fb
     Pseudo is Ultrasoft + core correction, Zval = 13.0
     Generated by new atomic code, or converted to UPF format
     Using radial grid of  853 points,  6 beta functions with:
                l(1) =   0
                l(2) =   0
                l(3) =   1
                l(4) =   1
                l(5) =   2
                l(6) =   2
     Q(r) pseudized with  8 coefficients,  rinner =    1.100   1.100   1.100
                                                       1.100   1.100

     PseudoPot. # 3 for O  read from file:
     /home/pragov/projects/rrg-bengioy-ad/pragov/crystal_structure_design/SSSP/O.pbe-n-kjpaw_psl.0.1.UPF
     MD5 check sum: 0234752ac141de4415c5fc33072bef88
     Pseudo is Projector augmented-wave + core cor, Zval =  6.0
     Generated using "atomic" code by A. Dal Corso  v.5.0.99 svn rev. 10869
     Shape of augmentation charge: BESSEL
     Using radial grid of 1095 points,  4 beta functions with:
                l(1) =   0
                l(2) =   0
                l(3) =   1
                l(4) =   1
     Q(r) pseudized with 0 coefficients

     PseudoPot. # 4 for F  read from file:
     /home/pragov/projects/rrg-bengioy-ad/pragov/crystal_structure_design/SSSP/f_pbe_v1.4.uspp.F.UPF
     MD5 check sum: 4c38b6a325caf53ec0e86aed9459de46
     Pseudo is Ultrasoft, Zval =  7.0
     Generated by new atomic code, or converted to UPF format
     Using radial grid of  799 points,  4 beta functions with:
                l(1) =   0
                l(2) =   0
                l(3) =   1
                l(4) =   1
     Q(r) pseudized with  8 coefficients,  rinner =    0.950   0.950   0.950

     atomic species   valence    mass     pseudopotential
        Li             3.00     6.94000     Li( 1.00)
        V             13.00    50.94150     V ( 1.00)
        O              6.00    15.99900     O ( 1.00)
        F              7.00    18.99840     F ( 1.00)

     No symmetry found

                                    s                        frac. trans.

      isym =  1     identity

 cryst.   s( 1) = (     1          0          0      )
                  (     0          1          0      )
                  (     0          0          1      )

 cart.    s( 1) = (  1.0000000 -0.0000000  0.0000000 )
                  (  0.0000000  1.0000000  0.0000000 )
                  (  0.0000000  0.0000000  1.0000000 )

   Cartesian axes

     site n.     atom                  positions (alat units)
         1           Li  tau(   1) = (  -0.0442214   0.2749651   1.9468806  )
         2           Li  tau(   2) = (   0.2170297   0.7104154   1.0380447  )
         3           Li  tau(   3) = (  -0.5610967   0.6400811   1.9320598  )
         4           V   tau(   4) = (   0.4388915   0.0634277   0.4664453  )
         5           V   tau(   5) = (   0.3235329   0.3175782   1.4320959  )
         6           V   tau(   6) = (  -0.0963655   0.3713743   0.5225448  )
         7           V   tau(   7) = (  -0.1763429   0.6177066   1.5375827  )
         8           O   tau(   8) = (   0.7546007   0.1197016   0.7095607  )
         9           O   tau(   9) = (   0.6377221   0.3828055   0.3011445  )
        10           O   tau(  10) = (   0.4325037   0.0121373   1.2896452  )
        11           O   tau(  11) = (   0.1338572   0.1660531   0.2853906  )
        12           O   tau(  12) = (   0.1556472   0.0081130   1.7119532  )
        13           O   tau(  13) = (   0.1317487   0.5500349   1.7182690  )
        14           O   tau(  14) = (   0.0892227   0.7226855   0.2483495  )
        15           O   tau(  15) = (   0.0202874   0.3777061   1.2676112  )
        16           O   tau(  16) = (  -0.1431923   0.6955150   0.6986131  )
        17           O   tau(  17) = (  -0.3682420   0.3618059   1.7095203  )
        18           O   tau(  18) = (  -0.4849209   0.5680368   1.2724313  )
        19           F   tau(  19) = (   0.2606999   0.3676327   0.7125938  )

   Crystallographic axes

     site n.     atom                  positions (cryst. coord.)
         1           Li  tau(   1) = (  0.4567350  0.4923740  0.9827160  )
         2           Li  tau(   2) = (  0.7772230  0.8978680  0.5239680  )
         3           Li  tau(   3) = (  0.1269370  0.9024250  0.9752350  )
         4           V   tau(   4) = (  0.5576400  0.1152050  0.2354450  )
         5           V   tau(   5) = (  0.7519760  0.4921320  0.7228710  )
         6           V   tau(   6) = (  0.1927830  0.4674820  0.2637620  )
         7           V   tau(   7) = (  0.4275180  0.8402290  0.7761170  )
         8           O   tau(   8) = (  0.9473100  0.2014110  0.3581610  )
         9           O   tau(   9) = (  0.8920990  0.4596070  0.1520070  )
        10           O   tau(  10) = (  0.6759700  0.1345830  0.6509670  )
        11           O   tau(  11) = (  0.2726600  0.2138770  0.1440550  )
        12           O   tau(  12) = (  0.4746810  0.1696400  0.8641330  )
        13           O   tau(  13) = (  0.7336580  0.7809110  0.8673210  )
        14           O   tau(  14) = (  0.5105750  0.8376600  0.1253580  )
        15           O   tau(  15) = (  0.4497400  0.5444680  0.6398450  )
        16           O   tau(  16) = (  0.3468360  0.8492550  0.3526350  )
        17           O   tau(  17) = (  0.1342090  0.5679800  0.8629050  )
        18           O   tau(  18) = (  0.0443600  0.7593990  0.6422780  )
        19           F   tau(  19) = (  0.5828520  0.4810830  0.3596920  )

     number of k points=     1  Methfessel-Paxton smearing, width (Ry)=  0.0010
                       cart. coord. in units 2pi/alat
        k(    1) = (   0.0000000   0.0000000   0.0000000), wk =   2.0000000

                       cryst. coord.
        k(    1) = (   0.0000000   0.0000000   0.0000000), wk =   2.0000000

     Check: negative core charge=   -0.000016

     Initial potential from superposition of free atoms

     starting charge     132.6428, renormalised to     134.0000

     negative rho (up, down):  8.975E-04 0.000E+00
     Starting wfcs are  103 randomized atomic wfcs
     Checking if some PAW data can be deallocated...

     Self-consistent Calculation

     iteration #  1     ecut=    30.00 Ry     beta= 0.70
     Davidson diagonalization with overlap

     ethr =  1.00E-02,  avg # of iterations =  2.0

     negative rho (up, down):  1.080E-02 0.000E+00

     total energy              =   -1124.06843825 Ry
     estimated scf accuracy    <      11.51656682 Ry

[...]

     total energy              =   -1131.43495360 Ry
     estimated scf accuracy    <       0.00000717 Ry

     iteration # 22     ecut=    30.00 Ry     beta= 0.70
     Davidson diagonalization with overlap

     ethr =  2.97E-09,  avg # of iterations =  2.0

[...]

     End of self-consistent calculation

          k = 0.0000 0.0000 0.0000 (  2056 PWs)   bands (ev):

   -60.8358 -60.7523 -59.7354 -59.3952 -38.5320 -38.3856 -38.3727 -34.8553
   -34.7760 -34.7090 -34.6163 -34.4785 -34.4636 -33.6479 -33.5668 -33.5120
   -33.3378 -33.2032 -33.1724 -17.4948 -13.6340 -12.8878 -12.7943 -12.7070
   -12.6847 -12.6254 -11.5612 -11.5124 -11.4657 -11.4029 -11.2701  -0.6458
    -0.4580  -0.4195  -0.2246   0.1181   0.1488   0.3122   0.5633   0.7380
     0.8455   0.9524   1.0005   1.0837   1.2227   1.2851   1.5394   1.5898
     1.6243   1.7353   1.7782   1.9506   2.2855   2.4556   2.5829   2.6360
     2.7525   2.9006   3.0247   3.0937   3.3581   3.5990   3.9178   4.1210
     4.1813   4.3986   4.6209   6.0481   6.1052   6.4815   6.5314   6.8258
     6.8698   7.1679   7.4496   7.4932   7.6554   7.9130   7.9821   8.3814

     occupation numbers
     1.0000   1.0000   1.0000   1.0000   1.0000   1.0000   1.0000   1.0000
     1.0000   1.0000   1.0000   1.0000   1.0000   1.0000   1.0000   1.0000
     1.0000   1.0000   1.0000   1.0000   1.0000   1.0000   1.0000   1.0000
     1.0000   1.0000   1.0000   1.0000   1.0000   1.0000   1.0000   1.0000
     1.0000   1.0000   1.0000   1.0000   1.0000   1.0000   1.0000   1.0000
     1.0000   1.0000   1.0000   1.0000   1.0000   1.0000   1.0000   1.0000
     1.0000   1.0000   1.0000   1.0000   1.0000   1.0000   1.0000   1.0000
     1.0000   1.0000   1.0000   1.0000   1.0000   1.0000   1.0000   1.0000
     1.0000   1.0000   1.0000  -0.0000  -0.0000  -0.0000  -0.0000  -0.0000
    -0.0000  -0.0000  -0.0000  -0.0000  -0.0000  -0.0000  -0.0000  -0.0000

     the Fermi energy is     5.2601 ev

!    total energy              =   -1131.43495398 Ry
     estimated scf accuracy    <       0.00000051 Ry
     smearing contrib. (-TS)   =       0.00000000 Ry
     internal energy E=F+TS    =   -1131.43495398 Ry

     The total energy is F=E-TS. E is the sum of the following terms:
     one-electron contribution =    -648.71951060 Ry
     hartree contribution      =     371.60534217 Ry
     xc contribution           =    -178.87582752 Ry
     ewald contribution        =    -570.62082615 Ry
     one-center paw contrib.   =    -104.82413189 Ry
      -> PAW hartree energy AE =     321.22905397 Ry
      -> PAW hartree energy PS =    -320.12992480 Ry
      -> PAW xc energy AE      =    -188.19522142 Ry
      -> PAW xc energy PS      =      82.27196036 Ry
      -> total E_H with PAW    =     372.70447135 Ry
      -> total E_XC with PAW   =    -284.79908858 Ry

     convergence has been achieved in  22 iterations

     negative rho (up, down):  3.657E-03 0.000E+00

     Forces acting on atoms (cartesian axes, Ry/au):

     atom    1 type  1   force =    -0.00265112    0.00116376   -0.00516685
     atom    2 type  1   force =     0.00240339   -0.00177095    0.00217131
     atom    3 type  1   force =    -0.00033485   -0.00002097   -0.00287065
     atom    4 type  2   force =     0.01362131   -0.02516407   -0.03516534
     atom    5 type  2   force =    -0.00438791    0.00777298   -0.06412752
     atom    6 type  2   force =    -0.04461055   -0.03071332    0.01979596
     atom    7 type  2   force =    -0.01251523   -0.01149342    0.05822571
     atom    8 type  3   force =     0.01773178    0.03506554   -0.02369904
     atom    9 type  3   force =     0.01773762    0.00256040    0.03039365
     atom   10 type  3   force =     0.00159908    0.01755644    0.02943659
     atom   11 type  3   force =     0.00410238   -0.01218611    0.01334848
     atom   12 type  3   force =     0.00861602   -0.01344747   -0.02704774
     atom   13 type  3   force =    -0.00967575    0.01718614   -0.01536101
     atom   14 type  3   force =    -0.00900127    0.02293855    0.01999457
     atom   15 type  3   force =     0.02350594   -0.01095577    0.01917669
     atom   16 type  3   force =    -0.00568378   -0.00178139   -0.01524056
     atom   17 type  3   force =     0.00951461   -0.00021503   -0.01756329
     atom   18 type  3   force =    -0.01650242   -0.00610949    0.01984642
     atom   19 type  4   force =     0.00653074    0.00961417   -0.00614739
     The non-local contrib.  to forces
     atom    1 type  1   force =    -0.00029419   -0.01646958    0.06418764
     atom    2 type  1   force =     0.00585656   -0.01107459   -0.08535106
     atom    3 type  1   force =     0.03132845    0.01529923    0.07826149
     atom    4 type  2   force =     0.08550396   -0.04937412   -0.05475147
     atom    5 type  2   force =    -0.02455350    0.00194849    0.05139921
     atom    6 type  2   force =    -0.07473870    0.00593392   -0.04666979
     atom    7 type  2   force =    -0.02717040   -0.00722630    0.00444224
     atom    8 type  3   force =    -0.10431425    0.53510864   -0.86299323
     atom    9 type  3   force =     0.47783963   -0.45058746    0.79293833
     atom   10 type  3   force =    -0.38145652    0.21601037    0.57288128
     atom   11 type  3   force =     0.32385276    0.19781656    0.58831160
     atom   12 type  3   force =     0.24682156   -0.40503116   -0.39590838
     atom   13 type  3   force =    -0.33948098   -0.29498698   -0.51186365
     atom   14 type  3   force =    -0.45056928    0.41080923    0.70979859
     atom   15 type  3   force =     0.57473795    0.32570089    0.75694120
     atom   16 type  3   force =     0.50308349   -0.06729477   -0.95811549
     atom   17 type  3   force =     0.08198504    0.59012737   -0.45829470
     atom   18 type  3   force =    -0.19930021   -0.47894506    0.66074172
     atom   19 type  4   force =    -0.45878267   -0.29951850   -0.64318552
     The ionic contribution  to forces
     atom    1 type  1   force =     0.16217130   -0.88005356    1.32326378
     atom    2 type  1   force =     1.25248461    1.36963963   -1.51726138
     atom    3 type  1   force =    -1.59073810    0.51807473    1.64198609
     atom    4 type  2   force =     0.12997265    2.06578514    2.73873030
     atom    5 type  2   force =     1.39250044   -2.87069823   -3.38887649
     atom    6 type  2   force =     1.94107725    1.41434664    4.32605399
     atom    7 type  2   force =    -0.10466737    1.16419577   -3.26776735
     atom    8 type  3   force =     1.90096076   -7.49183595   14.68857308
     atom    9 type  3   force =    -5.61623379    6.13854512  -11.84082449
     atom   10 type  3   force =     5.90414449   -2.63460492  -11.93317840
     atom   11 type  3   force =    -4.39558561   -2.62419783  -10.83882414
     atom   12 type  3   force =    -5.15822948    5.20012440    8.70355479
     atom   13 type  3   force =     5.26212128    3.66314701   10.71356342
     atom   14 type  3   force =     6.82662218   -5.36916764  -10.69197115
     atom   15 type  3   force =    -7.24987887   -4.27361265  -13.47244514
     atom   16 type  3   force =    -6.43529525    1.02771616   14.58396505
     atom   17 type  3   force =    -0.75800758   -8.61318714    9.38092998
     atom   18 type  3   force =     1.45544627    7.45020820  -13.55293074
     atom   19 type  4   force =     5.08113480    4.74557512   12.40345882
     The local contribution  to forces
     atom    1 type  1   force =    -0.16454204    0.89766494   -1.39252291
     atom    2 type  1   force =    -1.25594307   -1.36036500    1.60477399
     atom    3 type  1   force =     1.55904641   -0.53338109   -1.72304158
     atom    4 type  2   force =    -0.20129577   -2.05387248   -2.72772550
     atom    5 type  2   force =    -1.37406937    2.87805923    3.26457855
     atom    6 type  2   force =    -1.92477405   -1.45533616   -4.26300580
     atom    7 type  2   force =     0.11778609   -1.16588095    3.32554867
     atom    8 type  3   force =    -1.78022969    6.99602463  -13.85654322
     atom    9 type  3   force =     5.15994763   -5.68952265   11.08494364
     atom   10 type  3   force =    -5.52433102    2.43706922   11.39395308
     atom   11 type  3   force =     4.07812246    2.41657238   10.26899479
     atom   12 type  3   force =     4.92172624   -4.81100306   -8.33741441
     atom   13 type  3   force =    -4.93459286   -3.35415669  -10.22131628
     atom   14 type  3   force =    -6.38849966    4.98310357   10.00749833
     atom   15 type  3   force =     6.70277515    3.94046589   12.74060354
     atom   16 type  3   force =     5.93100497   -0.96312552  -13.64931988
     atom   17 type  3   force =     0.68567687    8.02742791   -8.94376594
     atom   18 type  3   force =    -1.27383986   -6.98084350   12.91711568
     atom   19 type  4   force =    -4.61611982   -4.43620959  -11.76618450
     The core correction contribution to forces
     atom    1 type  1   force =     0.00000000    0.00000000    0.00000000
     atom    2 type  1   force =     0.00000000    0.00000000    0.00000000
     atom    3 type  1   force =     0.00000000    0.00000000    0.00000000
     atom    4 type  2   force =    -0.00071137    0.01192019    0.00872567
     atom    5 type  2   force =     0.00174938   -0.00160891    0.00788212
     atom    6 type  2   force =     0.01400878    0.00447499    0.00379520
     atom    7 type  2   force =     0.00158074   -0.00239332   -0.00454789
     atom    8 type  3   force =     0.00167360   -0.00402818    0.00747028
     atom    9 type  3   force =    -0.00346823    0.00435725   -0.00647189
     atom   10 type  3   force =     0.00339670   -0.00098070   -0.00475456
     atom   11 type  3   force =    -0.00269624   -0.00219776   -0.00510788
     atom   12 type  3   force =    -0.00190059    0.00266990    0.00300116
     atom   13 type  3   force =     0.00250852    0.00320484    0.00454391
     atom   14 type  3   force =     0.00355949   -0.00223789   -0.00543149
     atom   15 type  3   force =    -0.00416096   -0.00357490   -0.00657657
     atom   16 type  3   force =    -0.00459348    0.00044845    0.00851408
     atom   17 type  3   force =    -0.00022093   -0.00480428    0.00382830
     atom   18 type  3   force =     0.00112229    0.00360448   -0.00570786
     atom   19 type  4   force =     0.00000000    0.00000000    0.00000000
     The Hubbard contrib.    to forces
     atom    1 type  1   force =     0.00000000    0.00000000    0.00000000
     atom    2 type  1   force =     0.00000000    0.00000000    0.00000000
     atom    3 type  1   force =     0.00000000    0.00000000    0.00000000
     atom    4 type  2   force =     0.00000000    0.00000000    0.00000000
     atom    5 type  2   force =     0.00000000    0.00000000    0.00000000
     atom    6 type  2   force =     0.00000000    0.00000000    0.00000000
     atom    7 type  2   force =     0.00000000    0.00000000    0.00000000
     atom    8 type  3   force =     0.00000000    0.00000000    0.00000000
     atom    9 type  3   force =     0.00000000    0.00000000    0.00000000
     atom   10 type  3   force =     0.00000000    0.00000000    0.00000000
     atom   11 type  3   force =     0.00000000    0.00000000    0.00000000
     atom   12 type  3   force =     0.00000000    0.00000000    0.00000000
     atom   13 type  3   force =     0.00000000    0.00000000    0.00000000
     atom   14 type  3   force =     0.00000000    0.00000000    0.00000000
     atom   15 type  3   force =     0.00000000    0.00000000    0.00000000
     atom   16 type  3   force =     0.00000000    0.00000000    0.00000000
     atom   17 type  3   force =     0.00000000    0.00000000    0.00000000
     atom   18 type  3   force =     0.00000000    0.00000000    0.00000000
     atom   19 type  4   force =     0.00000000    0.00000000    0.00000000
     The SCF correction term to forces
     atom    1 type  1   force =     0.00001552    0.00001706   -0.00009525
     atom    2 type  1   force =     0.00000700    0.00002413    0.00000986
     atom    3 type  1   force =     0.00003011   -0.00001874   -0.00007654
     atom    4 type  2   force =     0.00015355    0.00037231   -0.00014423
     atom    5 type  2   force =    -0.00001316    0.00006752    0.00088919
     atom    6 type  2   force =    -0.00018212   -0.00013759   -0.00037753
     atom    7 type  2   force =    -0.00004258   -0.00019351    0.00055014
     atom    8 type  3   force =    -0.00035693   -0.00020850   -0.00020586
     atom    9 type  3   force =    -0.00034591   -0.00023675   -0.00019185
     atom   10 type  3   force =    -0.00015286    0.00005758    0.00053530
     atom   11 type  3   force =     0.00041073   -0.00018435   -0.00002579
     atom   12 type  3   force =     0.00020000   -0.00021244   -0.00028080
     atom   13 type  3   force =    -0.00022999   -0.00002693   -0.00028831
     atom   14 type  3   force =    -0.00011229    0.00042639    0.00010040
     atom   15 type  3   force =     0.00003438    0.00006012    0.00065376
     atom   16 type  3   force =     0.00011822    0.00046941   -0.00028420
     atom   17 type  3   force =     0.00008291    0.00021622   -0.00026082
     atom   18 type  3   force =     0.00007081   -0.00013849    0.00062772
     atom   19 type  4   force =     0.00030014   -0.00023774   -0.00023609

     Total force =     0.152912     Total SCF correction =     0.002114

     Computing stress (Cartesian axis) and pressure

     negative rho (up, down):  3.657E-03 0.000E+00
          total   stress  (Ry/bohr**3)                   (kbar)     P=     -453.34
  -0.00307327  -0.00001012  -0.00001827         -452.09       -1.49       -2.69
  -0.00001012  -0.00313458   0.00004110           -1.49     -461.11        6.05
  -0.00001827   0.00004110  -0.00303729           -2.69        6.05     -446.80

     kinetic stress (kbar)  24019.00    -18.23      6.26
                              -18.23  24029.07     35.65
                                6.26     35.65  24020.03

     local   stress (kbar) -22710.16    305.77    135.14
                              305.77 -22976.60   -245.04
                              135.14   -245.04   3413.49

     nonloc. stress (kbar)   1819.15      5.40     -3.12
                                5.40   1805.66     -0.29
                               -3.12     -0.29   1820.10

     hartree stress (kbar)  16150.41   -117.68   -108.64
                             -117.68  16139.71     83.01
                             -108.64     83.01   4778.51

     exc-cor stress (kbar)  -4085.61     -1.19      0.52
                               -1.19  -4083.74      1.02
                                0.52      1.02  -4092.20

     corecor stress (kbar)  -1495.68      0.17     -0.07
                                0.17  -1495.78     -0.44
                               -0.07     -0.44  -1494.42

     ewald   stress (kbar) -14149.20   -175.74    -32.79
                             -175.74 -13879.44    132.14
                              -32.79    132.14 -28892.31

     hubbard stress (kbar)      0.00      0.00      0.00
                                0.00      0.00      0.00
                                0.00      0.00      0.00

     DFT-D   stress (kbar)      0.00      0.00      0.00
                                0.00      0.00      0.00
                                0.00      0.00      0.00

     XDM     stress (kbar)      0.00      0.00      0.00
                                0.00      0.00      0.00
                                0.00      0.00      0.00

     dft-nl  stress (kbar)      0.00      0.00      0.00
                                0.00      0.00      0.00
                                0.00      0.00      0.00

     TS-vdW  stress (kbar)      0.00      0.00      0.00
                                0.00      0.00      0.00
                                0.00      0.00      0.00

[...]

                                0.00      0.00      0.00

     Writing all to output data dir new_calculations/myprefix.save/

     General routines

     Parallel routines

     PAW routines

   This run was terminated on:   4:49: 5  21May2023

   JOB DONE.