     Program PWSCF v.7.0 starts on 20May2023 at 18:58:20

     Reading input from espresso_20174.pwi
Warning: card &CELL ignored
Warning: card / ignored

     Current dimensions of program PWSCF are:
     Max number of different atomic species (ntypx) = 10
     Max number of k-points (npk) =  40000
     Max angular momentum in pseudopotentials (lmaxx) =  4
     file K.pbe-spn-kjpaw_psl.1.0.0.UPF: wavefunction(s)  3S renormalized

     gamma-point specific algorithms are used
     Message from routine setup:
     using ibrav=0 with symmetry is DISCOURAGED, use correct ibrav instead

     Subspace diagonalization in iterative solution of the eigenvalue problem:
     a serial algorithm will be used

     Using Slab Decomposition

     bravais-lattice index     =            0
     lattice parameter (alat)  =      26.7835  a.u.
     unit-cell volume          =    2975.0077 (a.u.)^3
     number of atoms/cell      =           18
     number of atomic types    =            3
     number of electrons       =       192.00
     number of Kohn-Sham states=          115
     kinetic-energy cutoff     =      30.0000  Ry
     charge density cutoff     =     240.0000  Ry
     scf convergence threshold =      1.0E-06
     mixing beta               =       0.7000
     number of iterations used =            8  plain     mixing
     Exchange-correlation=  SLA  PW   PBX  PBC
                           (   1   4   3   4   0   0   0)

     celldm(1)=  26.783475  celldm(2)=   0.000000  celldm(3)=   0.000000
     celldm(4)=   0.000000  celldm(5)=   0.000000  celldm(6)=   0.000000

     crystal axes: (cart. coord. in units of alat)
               a(1) = (   1.000000   0.000000   0.000000 )
               a(2) = (   0.852742   0.416300   0.000000 )
               a(3) = (   0.147258  -0.186980   0.371947 )

     reciprocal axes: (cart. coord. in units 2 pi/alat)
               b(1) = (  1.000000 -2.048383 -1.425648 )
               b(2) = (  0.000000  2.402112  1.207559 )
               b(3) = (  0.000000  0.000000  2.688558 )

     PseudoPot. # 1 for K  read from file:
     /home/pragov/projects/rrg-bengioy-ad/pragov/crystal_structure_design/SSSP/K.pbe-spn-kjpaw_psl.1.0.0.UPF
     MD5 check sum: 7d58810084cac21f60fbe77ea2b688fd
     Pseudo is Projector augmented-wave + core cor, Zval =  9.0
     Generated using "atomic" code by A. Dal Corso  v.5.1
     Shape of augmentation charge: PSQ
     Using radial grid of 1165 points,  6 beta functions with:
                l(1) =   0
                l(2) =   0
                l(3) =   1
                l(4) =   1
                l(5) =   2
                l(6) =   2
     Q(r) pseudized with 0 coefficients

     PseudoPot. # 2 for Pd read from file:
     /home/pragov/projects/rrg-bengioy-ad/pragov/crystal_structure_design/SSSP/Pd_ONCV_PBE-1.0.oncvpsp.upf
     MD5 check sum: eb77f42b51d86fb18e25f68156a31cf1
     Pseudo is Norm-conserving, Zval = 18.0
     Generated using ONCVPSP code by D. R. Hamann
     Using radial grid of 1410 points,  6 beta functions with:
                l(1) =   0
                l(2) =   0
                l(3) =   1
                l(4) =   1
                l(5) =   2
                l(6) =   2

     PseudoPot. # 3 for S  read from file:
     /home/pragov/projects/rrg-bengioy-ad/pragov/crystal_structure_design/SSSP/s_pbe_v1.4.uspp.F.UPF
     MD5 check sum: 88d86576ff6df21479756cfb9bdac1df
     Pseudo is Ultrasoft + core correction, Zval =  6.0
     Generated by new atomic code, or converted to UPF format
     Using radial grid of  907 points,  6 beta functions with:
                l(1) =   0
                l(2) =   0
                l(3) =   1
                l(4) =   1
                l(5) =   2
                l(6) =   2
     Q(r) pseudized with  8 coefficients,  rinner =    1.300   1.300   1.300
                                                       1.300   1.300

     atomic species   valence    mass     pseudopotential
        K              9.00    39.09830     K ( 1.00)
        Pd            18.00   106.42000     Pd( 1.00)
        S              6.00    32.06000     S ( 1.00)

      2 Sym. Ops., with inversion, found ( 1 have fractional translation)

                                    s                        frac. trans.

      isym =  1     identity

 cryst.   s( 1) = (     1          0          0      )
                  (     0          1          0      )
                  (     0          0          1      )

 cart.    s( 1) = (  1.0000000  0.0000000 -0.0000000 )
                  (  0.0000000  1.0000000  0.0000000 )
                  (  0.0000000  0.0000000  1.0000000 )

      isym =  2     inversion

 cryst.   s( 2) = (    -1          0          0      )    f =( -0.2500000 )
                  (     0         -1          0      )       ( -0.2500000 )
                  (     0          0         -1      )       ( -0.2500000 )

 cart.    s( 2) = ( -1.0000000 -0.0000000  0.0000000 )    f =( -0.5000000 )
                  (  0.0000000 -1.0000000 -0.0000000 )       ( -0.0573300 )
                  (  0.0000000  0.0000000 -1.0000000 )       ( -0.0929867 )

   Cartesian axes

     site n.     atom                  positions (alat units)
         1           K   tau(   1) = (   0.2796750  -0.1401403   0.3430680  )
         2           K   tau(   2) = (   0.6324172   0.1041699   0.0641080  )
         3           K   tau(   3) = (   0.3675828   0.0104901   0.1218653  )
         4           K   tau(   4) = (   1.7203250   0.3694604   0.0288787  )
         5           Pd  tau(   5) = (   0.5751297  -0.0356292   0.2786327  )
         6           Pd  tau(   6) = (   1.0751297   0.0217008   0.3716193  )
         7           Pd  tau(   7) = (   1.9248703   0.3222793   0.1863006  )
         8           Pd  tau(   8) = (   1.0000000   0.1146600   0.1859733  )
         9           Pd  tau(   9) = (   1.5000000   0.1719900   0.2789600  )
        10           Pd  tau(  10) = (   1.4248703   0.2649493   0.0933140  )
        11           S   tau(  11) = (   1.1494141   0.0488364   0.2236798  )
        12           S   tau(  12) = (   1.4483256   0.0350354   0.3605216  )
        13           S   tau(  13) = (   1.5516744   0.3063747   0.1932300  )
        14           S   tau(  14) = (   1.6494141   0.1087364   0.3208349  )
        15           S   tau(  15) = (   0.8505859   0.1779137   0.1440985  )
        16           S   tau(  16) = (   0.9483256  -0.0197246   0.2717033  )
        17           S   tau(  17) = (   1.0516744   0.2516147   0.1044117  )
        18           S   tau(  18) = (   1.3505859   0.2378137   0.2412535  )

   Crystallographic axes

     site n.     atom                  positions (cryst. coord.)
         1           K   tau(   1) = (  0.0776420  0.0776420  0.9223580  )
         2           K   tau(   2) = (  0.3276420  0.3276420  0.1723580  )
         3           K   tau(   3) = (  0.1723580  0.1723580  0.3276420  )
         4           K   tau(   4) = (  0.9223580  0.9223580  0.0776420  )
         5           Pd  tau(   5) = (  0.2508800  0.2508800  0.7491200  )
         6           Pd  tau(   6) = (  0.5008800  0.5008800  0.9991200  )
         7           Pd  tau(   7) = (  0.9991200  0.9991200  0.5008800  )
         8           Pd  tau(   8) = (  0.5000000  0.5000000  0.5000000  )
         9           Pd  tau(   9) = (  0.7500000  0.7500000  0.7500000  )
        10           Pd  tau(  10) = (  0.7491200  0.7491200  0.2508800  )
        11           S   tau(  11) = (  0.7304900  0.3874170  0.6013760  )
        12           S   tau(  12) = (  0.8625830  0.5195100  0.9692830  )
        13           S   tau(  13) = (  0.6486240  0.9692830  0.5195100  )
        14           S   tau(  14) = (  0.9692830  0.6486240  0.8625830  )
        15           S   tau(  15) = (  0.2807170  0.6013760  0.3874170  )
        16           S   tau(  16) = (  0.6013760  0.2807170  0.7304900  )
        17           S   tau(  17) = (  0.3874170  0.7304900  0.2807170  )
        18           S   tau(  18) = (  0.5195100  0.8625830  0.6486240  )

     number of k points=     1  Methfessel-Paxton smearing, width (Ry)=  0.0010
                       cart. coord. in units 2pi/alat
        k(    1) = (   0.0000000   0.0000000   0.0000000), wk =   2.0000000

                       cryst. coord.
        k(    1) = (   0.0000000   0.0000000   0.0000000), wk =   2.0000000

     Check: negative core charge=   -0.000002

     Initial potential from superposition of free atoms

     starting charge     191.9223, renormalised to     192.0000
     Starting wfcs are  124 randomized atomic wfcs
     Checking if some PAW data can be deallocated...

     Self-consistent Calculation

     iteration #  1     ecut=    30.00 Ry     beta= 0.70
     Davidson diagonalization with overlap

     ethr =  1.00E-02,  avg # of iterations =  7.0

     Threshold (ethr) on eigenvalues was too large:
     Diagonalizing with lowered threshold

     Davidson diagonalization with overlap

[...]

     total energy              =   -2163.24932141 Ry
     estimated scf accuracy    <       1.36264484 Ry

[...]

     total energy              =   -2163.91288281 Ry
     estimated scf accuracy    <       0.00000688 Ry

     iteration # 10     ecut=    30.00 Ry     beta= 0.70
     Davidson diagonalization with overlap

     ethr =  3.58E-09,  avg # of iterations =  3.0

     End of self-consistent calculation

          k = 0.0000 0.0000 0.0000 (  4125 PWs)   bands (ev):

   -78.0997 -78.0957 -78.0832 -78.0804 -78.0795 -78.0773 -43.7436 -43.7406
   -43.7031 -43.6986 -43.6884 -43.6855 -43.6831 -43.6809 -43.6808 -43.6777
   -43.6670 -43.6646 -43.1225 -43.1190 -43.1161 -43.1137 -43.0933 -43.0907
   -23.2792 -23.2748 -23.2682 -23.2637  -6.8899  -6.8657  -6.8302  -6.8264
    -6.7922  -6.7530  -6.7424  -6.7391  -6.7332  -6.7300  -6.7215  -6.7172
    -6.5352  -6.3865  -5.4084  -5.3844  -5.3695  -5.3458  -5.3134  -5.1767
     1.0239   1.3031   1.8157   1.8371   1.8540   1.8677   2.1829   2.1922
     2.1995   2.2171   3.1925   3.3606   3.6215   3.8345   3.9182   3.9330
     3.9947   4.0008   4.1197   4.1252   4.1775   4.2234   4.4932   4.5026
     4.6314   4.6388   4.6657   4.6736   4.8149   4.8214   4.8295   4.8451
     4.9903   5.2362   5.2449   5.2691   5.2793   5.3237   5.3320   5.4439
     5.5931   5.8758   6.1561   6.1685   6.8322   6.9035   6.9237   6.9716
     8.4750   8.5093   8.6380   8.6477   9.6288   9.8051   9.8306  10.7990
    10.9208  10.9321  10.9978  11.0080  11.3749  11.7745  12.2690  12.5851
    12.7334  12.7375  12.8992

     occupation numbers
     1.0000   1.0000   1.0000   1.0000   1.0000   1.0000   1.0000   1.0000
     1.0000   1.0000   1.0000   1.0000   1.0000   1.0000   1.0000   1.0000
     1.0000   1.0000   1.0000   1.0000   1.0000   1.0000   1.0000   1.0000
     1.0000   1.0000   1.0000   1.0000   1.0000   1.0000   1.0000   1.0000
     1.0000   1.0000   1.0000   1.0000   1.0000   1.0000   1.0000   1.0000
     1.0000   1.0000   1.0000   1.0000   1.0000   1.0000   1.0000   1.0000
     1.0000   1.0000   1.0000   1.0000   1.0000   1.0000   1.0000   1.0000
     1.0000   1.0000   1.0000   1.0000   1.0000   1.0000   1.0000   1.0000
     1.0000   1.0000   1.0000   1.0000   1.0000   1.0000   1.0000   1.0000
     1.0000   1.0000   1.0000   1.0000   1.0000   1.0000   1.0000   1.0000
     1.0000   1.0000   1.0000   1.0000   1.0000   1.0000   1.0000   1.0000
     1.0000   1.0000   1.0000   1.0000   1.0000   1.0000   1.0000   1.0000
    -0.0000  -0.0000  -0.0000  -0.0000  -0.0000  -0.0000  -0.0000  -0.0000
    -0.0000  -0.0000  -0.0000  -0.0000  -0.0000  -0.0000  -0.0000  -0.0000
    -0.0000  -0.0000  -0.0000

     the Fermi energy is     7.3308 ev

!    total energy              =   -2163.91288399 Ry
     estimated scf accuracy    <       0.00000091 Ry
     smearing contrib. (-TS)   =       0.00000000 Ry
     internal energy E=F+TS    =   -2163.91288399 Ry

     The total energy is F=E-TS. E is the sum of the following terms:
     one-electron contribution =   -1485.22820285 Ry
     hartree contribution      =     796.89166899 Ry
     xc contribution           =    -261.20970811 Ry
     ewald contribution        =    -992.70185804 Ry
     one-center paw contrib.   =    -221.66478398 Ry
      -> PAW hartree energy AE =     150.53955704 Ry
      -> PAW hartree energy PS =    -149.70005905 Ry
      -> PAW xc energy AE      =    -264.83276646 Ry
      -> PAW xc energy PS      =      42.32848449 Ry
      -> total E_H with PAW    =     797.73116697 Ry
      -> total E_XC with PAW   =    -483.71399007 Ry

     convergence has been achieved in  10 iterations

     Forces acting on atoms (cartesian axes, Ry/au):

     atom    1 type  1   force =     0.00233095    0.00083193   -0.00050982
     atom    2 type  1   force =     0.00222375    0.00078082   -0.00048259
     atom    3 type  1   force =    -0.00233095   -0.00083193    0.00050982
     atom    4 type  1   force =    -0.00222375   -0.00078082    0.00048259
     atom    5 type  2   force =     0.00186939    0.00065416   -0.00041169
     atom    6 type  2   force =     0.00171953    0.00061836   -0.00038880
     atom    7 type  2   force =    -0.00186939   -0.00065416    0.00041169
     atom    8 type  2   force =    -0.00008059   -0.00004152    0.00002219
     atom    9 type  2   force =     0.00008059    0.00004152   -0.00002219
     atom   10 type  2   force =    -0.00171953   -0.00061836    0.00038880
     atom   11 type  3   force =    -0.03923002   -0.01425614    0.01157873
     atom   12 type  3   force =     0.04056588    0.01397080   -0.00582720
     atom   13 type  3   force =    -0.04059261   -0.01148128    0.00985977
     atom   14 type  3   force =    -0.03923386   -0.01675722    0.00755053
     atom   15 type  3   force =     0.03923386    0.01675722   -0.00755053
     atom   16 type  3   force =     0.04059261    0.01148128   -0.00985977
     atom   17 type  3   force =    -0.04056588   -0.01397080    0.00582720
     atom   18 type  3   force =     0.03923002    0.01425614   -0.01157873
     The non-local contrib.  to forces
     atom    1 type  1   force =    -0.00003650   -0.00001430    0.00001155
     atom    2 type  1   force =    -0.00005147   -0.00001736    0.00001661
     atom    3 type  1   force =     0.00003650    0.00001430   -0.00001155
     atom    4 type  1   force =     0.00005147    0.00001736   -0.00001661
     atom    5 type  2   force =     0.01438310    0.00510641   -0.00312547
     atom    6 type  2   force =     0.01432925    0.00507035   -0.00311219
     atom    7 type  2   force =    -0.01438310   -0.00510641    0.00312547
     atom    8 type  2   force =    -0.00003015    0.00000482   -0.00001118
     atom    9 type  2   force =     0.00003015   -0.00000482    0.00001118
     atom   10 type  2   force =    -0.01432925   -0.00507035    0.00311219
     atom   11 type  3   force =    -0.24522712   -0.09557118    0.05135628
     atom   12 type  3   force =     0.24969324    0.07949896   -0.05658871
     atom   13 type  3   force =    -0.24970897   -0.08626310    0.04562128
     atom   14 type  3   force =    -0.24517594   -0.08879531    0.06231414
     atom   15 type  3   force =     0.24517594    0.08879531   -0.06231414
     atom   16 type  3   force =     0.24970897    0.08626310   -0.04562128
     atom   17 type  3   force =    -0.24969324   -0.07949896    0.05658871
     atom   18 type  3   force =     0.24522712    0.09557118   -0.05135628
     The ionic contribution  to forces
     atom    1 type  1   force =     8.01420892    2.83486372   -1.74780726
     atom    2 type  1   force =     8.01420892    2.83486372   -1.74780726
     atom    3 type  1   force =    -8.01420892   -2.83486372    1.74780726
     atom    4 type  1   force =    -8.01420892   -2.83486372    1.74780726
     atom    5 type  2   force =     1.28628505    0.45499723   -0.28052405
     atom    6 type  2   force =     1.28628505    0.45499723   -0.28052405
     atom    7 type  2   force =    -1.28628505   -0.45499723    0.28052405
     atom    8 type  2   force =    -0.00000000    0.00000000    0.00000000
     atom    9 type  2   force =     0.00000000   -0.00000000   -0.00000000
     atom   10 type  2   force =    -1.28628505   -0.45499723    0.28052405
     atom   11 type  3   force =    16.39728851    6.11328274   -3.61961859
     atom   12 type  3   force =   -16.60236153   -5.55967359    3.57722746
     atom   13 type  3   force =    16.60236153    5.69321473   -3.36062982
     atom   14 type  3   force =    16.39728851    5.97974161   -3.83621622
     atom   15 type  3   force =   -16.39728851   -5.97974161    3.83621622
     atom   16 type  3   force =   -16.60236153   -5.69321473    3.36062982
     atom   17 type  3   force =    16.60236153    5.55967359   -3.57722746
     atom   18 type  3   force =   -16.39728851   -6.11328274    3.61961859
     The local contribution  to forces
     atom    1 type  1   force =    -8.01220587   -2.83410008    1.74736110
     atom    2 type  1   force =    -8.01216576   -2.83420911    1.74737802
     atom    3 type  1   force =     8.01135553    2.83379895   -1.74718739
     atom    4 type  1   force =     8.01255932    2.83430508   -1.74748309
     atom    5 type  2   force =    -1.29881678   -0.45886238    0.28345653
     atom    6 type  2   force =    -1.29697059   -0.45874323    0.28323474
     atom    7 type  2   force =     1.30060266    0.45970830   -0.28383502
     atom    8 type  2   force =     0.00154783    0.00091162   -0.00052365
     atom    9 type  2   force =     0.00033053   -0.00044924    0.00034871
     atom   10 type  2   force =     1.29866319    0.45952042   -0.28386060
     atom   11 type  3   force =   -16.20500919   -6.03736605    3.58256660
     atom   12 type  3   force =    16.40642188    5.49820785   -3.52937827
     atom   13 type  3   force =   -16.40661633   -5.62285012    3.32728878
     atom   14 type  3   force =   -16.20439734   -5.91260140    3.78477209
     atom   15 type  3   force =    16.20540452    5.91291575   -3.78471393
     atom   16 type  3   force =    16.40749343    5.62324740   -3.32775541
     atom   17 type  3   force =   -16.40719793   -5.49853563    3.52976384
     atom   18 type  3   force =    16.20404360    6.03711948   -3.58257948
     The core correction contribution to forces
     atom    1 type  1   force =    -0.00020967   -0.00007361    0.00004502
     atom    2 type  1   force =    -0.00021335   -0.00007645    0.00004625
     atom    3 type  1   force =     0.00020971    0.00007397   -0.00004512
     atom    4 type  1   force =     0.00021328    0.00007618   -0.00004620
     atom    5 type  2   force =     0.00000000    0.00000000    0.00000000
     atom    6 type  2   force =     0.00000000    0.00000000    0.00000000
     atom    7 type  2   force =     0.00000000    0.00000000    0.00000000
     atom    8 type  2   force =     0.00000000    0.00000000    0.00000000
     atom    9 type  2   force =     0.00000000    0.00000000    0.00000000
     atom   10 type  2   force =     0.00000000    0.00000000    0.00000000
     atom   11 type  3   force =     0.01325930    0.00515254   -0.00281510
     atom   12 type  3   force =    -0.01349811   -0.00431190    0.00301696
     atom   13 type  3   force =     0.01350313    0.00464089   -0.00250185
     atom   14 type  3   force =     0.01325360    0.00482450   -0.00333177
     atom   15 type  3   force =    -0.01325085   -0.00482322    0.00333104
     atom   16 type  3   force =    -0.01349983   -0.00463983    0.00250159
     atom   17 type  3   force =     0.01349410    0.00431147   -0.00301649
     atom   18 type  3   force =    -0.01326395   -0.00515429    0.00281604
     The Hubbard contrib.    to forces
     atom    1 type  1   force =     0.00000000    0.00000000    0.00000000
     atom    2 type  1   force =     0.00000000    0.00000000    0.00000000
     atom    3 type  1   force =     0.00000000    0.00000000    0.00000000
     atom    4 type  1   force =     0.00000000    0.00000000    0.00000000
     atom    5 type  2   force =     0.00000000    0.00000000    0.00000000
     atom    6 type  2   force =     0.00000000    0.00000000    0.00000000
     atom    7 type  2   force =     0.00000000    0.00000000    0.00000000
     atom    8 type  2   force =     0.00000000    0.00000000    0.00000000
     atom    9 type  2   force =     0.00000000    0.00000000    0.00000000
     atom   10 type  2   force =     0.00000000    0.00000000    0.00000000
     atom   11 type  3   force =     0.00000000    0.00000000    0.00000000
     atom   12 type  3   force =     0.00000000    0.00000000    0.00000000
     atom   13 type  3   force =     0.00000000    0.00000000    0.00000000
     atom   14 type  3   force =     0.00000000    0.00000000    0.00000000
     atom   15 type  3   force =     0.00000000    0.00000000    0.00000000
     atom   16 type  3   force =     0.00000000    0.00000000    0.00000000
     atom   17 type  3   force =     0.00000000    0.00000000    0.00000000
     atom   18 type  3   force =     0.00000000    0.00000000    0.00000000
     The SCF correction term to forces
     atom    1 type  1   force =     0.00058315    0.00016149   -0.00012270
     atom    2 type  1   force =     0.00043047    0.00021396   -0.00011374
     atom    3 type  1   force =     0.00028531    0.00014985   -0.00005585
     atom    4 type  1   force =    -0.00085383   -0.00032179    0.00022371
     atom    5 type  2   force =     0.00001150   -0.00060379   -0.00021133
     atom    6 type  2   force =    -0.00193999   -0.00072663    0.00002478
     atom    7 type  2   force =    -0.00181041   -0.00027553    0.00060456
     atom    8 type  2   force =    -0.00162952   -0.00096151    0.00054989
     atom    9 type  2   force =    -0.00031135    0.00049203   -0.00038922
     atom   10 type  2   force =     0.00021576   -0.00009185    0.00062524
     atom   11 type  3   force =     0.00043231    0.00023254    0.00010027
     atom   12 type  3   force =     0.00028525    0.00025019   -0.00010611
     atom   13 type  3   force =    -0.00010988   -0.00021770    0.00008429
     atom   14 type  3   force =    -0.00018430    0.00008496    0.00000104
     atom   15 type  3   force =    -0.00078883   -0.00037744   -0.00008097
     atom   16 type  3   force =    -0.00072633   -0.00016870    0.00038842
     atom   17 type  3   force =     0.00044449    0.00007944   -0.00028291
     atom   18 type  3   force =     0.00048559   -0.00001076   -0.00006687

     Total force =     0.122676     Total SCF correction =     0.004168

     Computing stress (Cartesian axis) and pressure

          total   stress  (Ry/bohr**3)                   (kbar)     P=     -372.12
  -0.00256462  -0.00002233   0.00001383         -377.27       -3.29        2.03
  -0.00002233  -0.00251239   0.00000008           -3.29     -369.59        0.01
   0.00001383   0.00000008  -0.00251191            2.03        0.01     -369.51

     kinetic stress (kbar)  21528.61   -111.51     68.75
                             -111.51  21812.01     36.65
                               68.75     36.65  21848.88

     local   stress (kbar)   5324.56  14885.76  -9177.61
                            14885.76 -31599.84  -3420.96
                            -9177.61  -3420.96 -35039.04

     nonloc. stress (kbar)   5262.13     27.46    -16.93
                               27.46   5193.61     -6.95
                              -16.93     -6.95   5186.63

     hartree stress (kbar)    972.05  -7030.28   4334.40
                            -7030.28  18406.96   1609.43
                             4334.40   1609.43  20024.86

     exc-cor stress (kbar)  -1576.24      0.87     -0.53
                                0.87  -1578.29     -0.04
                               -0.53     -0.04  -1578.33

     corecor stress (kbar)  -2074.22     -0.76      0.47
                               -0.76  -2072.37      0.12
                                0.47      0.12  -2072.25

     ewald   stress (kbar) -29814.16  -7774.82   4793.49
                            -7774.82 -10531.67   1781.77
                             4793.49   1781.77  -8740.26

     hubbard stress (kbar)      0.00      0.00      0.00
                                0.00      0.00      0.00
                                0.00      0.00      0.00

     DFT-D   stress (kbar)      0.00      0.00      0.00
                                0.00      0.00      0.00
                                0.00      0.00      0.00

     XDM     stress (kbar)      0.00      0.00      0.00
                                0.00      0.00      0.00
                                0.00      0.00      0.00

     dft-nl  stress (kbar)      0.00      0.00      0.00
                                0.00      0.00      0.00
                                0.00      0.00      0.00

     TS-vdW  stress (kbar)      0.00      0.00      0.00
                                0.00      0.00      0.00
                                0.00      0.00      0.00

[...]

                                0.00      0.00      0.00

     Writing all to output data dir new_calculations/myprefix.save/

     General routines

     Parallel routines

     PAW routines

   This run was terminated on:  18:59:51  20May2023

   JOB DONE.