     Program PWSCF v.7.0 starts on 20May2023 at 11:55:24

     Reading input from espresso_10361.pwi
Warning: card &CELL ignored
Warning: card / ignored

     Current dimensions of program PWSCF are:
     Max number of different atomic species (ntypx) = 10
     Max number of k-points (npk) =  40000
     Max angular momentum in pseudopotentials (lmaxx) =  4

     gamma-point specific algorithms are used
     Message from routine setup:
     using ibrav=0 with symmetry is DISCOURAGED, use correct ibrav instead

     Subspace diagonalization in iterative solution of the eigenvalue problem:
     a serial algorithm will be used

     Using Slab Decomposition

     bravais-lattice index     =            0
     lattice parameter (alat)  =      14.1464  a.u.
     unit-cell volume          =     801.7884 (a.u.)^3
     number of atoms/cell      =            5
     number of atomic types    =            3
     number of electrons       =        51.00
     number of Kohn-Sham states=           31
     kinetic-energy cutoff     =      30.0000  Ry
     charge density cutoff     =     240.0000  Ry
     scf convergence threshold =      1.0E-06
     mixing beta               =       0.7000
     number of iterations used =            8  plain     mixing
     Exchange-correlation= PBE
                           (   1   4   3   4   0   0   0)

     celldm(1)=  14.146366  celldm(2)=   0.000000  celldm(3)=   0.000000
     celldm(4)=   0.000000  celldm(5)=   0.000000  celldm(6)=   0.000000

     crystal axes: (cart. coord. in units of alat)
               a(1) = (   1.000000   0.000000   0.000000 )
               a(2) = (   0.692086   0.721815   0.000000 )
               a(3) = (  -0.846043  -0.360907   0.392373 )

     reciprocal axes: (cart. coord. in units 2 pi/alat)
               b(1) = (  1.000000 -0.958815  1.274297 )
               b(2) = (  0.000000  1.385397  1.274297 )
               b(3) = (  0.000000  0.000000  2.548594 )

     PseudoPot. # 1 for Rb read from file:
     /home/pragov/projects/rrg-bengioy-ad/pragov/crystal_structure_design/SSSP/Rb_ONCV_PBE-1.0.oncvpsp.upf
     MD5 check sum: 55a5172d6bfbce6759a58e35d43f6aa9
     Pseudo is Norm-conserving, Zval =  9.0
     Generated using ONCVPSP code by D. R. Hamann
     Using radial grid of 2308 points,  6 beta functions with:
                l(1) =   0
                l(2) =   0
                l(3) =   1
                l(4) =   1
                l(5) =   2
                l(6) =   2

     PseudoPot. # 2 for As read from file:
     /home/pragov/projects/rrg-bengioy-ad/pragov/crystal_structure_design/SSSP/As.pbe-n-rrkjus_psl.0.2.UPF
     MD5 check sum: 767315de957beeeb34f87d97bf945c8f
     Pseudo is Ultrasoft + core correction, Zval =  5.0
     Generated using "atomic" code by A. Dal Corso  v.5.0.99 svn rev. 10869
     Using radial grid of 1209 points,  4 beta functions with:
                l(1) =   0
                l(2) =   0
                l(3) =   1
                l(4) =   1
     Q(r) pseudized with 0 coefficients

     PseudoPot. # 3 for Ru read from file:
     /home/pragov/projects/rrg-bengioy-ad/pragov/crystal_structure_design/SSSP/Ru_ONCV_PBE-1.0.oncvpsp.upf
     MD5 check sum: be037bb81c227cfb9b1461a9f099f4bd
     Pseudo is Norm-conserving, Zval = 16.0
     Generated using ONCVPSP code by D. R. Hamann
     Using radial grid of 1458 points,  6 beta functions with:
                l(1) =   0
                l(2) =   0
                l(3) =   1
                l(4) =   1
                l(5) =   2
                l(6) =   2

     atomic species   valence    mass     pseudopotential
        Rb             9.00    85.46780     Rb( 1.00)
        As             5.00    74.92159     As( 1.00)
        Ru            16.00   101.07000     Ru( 1.00)

      4 Sym. Ops., with inversion, found

                                    s                        frac. trans.

      isym =  1     identity

 cryst.   s( 1) = (     1          0          0      )
                  (     0          1          0      )
                  (     0          0          1      )

 cart.    s( 1) = (  1.0000000  0.0000000 -0.0000000 )
                  (  0.0000000  1.0000000 -0.0000000 )
                  (  0.0000000  0.0000000  1.0000000 )

      isym =  2     180 deg rotation - cart. axis [0,0,1]

[...]

      isym =  3     inversion

[...]

      isym =  4     inv. 180 deg rotation - cart. axis [0,0,1]

 cryst.   s( 4) = (     1          0          0      )
                  (     0          1          0      )
                  (    -1         -1         -1      )

 cart.    s( 4) = (  1.0000000  0.0000000 -0.0000000 )
                  (  0.0000000  1.0000000 -0.0000000 )
                  (  0.0000000  0.0000000 -1.0000000 )

   Cartesian axes

     site n.     atom                  positions (alat units)
         1           Rb  tau(   1) = (   0.0000000   0.0000000   0.0000000  )
         2           As  tau(   2) = (   0.5793907   0.2471580   0.0000000  )
         3           As  tau(   3) = (   1.1126957   0.4746566   0.0000000  )
         4           Ru  tau(   4) = (   0.5000000   0.0000000   0.1961866  )
         5           Ru  tau(   5) = (   0.3460432   0.3609073   0.1961866  )

   Crystallographic axes

     site n.     atom                  positions (cryst. coord.)
         1           Rb  tau(   1) = (  0.0000000  0.0000000  0.0000000  )
         2           As  tau(   2) = (  0.3424120  0.3424120  0.0000000  )
         3           As  tau(   3) = (  0.6575880  0.6575880  0.0000000  )
         4           Ru  tau(   4) = (  0.7500000  0.2500000  0.5000000  )
         5           Ru  tau(   5) = (  0.2500000  0.7500000  0.5000000  )

     number of k points=     1  Methfessel-Paxton smearing, width (Ry)=  0.0010
                       cart. coord. in units 2pi/alat
        k(    1) = (   0.0000000   0.0000000   0.0000000), wk =   2.0000000

                       cryst. coord.
        k(    1) = (   0.0000000   0.0000000   0.0000000), wk =   2.0000000

     Initial potential from superposition of free atoms

     starting charge      50.9737, renormalised to      51.0000
     Starting wfcs are   33 randomized atomic wfcs

     Self-consistent Calculation

     iteration #  1     ecut=    30.00 Ry     beta= 0.70
     Davidson diagonalization with overlap

     ethr =  1.00E-02,  avg # of iterations =  3.0

     total energy              =    -461.89959142 Ry
     estimated scf accuracy    <       0.56278790 Ry

[...]

     total energy              =    -462.18319238 Ry
     estimated scf accuracy    <       0.00000249 Ry

     iteration # 17     ecut=    30.00 Ry     beta= 0.70
     Davidson diagonalization with overlap

     ethr =  3.59E-09,  avg # of iterations =  1.0

     End of self-consistent calculation

          k = 0.0000 0.0000 0.0000 (  1118 PWs)   bands (ev):

   -62.7718 -62.6654 -33.5973 -33.2441 -33.1554 -32.8131 -32.2321 -32.2142
   -17.3804  -2.5314  -1.9985  -1.4139  -1.3996  -1.1262   4.5676   4.9329
     5.2261   5.3109   5.7025   6.9116   7.0595   9.0522   9.3647   9.6774
    10.0752  10.5468  10.5502  11.8545  12.5565  12.8930  13.1752

     occupation numbers
     1.0000   1.0000   1.0000   1.0000   1.0000   1.0000   1.0000   1.0000
     1.0000   1.0000   1.0000   1.0000   1.0000   1.0000   1.0000   1.0000
     1.0000   1.0000   1.0000   1.0000   1.0000   1.0000   1.0000   1.0000
     1.0000   0.3385   0.1615  -0.0000  -0.0000  -0.0000  -0.0000

     the Fermi energy is    10.5441 ev

!    total energy              =    -462.18319237 Ry
     estimated scf accuracy    <       0.00000009 Ry
     smearing contrib. (-TS)   =      -0.00039062 Ry
     internal energy E=F+TS    =    -462.18280174 Ry

     The total energy is F=E-TS. E is the sum of the following terms:
     one-electron contribution =    -323.27487597 Ry
     hartree contribution      =     177.65884352 Ry
     xc contribution           =     -65.84485034 Ry
     ewald contribution        =    -250.72191896 Ry

     convergence has been achieved in  17 iterations

     Forces acting on atoms (cartesian axes, Ry/au):

     atom    1 type  1   force =     0.00000000    0.00000000    0.00000000
     atom    2 type  2   force =     0.03647667   -0.00551287   -0.00000000
     atom    3 type  2   force =    -0.03647667    0.00551287    0.00000000
     atom    4 type  3   force =     0.00000000    0.00000000    0.02985341
     atom    5 type  3   force =     0.00000000    0.00000000   -0.02985341
     The non-local contrib.  to forces
     atom    1 type  1   force =     0.00000000    0.00000000    0.00000000
     atom    2 type  2   force =    -0.19503185   -0.10383529    0.00000000
     atom    3 type  2   force =     0.19503185    0.10383529   -0.00000000
     atom    4 type  3   force =     0.00000000    0.00000000   -0.05684083
     atom    5 type  3   force =     0.00000000    0.00000000    0.05684083
     The ionic contribution  to forces
     atom    1 type  1   force =    -0.00000000    0.00000000   -0.00000000
     atom    2 type  2   force =    12.33081750    5.26011218   -0.00000000
     atom    3 type  2   force =   -12.33081750   -5.26011218    0.00000000
     atom    4 type  3   force =     0.00000000   -0.00000000    0.00000000
     atom    5 type  3   force =    -0.00000000    0.00000000   -0.00000000
     The local contribution  to forces
     atom    1 type  1   force =    -0.00000131    0.00000051    0.00000053
     atom    2 type  2   force =   -12.09478500   -5.15857787   -0.00256157
     atom    3 type  2   force =    12.09478203    5.15857728    0.00255712
     atom    4 type  3   force =     0.00357040   -0.00470531    0.08675032
     atom    5 type  3   force =    -0.00356621    0.00470816   -0.08675372
     The core correction contribution to forces
     atom    1 type  1   force =     0.00000000    0.00000000    0.00000000
     atom    2 type  2   force =    -0.00437935   -0.00315065   -0.00026882
     atom    3 type  2   force =     0.00437880    0.00315024    0.00026889
     atom    4 type  3   force =     0.00000000    0.00000000    0.00000000
     atom    5 type  3   force =     0.00000000    0.00000000    0.00000000
     The Hubbard contrib.    to forces
     atom    1 type  1   force =     0.00000000    0.00000000    0.00000000
     atom    2 type  2   force =     0.00000000    0.00000000    0.00000000
     atom    3 type  2   force =     0.00000000    0.00000000    0.00000000
     atom    4 type  3   force =     0.00000000    0.00000000    0.00000000
     atom    5 type  3   force =     0.00000000    0.00000000    0.00000000
     The SCF correction term to forces
     atom    1 type  1   force =     0.00000414    0.00000100   -0.00000110
     atom    2 type  2   force =    -0.00014742   -0.00006235    0.00000271
     atom    3 type  2   force =     0.00014536    0.00006113    0.00000215
     atom    4 type  3   force =    -0.00000880    0.00000036   -0.00005955
     atom    5 type  3   force =    -0.00000620   -0.00000547    0.00005601

     Total force =     0.067114     Total SCF correction =     0.000239

     Computing stress (Cartesian axis) and pressure

          total   stress  (Ry/bohr**3)                   (kbar)     P=       51.35
  -0.00006637  -0.00033228   0.00000000           -9.76      -48.88        0.00
  -0.00033228   0.00037514   0.00000000          -48.88       55.18        0.00
   0.00000000   0.00000000   0.00073836            0.00        0.00      108.62

     kinetic stress (kbar)  18486.32     69.32     -0.00
                               69.32  17682.75     -0.00
                               -0.00     -0.00  17510.21

     local   stress (kbar)  22871.56  25843.93     -1.40
                            25843.93 -25848.01     -5.72
                               -1.40     -5.72 -36662.06

     nonloc. stress (kbar)   3071.85    -64.58     -0.00
                              -64.58   3172.15     -0.00
                               -0.00     -0.00   3192.45

     hartree stress (kbar)  -5423.85 -11553.73      0.14
                           -11553.73  16557.82      1.00
                                0.14      1.00  21461.31

     exc-cor stress (kbar)  -1081.97     -2.51     -0.01
                               -2.51  -1078.61      0.00
                               -0.01      0.00  -1078.38

     corecor stress (kbar)  -2219.00      5.48     -0.08
                                5.48  -2228.07     -0.01
                               -0.08     -0.01  -2232.17

     ewald   stress (kbar) -35714.67 -14346.79      0.00
                           -14346.79  -8202.84      0.00
                                0.00      0.00  -2082.75

     hubbard stress (kbar)      0.00      0.00      0.00
                                0.00      0.00      0.00
                                0.00      0.00      0.00

     DFT-D   stress (kbar)      0.00      0.00      0.00
                                0.00      0.00      0.00
                                0.00      0.00      0.00

     XDM     stress (kbar)      0.00      0.00      0.00
                                0.00      0.00      0.00
                                0.00      0.00      0.00

     dft-nl  stress (kbar)      0.00      0.00      0.00
                                0.00      0.00      0.00
                                0.00      0.00      0.00

     TS-vdW  stress (kbar)      0.00      0.00      0.00
                                0.00      0.00      0.00
                                0.00      0.00      0.00

[...]

                                0.00      0.00      0.00

     Writing all to output data dir new_calculations/myprefix.save/

     General routines

     Parallel routines

   This run was terminated on:  11:55:45  20May2023

   JOB DONE.