     Program PWSCF v.7.0 starts on 21May2023 at 19: 9:54

     Reading input from espresso_6961.pwi
Warning: card &CELL ignored
Warning: card / ignored

     Current dimensions of program PWSCF are:
     Max number of different atomic species (ntypx) = 10
     Max number of k-points (npk) =  40000
     Max angular momentum in pseudopotentials (lmaxx) =  4

     gamma-point specific algorithms are used
     Message from routine setup:
     using ibrav=0 with symmetry is DISCOURAGED, use correct ibrav instead

     Subspace diagonalization in iterative solution of the eigenvalue problem:
     a serial algorithm will be used

     Using Slab Decomposition

     bravais-lattice index     =            0
     lattice parameter (alat)  =      13.9774  a.u.
     unit-cell volume          =    2102.1000 (a.u.)^3
     number of atoms/cell      =           14
     number of atomic types    =            3
     number of electrons       =       112.00
     number of Kohn-Sham states=           67
     kinetic-energy cutoff     =      30.0000  Ry
     charge density cutoff     =     240.0000  Ry
     scf convergence threshold =      1.0E-06
     mixing beta               =       0.7000
     number of iterations used =            8  plain     mixing
     Exchange-correlation=  SLA  PW   PBX  PBC
                           (   1   4   3   4   0   0   0)

     celldm(1)=  13.977378  celldm(2)=   0.000000  celldm(3)=   0.000000
     celldm(4)=   0.000000  celldm(5)=   0.000000  celldm(6)=   0.000000

     crystal axes: (cart. coord. in units of alat)
               a(1) = (   1.000000   0.000000   0.000000 )
               a(2) = (  -0.335615   0.941999   0.000000 )
               a(3) = (  -0.332193  -0.471000   0.817195 )

     reciprocal axes: (cart. coord. in units 2 pi/alat)
               b(1) = (  1.000000  0.356279  0.611849 )
               b(2) = (  0.000000  1.061572  0.611849 )
               b(3) = (  0.000000  0.000000  1.223698 )

     PseudoPot. # 1 for Sr read from file:
     /home/pragov/projects/rrg-bengioy-ad/pragov/crystal_structure_design/SSSP/Sr_pbe_v1.uspp.F.UPF
     MD5 check sum: 6b418c05fbe9db5448babca5e47b7a5b
     Pseudo is Ultrasoft + core correction, Zval = 10.0
     Generated by new atomic code, or converted to UPF format
     Using radial grid of  883 points,  6 beta functions with:
                l(1) =   0
                l(2) =   0
                l(3) =   1
                l(4) =   1
                l(5) =   2
                l(6) =   2
     Q(r) pseudized with  6 coefficients,  rinner =    1.400   1.400   1.400
                                                       1.400   1.400

     PseudoPot. # 2 for Y  read from file:
     /home/pragov/projects/rrg-bengioy-ad/pragov/crystal_structure_design/SSSP/Y_pbe_v1.uspp.F.UPF
     MD5 check sum: 2cf71db95cafeb975fc457bd7f14888e
     Pseudo is Ultrasoft + core correction, Zval = 11.0
     Generated by new atomic code, or converted to UPF format
     Using radial grid of  885 points,  6 beta functions with:
                l(1) =   0
                l(2) =   0
                l(3) =   1
                l(4) =   1
                l(5) =   2
                l(6) =   2
     Q(r) pseudized with  6 coefficients,  rinner =    1.200   1.200   1.200
                                                       1.200   1.200

     PseudoPot. # 3 for S  read from file:
     /home/pragov/projects/rrg-bengioy-ad/pragov/crystal_structure_design/SSSP/s_pbe_v1.4.uspp.F.UPF
     MD5 check sum: 88d86576ff6df21479756cfb9bdac1df
     Pseudo is Ultrasoft + core correction, Zval =  6.0
     Generated by new atomic code, or converted to UPF format
     Using radial grid of  907 points,  6 beta functions with:
                l(1) =   0
                l(2) =   0
                l(3) =   1
                l(4) =   1
                l(5) =   2
                l(6) =   2
     Q(r) pseudized with  8 coefficients,  rinner =    1.300   1.300   1.300
                                                       1.300   1.300

     atomic species   valence    mass     pseudopotential
        Sr            10.00    87.62000     Sr( 1.00)
        Y             11.00    88.90584     Y ( 1.00)
        S              6.00    32.06000     S ( 1.00)

      2 Sym. Ops. (no inversion) found ( 1 have fractional translation)

                                    s                        frac. trans.

      isym =  1     identity

 cryst.   s( 1) = (     1          0          0      )
                  (     0          1          0      )
                  (     0          0          1      )

 cart.    s( 1) = (  1.0000000  0.0000000 -0.0000000 )
                  (  0.0000000  1.0000000 -0.0000000 )
                  (  0.0000000  0.0000000  1.0000000 )

      isym =  2     inv. 180 deg rotation - cart. axis [0,0,1]

 cryst.   s( 2) = (     1          0          0      )    f =( -0.2500000 )
                  (     0          1          0      )       (  0.2500000 )
                  (    -1         -1         -1      )       ( -0.5000000 )

 cart.    s( 2) = (  1.0000000  0.0000000 -0.0000000 )    f =( -0.1678074 )
                  (  0.0000000  1.0000000 -0.0000000 )       (  0.4709997 )
                  (  0.0000000  0.0000000 -1.0000000 )       ( -0.4085974 )

   Cartesian axes

     site n.     atom                  positions (alat units)
         1           Sr  tau(   1) = (   0.3321926   0.4709997   0.0000000  )
         2           Sr  tau(   2) = (   0.5000000   0.0000000   0.4085974  )
         3           Y   tau(   3) = (   0.0019309   0.5276077   0.7111123  )
         4           Y   tau(   4) = (  -0.4980691   0.5276077   0.5146799  )
         5           Y   tau(   5) = (  -0.1714493   0.6498915   0.1060825  )
         6           Y   tau(   6) = (  -0.0036419   0.1788918   0.3025149  )
         7           S   tau(   7) = (  -0.2229144   0.2496887   0.6096919  )
         8           S   tau(   8) = (   0.4744052   0.8158133   0.2010945  )
         9           S   tau(   9) = (   0.1190695   0.5288450   0.3260754  )
        10           S   tau(  10) = (   0.6422126   0.3448137   0.2075029  )
        11           S   tau(  11) = (   0.2770856   0.2496887   0.6161003  )
        12           S   tau(  12) = (   0.2868769   0.0578454   0.0825220  )
        13           S   tau(  13) = (  -0.3739825  -0.1813481   0.7346729  )
        14           S   tau(  14) = (   0.1260175  -0.1813481   0.4911194  )

   Crystallographic axes

     site n.     atom                  positions (cryst. coord.)
         1           Sr  tau(   1) = (  0.5000000  0.5000000  0.0000000  )
         2           Sr  tau(   2) = (  0.7500000  0.2500000  0.5000000  )
         3           Y   tau(   3) = (  0.6250000  0.9951870  0.8701870  )
         4           Y   tau(   4) = (  0.0048130  0.8750000  0.6298130  )
         5           Y   tau(   5) = (  0.1250000  0.7548130  0.1298130  )
         6           Y   tau(   6) = (  0.2451870  0.3750000  0.3701870  )
         7           S   tau(   7) = (  0.2390840  0.6381020  0.7460790  )
         8           S   tau(   8) = (  0.8881020  0.9890840  0.2460790  )
         9           S   tau(   9) = (  0.5069950  0.7609160  0.3990180  )
        10           S   tau(  10) = (  0.8920230  0.4930050  0.2539210  )
        11           S   tau(  11) = (  0.7430050  0.6420230  0.7539210  )
        12           S   tau(  12) = (  0.3579770  0.1118980  0.1009820  )
        13           S   tau(  13) = (  0.0109160  0.2569950  0.8990180  )
        14           S   tau(  14) = (  0.3618980  0.1079770  0.6009820  )

     number of k points=     1  Methfessel-Paxton smearing, width (Ry)=  0.0010
                       cart. coord. in units 2pi/alat
        k(    1) = (   0.0000000   0.0000000   0.0000000), wk =   2.0000000

                       cryst. coord.
        k(    1) = (   0.0000000   0.0000000   0.0000000), wk =   2.0000000

     Check: negative core charge=   -0.000004

     Initial potential from superposition of free atoms

     starting charge     111.9145, renormalised to     112.0000

     negative rho (up, down):  3.038E-01 0.000E+00
     Starting wfcs are  110 randomized atomic wfcs

     Self-consistent Calculation

     iteration #  1     ecut=    30.00 Ry     beta= 0.70
     Davidson diagonalization with overlap

     ethr =  1.00E-02,  avg # of iterations =  3.0

     negative rho (up, down):  3.062E-01 0.000E+00

     total energy              =    -684.45994689 Ry
     estimated scf accuracy    <       1.21002018 Ry

[...]

     total energy              =    -684.98320809 Ry
     estimated scf accuracy    <       0.00000160 Ry

     iteration #  9     ecut=    30.00 Ry     beta= 0.70
     Davidson diagonalization with overlap

     ethr =  1.43E-09,  avg # of iterations =  5.0

[...]

     End of self-consistent calculation

          k = 0.0000 0.0000 0.0000 (  2924 PWs)   bands (ev):

   -33.7172 -33.7100 -33.7085 -33.7061 -25.2345 -25.2303 -13.8012 -13.7835
   -13.7631 -13.7345 -13.7289 -13.7146 -13.7010 -13.6763 -13.6687 -13.6397
   -13.6360 -13.6082  -7.5022  -7.4660  -7.3847  -7.3813  -7.3777  -7.3724
    -3.6994  -2.9463  -2.4161  -2.4156  -2.3652  -2.3622  -2.1473  -2.1435
     4.5838   4.5899   4.6859   4.7737   4.9993   5.4072   5.4660   5.9270
     6.3460   6.4516   6.4530   6.6548   6.9046   6.9100   7.0895   7.6507
     7.6764   7.7893   7.9594   7.9613   7.9791   8.2995   8.5858   8.5890
    10.6365  10.7167  10.7846  10.9195  10.9207  12.1459  12.1496  12.4499
    12.4589  12.4613  12.6225

     occupation numbers
     1.0000   1.0000   1.0000   1.0000   1.0000   1.0000   1.0000   1.0000
     1.0000   1.0000   1.0000   1.0000   1.0000   1.0000   1.0000   1.0000
     1.0000   1.0000   1.0000   1.0000   1.0000   1.0000   1.0000   1.0000
     1.0000   1.0000   1.0000   1.0000   1.0000   1.0000   1.0000   1.0000
     1.0000   1.0000   1.0000   1.0000   1.0000   1.0000   1.0000   1.0000
     1.0000   1.0000   1.0000   1.0000   1.0000   1.0000   1.0000   1.0000
     1.0000   1.0000   1.0000   1.0000   1.0000   1.0000   1.0000   1.0000
    -0.0000  -0.0000  -0.0000  -0.0000  -0.0000  -0.0000  -0.0000  -0.0000
    -0.0000  -0.0000  -0.0000

     the Fermi energy is     9.8454 ev

!    total energy              =    -684.98320850 Ry
     estimated scf accuracy    <       0.00000055 Ry
     smearing contrib. (-TS)   =       0.00000000 Ry
     internal energy E=F+TS    =    -684.98320850 Ry

     The total energy is F=E-TS. E is the sum of the following terms:
     one-electron contribution =     -71.90598433 Ry
     hartree contribution      =      82.92051327 Ry
     xc contribution           =    -192.90778321 Ry
     ewald contribution        =    -503.08995423 Ry

     convergence has been achieved in   9 iterations

     negative rho (up, down):  3.098E-01 0.000E+00

     Forces acting on atoms (cartesian axes, Ry/au):

     atom    1 type  1   force =     0.00023174   -0.00022226   -0.00066389
     atom    2 type  1   force =     0.00023174   -0.00022226    0.00066389
     atom    3 type  2   force =     0.00666240   -0.00531080   -0.00283893
     atom    4 type  2   force =     0.00666240   -0.00531080    0.00283893
     atom    5 type  2   force =    -0.00664946    0.00505757    0.00233170
     atom    6 type  2   force =    -0.00664946    0.00505757   -0.00233170
     atom    7 type  3   force =    -0.01512355    0.00340445   -0.00099853
     atom    8 type  3   force =     0.00905196   -0.01155347   -0.00128820
     atom    9 type  3   force =     0.00179576    0.00454342    0.01532774
     atom   10 type  3   force =     0.00905196   -0.01155347    0.00128820
     atom   11 type  3   force =    -0.01512355    0.00340445    0.00099853
     atom   12 type  3   force =     0.00179576    0.00454342   -0.01532774
     atom   13 type  3   force =     0.00403115    0.00408108    0.01454622
     atom   14 type  3   force =     0.00403115    0.00408108   -0.01454622
     The non-local contrib.  to forces
     atom    1 type  1   force =     0.00005915    0.00018655    0.00008635
     atom    2 type  1   force =     0.00005915    0.00018655   -0.00008635
     atom    3 type  2   force =    -0.00356401    0.00231651    0.00513362
     atom    4 type  2   force =    -0.00356401    0.00231651   -0.00513362
     atom    5 type  2   force =     0.00379619   -0.00270841   -0.00490647
     atom    6 type  2   force =     0.00379619   -0.00270841    0.00490647
     atom    7 type  3   force =     0.02676310    0.00732918   -0.00635298
     atom    8 type  3   force =    -0.00161831    0.02999400   -0.00652605
     atom    9 type  3   force =    -0.01791260   -0.01498853   -0.01790728
     atom   10 type  3   force =    -0.00161831    0.02999400    0.00652605
     atom   11 type  3   force =     0.02676310    0.00732918    0.00635298
     atom   12 type  3   force =    -0.01791260   -0.01498853    0.01790728
     atom   13 type  3   force =    -0.00729890   -0.02174181   -0.01808452
     atom   14 type  3   force =    -0.00729890   -0.02174181    0.01808452
     The ionic contribution  to forces
     atom    1 type  1   force =     0.00000000    0.00000000    0.00000000
     atom    2 type  1   force =     0.00000000    0.00000000    0.00000000
     atom    3 type  2   force =    -0.72374298    0.51045064    0.88564313
     atom    4 type  2   force =    -0.72374298    0.51045064   -0.88564313
     atom    5 type  2   force =     0.72374298   -0.51045064   -0.88564313
     atom    6 type  2   force =     0.72374298   -0.51045064    0.88564313
     atom    7 type  3   force =    -0.52505560   -1.26130827    0.41124942
     atom    8 type  3   force =    -1.01193515   -0.91791568    0.41124942
     atom    9 type  3   force =     1.10456628    0.85258362   -0.29789686
     atom   10 type  3   force =    -1.01193515   -0.91791568   -0.41124943
     atom   11 type  3   force =    -0.52505560   -1.26130827   -0.41124943
     atom   12 type  3   force =     1.10456628    0.85258362    0.29789686
     atom   13 type  3   force =     0.43242448    1.32664033   -0.29789686
     atom   14 type  3   force =     0.43242448    1.32664033    0.29789686
     The local contribution  to forces
     atom    1 type  1   force =    -0.00002372   -0.00064123   -0.00051696
     atom    2 type  1   force =     0.00044792   -0.00017394    0.00091687
     atom    3 type  2   force =     0.73637151   -0.52188872   -0.89434911
     atom    4 type  2   force =     0.73261948   -0.51491820    0.89584601
     atom    5 type  2   force =    -0.73647524    0.52218195    0.89396069
     atom    6 type  2   force =    -0.73263534    0.51464846   -0.89461766
     atom    7 type  3   force =     0.48452616    1.25734558   -0.40628385
     atom    8 type  3   force =     1.02277006    0.87782300   -0.40675464
     atom    9 type  3   force =    -1.08561516   -0.83366676    0.33004307
     atom   10 type  3   force =     1.02263704    0.87795303    0.40609891
     atom   11 type  3   force =     0.48455222    1.25809674    0.40636502
     atom   12 type  3   force =    -1.08595818   -0.83407821   -0.33003408
     atom   13 type  3   force =    -0.42101858   -1.30213256    0.32945694
     atom   14 type  3   force =    -0.42152944   -1.30221543   -0.32956240
     The core correction contribution to forces
     atom    1 type  1   force =     0.00001357   -0.00006131   -0.00004974
     atom    2 type  1   force =     0.00003745   -0.00009398    0.00008121
     atom    3 type  2   force =    -0.00017513   -0.00134737    0.00135909
     atom    4 type  2   force =    -0.00060533    0.00177150   -0.00126791
     atom    5 type  2   force =    -0.00002975    0.00145574   -0.00144027
     atom    6 type  2   force =     0.00072758   -0.00182661    0.00116925
     atom    7 type  3   force =    -0.00136774   -0.00042371    0.00038133
     atom    8 type  3   force =     0.00003364   -0.00156563    0.00028805
     atom    9 type  3   force =     0.00086838    0.00080865    0.00123345
     atom   10 type  3   force =     0.00006098   -0.00157777   -0.00045793
     atom   11 type  3   force =    -0.00133253   -0.00022287   -0.00038071
     atom   12 type  3   force =     0.00089898    0.00069125   -0.00111248
     atom   13 type  3   force =     0.00030983    0.00123444    0.00106424
     atom   14 type  3   force =     0.00020151    0.00121520   -0.00108593
     The Hubbard contrib.    to forces
     atom    1 type  1   force =     0.00000000    0.00000000    0.00000000
     atom    2 type  1   force =     0.00000000    0.00000000    0.00000000
     atom    3 type  2   force =     0.00000000    0.00000000    0.00000000
     atom    4 type  2   force =     0.00000000    0.00000000    0.00000000
     atom    5 type  2   force =     0.00000000    0.00000000    0.00000000
     atom    6 type  2   force =     0.00000000    0.00000000    0.00000000
     atom    7 type  3   force =     0.00000000    0.00000000    0.00000000
     atom    8 type  3   force =     0.00000000    0.00000000    0.00000000
     atom    9 type  3   force =     0.00000000    0.00000000    0.00000000
     atom   10 type  3   force =     0.00000000    0.00000000    0.00000000
     atom   11 type  3   force =     0.00000000    0.00000000    0.00000000
     atom   12 type  3   force =     0.00000000    0.00000000    0.00000000
     atom   13 type  3   force =     0.00000000    0.00000000    0.00000000
     atom   14 type  3   force =     0.00000000    0.00000000    0.00000000
     The SCF correction term to forces
     atom    1 type  1   force =    -0.00005788    0.00004462    0.00005724
     atom    2 type  1   force =     0.00002585   -0.00001390   -0.00000705
     atom    3 type  2   force =     0.00002233    0.00000296    0.00018808
     atom    4 type  2   force =    -0.00019607    0.00010181   -0.00014867
     atom    5 type  2   force =     0.00003997   -0.00005330   -0.00012788
     atom    6 type  2   force =     0.00009352   -0.00009512    0.00007836
     atom    7 type  3   force =     0.00003223   -0.00012233    0.00006800
     atom    8 type  3   force =    -0.00008577   -0.00003062    0.00004274
     atom    9 type  3   force =     0.00014818    0.00000195   -0.00009033
     atom   10 type  3   force =    -0.00010711    0.00001230   -0.00004168
     atom   11 type  3   force =     0.00002559   -0.00002842   -0.00002887
     atom   12 type  3   force =     0.00003997    0.00001765    0.00006898
     atom   13 type  3   force =     0.00001388    0.00004902   -0.00007398
     atom   14 type  3   force =    -0.00006805    0.00009233    0.00004032

     Total force =     0.047289     Total SCF correction =     0.000517

     Computing stress (Cartesian axis) and pressure

     negative rho (up, down):  3.098E-01 0.000E+00
          total   stress  (Ry/bohr**3)                   (kbar)     P=       44.89
   0.00019551   0.00002818  -0.00000000           28.76        4.15       -0.00
   0.00002818   0.00040672  -0.00000000            4.15       59.83       -0.00
  -0.00000000  -0.00000000   0.00031324           -0.00       -0.00       46.08

     kinetic stress (kbar)   8973.90      0.74     -0.00
                                0.74   8984.14     -0.00
                               -0.00     -0.00   8980.25

     local   stress (kbar)  -4195.37   -173.18      3.02
                             -173.18  -4306.52      1.48
                                3.02      1.48  -4064.34

     nonloc. stress (kbar)   7939.20      0.96     -0.00
                                0.96   7945.94     -0.00
                               -0.00     -0.00   7943.00

     hartree stress (kbar)   1934.41     42.00     -0.15
                               42.00   1963.91     -0.04
                               -0.15     -0.04   1904.46

     exc-cor stress (kbar)   4137.04      0.42     -0.02
                                0.42   4137.28     -0.00
                               -0.02     -0.00   4136.69

     corecor stress (kbar)  -7024.69      0.21      0.18
                                0.21  -7023.93      0.08
                                0.18      0.08  -7024.44

     ewald   stress (kbar) -11735.74    132.99     -0.00
                              132.99 -11640.98     -0.00
                               -0.00     -0.00 -11829.54

     hubbard stress (kbar)      0.00      0.00      0.00
                                0.00      0.00      0.00
                                0.00      0.00      0.00

     DFT-D   stress (kbar)      0.00      0.00      0.00
                                0.00      0.00      0.00
                                0.00      0.00      0.00

     XDM     stress (kbar)      0.00      0.00      0.00
                                0.00      0.00      0.00
                                0.00      0.00      0.00

     dft-nl  stress (kbar)      0.00      0.00      0.00
                                0.00      0.00      0.00
                                0.00      0.00      0.00

     TS-vdW  stress (kbar)      0.00      0.00      0.00
                                0.00      0.00      0.00
                                0.00      0.00      0.00

[...]

                                0.00      0.00      0.00

     Writing all to output data dir new_calculations/myprefix.save/

     General routines

     Parallel routines

   This run was terminated on:  19:10:15  21May2023

   JOB DONE.