     Program PWSCF v.7.0 starts on 20May2023 at 13:38:33

     Reading input from espresso_541.pwi
Warning: card &CELL ignored
Warning: card / ignored

     Current dimensions of program PWSCF are:
     Max number of different atomic species (ntypx) = 10
     Max number of k-points (npk) =  40000
     Max angular momentum in pseudopotentials (lmaxx) =  4

     gamma-point specific algorithms are used
     Message from routine setup:
     using ibrav=0 with symmetry is DISCOURAGED, use correct ibrav instead

     Subspace diagonalization in iterative solution of the eigenvalue problem:
     a serial algorithm will be used

     Using Slab Decomposition

     bravais-lattice index     =            0
     lattice parameter (alat)  =       8.4292  a.u.
     unit-cell volume          =    2857.2409 (a.u.)^3
     number of atoms/cell      =           12
     number of atomic types    =            3
     number of electrons       =       116.00
     number of Kohn-Sham states=           70
     kinetic-energy cutoff     =      30.0000  Ry
     charge density cutoff     =     240.0000  Ry
     scf convergence threshold =      1.0E-06
     mixing beta               =       0.7000
     number of iterations used =            8  plain     mixing
     Exchange-correlation= SLA  PW   PBE  PBE
                           (   1   4   3   4   0   0   0)

     celldm(1)=   8.429217  celldm(2)=   0.000000  celldm(3)=   0.000000
     celldm(4)=   0.000000  celldm(5)=   0.000000  celldm(6)=   0.000000

     crystal axes: (cart. coord. in units of alat)
               a(1) = (   1.000000   0.000000   0.000000 )
               a(2) = (  -0.500000   0.866025   0.000000 )
               a(3) = (   0.000000   0.000000   5.508768 )

     reciprocal axes: (cart. coord. in units 2 pi/alat)
               b(1) = (  1.000000  0.577350  0.000000 )
               b(2) = (  0.000000  1.154700  0.000000 )
               b(3) = (  0.000000  0.000000  0.181529 )

     PseudoPot. # 1 for Sn read from file:
     /home/pragov/projects/rrg-bengioy-ad/pragov/crystal_structure_design/SSSP/Sn_pbe_v1.uspp.F.UPF
     MD5 check sum: 4cf58ce39ec5d5d420df3dd08604eb00
     Pseudo is Ultrasoft + core correction, Zval = 14.0
     Generated by new atomic code, or converted to UPF format
     Using radial grid of  891 points,  6 beta functions with:
                l(1) =   0
                l(2) =   0
                l(3) =   1
                l(4) =   1
                l(5) =   2
                l(6) =   2
     Q(r) pseudized with  6 coefficients,  rinner =    1.200   1.200   1.200
                                                       1.200   1.200

     PseudoPot. # 2 for Bi read from file:
     /home/pragov/projects/rrg-bengioy-ad/pragov/crystal_structure_design/SSSP/Bi_pbe_v1.uspp.F.UPF
     MD5 check sum: cceb9f28ec65b6d7ff33140f5b0b1758
     Pseudo is Ultrasoft + core correction, Zval = 15.0
     Generated by new atomic code, or converted to UPF format
     Using radial grid of  899 points,  6 beta functions with:
                l(1) =   0
                l(2) =   0
                l(3) =   1
                l(4) =   1
                l(5) =   2
                l(6) =   2
     Q(r) pseudized with  6 coefficients,  rinner =    1.000   1.000   1.000
                                                       1.000   1.000

     PseudoPot. # 3 for Te read from file:
     /home/pragov/projects/rrg-bengioy-ad/pragov/crystal_structure_design/SSSP/Te_pbe_v1.uspp.F.UPF
     MD5 check sum: c319670d6894cc26e93307826a071b75
     Pseudo is Ultrasoft + core correction, Zval =  6.0
     Generated by new atomic code, or converted to UPF format
     Using radial grid of  891 points,  5 beta functions with:
                l(1) =   0
                l(2) =   0
                l(3) =   1
                l(4) =   1
                l(5) =   2
     Q(r) pseudized with  6 coefficients,  rinner =    1.800   1.800   1.800
                                                       1.800   1.800

     atomic species   valence    mass     pseudopotential
        Sn            14.00   118.71000     Sn( 1.00)
        Bi            15.00   208.98040     Bi( 1.00)
        Te             6.00   127.60000     Te( 1.00)

     12 Sym. Ops., with inversion, found

                                    s                        frac. trans.

      isym =  1     identity

 cryst.   s( 1) = (     1          0          0      )
                  (     0          1          0      )
                  (     0          0          1      )

 cart.    s( 1) = (  1.0000000 -0.0000000  0.0000000 )
                  (  0.0000000  1.0000000  0.0000000 )
                  (  0.0000000  0.0000000  1.0000000 )

      isym =  2     180 deg rotation - cart. axis [1,0,0]

[...]

      isym =  3     120 deg rotation - cryst. axis [0,0,1]

[...]

      isym =  6     180 deg rotation - cryst. axis [1,1,0]

[...]

      isym =  7     inversion

[...]

      isym =  8     inv. 180 deg rotation - cart. axis [1,0,0]

[...]

      isym =  9     inv. 120 deg rotation - cryst. axis [0,0,1]

 cryst.   s( 9) = (     0         -1          0      )
                  (     1          1          0      )
                  (     0          0         -1      )

 cart.    s( 9) = (  0.4999999  0.8660253  0.0000000 )
                  ( -0.8660255  0.5000001  0.0000000 )
                  (  0.0000000  0.0000000 -1.0000000 )

[...]

 cryst.   s(10) = (     1          1          0      )
                  (    -1          0          0      )
                  (     0          0         -1      )

 cart.    s(10) = (  0.5000001 -0.8660253  0.0000000 )
                  (  0.8660255  0.4999999  0.0000000 )
                  (  0.0000000  0.0000000 -1.0000000 )

[...]

      isym = 12     inv. 180 deg rotation - cryst. axis [1,1,0]

 cryst.   s(12) = (     0         -1          0      )
                  (    -1          0          0      )
                  (     0          0          1      )

 cart.    s(12) = (  0.4999999 -0.8660255  0.0000000 )
                  ( -0.8660255 -0.4999999  0.0000000 )
                  (  0.0000000  0.0000000  1.0000000 )

   Cartesian axes

     site n.     atom                  positions (alat units)
         1           Sn  tau(   1) = (   0.0000000   0.0000000   0.0000000  )
         2           Bi  tau(   2) = (   0.5000005   0.2886749   0.8897818  )
         3           Bi  tau(   3) = (  -0.0000004   0.5773506   4.6189866  )
         4           Bi  tau(   4) = (   0.5000005   0.2886749   2.3024283  )
         5           Bi  tau(   5) = (  -0.0000004   0.5773506   3.2063401  )
         6           Te  tau(   6) = (   0.0000000   0.0000000   2.7543842  )
         7           Te  tau(   7) = (   0.5000005   0.2886749   5.0861577  )
         8           Te  tau(   8) = (  -0.0000004   0.5773506   0.4226107  )
         9           Te  tau(   9) = (   0.0000000   0.0000000   4.2352348  )
        10           Te  tau(  10) = (   0.0000000   0.0000000   1.2735336  )
        11           Te  tau(  11) = (   0.5000005   0.2886749   3.5912873  )
        12           Te  tau(  12) = (  -0.0000004   0.5773506   1.9174811  )

   Crystallographic axes

     site n.     atom                  positions (cryst. coord.)
         1           Sn  tau(   1) = (  0.0000000  0.0000000  0.0000000  )
         2           Bi  tau(   2) = (  0.6666670  0.3333330  0.1615210  )
         3           Bi  tau(   3) = (  0.3333330  0.6666670  0.8384790  )
         4           Bi  tau(   4) = (  0.6666670  0.3333330  0.4179570  )
         5           Bi  tau(   5) = (  0.3333330  0.6666670  0.5820430  )
         6           Te  tau(   6) = (  0.0000000  0.0000000  0.5000000  )
         7           Te  tau(   7) = (  0.6666670  0.3333330  0.9232840  )
         8           Te  tau(   8) = (  0.3333330  0.6666670  0.0767160  )
         9           Te  tau(   9) = (  0.0000000  0.0000000  0.7688170  )
        10           Te  tau(  10) = (  0.0000000  0.0000000  0.2311830  )
        11           Te  tau(  11) = (  0.6666670  0.3333330  0.6519220  )
        12           Te  tau(  12) = (  0.3333330  0.6666670  0.3480780  )

     number of k points=     1  Methfessel-Paxton smearing, width (Ry)=  0.0010
                       cart. coord. in units 2pi/alat
        k(    1) = (   0.0000000   0.0000000   0.0000000), wk =   2.0000000

                       cryst. coord.
        k(    1) = (   0.0000000   0.0000000   0.0000000), wk =   2.0000000

     Check: negative core charge=   -0.000001

     Initial potential from superposition of free atoms

     starting charge     110.9983, renormalised to     116.0000

     negative rho (up, down):  1.689E-01 0.000E+00
     Starting wfcs are   73 randomized atomic wfcs

     Self-consistent Calculation

     iteration #  1     ecut=    30.00 Ry     beta= 0.70
     Davidson diagonalization with overlap

     ethr =  1.00E-02,  avg # of iterations =  2.0

     negative rho (up, down):  1.539E-01 0.000E+00

     total energy              =   -1028.80142859 Ry
     estimated scf accuracy    <      66.95606385 Ry

[...]

     c_bands:  2 eigenvalues not converged
     ethr =  1.00E-02,  avg # of iterations = 20.0

[...]

     total energy              =   -1087.05282190 Ry
     estimated scf accuracy    <       0.00000113 Ry

     iteration # 27     ecut=    30.00 Ry     beta= 0.70
     Davidson diagonalization with overlap

     ethr =  9.74E-10,  avg # of iterations =  2.0

[...]

     End of self-consistent calculation

          k = 0.0000 0.0000 0.0000 (  3986 PWs)   bands (ev):

   -15.6862 -15.6862 -15.6861 -15.6861 -15.6341 -15.6340 -15.6241 -15.6240
   -15.6239 -15.6239 -15.5925 -15.5925 -15.5919 -15.5919 -15.5714 -15.5702
   -15.5494 -15.5494 -15.5493 -15.5493 -14.8892 -14.8892 -14.8630 -14.8565
   -14.8565  -5.5811  -5.4350  -5.3960  -5.0418  -4.0602  -3.4063  -3.3112
    -1.8361  -1.7111  -1.1099  -0.5099   1.0551   4.9080   5.2303   5.3954
     5.6523   5.6523   5.7021   5.7021   5.7191   5.7191   5.8188   5.9295
     5.9296   6.1112   6.1112   6.3817   6.3817   6.4270   6.5283   6.5283
     7.1379   7.1763   7.8587   7.9171   8.0512   8.0512   8.1702   8.1702
     8.6905   8.6905   8.7147   9.1868   9.2854   9.2854

     occupation numbers
     1.0000   1.0000   1.0000   1.0000   1.0000   1.0000   1.0000   1.0000
     1.0000   1.0000   1.0000   1.0000   1.0000   1.0000   1.0000   1.0000
     1.0000   1.0000   1.0000   1.0000   1.0000   1.0000   1.0000   1.0000
     1.0000   1.0000   1.0000   1.0000   1.0000   1.0000   1.0000   1.0000
     1.0000   1.0000   1.0000   1.0000   1.0000   1.0000   1.0000   1.0000
     1.0000   1.0000   1.0000   1.0000   1.0000   1.0000   1.0000   1.0000
     1.0000   1.0000   1.0000   1.0000   1.0000   1.0000   1.0000   1.0000
     1.0000   1.0000  -0.0000  -0.0000  -0.0000  -0.0000  -0.0000  -0.0000
    -0.0000  -0.0000  -0.0000  -0.0000  -0.0000  -0.0000

     the Fermi energy is     7.4493 ev

!    total energy              =   -1087.05282191 Ry
     estimated scf accuracy    <       0.00000019 Ry
     smearing contrib. (-TS)   =       0.00000000 Ry
     internal energy E=F+TS    =   -1087.05282191 Ry

     The total energy is F=E-TS. E is the sum of the following terms:
     one-electron contribution =    -399.72700926 Ry
     hartree contribution      =     262.98460246 Ry
     xc contribution           =    -408.10104589 Ry
     ewald contribution        =    -542.20936923 Ry

     convergence has been achieved in  27 iterations

     negative rho (up, down):  1.650E-01 0.000E+00

     Forces acting on atoms (cartesian axes, Ry/au):

     atom    1 type  1   force =     0.00000000    0.00000000    0.00000000
     atom    2 type  2   force =     0.00000000    0.00000000    0.02034231
     atom    3 type  2   force =     0.00000000    0.00000000   -0.02034231
     atom    4 type  2   force =     0.00000000    0.00000000    0.00163527
     atom    5 type  2   force =     0.00000000    0.00000000   -0.00163527
     atom    6 type  3   force =     0.00000000    0.00000000    0.00000000
     atom    7 type  3   force =     0.00000000    0.00000000   -0.01148865
     atom    8 type  3   force =     0.00000000   -0.00000000    0.01148865
     atom    9 type  3   force =    -0.00000000    0.00000000    0.03495234
     atom   10 type  3   force =     0.00000000    0.00000000   -0.03495234
     atom   11 type  3   force =     0.00000000    0.00000000   -0.02675521
     atom   12 type  3   force =    -0.00000000   -0.00000000    0.02675521
     The non-local contrib.  to forces
     atom    1 type  1   force =     0.00000000    0.00000000    0.00000000
     atom    2 type  2   force =    -0.00000000   -0.00000000   -0.04366015
     atom    3 type  2   force =     0.00000000    0.00000000    0.04366015
     atom    4 type  2   force =     0.00000000    0.00000000   -0.04320391
     atom    5 type  2   force =     0.00000000    0.00000000    0.04320391
     atom    6 type  3   force =     0.00000000   -0.00000000    0.00000000
     atom    7 type  3   force =     0.00000000    0.00000000    0.13429902
     atom    8 type  3   force =    -0.00000000   -0.00000000   -0.13429902
     atom    9 type  3   force =     0.00000000    0.00000000    0.02635791
     atom   10 type  3   force =     0.00000000   -0.00000000   -0.02635791
     atom   11 type  3   force =    -0.00000000    0.00000000    0.00687063
     atom   12 type  3   force =     0.00000000   -0.00000000   -0.00687063
     The ionic contribution  to forces
     atom    1 type  1   force =    -0.00000000    0.00000000   -0.00000000
     atom    2 type  2   force =    -0.00001046    0.00000604   11.78617784
     atom    3 type  2   force =     0.00001046   -0.00000604  -11.78617784
     atom    4 type  2   force =    -0.00001202    0.00000694   -6.82114934
     atom    5 type  2   force =     0.00001202   -0.00000694    6.82114934
     atom    6 type  3   force =    -0.00000000    0.00000000    0.00000000
     atom    7 type  3   force =    -0.00000891    0.00000514   -2.30277961
     atom    8 type  3   force =     0.00000891   -0.00000514    2.30277961
     atom    9 type  3   force =    -0.00000461    0.00000266   -7.66914869
     atom   10 type  3   force =     0.00000461   -0.00000266    7.66914869
     atom   11 type  3   force =    -0.00000854    0.00000493    5.71045038
     atom   12 type  3   force =     0.00000854   -0.00000493   -5.71045038
     The local contribution  to forces
     atom    1 type  1   force =    -0.00000344   -0.00000187    0.00087825
     atom    2 type  2   force =     0.00001047   -0.00000469  -11.73022076
     atom    3 type  2   force =    -0.00000975    0.00000099   11.73116659
     atom    4 type  2   force =     0.00000822   -0.00000744    6.86602517
     atom    5 type  2   force =    -0.00000936    0.00000550   -6.86690303
     atom    6 type  3   force =    -0.00000147    0.00000021   -0.00013675
     atom    7 type  3   force =     0.00000984   -0.00000388    2.14275177
     atom    8 type  3   force =    -0.00001090    0.00000749   -2.14222974
     atom    9 type  3   force =     0.00000490   -0.00000607    7.68317213
     atom   10 type  3   force =    -0.00000781    0.00000529   -7.68309625
     atom   11 type  3   force =     0.00001103   -0.00000532   -5.75319429
     atom   12 type  3   force =    -0.00000840    0.00000485    5.75283035
     The core correction contribution to forces
     atom    1 type  1   force =    -0.00000012   -0.00000011    0.00000883
     atom    2 type  2   force =    -0.00000006   -0.00000006    0.00766876
     atom    3 type  2   force =    -0.00000001   -0.00000035   -0.00766191
     atom    4 type  2   force =    -0.00000001    0.00000000   -0.00051567
     atom    5 type  2   force =    -0.00000013   -0.00000004    0.00051485
     atom    6 type  3   force =     0.00000017   -0.00000001    0.00000775
     atom    7 type  3   force =     0.00000014   -0.00000000    0.01464441
     atom    8 type  3   force =    -0.00000014   -0.00000025   -0.01466589
     atom    9 type  3   force =    -0.00000014    0.00000031   -0.00521415
     atom   10 type  3   force =     0.00000047   -0.00000033    0.00521029
     atom   11 type  3   force =    -0.00000022    0.00000009    0.00871671
     atom   12 type  3   force =     0.00000004   -0.00000003   -0.00872453
     The Hubbard contrib.    to forces
     atom    1 type  1   force =     0.00000000    0.00000000    0.00000000
     atom    2 type  2   force =     0.00000000    0.00000000    0.00000000
     atom    3 type  2   force =     0.00000000    0.00000000    0.00000000
     atom    4 type  2   force =     0.00000000    0.00000000    0.00000000
     atom    5 type  2   force =     0.00000000    0.00000000    0.00000000
     atom    6 type  3   force =     0.00000000    0.00000000    0.00000000
     atom    7 type  3   force =     0.00000000    0.00000000    0.00000000
     atom    8 type  3   force =     0.00000000    0.00000000    0.00000000
     atom    9 type  3   force =     0.00000000    0.00000000    0.00000000
     atom   10 type  3   force =     0.00000000    0.00000000    0.00000000
     atom   11 type  3   force =     0.00000000    0.00000000    0.00000000
     atom   12 type  3   force =     0.00000000    0.00000000    0.00000000
     The SCF correction term to forces
     atom    1 type  1   force =     0.00000427    0.00000346   -0.00075092
     atom    2 type  2   force =    -0.00000153   -0.00000177    0.00039456
     atom    3 type  2   force =     0.00000324    0.00000411   -0.00131136
     atom    4 type  2   force =     0.00000022    0.00000152    0.00041791
     atom    5 type  2   force =     0.00000020   -0.00000089    0.00033854
     atom    6 type  3   force =    -0.00000044    0.00000016    0.00004822
     atom    7 type  3   force =    -0.00000281   -0.00000107   -0.00031265
     atom    8 type  3   force =     0.00000298    0.00000044   -0.00000474
     atom    9 type  3   force =     0.00000089    0.00000024   -0.00021120
     atom   10 type  3   force =    -0.00000157    0.00000021    0.00014649
     atom   11 type  3   force =    -0.00000056   -0.00000011    0.00045193
     atom   12 type  3   force =     0.00000027   -0.00000062    0.00002095

     Total force =     0.070512     Total SCF correction =     0.001761

     Computing stress (Cartesian axis) and pressure

     negative rho (up, down):  1.650E-01 0.000E+00
          total   stress  (Ry/bohr**3)                   (kbar)     P=      235.21
   0.00238412  -0.00000000   0.00000000          350.72       -0.00        0.00
  -0.00000000   0.00238412   0.00000000           -0.00      350.72        0.00
   0.00000000   0.00000000   0.00002864            0.00        0.00        4.21

     kinetic stress (kbar)   4069.45     -0.00     -0.00
                               -0.00   4069.45     -0.00
                               -0.00     -0.00   3753.20

     local   stress (kbar)  -1640.56     -0.00     -0.00
                               -0.00  -1640.56      0.00
                               -0.00      0.00   7677.44

     nonloc. stress (kbar)   2788.26     -0.00      0.00
                               -0.00   2788.25      0.00
                                0.00      0.00   2859.35

     hartree stress (kbar)   5987.51      0.00      0.00
                                0.00   5987.51     -0.00
                                0.00     -0.00   1564.74

     exc-cor stress (kbar)  12073.04     -0.00      0.00
                               -0.00  12073.04      0.00
                                0.00      0.00  12075.00

     corecor stress (kbar) -15290.99      0.00      0.00
                                0.00 -15290.99     -0.00
                                0.00     -0.00 -15281.84

     ewald   stress (kbar)  -7635.99      0.00     -0.00
                                0.00  -7635.98      0.00
                               -0.00      0.00 -12643.69

     hubbard stress (kbar)      0.00      0.00      0.00
                                0.00      0.00      0.00
                                0.00      0.00      0.00

     DFT-D   stress (kbar)      0.00      0.00      0.00
                                0.00      0.00      0.00
                                0.00      0.00      0.00

     XDM     stress (kbar)      0.00      0.00      0.00
                                0.00      0.00      0.00
                                0.00      0.00      0.00

     dft-nl  stress (kbar)      0.00      0.00      0.00
                                0.00      0.00      0.00
                                0.00      0.00      0.00

     TS-vdW  stress (kbar)      0.00      0.00      0.00
                                0.00      0.00      0.00
                                0.00      0.00      0.00

[...]

                                0.00      0.00      0.00

     Writing all to output data dir new_calculations/myprefix.save/

     General routines

     Parallel routines

   This run was terminated on:  13:39:34  20May2023

   JOB DONE.