     Program PWSCF v.7.0 starts on 20May2023 at 10:36:55

     Reading input from espresso_3388.pwi
Warning: card &CELL ignored
Warning: card / ignored

     Current dimensions of program PWSCF are:
     Max number of different atomic species (ntypx) = 10
     Max number of k-points (npk) =  40000
     Max angular momentum in pseudopotentials (lmaxx) =  4

     gamma-point specific algorithms are used
     Message from routine setup:
     using ibrav=0 with symmetry is DISCOURAGED, use correct ibrav instead

     Subspace diagonalization in iterative solution of the eigenvalue problem:
     a serial algorithm will be used

     Using Slab Decomposition

     bravais-lattice index     =            0
     lattice parameter (alat)  =       7.3998  a.u.
     unit-cell volume          =     572.8647 (a.u.)^3
     number of atoms/cell      =            4
     number of atomic types    =            3
     number of electrons       =        47.00
     number of Kohn-Sham states=           29
     kinetic-energy cutoff     =      30.0000  Ry
     charge density cutoff     =     240.0000  Ry
     scf convergence threshold =      1.0E-06
     mixing beta               =       0.7000
     number of iterations used =            8  plain     mixing
     Exchange-correlation=  SLA  PW   PBX  PBC
                           (   1   4   3   4   0   0   0)

     celldm(1)=   7.399815  celldm(2)=   0.000000  celldm(3)=   0.000000
     celldm(4)=   0.000000  celldm(5)=   0.000000  celldm(6)=   0.000000

     crystal axes: (cart. coord. in units of alat)
               a(1) = (   1.000000   0.000000   0.000000 )
               a(2) = (  -0.500000   0.866025   0.000000 )
               a(3) = (   0.000000   0.000000   1.632521 )

     reciprocal axes: (cart. coord. in units 2 pi/alat)
               b(1) = (  1.000000  0.577350  0.000000 )
               b(2) = (  0.000000  1.154700  0.000000 )
               b(3) = (  0.000000  0.000000  0.612550 )

     PseudoPot. # 1 for Mn read from file:
     /home/pragov/projects/rrg-bengioy-ad/pragov/crystal_structure_design/SSSP/mn_pbe_v1.5.uspp.F.UPF
     MD5 check sum: 82ef2b46521d7a7d9e736dc3972e4928
     Pseudo is Ultrasoft + core correction, Zval = 15.0
     Generated by new atomic code, or converted to UPF format
     Using radial grid of  859 points,  6 beta functions with:
                l(1) =   0
                l(2) =   0
                l(3) =   1
                l(4) =   1
                l(5) =   2
                l(6) =   2
     Q(r) pseudized with  8 coefficients,  rinner =    0.950   0.950   0.950
                                                       0.950   0.950

     PseudoPot. # 2 for Zn read from file:
     /home/pragov/projects/rrg-bengioy-ad/pragov/crystal_structure_design/SSSP/Zn_pbe_v1.uspp.F.UPF
     MD5 check sum: df62231357ef9e81f77b2b3087fa5675
     Pseudo is Ultrasoft, Zval = 20.0
     Generated by new atomic code, or converted to UPF format
     Using radial grid of  943 points,  6 beta functions with:
                l(1) =   0
                l(2) =   0
                l(3) =   1
                l(4) =   1
                l(5) =   2
                l(6) =   2
     Q(r) pseudized with  8 coefficients,  rinner =    1.100   1.100   1.100
                                                       1.100   1.100

     PseudoPot. # 3 for S  read from file:
     /home/pragov/projects/rrg-bengioy-ad/pragov/crystal_structure_design/SSSP/s_pbe_v1.4.uspp.F.UPF
     MD5 check sum: 88d86576ff6df21479756cfb9bdac1df
     Pseudo is Ultrasoft + core correction, Zval =  6.0
     Generated by new atomic code, or converted to UPF format
     Using radial grid of  907 points,  6 beta functions with:
                l(1) =   0
                l(2) =   0
                l(3) =   1
                l(4) =   1
                l(5) =   2
                l(6) =   2
     Q(r) pseudized with  8 coefficients,  rinner =    1.300   1.300   1.300
                                                       1.300   1.300

     atomic species   valence    mass     pseudopotential
        Mn            15.00    54.93804     Mn( 1.00)
        Zn            20.00    65.38000     Zn( 1.00)
        S              6.00    32.06000     S ( 1.00)

      6 Sym. Ops. (no inversion) found

                                    s                        frac. trans.

      isym =  1     identity

 cryst.   s( 1) = (     1          0          0      )
                  (     0          1          0      )
                  (     0          0          1      )

 cart.    s( 1) = (  1.0000000 -0.0000000  0.0000000 )
                  (  0.0000000  1.0000000  0.0000000 )
                  (  0.0000000  0.0000000  1.0000000 )

      isym =  2     120 deg rotation - cryst. axis [0,0,1]

[...]

      isym =  3     120 deg rotation - cryst. axis [0,0,-1]

[...]

      isym =  4     inv. 180 deg rotation - cart. axis [1,0,0]

[...]

      isym =  5     inv. 180 deg rotation - cryst. axis [0,1,0]

[...]

      isym =  6     inv. 180 deg rotation - cryst. axis [1,1,0]

 cryst.   s( 6) = (     0         -1          0      )
                  (    -1          0          0      )
                  (     0          0          1      )

 cart.    s( 6) = (  0.4999999 -0.8660255  0.0000000 )
                  ( -0.8660255 -0.4999999  0.0000000 )
                  (  0.0000000  0.0000000  1.0000000 )

   Cartesian axes

     site n.     atom                  positions (alat units)
         1           Mn  tau(   1) = (   0.5000005   0.2886749   0.8133073  )
         2           Zn  tau(   2) = (  -0.0000004   0.5773506   1.6316247  )
         3           S   tau(   3) = (   0.5000005   0.2886749   0.1954030  )
         4           S   tau(   4) = (  -0.0000004   0.5773506   1.0295722  )

   Crystallographic axes

     site n.     atom                  positions (cryst. coord.)
         1           Mn  tau(   1) = (  0.6666670  0.3333330  0.4981910  )
         2           Zn  tau(   2) = (  0.3333330  0.6666670  0.9994510  )
         3           S   tau(   3) = (  0.6666670  0.3333330  0.1196940  )
         4           S   tau(   4) = (  0.3333330  0.6666670  0.6306640  )

     number of k points=     1  Methfessel-Paxton smearing, width (Ry)=  0.0010
                       cart. coord. in units 2pi/alat
        k(    1) = (   0.0000000   0.0000000   0.0000000), wk =   2.0000000

                       cryst. coord.
        k(    1) = (   0.0000000   0.0000000   0.0000000), wk =   2.0000000

     Check: negative core charge=   -0.000012

     Initial potential from superposition of free atoms

     starting charge      46.4997, renormalised to      47.0000
     Starting wfcs are   34 randomized atomic wfcs

     Self-consistent Calculation

     iteration #  1     ecut=    30.00 Ry     beta= 0.70
     Davidson diagonalization with overlap

     ethr =  1.00E-02,  avg # of iterations =  6.0

     total energy              =    -706.77471339 Ry
     estimated scf accuracy    <      16.10626223 Ry

[...]

     total energy              =    -720.39924924 Ry
     estimated scf accuracy    <       0.00000243 Ry

     iteration # 16     ecut=    30.00 Ry     beta= 0.70
     Davidson diagonalization with overlap

     ethr =  5.17E-09,  avg # of iterations =  2.0

     End of self-consistent calculation

          k = 0.0000 0.0000 0.0000 (   809 PWs)   bands (ev):

  -118.8743 -73.0572 -72.9659 -72.9659 -71.2713 -40.1780 -40.1769 -39.7629
    -6.7823  -5.0413  -0.0087  -0.0086   0.0471   0.2183   0.2184   1.5407
     3.5196   3.5198   5.0515   6.3369   6.3371   7.2976   7.2987   8.3857
     8.8630   8.8635   8.8859  10.4118  13.0660

     occupation numbers
     1.0000   1.0000   1.0000   1.0000   1.0000   1.0000   1.0000   1.0000
     1.0000   1.0000   1.0000   1.0000   1.0000   1.0000   1.0000   1.0000
     1.0000   1.0000   1.0000   1.0000   1.0000   1.0000   1.0000   0.5000
    -0.0000  -0.0000  -0.0000  -0.0000  -0.0000

     the Fermi energy is     8.3857 ev

!    total energy              =    -720.39924923 Ry
     estimated scf accuracy    <       0.00000058 Ry
     smearing contrib. (-TS)   =      -0.00028209 Ry
     internal energy E=F+TS    =    -720.39896713 Ry

     The total energy is F=E-TS. E is the sum of the following terms:
     one-electron contribution =    -627.94621152 Ry
     hartree contribution      =     326.73505129 Ry
     xc contribution           =     -85.67195334 Ry
     ewald contribution        =    -333.51585356 Ry

     convergence has been achieved in  16 iterations

     Forces acting on atoms (cartesian axes, Ry/au):

     atom    1 type  1   force =     0.00000000    0.00000000   -0.05108004
     atom    2 type  2   force =     0.00000000    0.00000000   -0.00206488
     atom    3 type  3   force =     0.00000000    0.00000000    0.11336145
     atom    4 type  3   force =     0.00000000    0.00000000   -0.06021652
     The non-local contrib.  to forces
     atom    1 type  1   force =     0.00000000    0.00000000    0.75290889
     atom    2 type  2   force =    -0.00000000   -0.00000000    0.26303463
     atom    3 type  3   force =     0.00000000    0.00000000    0.18153976
     atom    4 type  3   force =     0.00000000   -0.00000000    0.06622037
     The ionic contribution  to forces
     atom    1 type  1   force =    -0.00002759    0.00001593   -0.45260152
     atom    2 type  2   force =     0.00003779   -0.00002182    0.48657059
     atom    3 type  3   force =    -0.00003421    0.00001975    2.90783778
     atom    4 type  3   force =     0.00002402   -0.00001387   -2.94180686
     The local contribution  to forces
     atom    1 type  1   force =     0.00004895   -0.00002648   -0.32130093
     atom    2 type  2   force =    -0.00004423    0.00012991   -0.75227242
     atom    3 type  3   force =     0.00018755    0.00012652   -2.96430381
     atom    4 type  3   force =    -0.00007105    0.00015683    2.81842230
     The core correction contribution to forces
     atom    1 type  1   force =     0.00000180   -0.00000673   -0.02992002
     atom    2 type  2   force =     0.00000000    0.00000000    0.00000000
     atom    3 type  3   force =     0.00000388    0.00000850   -0.01116321
     atom    4 type  3   force =    -0.00000060    0.00000833   -0.00358128
     The Hubbard contrib.    to forces
     atom    1 type  1   force =     0.00000000    0.00000000    0.00000000
     atom    2 type  2   force =     0.00000000    0.00000000    0.00000000
     atom    3 type  3   force =     0.00000000    0.00000000    0.00000000
     atom    4 type  3   force =     0.00000000    0.00000000    0.00000000
     The SCF correction term to forces
     atom    1 type  1   force =     0.00002521   -0.00000376   -0.00006224
     atom    2 type  2   force =     0.00024836    0.00002003    0.00070653
     atom    3 type  3   force =    -0.00009688   -0.00002250   -0.00044485
     atom    4 type  3   force =    -0.00001222   -0.00003639    0.00063317

     Total force =     0.138168     Total SCF correction =     0.001084

     Computing stress (Cartesian axis) and pressure

          total   stress  (Ry/bohr**3)                   (kbar)     P=     -135.19
  -0.00056785   0.00000000   0.00000000          -83.53        0.00        0.00
   0.00000000  -0.00056785   0.00000000            0.00      -83.53        0.00
   0.00000000  -0.00000000  -0.00162128            0.00       -0.00     -238.50

     kinetic stress (kbar)  17022.77     -0.00      0.00
                               -0.00  17022.77      0.00
                                0.00     -0.00  16843.65

     local   stress (kbar) -15793.85     -0.27      0.20
                               -0.27 -15794.76     -0.32
                                0.20     -0.32 -14267.86

     nonloc. stress (kbar)   5236.37     -0.00      0.00
                               -0.00   5236.37      0.00
                                0.00      0.00   5284.37

     hartree stress (kbar)  28276.87      0.12     -0.07
                                0.12  28277.18      0.10
                               -0.07      0.10  27347.75

     exc-cor stress (kbar)  -3560.11      0.00     -0.00
                                0.00  -3560.10      0.00
                               -0.00      0.00  -3556.54

     corecor stress (kbar)  -2927.45     -0.00      0.00
                               -0.00  -2927.45     -0.00
                                0.00     -0.00  -2922.51

     ewald   stress (kbar) -28337.88      0.07     -0.00
                                0.07 -28337.80      0.00
                               -0.00      0.00 -28967.36

     hubbard stress (kbar)      0.00      0.00      0.00
                                0.00      0.00      0.00
                                0.00      0.00      0.00

     DFT-D   stress (kbar)      0.00      0.00      0.00
                                0.00      0.00      0.00
                                0.00      0.00      0.00

     XDM     stress (kbar)      0.00      0.00      0.00
                                0.00      0.00      0.00
                                0.00      0.00      0.00

     dft-nl  stress (kbar)      0.00      0.00      0.00
                                0.00      0.00      0.00
                                0.00      0.00      0.00

     TS-vdW  stress (kbar)      0.00      0.00      0.00
                                0.00      0.00      0.00
                                0.00      0.00      0.00

[...]

                                0.00      0.00      0.00

     Writing all to output data dir new_calculations/myprefix.save/

     General routines

     Parallel routines

   This run was terminated on:  10:37: 4  20May2023

   JOB DONE.