     Program PWSCF v.7.0 starts on 20May2023 at  0:10:39

     Reading input from espresso_2012.pwi
Warning: card &CELL ignored
Warning: card / ignored

     Current dimensions of program PWSCF are:
     Max number of different atomic species (ntypx) = 10
     Max number of k-points (npk) =  40000
     Max angular momentum in pseudopotentials (lmaxx) =  4
     file Ga.pbe-dn-kjpaw_psl.1.0.0.UPF: wavefunction(s)  4S renormalized

     gamma-point specific algorithms are used
     Message from routine setup:
     using ibrav=0 with symmetry is DISCOURAGED, use correct ibrav instead

     Subspace diagonalization in iterative solution of the eigenvalue problem:
     a serial algorithm will be used

     Using Slab Decomposition

     bravais-lattice index     =            0
     lattice parameter (alat)  =      14.8998  a.u.
     unit-cell volume          =    2338.9770 (a.u.)^3
     number of atoms/cell      =           10
     number of atomic types    =            4
     number of electrons       =        82.00
     number of Kohn-Sham states=           49
     kinetic-energy cutoff     =      30.0000  Ry
     charge density cutoff     =     240.0000  Ry
     scf convergence threshold =      1.0E-06
     mixing beta               =       0.7000
     number of iterations used =            8  plain     mixing
     Exchange-correlation=  SLA  PW   PBX  PBC
                           (   1   4   3   4   0   0   0)

     celldm(1)=  14.899796  celldm(2)=   0.000000  celldm(3)=   0.000000
     celldm(4)=   0.000000  celldm(5)=   0.000000  celldm(6)=   0.000000

     crystal axes: (cart. coord. in units of alat)
               a(1) = (   1.000000   0.000000   0.000000 )
               a(2) = (   0.500000   0.866025   0.000000 )
               a(3) = (   0.500000   0.288675   0.816497 )

     reciprocal axes: (cart. coord. in units 2 pi/alat)
               b(1) = (  1.000000 -0.577350 -0.408248 )
               b(2) = (  0.000000  1.154701 -0.408248 )
               b(3) = (  0.000000  0.000000  1.224745 )

     PseudoPot. # 1 for Cs read from file:
     /home/pragov/projects/rrg-bengioy-ad/pragov/crystal_structure_design/SSSP/Cs_pbe_v1.uspp.F.UPF
     MD5 check sum: 3476d69cb178dfad3ffaa59df4e07ca4
     Pseudo is Ultrasoft + core correction, Zval =  9.0
     Generated by new atomic code, or converted to UPF format
     Using radial grid of  905 points,  6 beta functions with:
                l(1) =   0
                l(2) =   0
                l(3) =   1
                l(4) =   1
                l(5) =   2
                l(6) =   2
     Q(r) pseudized with  6 coefficients,  rinner =    1.500   1.500   1.500
                                                       1.500   1.500

     PseudoPot. # 2 for Na read from file:
     /home/pragov/projects/rrg-bengioy-ad/pragov/crystal_structure_design/SSSP/na_pbe_v1.5.uspp.F.UPF
     MD5 check sum: 44600605ef58000f06b90626533354dc
     Pseudo is Ultrasoft, Zval =  9.0
     Generated by new atomic code, or converted to UPF format
     Using radial grid of  819 points,  5 beta functions with:
                l(1) =   0
                l(2) =   0
                l(3) =   1
                l(4) =   1
                l(5) =   2
     Q(r) pseudized with  8 coefficients,  rinner =    1.250   1.250   1.250
                                                       1.250   1.250

     PseudoPot. # 3 for Ga read from file:
     /home/pragov/projects/rrg-bengioy-ad/pragov/crystal_structure_design/SSSP/Ga.pbe-dn-kjpaw_psl.1.0.0.UPF
     MD5 check sum: a27b4342b1af7e5f338de752e9ed7044
     Pseudo is Projector augmented-wave + core cor, Zval = 13.0
     Generated using "atomic" code by A. Dal Corso  v.5.1
     Shape of augmentation charge: PSQ
     Using radial grid of 1205 points,  6 beta functions with:
                l(1) =   0
                l(2) =   0
                l(3) =   1
                l(4) =   1
                l(5) =   2
                l(6) =   2
     Q(r) pseudized with 0 coefficients

     PseudoPot. # 4 for Br read from file:
     /home/pragov/projects/rrg-bengioy-ad/pragov/crystal_structure_design/SSSP/br_pbe_v1.4.uspp.F.UPF
     MD5 check sum: d3ffb7b29f6225aa16fe06858fb2a80b
     Pseudo is Ultrasoft + core correction, Zval =  7.0
     Generated by new atomic code, or converted to UPF format
     Using radial grid of  879 points,  6 beta functions with:
                l(1) =   0
                l(2) =   0
                l(3) =   1
                l(4) =   1
                l(5) =   2
                l(6) =   2
     Q(r) pseudized with  8 coefficients,  rinner =    1.100   1.100   1.100
                                                       1.100   1.100

     atomic species   valence    mass     pseudopotential
        Cs             9.00   132.90545     Cs( 1.00)
        Na             9.00    22.98977     Na( 1.00)
        Ga            13.00    69.72300     Ga( 1.00)
        Br             7.00    79.90400     Br( 1.00)

     12 Sym. Ops., with inversion, found

                                    s                        frac. trans.

      isym =  1     identity

 cryst.   s( 1) = (     1          0          0      )
                  (     0          1          0      )
                  (     0          0          1      )

 cart.    s( 1) = (  1.0000000  0.0000000  0.0000000 )
                  (  0.0000000  1.0000000  0.0000000 )
                  (  0.0000000  0.0000000  1.0000000 )

      isym =  2     180 deg rotation - cart. axis [1,0,0]

[...]

      isym =  3     120 deg rotation - cryst. axis [0,0,1]

[...]

      isym =  6     180 deg rotation - cryst. axis [1,1,0]

[...]

      isym =  7     inversion

[...]

      isym =  8     inv. 180 deg rotation - cart. axis [1,0,0]

[...]

      isym =  9     inv. 120 deg rotation - cryst. axis [0,0,1]

 cryst.   s( 9) = (     1         -1          0      )
                  (     1          0          0      )
                  (     1          0         -1      )

 cart.    s( 9) = (  0.5000000  0.8660254 -0.0000000 )
                  ( -0.8660254  0.5000000 -0.0000000 )
                  (  0.0000000  0.0000000 -1.0000000 )

[...]

 cryst.   s(10) = (     0          1          0      )
                  (    -1          1          0      )
                  (     0          1         -1      )

 cart.    s(10) = (  0.5000000 -0.8660254  0.0000000 )
                  (  0.8660254  0.5000000 -0.0000000 )
                  (  0.0000000  0.0000000 -1.0000000 )

[...]

      isym = 12     inv. 180 deg rotation - cryst. axis [1,1,0]

 cryst.   s(12) = (     1         -1          0      )
                  (     0         -1          0      )
                  (     0         -1          1      )

 cart.    s(12) = (  0.5000000 -0.8660254  0.0000000 )
                  ( -0.8660254 -0.5000000  0.0000000 )
                  (  0.0000000  0.0000000  1.0000000 )

   Cartesian axes

     site n.     atom                  positions (alat units)
         1           Cs  tau(   1) = (   1.5000000   0.8660254   0.6123724  )
         2           Cs  tau(   2) = (   0.5000000   0.2886751   0.2041241  )
         3           Na  tau(   3) = (   1.0000000   0.5773503   0.4082483  )
         4           Ga  tau(   4) = (   0.0000000   0.0000000   0.0000000  )
         5           Br  tau(   5) = (   1.0000000   0.2678432   0.1893937  )
         6           Br  tau(   6) = (   0.7319590   0.4225967   0.6271029  )
         7           Br  tau(   7) = (   1.0000000   0.8868574   0.6271029  )
         8           Br  tau(   8) = (   0.7319590   0.7321038   0.1893937  )
         9           Br  tau(   9) = (   1.2680410   0.4225967   0.6271029  )
        10           Br  tau(  10) = (   1.2680410   0.7321038   0.1893937  )

   Crystallographic axes

     site n.     atom                  positions (cryst. coord.)
         1           Cs  tau(   1) = (  0.7500000  0.7500000  0.7500000  )
         2           Cs  tau(   2) = (  0.2500000  0.2500000  0.2500000  )
         3           Na  tau(   3) = (  0.5000000  0.5000000  0.5000000  )
         4           Ga  tau(   4) = (  0.0000000  0.0000000  0.0000000  )
         5           Br  tau(   5) = (  0.7680410  0.2319590  0.2319590  )
         6           Br  tau(   6) = (  0.2319590  0.2319590  0.7680410  )
         7           Br  tau(   7) = (  0.2319590  0.7680410  0.7680410  )
         8           Br  tau(   8) = (  0.2319590  0.7680410  0.2319590  )
         9           Br  tau(   9) = (  0.7680410  0.2319590  0.7680410  )
        10           Br  tau(  10) = (  0.7680410  0.7680410  0.2319590  )

     number of k points=     1  Methfessel-Paxton smearing, width (Ry)=  0.0010
                       cart. coord. in units 2pi/alat
        k(    1) = (   0.0000000   0.0000000   0.0000000), wk =   2.0000000

                       cryst. coord.
        k(    1) = (   0.0000000   0.0000000   0.0000000), wk =   2.0000000

     Check: negative core charge=   -0.000001

     Initial potential from superposition of free atoms

     starting charge      81.9119, renormalised to      82.0000
     Starting wfcs are   64 randomized atomic wfcs
     Checking if some PAW data can be deallocated...

     Self-consistent Calculation

     iteration #  1     ecut=    30.00 Ry     beta= 0.70
     Davidson diagonalization with overlap

     ethr =  1.00E-02,  avg # of iterations =  3.0

     Threshold (ethr) on eigenvalues was too large:
     Diagonalizing with lowered threshold

     Davidson diagonalization with overlap

[...]

     total energy              =    -780.97072523 Ry
     estimated scf accuracy    <       0.39966992 Ry

[...]

     total energy              =    -781.10723836 Ry
     estimated scf accuracy    <       0.00000584 Ry

     iteration #  7     ecut=    30.00 Ry     beta= 0.70
     Davidson diagonalization with overlap

     ethr =  7.12E-09,  avg # of iterations =  4.0

     End of self-consistent calculation

          k = 0.0000 0.0000 0.0000 (  3212 PWs)   bands (ev):

   -48.9330 -20.8290 -20.8290 -20.8290 -17.3698 -17.3629 -12.1661 -12.1661
   -12.0117 -12.0117 -12.0117 -10.8990 -10.3474 -10.3463 -10.3461  -9.9743
    -9.9735  -4.2815  -4.2815  -4.2815  -4.2132  -4.2132  -4.2131  -3.1128
    -0.2127  -0.2122  -0.2121   1.0015   1.0015   1.0019   1.9782   1.9783
     1.9787   2.0029   2.0036   2.2690   2.2690   2.2691   2.6787   2.6788
     2.6793   3.8696   7.3493   7.7859   7.7860   7.7861   8.0385   8.0386
     8.8305

     occupation numbers
     1.0000   1.0000   1.0000   1.0000   1.0000   1.0000   1.0000   1.0000
     1.0000   1.0000   1.0000   1.0000   1.0000   1.0000   1.0000   1.0000
     1.0000   1.0000   1.0000   1.0000   1.0000   1.0000   1.0000   1.0000
     1.0000   1.0000   1.0000   1.0000   1.0000   1.0000   1.0000   1.0000
     1.0000   1.0000   1.0000   1.0000   1.0000   1.0000   1.0000   1.0000
     1.0000  -0.0000  -0.0000  -0.0000  -0.0000  -0.0000  -0.0000  -0.0000
    -0.0000

     the Fermi energy is     3.5257 ev

!    total energy              =    -781.10724025 Ry
     estimated scf accuracy    <       0.00000037 Ry
     smearing contrib. (-TS)   =       0.00000000 Ry
     internal energy E=F+TS    =    -781.10724025 Ry

     The total energy is F=E-TS. E is the sum of the following terms:
     one-electron contribution =    -285.25663379 Ry
     hartree contribution      =     180.49060007 Ry
     xc contribution           =    -270.40832148 Ry
     ewald contribution        =    -294.98152952 Ry
     one-center paw contrib.   =    -110.95135553 Ry
      -> PAW hartree energy AE =     135.56152350 Ry
      -> PAW hartree energy PS =    -133.38098604 Ry
      -> PAW xc energy AE      =    -150.46945737 Ry
      -> PAW xc energy PS      =      37.33756439 Ry
      -> total E_H with PAW    =     182.67113753 Ry
      -> total E_XC with PAW   =    -383.54021447 Ry

     convergence has been achieved in   7 iterations

     Forces acting on atoms (cartesian axes, Ry/au):

     atom    1 type  1   force =     0.00000000    0.00000000    0.00002497
     atom    2 type  1   force =     0.00000000    0.00000000   -0.00002497
     atom    3 type  2   force =     0.00000000    0.00000000   -0.00000000
     atom    4 type  3   force =     0.00000000    0.00000000    0.00000000
     atom    5 type  4   force =     0.00000000   -0.00160505   -0.00114602
     atom    6 type  4   force =    -0.00139001   -0.00080252    0.00114602
     atom    7 type  4   force =     0.00000000    0.00160505    0.00114602
     atom    8 type  4   force =    -0.00139001    0.00080252   -0.00114602
     atom    9 type  4   force =     0.00139001   -0.00080252    0.00114602
     atom   10 type  4   force =     0.00139001    0.00080252   -0.00114602
     The non-local contrib.  to forces
     atom    1 type  1   force =     0.00000000    0.00000000   -0.00001889
     atom    2 type  1   force =     0.00000000    0.00000000    0.00001889
     atom    3 type  2   force =    -0.00000000    0.00000000    0.00000000
     atom    4 type  3   force =     0.00000000    0.00000000   -0.00000000
     atom    5 type  4   force =     0.00000000    0.01949529    0.01374606
     atom    6 type  4   force =     0.01688341    0.00974764   -0.01374606
     atom    7 type  4   force =     0.00000000   -0.01949529   -0.01374606
     atom    8 type  4   force =     0.01688341   -0.00974764    0.01374606
     atom    9 type  4   force =    -0.01688341    0.00974764   -0.01374606
     atom   10 type  4   force =    -0.01688341   -0.00974764    0.01374606
     The ionic contribution  to forces
     atom    1 type  1   force =    -0.00000000   -0.00000000   -0.00000000
     atom    2 type  1   force =     0.00000000   -0.00000000   -0.00000000
     atom    3 type  2   force =     0.00000000    0.00000000    0.00000000
     atom    4 type  3   force =    -0.00000000    0.00000000    0.00000000
     atom    5 type  4   force =    -0.00000000    3.89082000    2.75122520
     atom    6 type  4   force =     3.36954896    1.94541000   -2.75122520
     atom    7 type  4   force =    -0.00000000   -3.89082000   -2.75122520
     atom    8 type  4   force =     3.36954896   -1.94541000    2.75122520
     atom    9 type  4   force =    -3.36954896    1.94541000   -2.75122520
     atom   10 type  4   force =    -3.36954896   -1.94541000    2.75122520
     The local contribution  to forces
     atom    1 type  1   force =    -0.00010477   -0.00013770    0.00012801
     atom    2 type  1   force =     0.00017687    0.00012481   -0.00023290
     atom    3 type  2   force =     0.00001906   -0.00001859    0.00005711
     atom    4 type  3   force =     0.00064344   -0.00071420   -0.00015338
     atom    5 type  4   force =    -0.00009167   -3.92233331   -2.77364233
     atom    6 type  4   force =    -3.39668971   -1.96103099    2.77343958
     atom    7 type  4   force =     0.00007128    3.92221741    2.77365616
     atom    8 type  4   force =    -3.39691508    1.96105421   -2.77359536
     atom    9 type  4   force =     3.39680278   -1.96102023    2.77362034
     atom   10 type  4   force =     3.39679378    1.96110235   -2.77346547
     The core correction contribution to forces
     atom    1 type  1   force =    -0.00000398   -0.00000277    0.00000538
     atom    2 type  1   force =     0.00000772    0.00000148   -0.00000344
     atom    3 type  2   force =     0.00000000    0.00000000    0.00000000
     atom    4 type  3   force =     0.00001902   -0.00001980   -0.00000764
     atom    5 type  4   force =    -0.00000154    0.01027437    0.00726291
     atom    6 type  4   force =     0.00889373    0.00513684   -0.00726079
     atom    7 type  4   force =     0.00000297   -0.01027886   -0.00725781
     atom    8 type  4   force =     0.00889277   -0.00513819    0.00726161
     atom    9 type  4   force =    -0.00890096    0.00514463   -0.00725955
     atom   10 type  4   force =    -0.00888911   -0.00513087    0.00725890
     The Hubbard contrib.    to forces
     atom    1 type  1   force =     0.00000000    0.00000000    0.00000000
     atom    2 type  1   force =     0.00000000    0.00000000    0.00000000
     atom    3 type  2   force =     0.00000000    0.00000000    0.00000000
     atom    4 type  3   force =     0.00000000    0.00000000    0.00000000
     atom    5 type  4   force =     0.00000000    0.00000000    0.00000000
     atom    6 type  4   force =     0.00000000    0.00000000    0.00000000
     atom    7 type  4   force =     0.00000000    0.00000000    0.00000000
     atom    8 type  4   force =     0.00000000    0.00000000    0.00000000
     atom    9 type  4   force =     0.00000000    0.00000000    0.00000000
     atom   10 type  4   force =     0.00000000    0.00000000    0.00000000
     The SCF correction term to forces
     atom    1 type  1   force =     0.00007517    0.00010675   -0.00009291
     atom    2 type  1   force =    -0.00011860   -0.00009924    0.00018908
     atom    3 type  2   force =     0.00002327   -0.00000074   -0.00015475
     atom    4 type  3   force =    -0.00095705    0.00118246    0.00025437
     atom    5 type  4   force =     0.00010447    0.00011864    0.00023796
     atom    6 type  4   force =    -0.00000116   -0.00006197   -0.00006351
     atom    7 type  4   force =    -0.00009164    0.00001669   -0.00029758
     atom    8 type  4   force =     0.00022231    0.00006116    0.00021021
     atom    9 type  4   force =    -0.00005747   -0.00013387   -0.00024873
     atom   10 type  4   force =    -0.00013518   -0.00004724    0.00009598

     Total force =     0.004831     Total SCF correction =     0.001699
     SCF correction compared to forces is large: reduce conv_thr to get better values

     Computing stress (Cartesian axis) and pressure

          total   stress  (Ry/bohr**3)                   (kbar)     P=       42.93
   0.00029180  -0.00000000  -0.00000000           42.93       -0.00       -0.00
  -0.00000000   0.00029180  -0.00000000           -0.00       42.93       -0.00
  -0.00000000  -0.00000000   0.00029181           -0.00       -0.00       42.93

     kinetic stress (kbar)   4585.62      0.00     -0.00
                                0.00   4585.62     -0.00
                               -0.00     -0.00   4585.62

     local   stress (kbar)   1968.64     -0.03      0.07
                               -0.03   1968.68      0.05
                                0.07      0.05   1968.70

     nonloc. stress (kbar)  -1914.16      0.00     -0.00
                                0.00  -1914.16      0.00
                                0.00      0.00  -1914.17

     hartree stress (kbar)   3783.89      0.03     -0.06
                                0.03   3783.85     -0.05
                               -0.06     -0.05   3783.84

     exc-cor stress (kbar)   9485.52      0.00     -0.00
                                0.00   9485.52     -0.00
                               -0.00     -0.00   9485.52

     corecor stress (kbar) -11682.50     -0.00      0.00
                               -0.00 -11682.50      0.00
                                0.00      0.00 -11682.50

     ewald   stress (kbar)  -6184.08      0.00     -0.00
                                0.00  -6184.08      0.00
                               -0.00      0.00  -6184.08

     hubbard stress (kbar)      0.00      0.00      0.00
                                0.00      0.00      0.00
                                0.00      0.00      0.00

     DFT-D   stress (kbar)      0.00      0.00      0.00
                                0.00      0.00      0.00
                                0.00      0.00      0.00

     XDM     stress (kbar)      0.00      0.00      0.00
                                0.00      0.00      0.00
                                0.00      0.00      0.00

     dft-nl  stress (kbar)      0.00      0.00      0.00
                                0.00      0.00      0.00
                                0.00      0.00      0.00

     TS-vdW  stress (kbar)      0.00      0.00      0.00
                                0.00      0.00      0.00
                                0.00      0.00      0.00

[...]

                                0.00      0.00      0.00

     Writing all to output data dir new_calculations/myprefix.save/

     General routines

     Parallel routines

     PAW routines

   This run was terminated on:   0:11:16  20May2023

   JOB DONE.