     Program PWSCF v.7.0 starts on 21May2023 at  8:52:49

     Reading input from espresso_23519.pwi
Warning: card &CELL ignored
Warning: card / ignored

     Current dimensions of program PWSCF are:
     Max number of different atomic species (ntypx) = 10
     Max number of k-points (npk) =  40000
     Max angular momentum in pseudopotentials (lmaxx) =  4
     file O.pbe-n-kjpaw_psl.0.1.UPF: wavefunction(s)  2P renormalized

     gamma-point specific algorithms are used
     Message from routine setup:
     using ibrav=0 with symmetry is DISCOURAGED, use correct ibrav instead

     Subspace diagonalization in iterative solution of the eigenvalue problem:
     a serial algorithm will be used

     Using Slab Decomposition

     bravais-lattice index     =            0
     lattice parameter (alat)  =      11.8060  a.u.
     unit-cell volume          =    1082.1570 (a.u.)^3
     number of atoms/cell      =           16
     number of atomic types    =            4
     number of electrons       =       147.00
     number of Kohn-Sham states=           89
     kinetic-energy cutoff     =      30.0000  Ry
     charge density cutoff     =     240.0000  Ry
     scf convergence threshold =      1.0E-06
     mixing beta               =       0.7000
     number of iterations used =            8  plain     mixing
     Exchange-correlation= SLA  PW   PBX  PBC
                           (   1   4   3   4   0   0   0)

     celldm(1)=  11.805974  celldm(2)=   0.000000  celldm(3)=   0.000000
     celldm(4)=   0.000000  celldm(5)=   0.000000  celldm(6)=   0.000000

     crystal axes: (cart. coord. in units of alat)
               a(1) = (   1.000000   0.000000   0.000000 )
               a(2) = (   0.566724   0.823908   0.000000 )
               a(3) = (   0.427077   0.224591   0.798190 )

     reciprocal axes: (cart. coord. in units 2 pi/alat)
               b(1) = (  1.000000 -0.687849 -0.341513 )
               b(2) = (  0.000000  1.213728 -0.341513 )
               b(3) = (  0.000000  0.000000  1.252835 )

     PseudoPot. # 1 for Li read from file:
     /home/pragov/projects/rrg-bengioy-ad/pragov/crystal_structure_design/SSSP/li_pbe_v1.4.uspp.F.UPF
     MD5 check sum: e912e257baa3777c20ea3d68f190483c
     Pseudo is Ultrasoft, Zval =  3.0
     Generated by new atomic code, or converted to UPF format
     Using radial grid of  751 points,  5 beta functions with:
                l(1) =   0
                l(2) =   0
                l(3) =   0
                l(4) =   1
                l(5) =   1
     Q(r) pseudized with 10 coefficients,  rinner =    1.150   1.150   1.150

     PseudoPot. # 2 for Cu read from file:
     /home/pragov/projects/rrg-bengioy-ad/pragov/crystal_structure_design/SSSP/Cu_pbe_v1.2.uspp.F.UPF
     MD5 check sum: 6e991ff952a84172a2a52a1c1e996048
     Pseudo is Ultrasoft + core correction, Zval = 19.0
     Generated by new atomic code, or converted to UPF format
     Using radial grid of  867 points,  6 beta functions with:
                l(1) =   0
                l(2) =   0
                l(3) =   1
                l(4) =   1
                l(5) =   2
                l(6) =   2
     Q(r) pseudized with  8 coefficients,  rinner =    1.150   1.150   1.150
                                                       1.150   1.150

     PseudoPot. # 3 for Sn read from file:
     /home/pragov/projects/rrg-bengioy-ad/pragov/crystal_structure_design/SSSP/Sn_pbe_v1.uspp.F.UPF
     MD5 check sum: 4cf58ce39ec5d5d420df3dd08604eb00
     Pseudo is Ultrasoft + core correction, Zval = 14.0
     Generated by new atomic code, or converted to UPF format
     Using radial grid of  891 points,  6 beta functions with:
                l(1) =   0
                l(2) =   0
                l(3) =   1
                l(4) =   1
                l(5) =   2
                l(6) =   2
     Q(r) pseudized with  6 coefficients,  rinner =    1.200   1.200   1.200
                                                       1.200   1.200

     PseudoPot. # 4 for O  read from file:
     /home/pragov/projects/rrg-bengioy-ad/pragov/crystal_structure_design/SSSP/O.pbe-n-kjpaw_psl.0.1.UPF
     MD5 check sum: 0234752ac141de4415c5fc33072bef88
     Pseudo is Projector augmented-wave + core cor, Zval =  6.0
     Generated using "atomic" code by A. Dal Corso  v.5.0.99 svn rev. 10869
     Shape of augmentation charge: BESSEL
     Using radial grid of 1095 points,  4 beta functions with:
                l(1) =   0
                l(2) =   0
                l(3) =   1
                l(4) =   1
     Q(r) pseudized with 0 coefficients

     atomic species   valence    mass     pseudopotential
        Li             3.00     6.94000     Li( 1.00)
        Cu            19.00    63.54600     Cu( 1.00)
        Sn            14.00   118.71000     Sn( 1.00)
        O              6.00    15.99900     O ( 1.00)

      2 Sym. Ops., with inversion, found

                                    s                        frac. trans.

      isym =  1     identity

 cryst.   s( 1) = (     1          0          0      )
                  (     0          1          0      )
                  (     0          0          1      )

 cart.    s( 1) = (  1.0000000 -0.0000000 -0.0000000 )
                  (  0.0000000  1.0000000 -0.0000000 )
                  (  0.0000000  0.0000000  1.0000000 )

      isym =  2     inversion

 cryst.   s( 2) = (    -1          0          0      )
                  (     0         -1          0      )
                  (     0          0         -1      )

 cart.    s( 2) = ( -1.0000000  0.0000000  0.0000000 )
                  (  0.0000000 -1.0000000  0.0000000 )
                  (  0.0000000  0.0000000 -1.0000000 )

   Cartesian axes

     site n.     atom                  positions (alat units)
         1           Li  tau(   1) = (   0.2833621   0.4119538   0.0000000  )
         2           Li  tau(   2) = (   0.2135385   0.1122954   0.3990950  )
         3           Li  tau(   3) = (   0.5000000   0.0000000   0.0000000  )
         4           Cu  tau(   4) = (   0.9969005   0.5242493   0.3990950  )
         5           Cu  tau(   5) = (   0.0000000   0.0000000   0.0000000  )
         6           Cu  tau(   6) = (   1.4969005   0.5242493   0.3990950  )
         7           Cu  tau(   7) = (   0.7135385   0.1122954   0.3990950  )
         8           Sn  tau(   8) = (   0.7833621   0.4119538   0.0000000  )
         9           O   tau(   9) = (   0.5389637   0.2834298   0.2044747  )
        10           O   tau(  10) = (   0.9671033   0.7543649   0.6061088  )
        11           O   tau(  11) = (   1.1696078   0.3692870   0.6061088  )
        12           O   tau(  12) = (   1.3496010   0.7097271   0.1927741  )
        13           O   tau(  13) = (   0.6442001   0.3387714   0.6054159  )
        14           O   tau(  14) = (   0.8241933   0.6792115   0.1920812  )
        15           O   tau(  15) = (   1.0266978   0.2941336   0.1920812  )
        16           O   tau(  16) = (   1.4548373   0.7650687   0.5937153  )

   Crystallographic axes

     site n.     atom                  positions (cryst. coord.)
         1           Li  tau(   1) = (  0.0000000  0.5000000  0.0000000  )
         2           Li  tau(   2) = (  0.0000000 -0.0000000  0.5000000  )
         3           Li  tau(   3) = (  0.5000000  0.0000000  0.0000000  )
         4           Cu  tau(   4) = (  0.5000000  0.5000000  0.5000000  )
         5           Cu  tau(   5) = (  0.0000000  0.0000000  0.0000000  )
         6           Cu  tau(   6) = (  1.0000000  0.5000000  0.5000000  )
         7           Cu  tau(   7) = (  0.5000000 -0.0000000  0.5000000  )
         8           Sn  tau(   8) = (  0.5000000  0.5000000  0.0000000  )
         9           O   tau(   9) = (  0.2741760  0.2741760  0.2561730  )
        10           O   tau(  10) = (  0.2412200  0.7086000  0.7593540  )
        11           O   tau(  11) = (  0.7086000  0.2412200  0.7593540  )
        12           O   tau(  12) = (  0.7955810  0.7955810  0.2415140  )
        13           O   tau(  13) = (  0.2044190  0.2044190  0.7584860  )
        14           O   tau(  14) = (  0.2914000  0.7587800  0.2406460  )
        15           O   tau(  15) = (  0.7587800  0.2914000  0.2406460  )
        16           O   tau(  16) = (  0.7258240  0.7258240  0.7438270  )

     number of k points=     1  Methfessel-Paxton smearing, width (Ry)=  0.0010
                       cart. coord. in units 2pi/alat
        k(    1) = (   0.0000000   0.0000000   0.0000000), wk =   2.0000000

                       cryst. coord.
        k(    1) = (   0.0000000   0.0000000   0.0000000), wk =   2.0000000

     Check: negative core charge=   -0.000014

     Initial potential from superposition of free atoms

     starting charge     140.6477, renormalised to     147.0000
     Starting wfcs are  108 randomized atomic wfcs
     Checking if some PAW data can be deallocated...

     Self-consistent Calculation

     iteration #  1     ecut=    30.00 Ry     beta= 0.70
     Davidson diagonalization with overlap

     ethr =  1.00E-02,  avg # of iterations =  4.0

     total energy              =   -2138.02882864 Ry
     estimated scf accuracy    <      22.96951470 Ry

[...]

     total energy              =   -2154.31705397 Ry
     estimated scf accuracy    <       0.00004837 Ry

     iteration # 19     ecut=    30.00 Ry     beta= 0.70
     Davidson diagonalization with overlap

     ethr =  5.60E-09,  avg # of iterations =  2.0

     End of self-consistent calculation

          k = 0.0000 0.0000 0.0000 (  1510 PWs)   bands (ev):

  -103.6343-103.1226-103.1225-102.8151 -61.2434 -61.1570 -60.7061 -60.7043
   -60.6808 -60.6703 -60.5755 -60.3728 -60.2593 -60.0861 -60.0848 -59.9388
   -35.5748 -35.2773 -35.2663 -12.2862 -12.2616 -11.8057 -11.8043 -11.7229
    -9.8839  -8.8016  -8.6288  -8.4947  -8.3526  -8.2270  -8.0075  -7.4728
     1.2746   2.8148   3.1048   3.4682   3.5066   3.6424   3.7821   4.2851
     4.5639   4.6225   5.3342   5.4343   5.5814   5.5838   5.6907   6.0087
     6.1522   6.4569   6.4800   6.6527   6.8046   6.8572   6.8974   6.9280
     7.1975   7.2635   7.2834   7.3019   7.4042   7.4305   7.4449   7.4747
     7.5964   7.6151   7.8177   7.8309   7.9615   8.4474   8.8619   8.8759
     9.8622  10.1838  10.3394  10.4914  11.4421  14.2622  14.4070  14.6384
    14.8136  15.5237  16.9339  17.2415  18.2454  18.6764  19.0238  19.5789
    19.6879

     occupation numbers
     1.0000   1.0000   1.0000   1.0000   1.0000   1.0000   1.0000   1.0000
     1.0000   1.0000   1.0000   1.0000   1.0000   1.0000   1.0000   1.0000
     1.0000   1.0000   1.0000   1.0000   1.0000   1.0000   1.0000   1.0000
     1.0000   1.0000   1.0000   1.0000   1.0000   1.0000   1.0000   1.0000
     1.0000   1.0000   1.0000   1.0000   1.0000   1.0000   1.0000   1.0000
     1.0000   1.0000   1.0000   1.0000   1.0000   1.0000   1.0000   1.0000
     1.0000   1.0000   1.0000   1.0000   1.0000   1.0000   1.0000   1.0000
     1.0000   1.0000   1.0000   1.0000   1.0000   1.0000   1.0000   1.0000
     1.0000   1.0000   1.0000   1.0000   1.0000   1.0000   1.0000   1.0000
     1.0000   0.5000  -0.0000  -0.0000  -0.0000  -0.0000  -0.0000  -0.0000
    -0.0000  -0.0000  -0.0000  -0.0000  -0.0000  -0.0000  -0.0000  -0.0000
    -0.0000

     the Fermi energy is    10.1838 ev

!    total energy              =   -2154.31705784 Ry
     estimated scf accuracy    <       0.00000032 Ry
     smearing contrib. (-TS)   =      -0.00028209 Ry
     internal energy E=F+TS    =   -2154.31677574 Ry

     The total energy is F=E-TS. E is the sum of the following terms:
     one-electron contribution =   -1583.68191779 Ry
     hartree contribution      =     868.55954539 Ry
     xc contribution           =    -272.81566287 Ry
     ewald contribution        =   -1090.21627225 Ry
     one-center paw contrib.   =     -76.16246822 Ry
      -> PAW hartree energy AE =     234.41333382 Ry
      -> PAW hartree energy PS =    -233.56894071 Ry
      -> PAW xc energy AE      =    -136.95005088 Ry
      -> PAW xc energy PS      =      59.94318954 Ry
      -> total E_H with PAW    =     869.40393850 Ry
      -> total E_XC with PAW   =    -349.82252420 Ry

     convergence has been achieved in  19 iterations

     Forces acting on atoms (cartesian axes, Ry/au):

     atom    1 type  1   force =     0.00000000    0.00000000    0.00000000
     atom    2 type  1   force =     0.00000000    0.00000000    0.00000000
     atom    3 type  1   force =     0.00000000    0.00000000    0.00000000
     atom    4 type  2   force =     0.00000000    0.00000000    0.00000000
     atom    5 type  2   force =     0.00000000    0.00000000    0.00000000
     atom    6 type  2   force =     0.00000000    0.00000000    0.00000000
     atom    7 type  2   force =     0.00000000    0.00000000    0.00000000
     atom    8 type  3   force =     0.00000000    0.00000000    0.00000000
     atom    9 type  4   force =     0.02995368    0.01575836    0.00047493
     atom   10 type  4   force =    -0.00429689   -0.01550866    0.00540532
     atom   11 type  4   force =    -0.01521534    0.00524976    0.00539900
     atom   12 type  4   force =     0.02420213    0.01272161    0.01521707
     atom   13 type  4   force =    -0.02420213   -0.01272161   -0.01521707
     atom   14 type  4   force =     0.01521534   -0.00524976   -0.00539900
     atom   15 type  4   force =     0.00429689    0.01550866   -0.00540532
     atom   16 type  4   force =    -0.02995368   -0.01575836   -0.00047493
     The non-local contrib.  to forces
     atom    1 type  1   force =     0.00000000    0.00000000    0.00000000
     atom    2 type  1   force =     0.00000000    0.00000000    0.00000000
     atom    3 type  1   force =     0.00000000    0.00000000    0.00000000
     atom    4 type  2   force =     0.00000000    0.00000000    0.00000000
     atom    5 type  2   force =     0.00000000    0.00000000    0.00000000
     atom    6 type  2   force =     0.00000000    0.00000000    0.00000000
     atom    7 type  2   force =     0.00000000    0.00000000    0.00000000
     atom    8 type  3   force =     0.00000000    0.00000000    0.00000000
     atom    9 type  4   force =     0.58949740    0.31000048    0.07151401
     atom   10 type  4   force =     0.61268694   -0.48224907    0.13877258
     atom   11 type  4   force =    -0.05010740    0.77810322    0.13875359
     atom   12 type  4   force =     0.32726297    0.17210509    0.25765194
     atom   13 type  4   force =    -0.32726297   -0.17210509   -0.25765194
     atom   14 type  4   force =     0.05010740   -0.77810322   -0.13875359
     atom   15 type  4   force =    -0.61268694    0.48224907   -0.13877258
     atom   16 type  4   force =    -0.58949740   -0.31000048   -0.07151401
     The ionic contribution  to forces
     atom    1 type  1   force =    -0.00000000   -0.00000000   -0.00000000
     atom    2 type  1   force =    -0.00000000    0.00000000    0.00000000
     atom    3 type  1   force =    -0.00000000    0.00000000   -0.00000000
     atom    4 type  2   force =     0.00000000   -0.00000000    0.00000000
     atom    5 type  2   force =     0.00000000    0.00000000    0.00000000
     atom    6 type  2   force =    -0.00000000   -0.00000000    0.00000000
     atom    7 type  2   force =    -0.00000000    0.00000000    0.00000000
     atom    8 type  3   force =    -0.00000000   -0.00000000   -0.00000000
     atom    9 type  4   force =   -11.40502829   -5.99766717  -11.21000771
     atom   10 type  4   force =   -10.43136511    2.92606787    1.39149502
     atom   11 type  4   force =    -3.50089653  -10.25275449    1.39149502
     atom   12 type  4   force =    -9.83362872   -5.17130081   -9.86577484
     atom   13 type  4   force =     9.83362872    5.17130081    9.86577484
     atom   14 type  4   force =     3.50089652   10.25275449   -1.39149503
     atom   15 type  4   force =    10.43136511   -2.92606787   -1.39149503
     atom   16 type  4   force =    11.40502829    5.99766717   11.21000770
     The local contribution  to forces
     atom    1 type  1   force =    -0.00001015    0.00001072   -0.00001080
     atom    2 type  1   force =    -0.00000804   -0.00000449    0.00000749
     atom    3 type  1   force =     0.00000430   -0.00001421   -0.00000842
     atom    4 type  2   force =    -0.00000646    0.00000201    0.00000165
     atom    5 type  2   force =    -0.00000686    0.00002068   -0.00002966
     atom    6 type  2   force =    -0.00000254    0.00011615    0.00011753
     atom    7 type  2   force =     0.00009298   -0.00008237    0.00012131
     atom    8 type  3   force =     0.00006545    0.00002043   -0.00005201
     atom    9 type  4   force =    10.85145238    5.70659266   11.13949809
     atom   10 type  4   force =     9.82097837   -2.46419793   -1.52348867
     atom   11 type  4   force =     3.53551929    9.48810552   -1.52348170
     atom   12 type  4   force =     9.53407270    5.01371674    9.62567060
     atom   13 type  4   force =    -9.53406948   -5.01372222   -9.62568598
     atom   14 type  4   force =    -3.53552999   -9.48810303    1.52349191
     atom   15 type  4   force =    -9.82099420    2.46421202    1.52350207
     atom   16 type  4   force =   -10.85147974   -5.70660910  -11.13949042
     The core correction contribution to forces
     atom    1 type  1   force =     0.00000000    0.00000000    0.00000000
     atom    2 type  1   force =     0.00000000    0.00000000    0.00000000
     atom    3 type  1   force =     0.00000000    0.00000000    0.00000000
     atom    4 type  2   force =     0.00000002    0.00000001   -0.00000002
     atom    5 type  2   force =    -0.00000004   -0.00000001    0.00000005
     atom    6 type  2   force =     0.00000001   -0.00000000    0.00000002
     atom    7 type  2   force =    -0.00000002   -0.00000002    0.00000001
     atom    8 type  3   force =     0.00000022   -0.00000019    0.00000025
     atom    9 type  4   force =    -0.00604048   -0.00317646   -0.00068721
     atom   10 type  4   force =    -0.00660255    0.00508725   -0.00119787
     atom   11 type  4   force =     0.00044950   -0.00832298   -0.00119763
     atom   12 type  4   force =    -0.00328877   -0.00172968   -0.00269373
     atom   13 type  4   force =     0.00328895    0.00172964    0.00269360
     atom   14 type  4   force =    -0.00044969    0.00832304    0.00119775
     atom   15 type  4   force =     0.00660252   -0.00508713    0.00119803
     atom   16 type  4   force =     0.00603995    0.00317621    0.00068722
     The Hubbard contrib.    to forces
     atom    1 type  1   force =     0.00000000    0.00000000    0.00000000
     atom    2 type  1   force =     0.00000000    0.00000000    0.00000000
     atom    3 type  1   force =     0.00000000    0.00000000    0.00000000
     atom    4 type  2   force =     0.00000000    0.00000000    0.00000000
     atom    5 type  2   force =     0.00000000    0.00000000    0.00000000
     atom    6 type  2   force =     0.00000000    0.00000000    0.00000000
     atom    7 type  2   force =     0.00000000    0.00000000    0.00000000
     atom    8 type  3   force =     0.00000000    0.00000000    0.00000000
     atom    9 type  4   force =     0.00000000    0.00000000    0.00000000
     atom   10 type  4   force =     0.00000000    0.00000000    0.00000000
     atom   11 type  4   force =     0.00000000    0.00000000    0.00000000
     atom   12 type  4   force =     0.00000000    0.00000000    0.00000000
     atom   13 type  4   force =     0.00000000    0.00000000    0.00000000
     atom   14 type  4   force =     0.00000000    0.00000000    0.00000000
     atom   15 type  4   force =     0.00000000    0.00000000    0.00000000
     atom   16 type  4   force =     0.00000000    0.00000000    0.00000000
     The SCF correction term to forces
     atom    1 type  1   force =     0.00001029   -0.00001100    0.00001080
     atom    2 type  1   force =     0.00000720    0.00000435   -0.00000761
     atom    3 type  1   force =    -0.00000439    0.00001542    0.00000821
     atom    4 type  2   force =     0.00003276    0.00000748   -0.00001057
     atom    5 type  2   force =    -0.00000879   -0.00003284    0.00005570
     atom    6 type  2   force =     0.00000101   -0.00013785   -0.00014488
     atom    7 type  2   force =    -0.00011145    0.00011239   -0.00019315
     atom    8 type  3   force =    -0.00008304   -0.00002650    0.00006606
     atom    9 type  4   force =     0.00006011    0.00000072    0.00015853
     atom   10 type  4   force =     0.00000573   -0.00021557   -0.00016948
     atom   11 type  4   force =    -0.00018598    0.00012113   -0.00017021
     atom   12 type  4   force =    -0.00021103   -0.00006869    0.00036114
     atom   13 type  4   force =     0.00021769    0.00007628   -0.00034956
     atom   14 type  4   force =     0.00018534   -0.00011841    0.00016004
     atom   15 type  4   force =     0.00001066    0.00020380    0.00016847
     atom   16 type  4   force =    -0.00005734   -0.00000027   -0.00016464

     Total force =     0.073503     Total SCF correction =     0.000912

     Computing stress (Cartesian axis) and pressure

          total   stress  (Ry/bohr**3)                   (kbar)     P=     -624.03
  -0.00417336  -0.00000318  -0.00016102         -613.92       -0.47      -23.69
  -0.00000318  -0.00416895  -0.00008468           -0.47     -613.27      -12.46
  -0.00016102  -0.00008468  -0.00438400          -23.69      -12.46     -644.91

     kinetic stress (kbar)  30686.71    475.31   -290.77
                              475.31  30032.82   -152.91
                             -290.77   -152.91  30148.14

     local   stress (kbar)  -4077.26  24074.59   9224.31
                            24074.59 -37196.59   4850.91
                             9224.31   4850.91 -30976.97

     nonloc. stress (kbar)  14170.24    110.55   -113.57
                              110.55  14018.17    -59.73
                             -113.57    -59.73  14027.66

     hartree stress (kbar)  30930.42 -10416.55  -4831.16
                           -10416.55  45260.42  -2540.63
                            -4831.16  -2540.63  41878.47

     exc-cor stress (kbar)  -6294.57     -5.25      2.67
                               -5.25  -6287.36      1.40
                                2.67      1.40  -6284.09

     corecor stress (kbar)  -4570.29     -1.55     -0.06
                               -1.55  -4568.16     -0.03
                               -0.06     -0.03  -4569.21

     ewald   stress (kbar) -61459.17 -14237.57  -4015.12
                           -14237.57 -41872.57  -2111.47
                            -4015.12  -2111.47 -44868.90

     hubbard stress (kbar)      0.00      0.00      0.00
                                0.00      0.00      0.00
                                0.00      0.00      0.00

     DFT-D   stress (kbar)      0.00      0.00      0.00
                                0.00      0.00      0.00
                                0.00      0.00      0.00

     XDM     stress (kbar)      0.00      0.00      0.00
                                0.00      0.00      0.00
                                0.00      0.00      0.00

     dft-nl  stress (kbar)      0.00      0.00      0.00
                                0.00      0.00      0.00
                                0.00      0.00      0.00

     TS-vdW  stress (kbar)      0.00      0.00      0.00
                                0.00      0.00      0.00
                                0.00      0.00      0.00

[...]

                                0.00      0.00      0.00

     Writing all to output data dir new_calculations/myprefix.save/

     General routines

     Parallel routines

     PAW routines

   This run was terminated on:   8:53:33  21May2023

   JOB DONE.