     Program PWSCF v.7.0 starts on 20May2023 at 22:38: 4

     Reading input from espresso_23182.pwi
Warning: card &CELL ignored
Warning: card / ignored

     Current dimensions of program PWSCF are:
     Max number of different atomic species (ntypx) = 10
     Max number of k-points (npk) =  40000
     Max angular momentum in pseudopotentials (lmaxx) =  4
     file K.pbe-spn-kjpaw_psl.1.0.0.UPF: wavefunction(s)  3S renormalized

     gamma-point specific algorithms are used
     Message from routine setup:
     using ibrav=0 with symmetry is DISCOURAGED, use correct ibrav instead

     Subspace diagonalization in iterative solution of the eigenvalue problem:
     a serial algorithm will be used

     Using Slab Decomposition

     bravais-lattice index     =            0
     lattice parameter (alat)  =      15.4668  a.u.
     unit-cell volume          =    2616.2845 (a.u.)^3
     number of atoms/cell      =           10
     number of atomic types    =            4
     number of electrons       =        83.00
     number of Kohn-Sham states=           50
     kinetic-energy cutoff     =      30.0000  Ry
     charge density cutoff     =     240.0000  Ry
     scf convergence threshold =      1.0E-06
     mixing beta               =       0.7000
     number of iterations used =            8  plain     mixing
     Exchange-correlation=  SLA  PW   PBX  PBC
                           (   1   4   3   4   0   0   0)

     celldm(1)=  15.466783  celldm(2)=   0.000000  celldm(3)=   0.000000
     celldm(4)=   0.000000  celldm(5)=   0.000000  celldm(6)=   0.000000

     crystal axes: (cart. coord. in units of alat)
               a(1) = (   1.000000   0.000000   0.000000 )
               a(2) = (   0.500000   0.866025   0.000000 )
               a(3) = (   0.500000   0.288675   0.816497 )

     reciprocal axes: (cart. coord. in units 2 pi/alat)
               b(1) = (  1.000000 -0.577350 -0.408248 )
               b(2) = (  0.000000  1.154701 -0.408248 )
               b(3) = (  0.000000  0.000000  1.224745 )

     PseudoPot. # 1 for Cs read from file:
     /home/pragov/projects/rrg-bengioy-ad/pragov/crystal_structure_design/SSSP/Cs_pbe_v1.uspp.F.UPF
     MD5 check sum: 3476d69cb178dfad3ffaa59df4e07ca4
     Pseudo is Ultrasoft + core correction, Zval =  9.0
     Generated by new atomic code, or converted to UPF format
     Using radial grid of  905 points,  6 beta functions with:
                l(1) =   0
                l(2) =   0
                l(3) =   1
                l(4) =   1
                l(5) =   2
                l(6) =   2
     Q(r) pseudized with  6 coefficients,  rinner =    1.500   1.500   1.500
                                                       1.500   1.500

     PseudoPot. # 2 for K  read from file:
     /home/pragov/projects/rrg-bengioy-ad/pragov/crystal_structure_design/SSSP/K.pbe-spn-kjpaw_psl.1.0.0.UPF
     MD5 check sum: 7d58810084cac21f60fbe77ea2b688fd
     Pseudo is Projector augmented-wave + core cor, Zval =  9.0
     Generated using "atomic" code by A. Dal Corso  v.5.1
     Shape of augmentation charge: PSQ
     Using radial grid of 1165 points,  6 beta functions with:
                l(1) =   0
                l(2) =   0
                l(3) =   1
                l(4) =   1
                l(5) =   2
                l(6) =   2
     Q(r) pseudized with 0 coefficients

     PseudoPot. # 3 for Mo read from file:
     /home/pragov/projects/rrg-bengioy-ad/pragov/crystal_structure_design/SSSP/Mo_ONCV_PBE-1.0.oncvpsp.upf
     MD5 check sum: 1b5d28e075c9ccadda658a603575cd1f
     Pseudo is Norm-conserving, Zval = 14.0
     Generated using ONCVPSP code by D. R. Hamann
     Using radial grid of 1526 points,  6 beta functions with:
                l(1) =   0
                l(2) =   0
                l(3) =   1
                l(4) =   1
                l(5) =   2
                l(6) =   2

     PseudoPot. # 4 for Br read from file:
     /home/pragov/projects/rrg-bengioy-ad/pragov/crystal_structure_design/SSSP/br_pbe_v1.4.uspp.F.UPF
     MD5 check sum: d3ffb7b29f6225aa16fe06858fb2a80b
     Pseudo is Ultrasoft + core correction, Zval =  7.0
     Generated by new atomic code, or converted to UPF format
     Using radial grid of  879 points,  6 beta functions with:
                l(1) =   0
                l(2) =   0
                l(3) =   1
                l(4) =   1
                l(5) =   2
                l(6) =   2
     Q(r) pseudized with  8 coefficients,  rinner =    1.100   1.100   1.100
                                                       1.100   1.100

     atomic species   valence    mass     pseudopotential
        Cs             9.00   132.90545     Cs( 1.00)
        K              9.00    39.09830     K ( 1.00)
        Mo            14.00    95.95000     Mo( 1.00)
        Br             7.00    79.90400     Br( 1.00)

     12 Sym. Ops., with inversion, found

                                    s                        frac. trans.

      isym =  1     identity

 cryst.   s( 1) = (     1          0          0      )
                  (     0          1          0      )
                  (     0          0          1      )

 cart.    s( 1) = (  1.0000000  0.0000000  0.0000000 )
                  (  0.0000000  1.0000000  0.0000000 )
                  (  0.0000000  0.0000000  1.0000000 )

      isym =  2     180 deg rotation - cart. axis [1,0,0]

[...]

      isym =  3     120 deg rotation - cryst. axis [0,0,1]

[...]

      isym =  6     180 deg rotation - cryst. axis [1,1,0]

[...]

      isym =  7     inversion

[...]

      isym =  8     inv. 180 deg rotation - cart. axis [1,0,0]

[...]

      isym =  9     inv. 120 deg rotation - cryst. axis [0,0,1]

 cryst.   s( 9) = (     1         -1          0      )
                  (     1          0          0      )
                  (     1          0         -1      )

 cart.    s( 9) = (  0.5000000  0.8660254  0.0000000 )
                  ( -0.8660254  0.5000000 -0.0000000 )
                  (  0.0000000  0.0000000 -1.0000000 )

[...]

 cryst.   s(10) = (     0          1          0      )
                  (    -1          1          0      )
                  (     0          1         -1      )

 cart.    s(10) = (  0.5000000 -0.8660254  0.0000000 )
                  (  0.8660254  0.5000000  0.0000000 )
                  (  0.0000000  0.0000000 -1.0000000 )

[...]

      isym = 12     inv. 180 deg rotation - cryst. axis [1,1,0]

 cryst.   s(12) = (     1         -1          0      )
                  (     0         -1          0      )
                  (     0         -1          1      )

 cart.    s(12) = (  0.5000000 -0.8660254  0.0000000 )
                  ( -0.8660254 -0.5000000 -0.0000000 )
                  (  0.0000000  0.0000000  1.0000000 )

   Cartesian axes

     site n.     atom                  positions (alat units)
         1           Cs  tau(   1) = (   1.5000000   0.8660254   0.6123724  )
         2           Cs  tau(   2) = (   0.5000000   0.2886751   0.2041241  )
         3           K   tau(   3) = (   1.0000000   0.5773503   0.4082483  )
         4           Mo  tau(   4) = (   0.0000000   0.0000000   0.0000000  )
         5           Br  tau(   5) = (   1.0000000   0.2610859   0.1846156  )
         6           Br  tau(   6) = (   0.7261070   0.4192181   0.6318810  )
         7           Br  tau(   7) = (   1.0000000   0.8936147   0.6318810  )
         8           Br  tau(   8) = (   0.7261070   0.7354825   0.1846156  )
         9           Br  tau(   9) = (   1.2738930   0.4192181   0.6318810  )
        10           Br  tau(  10) = (   1.2738930   0.7354825   0.1846156  )

   Crystallographic axes

     site n.     atom                  positions (cryst. coord.)
         1           Cs  tau(   1) = (  0.7500000  0.7500000  0.7500000  )
         2           Cs  tau(   2) = (  0.2500000  0.2500000  0.2500000  )
         3           K   tau(   3) = (  0.5000000  0.5000000  0.5000000  )
         4           Mo  tau(   4) = (  0.0000000  0.0000000  0.0000000  )
         5           Br  tau(   5) = (  0.7738930  0.2261070  0.2261070  )
         6           Br  tau(   6) = (  0.2261070  0.2261070  0.7738930  )
         7           Br  tau(   7) = (  0.2261070  0.7738930  0.7738930  )
         8           Br  tau(   8) = (  0.2261070  0.7738930  0.2261070  )
         9           Br  tau(   9) = (  0.7738930  0.2261070  0.7738930  )
        10           Br  tau(  10) = (  0.7738930  0.7738930  0.2261070  )

     number of k points=     1  Methfessel-Paxton smearing, width (Ry)=  0.0010
                       cart. coord. in units 2pi/alat
        k(    1) = (   0.0000000   0.0000000   0.0000000), wk =   2.0000000

                       cryst. coord.
        k(    1) = (   0.0000000   0.0000000   0.0000000), wk =   2.0000000

     Check: negative core charge=   -0.000001

     Initial potential from superposition of free atoms

     starting charge      82.9013, renormalised to      83.0000
     Starting wfcs are   68 randomized atomic wfcs
     Checking if some PAW data can be deallocated...

     Self-consistent Calculation

     iteration #  1     ecut=    30.00 Ry     beta= 0.70
     Davidson diagonalization with overlap

     ethr =  1.00E-02,  avg # of iterations =  3.0

     Threshold (ethr) on eigenvalues was too large:
     Diagonalizing with lowered threshold

     Davidson diagonalization with overlap

[...]

     total energy              =    -658.00464777 Ry
     estimated scf accuracy    <       0.21005817 Ry

[...]

     total energy              =    -658.06517115 Ry
     estimated scf accuracy    <       0.00000401 Ry

     iteration # 16     ecut=    30.00 Ry     beta= 0.70
     Davidson diagonalization with overlap

     ethr =  4.83E-09,  avg # of iterations =  1.0

     End of self-consistent calculation

          k = 0.0000 0.0000 0.0000 (  3672 PWs)   bands (ev):

   -57.2745 -31.3213 -31.3213 -31.3212 -26.3540 -17.8612 -17.8578 -10.8935
   -10.6319 -10.6319 -10.6319 -10.4821 -10.4820  -9.7513  -9.7513  -9.7512
    -4.7066  -4.7066  -4.7066  -4.6627  -4.6627  -4.6627  -0.8926   0.0678
     0.0678   0.3642   0.3642   0.3642   0.4279   0.4279   0.4280   1.6957
     1.6957   1.6957   1.9895   1.9895   1.9895   2.3153   2.3153   2.3153
     4.2749   4.2750   4.2750   6.2873   6.2873   6.5510   7.7902   7.7902
     8.1929   8.1929

     occupation numbers
     1.0000   1.0000   1.0000   1.0000   1.0000   1.0000   1.0000   1.0000
     1.0000   1.0000   1.0000   1.0000   1.0000   1.0000   1.0000   1.0000
     1.0000   1.0000   1.0000   1.0000   1.0000   1.0000   1.0000   1.0000
     1.0000   1.0000   1.0000   1.0000   1.0000   1.0000   1.0000   1.0000
     1.0000   1.0000   1.0000   1.0000   1.0000   1.0000   1.0000   1.0000
     0.5012   0.4995   0.4993  -0.0000  -0.0000  -0.0000  -0.0000  -0.0000
    -0.0000  -0.0000

     the Fermi energy is     4.2750 ev

!    total energy              =    -658.06517106 Ry
     estimated scf accuracy    <       0.00000030 Ry
     smearing contrib. (-TS)   =      -0.00084628 Ry
     internal energy E=F+TS    =    -658.06432478 Ry

     The total energy is F=E-TS. E is the sum of the following terms:
     one-electron contribution =    -195.47301630 Ry
     hartree contribution      =     124.63122212 Ry
     xc contribution           =    -244.47882796 Ry
     ewald contribution        =    -287.32577884 Ry
     one-center paw contrib.   =     -55.41792381 Ry
      -> PAW hartree energy AE =      37.79972918 Ry
      -> PAW hartree energy PS =     -37.58913412 Ry
      -> PAW xc energy AE      =     -66.23262780 Ry
      -> PAW xc energy PS      =      10.60410893 Ry
      -> total E_H with PAW    =     124.84181718 Ry
      -> total E_XC with PAW   =    -300.10734683 Ry

     convergence has been achieved in  16 iterations

     Forces acting on atoms (cartesian axes, Ry/au):

     atom    1 type  1   force =     0.00000000    0.00000000    0.00000085
     atom    2 type  1   force =     0.00000000    0.00000000   -0.00000085
     atom    3 type  2   force =     0.00000000    0.00000000   -0.00000000
     atom    4 type  3   force =     0.00000000    0.00000000    0.00000000
     atom    5 type  4   force =     0.00000000   -0.01390655   -0.00983444
     atom    6 type  4   force =    -0.01204342   -0.00695327    0.00983444
     atom    7 type  4   force =     0.00000000    0.01390655    0.00983444
     atom    8 type  4   force =    -0.01204342    0.00695327   -0.00983444
     atom    9 type  4   force =     0.01204342   -0.00695327    0.00983444
     atom   10 type  4   force =     0.01204342    0.00695327   -0.00983444
     The non-local contrib.  to forces
     atom    1 type  1   force =     0.00000000    0.00000000    0.00000267
     atom    2 type  1   force =     0.00000000    0.00000000   -0.00000267
     atom    3 type  2   force =     0.00000000    0.00000000    0.00000000
     atom    4 type  3   force =     0.00000000    0.00000000    0.00000000
     atom    5 type  4   force =     0.00000000    0.01745163    0.01234061
     atom    6 type  4   force =     0.01511356    0.00872582   -0.01234061
     atom    7 type  4   force =     0.00000000   -0.01745163   -0.01234061
     atom    8 type  4   force =     0.01511356   -0.00872582    0.01234061
     atom    9 type  4   force =    -0.01511356    0.00872582   -0.01234061
     atom   10 type  4   force =    -0.01511356   -0.00872582    0.01234061
     The ionic contribution  to forces
     atom    1 type  1   force =    -0.00000000    0.00000000    0.00000000
     atom    2 type  1   force =    -0.00000000   -0.00000000   -0.00000000
     atom    3 type  2   force =     0.00000000   -0.00000000    0.00000000
     atom    4 type  3   force =    -0.00000000    0.00000000    0.00000000
     atom    5 type  4   force =     0.00000000    4.82514020    3.41188935
     atom    6 type  4   force =     4.17869399    2.41257010   -3.41188935
     atom    7 type  4   force =    -0.00000000   -4.82514020   -3.41188935
     atom    8 type  4   force =     4.17869399   -2.41257010    3.41188935
     atom    9 type  4   force =    -4.17869399    2.41257010   -3.41188935
     atom   10 type  4   force =    -4.17869399   -2.41257010    3.41188935
     The local contribution  to forces
     atom    1 type  1   force =    -0.00002608   -0.00004505    0.00000852
     atom    2 type  1   force =     0.00001696   -0.00001303    0.00001107
     atom    3 type  2   force =     0.00000233   -0.00000072   -0.00000003
     atom    4 type  3   force =    -0.00000933   -0.00000324    0.00000779
     atom    5 type  4   force =    -0.00004480   -4.86766177   -3.44198333
     atom    6 type  4   force =    -4.21553917   -2.43384964    3.44195766
     atom    7 type  4   force =     0.00004299    4.86766257    3.44198355
     atom    8 type  4   force =    -4.21544545    2.43374681   -3.44191648
     atom    9 type  4   force =     4.21544407   -2.43374743    3.44191945
     atom   10 type  4   force =     4.21554031    2.43385041   -3.44195983
     The core correction contribution to forces
     atom    1 type  1   force =    -0.00000100   -0.00000885    0.00000171
     atom    2 type  1   force =    -0.00000139   -0.00000511    0.00000410
     atom    3 type  2   force =     0.00000021   -0.00000006    0.00000014
     atom    4 type  3   force =     0.00000000    0.00000000    0.00000000
     atom    5 type  4   force =     0.00000043    0.01115284    0.00788633
     atom    6 type  4   force =     0.00965899    0.00557657   -0.00788637
     atom    7 type  4   force =    -0.00000034   -0.01115311   -0.00788616
     atom    8 type  4   force =     0.00965406   -0.00557369    0.00788295
     atom    9 type  4   force =    -0.00965452    0.00557368   -0.00788311
     atom   10 type  4   force =    -0.00965885   -0.00557657    0.00788658
     The Hubbard contrib.    to forces
     atom    1 type  1   force =     0.00000000    0.00000000    0.00000000
     atom    2 type  1   force =     0.00000000    0.00000000    0.00000000
     atom    3 type  2   force =     0.00000000    0.00000000    0.00000000
     atom    4 type  3   force =     0.00000000    0.00000000    0.00000000
     atom    5 type  4   force =     0.00000000    0.00000000    0.00000000
     atom    6 type  4   force =     0.00000000    0.00000000    0.00000000
     atom    7 type  4   force =     0.00000000    0.00000000    0.00000000
     atom    8 type  4   force =     0.00000000    0.00000000    0.00000000
     atom    9 type  4   force =     0.00000000    0.00000000    0.00000000
     atom   10 type  4   force =     0.00000000    0.00000000    0.00000000
     The SCF correction term to forces
     atom    1 type  1   force =     0.00002117    0.00000970    0.00000116
     atom    2 type  1   force =    -0.00002322   -0.00000945   -0.00000015
     atom    3 type  2   force =    -0.00000126   -0.00000020    0.00000067
     atom    4 type  3   force =     0.00000937    0.00000360   -0.00000611
     atom    5 type  4   force =     0.00004482    0.00000497    0.00002931
     atom    6 type  4   force =     0.00002354    0.00002083   -0.00000204
     atom    7 type  4   force =    -0.00004269   -0.00000412   -0.00003005
     atom    8 type  4   force =    -0.00004760    0.00007213   -0.00002211
     atom    9 type  4   force =     0.00004983   -0.00007096    0.00002050
     atom   10 type  4   force =    -0.00002551   -0.00002195    0.00000361

     Total force =     0.041721     Total SCF correction =     0.000158

     Computing stress (Cartesian axis) and pressure

          total   stress  (Ry/bohr**3)                   (kbar)     P=       15.51
   0.00010535   0.00000000   0.00000000           15.50        0.00        0.00
   0.00000000   0.00010535  -0.00000000            0.00       15.50       -0.00
   0.00000000  -0.00000000   0.00010553            0.00       -0.00       15.52

     kinetic stress (kbar)   5319.93     -0.00      0.00
                                0.00   5319.93      0.00
                                0.00      0.00   5319.84

     local   stress (kbar)  -1828.45     -0.13      0.44
                               -0.13  -1828.79     -0.15
                                0.44     -0.15  -1828.46

     nonloc. stress (kbar)   1292.63      0.00      0.00
                                0.00   1292.63      0.00
                                0.00      0.00   1292.62

     hartree stress (kbar)   2335.82      0.07     -0.17
                                0.07   2335.95      0.06
                               -0.17      0.06   2335.84

     exc-cor stress (kbar)   8059.63      0.00     -0.00
                                0.00   8059.63      0.00
                               -0.00      0.00   8059.63

     corecor stress (kbar)  -9778.83     -0.00      0.00
                               -0.00  -9778.83     -0.00
                                0.00     -0.00  -9778.83

     ewald   stress (kbar)  -5385.13     -0.00      0.00
                               -0.00  -5385.13     -0.00
                                0.00     -0.00  -5385.13

     hubbard stress (kbar)      0.00      0.00      0.00
                                0.00      0.00      0.00
                                0.00      0.00      0.00

     DFT-D   stress (kbar)      0.00      0.00      0.00
                                0.00      0.00      0.00
                                0.00      0.00      0.00

     XDM     stress (kbar)      0.00      0.00      0.00
                                0.00      0.00      0.00
                                0.00      0.00      0.00

     dft-nl  stress (kbar)      0.00      0.00      0.00
                                0.00      0.00      0.00
                                0.00      0.00      0.00

     TS-vdW  stress (kbar)      0.00      0.00      0.00
                                0.00      0.00      0.00
                                0.00      0.00      0.00

[...]

                                0.00      0.00      0.00

     Writing all to output data dir new_calculations/myprefix.save/

     General routines

     Parallel routines

     PAW routines

   This run was terminated on:  22:38:58  20May2023

   JOB DONE.