     Program PWSCF v.7.0 starts on 21May2023 at  7:13: 5

     Reading input from espresso_21688.pwi
Warning: card &CELL ignored
Warning: card / ignored

     Current dimensions of program PWSCF are:
     Max number of different atomic species (ntypx) = 10
     Max number of k-points (npk) =  40000
     Max angular momentum in pseudopotentials (lmaxx) =  4
     file O.pbe-n-kjpaw_psl.0.1.UPF: wavefunction(s)  2P renormalized

     gamma-point specific algorithms are used
     Message from routine setup:
     using ibrav=0 with symmetry is DISCOURAGED, use correct ibrav instead

     Subspace diagonalization in iterative solution of the eigenvalue problem:
     a serial algorithm will be used

     Using Slab Decomposition

     bravais-lattice index     =            0
     lattice parameter (alat)  =      12.1465  a.u.
     unit-cell volume          =     891.1450 (a.u.)^3
     number of atoms/cell      =           14
     number of atomic types    =            3
     number of electrons       =        76.00
     number of Kohn-Sham states=           46
     kinetic-energy cutoff     =      30.0000  Ry
     charge density cutoff     =     240.0000  Ry
     scf convergence threshold =      1.0E-06
     mixing beta               =       0.7000
     number of iterations used =            8  plain     mixing
     Exchange-correlation= SLA  PW   PBX  PBC
                           (   1   4   3   4   0   0   0)

     celldm(1)=  12.146485  celldm(2)=   0.000000  celldm(3)=   0.000000
     celldm(4)=   0.000000  celldm(5)=   0.000000  celldm(6)=   0.000000

     crystal axes: (cart. coord. in units of alat)
               a(1) = (   1.000000   0.000000   0.000000 )
               a(2) = (  -0.500000   0.866025   0.000000 )
               a(3) = (   0.000000   0.000000   0.574203 )

     reciprocal axes: (cart. coord. in units 2 pi/alat)
               b(1) = (  1.000000  0.577350  0.000000 )
               b(2) = (  0.000000  1.154700  0.000000 )
               b(3) = (  0.000000  0.000000  1.741543 )

     PseudoPot. # 1 for Eu read from file:
     /home/pragov/projects/rrg-bengioy-ad/pragov/crystal_structure_design/SSSP/Eu.GGA-PBE-paw-v1.0.UPF
     MD5 check sum: acec5fd9176fb57ec8e299eae1ecaf48
     Pseudo is Projector augmented-wave + core cor, Zval = 17.0
     Generated using ATOMPAW code
     Shape of augmentation charge: BESSEL
     Using radial grid of 1109 points,  8 beta functions with:
                l(1) =   0
                l(2) =   0
                l(3) =   1
                l(4) =   1
                l(5) =   2
                l(6) =   2
                l(7) =   3
                l(8) =   3
     Q(r) pseudized with 0 coefficients

     PseudoPot. # 2 for H  read from file:
     /home/pragov/projects/rrg-bengioy-ad/pragov/crystal_structure_design/SSSP/H.pbe-rrkjus_psl.1.0.0.UPF
     MD5 check sum: f52b6d4d1c606e5624b1dc7b2218f220
     Pseudo is Ultrasoft, Zval =  1.0
     Generated using "atomic" code by A. Dal Corso  v.5.1
     Using radial grid of  929 points,  2 beta functions with:
                l(1) =   0
                l(2) =   0
     Q(r) pseudized with 0 coefficients

     PseudoPot. # 3 for O  read from file:
     /home/pragov/projects/rrg-bengioy-ad/pragov/crystal_structure_design/SSSP/O.pbe-n-kjpaw_psl.0.1.UPF
     MD5 check sum: 0234752ac141de4415c5fc33072bef88
     Pseudo is Projector augmented-wave + core cor, Zval =  6.0
     Generated using "atomic" code by A. Dal Corso  v.5.0.99 svn rev. 10869
     Shape of augmentation charge: BESSEL
     Using radial grid of 1095 points,  4 beta functions with:
                l(1) =   0
                l(2) =   0
                l(3) =   1
                l(4) =   1
     Q(r) pseudized with 0 coefficients

     atomic species   valence    mass     pseudopotential
        Eu            17.00   151.96400     Eu( 1.00)
        H              1.00     1.00800     H ( 1.00)
        O              6.00    15.99900     O ( 1.00)

     12 Sym. Ops., with inversion, found ( 6 have fractional translation)

                                    s                        frac. trans.

      isym =  1     identity

 cryst.   s( 1) = (     1          0          0      )
                  (     0          1          0      )
                  (     0          0          1      )

 cart.    s( 1) = (  1.0000000 -0.0000000  0.0000000 )
                  (  0.0000000  1.0000000  0.0000000 )
                  (  0.0000000  0.0000000  1.0000000 )

      isym =  2     180 deg rotation - cart. axis [0,0,1]

 cryst.   s( 2) = (    -1          0          0      )    f =( -0.0000000 )
                  (     0         -1          0      )       ( -0.0000000 )
                  (     0          0          1      )       ( -0.5000000 )

 cart.    s( 2) = ( -1.0000000  0.0000000  0.0000000 )    f =( -0.0000000 )
                  (  0.0000000 -1.0000000  0.0000000 )       ( -0.0000000 )
                  (  0.0000000  0.0000000  1.0000000 )       ( -0.2871017 )

      isym =  3      60 deg rotation - cryst. axis [0,0,1]

[...]

      isym =  6     120 deg rotation - cryst. axis [0,0,-1]

[...]

      isym =  7     inversion

 cryst.   s( 7) = (    -1          0          0      )
                  (     0         -1          0      )
                  (     0          0         -1      )

 cart.    s( 7) = ( -1.0000000  0.0000000  0.0000000 )
                  (  0.0000000 -1.0000000  0.0000000 )
                  (  0.0000000  0.0000000 -1.0000000 )

      isym =  8     inv. 180 deg rotation - cart. axis [0,0,1]

[...]

      isym =  9     inv.  60 deg rotation - cryst. axis [0,0,1]

 cryst.   s( 9) = (    -1         -1          0      )    f =(  0.0000010 )
                  (     1          0          0      )       (  0.0000000 )
                  (     0          0         -1      )       (  0.5000000 )

 cart.    s( 9) = ( -0.5000001  0.8660253  0.0000000 )    f =(  0.0000010 )
                  ( -0.8660255 -0.4999999  0.0000000 )       (  0.0000000 )
                  (  0.0000000  0.0000000 -1.0000000 )       (  0.2871017 )

[...]

 cryst.   s(10) = (     0          1          0      )    f =(  0.0000000 )
                  (    -1         -1          0      )       ( -0.0000010 )
                  (     0          0         -1      )       (  0.5000000 )

 cart.    s(10) = ( -0.4999999 -0.8660253  0.0000000 )    f =(  0.0000005 )
                  (  0.8660255 -0.5000001  0.0000000 )       ( -0.0000009 )
                  (  0.0000000  0.0000000 -1.0000000 )       (  0.2871017 )

[...]

 cryst.   s(11) = (     0         -1          0      )
                  (     1          1          0      )
                  (     0          0         -1      )

 cart.    s(11) = (  0.4999999  0.8660253  0.0000000 )
                  ( -0.8660255  0.5000001  0.0000000 )
                  (  0.0000000  0.0000000 -1.0000000 )

      isym = 12     inv. 120 deg rotation - cryst. axis [0,0,-1]

 cryst.   s(12) = (     1          1          0      )
                  (    -1          0          0      )
                  (     0          0         -1      )

 cart.    s(12) = (  0.5000001 -0.8660253  0.0000000 )
                  (  0.8660255  0.4999999  0.0000000 )
                  (  0.0000000  0.0000000 -1.0000000 )

   Cartesian axes

     site n.     atom                  positions (alat units)
         1           Eu  tau(   1) = (  -0.0000004   0.5773506   0.1435509  )
         2           Eu  tau(   2) = (   0.5000005   0.2886749   0.4306526  )
         3           H   tau(   3) = (   0.4975566   0.6265391   0.1435509  )
         4           H   tau(   4) = (   0.7938205   0.1218593   0.1435509  )
         5           H   tau(   5) = (   0.2086230   0.1176270   0.1435509  )
         6           H   tau(   6) = (   0.0024435   0.2394864   0.4306526  )
         7           H   tau(   7) = (  -0.2938204   0.7441662   0.4306526  )
         8           H   tau(   8) = (   0.2913771   0.7483984   0.4306526  )
         9           O   tau(   9) = (   0.6120461   0.5272380   0.1435509  )
        10           O   tau(  10) = (   0.6505785   0.0723590   0.1435509  )
        11           O   tau(  11) = (   0.2373755   0.2664284   0.1435509  )
        12           O   tau(  12) = (  -0.1120459   0.3387874   0.4306526  )
        13           O   tau(  13) = (  -0.1505784   0.7936665   0.4306526  )
        14           O   tau(  14) = (   0.2626246   0.5995971   0.4306526  )

   Crystallographic axes

     site n.     atom                  positions (cryst. coord.)
         1           Eu  tau(   1) = (  0.3333330  0.6666670  0.2500000  )
         2           Eu  tau(   2) = (  0.6666670  0.3333330  0.7500000  )
         3           H   tau(   3) = (  0.8592890  0.7234650  0.2500000  )
         4           H   tau(   4) = (  0.8641760  0.1407110  0.2500000  )
         5           H   tau(   5) = (  0.2765350  0.1358240  0.2500000  )
         6           H   tau(   6) = (  0.1407110  0.2765350  0.7500000  )
         7           H   tau(   7) = (  0.1358240  0.8592890  0.7500000  )
         8           H   tau(   8) = (  0.7234650  0.8641760  0.7500000  )
         9           O   tau(   9) = (  0.9164470  0.6088020  0.2500000  )
        10           O   tau(  10) = (  0.6923550  0.0835530  0.2500000  )
        11           O   tau(  11) = (  0.3911980  0.3076450  0.2500000  )
        12           O   tau(  12) = (  0.0835530  0.3911980  0.7500000  )
        13           O   tau(  13) = (  0.3076450  0.9164470  0.7500000  )
        14           O   tau(  14) = (  0.6088020  0.6923550  0.7500000  )

     number of k points=     1  Methfessel-Paxton smearing, width (Ry)=  0.0010
                       cart. coord. in units 2pi/alat
        k(    1) = (   0.0000000   0.0000000   0.0000000), wk =   2.0000000

                       cryst. coord.
        k(    1) = (   0.0000000   0.0000000   0.0000000), wk =   2.0000000

     Check: negative core charge=   -0.000013

     Initial potential from superposition of free atoms

     starting charge      75.9905, renormalised to      76.0000
     Starting wfcs are   94 randomized atomic wfcs
     Checking if some PAW data can be deallocated...

     Self-consistent Calculation

     iteration #  1     ecut=    30.00 Ry     beta= 0.70
     Davidson diagonalization with overlap

     ethr =  1.00E-02,  avg # of iterations =  2.0

     total energy              =   -1540.24754599 Ry
     estimated scf accuracy    <       2.41536962 Ry

[...]

     ethr =  1.07E-03,  avg # of iterations =  1.0
     Minimization algorithm failed to find Fermi energy: reverting to bisection
     Possible cause: smearing is larger than the electronic band-gap.

[...]

     ethr =  6.51E-06,  avg # of iterations =  1.0
     Minimization algorithm failed to find Fermi energy: reverting to bisection
     Possible cause: smearing is larger than the electronic band-gap.

[...]

     total energy              =   -1541.44534432 Ry
     estimated scf accuracy    <       0.00000227 Ry

     iteration # 91     ecut=    30.00 Ry     beta= 0.70
     Davidson diagonalization with overlap

     ethr =  1.68E-09,  avg # of iterations =  1.0

     End of self-consistent calculation

          k = 0.0000 0.0000 0.0000 (  1225 PWs)   bands (ev):

   -32.3307 -32.3090 -12.3098 -12.3098 -11.9460 -11.9460 -11.9064 -10.9008
   -10.8741 -10.8231 -10.2749 -10.2749  -9.7387  -9.7387   0.6623   1.1779
     1.1779   1.9480   1.9480   2.1309   3.6211   4.4595   4.7507   4.7929
     4.7929   5.0410   5.0410   5.2765   5.2765   5.8014   5.8014   6.5917
     8.0371   8.0936   8.0936   8.1015   8.1782   8.1908   8.2038   8.2038
     8.4096   8.4096   8.4302   8.4302   8.5797   8.5987

     occupation numbers
     1.0000   1.0000   1.0000   1.0000   1.0000   1.0000   1.0000   1.0000
     1.0000   1.0000   1.0000   1.0000   1.0000   1.0000   1.0000   1.0000
     1.0000   1.0000   1.0000   1.0000   1.0000   1.0000   1.0000   1.0000
     1.0000   1.0000   1.0000   1.0000   1.0000   1.0000   1.0000   1.0000
     1.0000   1.0000   1.0000   1.0000   1.0347   0.7914   0.0871   0.0867
    -0.0000  -0.0000  -0.0000  -0.0000  -0.0000  -0.0000

     the Fermi energy is     8.1958 ev

!    total energy              =   -1541.44534441 Ry
     estimated scf accuracy    <       0.00000091 Ry
     smearing contrib. (-TS)   =      -0.00018066 Ry
     internal energy E=F+TS    =   -1541.44516376 Ry

     The total energy is F=E-TS. E is the sum of the following terms:
     one-electron contribution =    -262.19973108 Ry
     hartree contribution      =     181.33469739 Ry
     xc contribution           =     -89.45175583 Ry
     ewald contribution        =    -399.54139298 Ry
     one-center paw contrib.   =    -971.58698126 Ry
      -> PAW hartree energy AE =     493.44909407 Ry
      -> PAW hartree energy PS =    -479.17694190 Ry
      -> PAW xc energy AE      =   -1070.10367129 Ry
      -> PAW xc energy PS      =      84.24453786 Ry
      -> total E_H with PAW    =     195.60684956 Ry
      -> total E_XC with PAW   =   -1075.31088925 Ry

     convergence has been achieved in  91 iterations

     Forces acting on atoms (cartesian axes, Ry/au):

     atom    1 type  1   force =     0.00000000   -0.00000000    0.00000000
     atom    2 type  1   force =     0.00000000    0.00000000   -0.00000000
     atom    3 type  2   force =    -0.00272384   -0.00239876    0.00000000
     atom    4 type  2   force =    -0.00071547    0.00355829    0.00000000
     atom    5 type  2   force =     0.00343931   -0.00115953   -0.00000000
     atom    6 type  2   force =     0.00272384    0.00239876    0.00000000
     atom    7 type  2   force =     0.00071547   -0.00355829    0.00000000
     atom    8 type  2   force =    -0.00343931    0.00115953    0.00000000
     atom    9 type  3   force =    -0.00422366   -0.04422676   -0.00000000
     atom   10 type  3   force =    -0.03618967    0.02577118   -0.00000000
     atom   11 type  3   force =     0.04041333    0.01845557   -0.00000000
     atom   12 type  3   force =     0.00422366    0.04422676   -0.00000000
     atom   13 type  3   force =     0.03618967   -0.02577118    0.00000000
     atom   14 type  3   force =    -0.04041333   -0.01845557    0.00000000
     The non-local contrib.  to forces
     atom    1 type  1   force =     0.00000000   -0.00000000   -0.00000000
     atom    2 type  1   force =     0.00000000    0.00000000   -0.00000000
     atom    3 type  2   force =     0.08276263   -0.07044802   -0.00000000
     atom    4 type  2   force =    -0.10239108   -0.03645051    0.00000000
     atom    5 type  2   force =     0.01962845    0.10689853    0.00000000
     atom    6 type  2   force =    -0.08276263    0.07044802   -0.00000000
     atom    7 type  2   force =     0.10239108    0.03645051    0.00000000
     atom    8 type  2   force =    -0.01962845   -0.10689853    0.00000000
     atom    9 type  3   force =    -1.19198491    1.01166357    0.00000000
     atom   10 type  3   force =     1.47211873    0.52645720    0.00000000
     atom   11 type  3   force =    -0.28013382   -1.53812077   -0.00000000
     atom   12 type  3   force =     1.19198491   -1.01166357   -0.00000000
     atom   13 type  3   force =    -1.47211873   -0.52645720    0.00000000
     atom   14 type  3   force =     0.28013382    1.53812077    0.00000000
     The ionic contribution  to forces
     atom    1 type  1   force =     0.00007916   -0.00004498    0.00000000
     atom    2 type  1   force =    -0.00007916    0.00004498    0.00000000
     atom    3 type  2   force =    -2.17269594    3.36548963   -0.00000000
     atom    4 type  2   force =     4.00094987    0.19885710   -0.00000000
     atom    5 type  2   force =    -1.82825705   -3.56434405    0.00000000
     atom    6 type  2   force =     2.17269594   -3.36548963    0.00000000
     atom    7 type  2   force =    -4.00094987   -0.19885710   -0.00000000
     atom    8 type  2   force =     1.82825705    3.56434405   -0.00000000
     atom    9 type  3   force =    -0.09300587    5.53927637   -0.00000000
     atom   10 type  3   force =     4.84364946   -2.68915661    0.00000000
     atom   11 type  3   force =    -4.75067938   -2.85010339   -0.00000000
     atom   12 type  3   force =     0.09300587   -5.53927637    0.00000000
     atom   13 type  3   force =    -4.84364946    2.68915661    0.00000000
     atom   14 type  3   force =     4.75067938    2.85010339    0.00000000
     The local contribution  to forces
     atom    1 type  1   force =    -0.00010009    0.00007942   -0.00000412
     atom    2 type  1   force =     0.00013040   -0.00001168    0.00000829
     atom    3 type  2   force =     2.08721000   -3.29740517   -0.00000212
     atom    4 type  2   force =    -3.89925061   -0.15886996    0.00000144
     atom    5 type  2   force =     1.81203455    3.45627593    0.00000068
     atom    6 type  2   force =    -2.08721702    3.29748239   -0.00000195
     atom    7 type  2   force =     3.89930519    0.15882981    0.00000161
     atom    8 type  2   force =    -1.81210162   -3.45630971    0.00000036
     atom    9 type  3   force =     1.26957827   -6.58463626   -0.00000472
     atom   10 type  3   force =    -6.33721915    2.19289066    0.00001549
     atom   11 type  3   force =     5.06768699    4.39172418   -0.00001093
     atom   12 type  3   force =    -1.26877820    6.58529355   -0.00000454
     atom   13 type  3   force =     6.33743074   -2.19392940    0.00001663
     atom   14 type  3   force =    -5.06868381   -4.39136752   -0.00001202
     The core correction contribution to forces
     atom    1 type  1   force =    -0.00000000    0.00000000   -0.00000000
     atom    2 type  1   force =     0.00000000    0.00000000    0.00000000
     atom    3 type  2   force =     0.00000000    0.00000000    0.00000000
     atom    4 type  2   force =     0.00000000    0.00000000    0.00000000
     atom    5 type  2   force =     0.00000000    0.00000000    0.00000000
     atom    6 type  2   force =     0.00000000    0.00000000    0.00000000
     atom    7 type  2   force =     0.00000000    0.00000000    0.00000000
     atom    8 type  2   force =     0.00000000    0.00000000    0.00000000
     atom    9 type  3   force =     0.01155329   -0.01021569    0.00000015
     atom   10 type  3   force =    -0.01462373   -0.00489757   -0.00000002
     atom   11 type  3   force =     0.00307037    0.01511330   -0.00000012
     atom   12 type  3   force =    -0.01155328    0.01021576    0.00000007
     atom   13 type  3   force =     0.01462377    0.00489763   -0.00000001
     atom   14 type  3   force =    -0.00307048   -0.01511339   -0.00000008
     The Hubbard contrib.    to forces
     atom    1 type  1   force =     0.00000000    0.00000000    0.00000000
     atom    2 type  1   force =     0.00000000    0.00000000    0.00000000
     atom    3 type  2   force =     0.00000000    0.00000000    0.00000000
     atom    4 type  2   force =     0.00000000    0.00000000    0.00000000
     atom    5 type  2   force =     0.00000000    0.00000000    0.00000000
     atom    6 type  2   force =     0.00000000    0.00000000    0.00000000
     atom    7 type  2   force =     0.00000000    0.00000000    0.00000000
     atom    8 type  2   force =     0.00000000    0.00000000    0.00000000
     atom    9 type  3   force =     0.00000000    0.00000000    0.00000000
     atom   10 type  3   force =     0.00000000    0.00000000    0.00000000
     atom   11 type  3   force =     0.00000000    0.00000000    0.00000000
     atom   12 type  3   force =     0.00000000    0.00000000    0.00000000
     atom   13 type  3   force =     0.00000000    0.00000000    0.00000000
     atom   14 type  3   force =     0.00000000    0.00000000    0.00000000
     The SCF correction term to forces
     atom    1 type  1   force =    -0.00000680   -0.00001027    0.00000129
     atom    2 type  1   force =    -0.00002804   -0.00002980   -0.00000728
     atom    3 type  2   force =    -0.00000106   -0.00003475    0.00000140
     atom    4 type  2   force =    -0.00002476    0.00002035   -0.00000123
     atom    5 type  2   force =     0.00003315    0.00001152   -0.00000011
     atom    6 type  2   force =     0.00000831   -0.00004144    0.00000127
     atom    7 type  2   force =    -0.00003322    0.00001719   -0.00000152
     atom    8 type  2   force =     0.00003369    0.00002313    0.00000021
     atom    9 type  3   force =    -0.00036413   -0.00030959    0.00001564
     atom   10 type  3   force =    -0.00011406    0.00047421   -0.00001682
     atom   11 type  3   force =     0.00046029   -0.00015760    0.00000237
     atom   12 type  3   force =    -0.00042767   -0.00033816    0.00000965
     atom   13 type  3   force =    -0.00009353    0.00055965   -0.00001801
     atom   14 type  3   force =     0.00052164   -0.00020286    0.00000772

     Total force =     0.109188     Total SCF correction =     0.001283

     Computing stress (Cartesian axis) and pressure

          total   stress  (Ry/bohr**3)                   (kbar)     P=     -347.59
  -0.00281826   0.00000000   0.00000000         -414.58        0.00        0.00
   0.00000000  -0.00281826   0.00000000            0.00     -414.58        0.00
   0.00000000   0.00000000  -0.00145215            0.00        0.00     -213.62

     kinetic stress (kbar)  15678.61     -0.00      0.00
                               -0.00  15678.61      0.00
                                0.00      0.00  17102.96

     local   stress (kbar)   -750.69     -0.11     -0.02
                               -0.11   -750.69     -0.02
                               -0.02     -0.02 -18504.55

     nonloc. stress (kbar)   6812.50     -0.00      0.00
                               -0.00   6812.50      0.00
                                0.00      0.00   6776.85

     hartree stress (kbar)   7237.18      0.05      0.01
                                0.05   7237.19      0.00
                                0.01      0.00  15459.31

     exc-cor stress (kbar)  -4204.97      0.00      0.00
                                0.00  -4204.97      0.00
                                0.00      0.00  -4211.34

     corecor stress (kbar)   -418.16     -0.00     -0.00
                               -0.00   -418.16      0.00
                               -0.00      0.00   -421.00

     ewald   stress (kbar) -24769.09      0.06     -0.00
                                0.06 -24769.04      0.00
                               -0.00      0.00 -16415.86

     hubbard stress (kbar)      0.00      0.00      0.00
                                0.00      0.00      0.00
                                0.00      0.00      0.00

     DFT-D   stress (kbar)      0.00      0.00      0.00
                                0.00      0.00      0.00
                                0.00      0.00      0.00

     XDM     stress (kbar)      0.00      0.00      0.00
                                0.00      0.00      0.00
                                0.00      0.00      0.00

     dft-nl  stress (kbar)      0.00      0.00      0.00
                                0.00      0.00      0.00
                                0.00      0.00      0.00

     TS-vdW  stress (kbar)      0.00      0.00      0.00
                                0.00      0.00      0.00
                                0.00      0.00      0.00

[...]

                                0.00      0.00      0.00

     Writing all to output data dir new_calculations/myprefix.save/

     General routines

     Parallel routines

     PAW routines

   This run was terminated on:   7:15: 4  21May2023

   JOB DONE.