     Program PWSCF v.7.0 starts on 21May2023 at 19:18:33

     Reading input from espresso_27051.pwi
Warning: card &CELL ignored
Warning: card / ignored

     Current dimensions of program PWSCF are:
     Max number of different atomic species (ntypx) = 10
     Max number of k-points (npk) =  40000
     Max angular momentum in pseudopotentials (lmaxx) =  4
     file O.pbe-n-kjpaw_psl.0.1.UPF: wavefunction(s)  2P renormalized

     gamma-point specific algorithms are used
     Message from routine setup:
     using ibrav=0 with symmetry is DISCOURAGED, use correct ibrav instead

     Subspace diagonalization in iterative solution of the eigenvalue problem:
     a serial algorithm will be used

     Using Slab Decomposition

     bravais-lattice index     =            0
     lattice parameter (alat)  =      15.9151  a.u.
     unit-cell volume          =    1454.3399 (a.u.)^3
     number of atoms/cell      =           17
     number of atomic types    =            4
     number of electrons       =       106.00
     number of Kohn-Sham states=           64
     kinetic-energy cutoff     =      30.0000  Ry
     charge density cutoff     =     240.0000  Ry
     scf convergence threshold =      1.0E-06
     mixing beta               =       0.7000
     number of iterations used =            8  plain     mixing
     Exchange-correlation= SLA  PW   PBX  PBC
                           (   1   4   3   4   0   0   0)

     celldm(1)=  15.915052  celldm(2)=   0.000000  celldm(3)=   0.000000
     celldm(4)=   0.000000  celldm(5)=   0.000000  celldm(6)=   0.000000

     crystal axes: (cart. coord. in units of alat)
               a(1) = (   1.000000   0.000000   0.000000 )
               a(2) = (   0.000000   0.584813   0.000000 )
               a(3) = (   0.000000   0.027811   0.616914 )

     reciprocal axes: (cart. coord. in units 2 pi/alat)
               b(1) = (  1.000000  0.000000  0.000000 )
               b(2) = (  0.000000  1.709948 -0.077087 )
               b(3) = (  0.000000  0.000000  1.620972 )

     PseudoPot. # 1 for Li read from file:
     /home/pragov/projects/rrg-bengioy-ad/pragov/crystal_structure_design/SSSP/li_pbe_v1.4.uspp.F.UPF
     MD5 check sum: e912e257baa3777c20ea3d68f190483c
     Pseudo is Ultrasoft, Zval =  3.0
     Generated by new atomic code, or converted to UPF format
     Using radial grid of  751 points,  5 beta functions with:
                l(1) =   0
                l(2) =   0
                l(3) =   0
                l(4) =   1
                l(5) =   1
     Q(r) pseudized with 10 coefficients,  rinner =    1.150   1.150   1.150

     PseudoPot. # 2 for V  read from file:
     /home/pragov/projects/rrg-bengioy-ad/pragov/crystal_structure_design/SSSP/v_pbe_v1.4.uspp.F.UPF
     MD5 check sum: 22b79981416ebb76fdaf5b1b8640f6fb
     Pseudo is Ultrasoft + core correction, Zval = 13.0
     Generated by new atomic code, or converted to UPF format
     Using radial grid of  853 points,  6 beta functions with:
                l(1) =   0
                l(2) =   0
                l(3) =   1
                l(4) =   1
                l(5) =   2
                l(6) =   2
     Q(r) pseudized with  8 coefficients,  rinner =    1.100   1.100   1.100
                                                       1.100   1.100

     PseudoPot. # 3 for Te read from file:
     /home/pragov/projects/rrg-bengioy-ad/pragov/crystal_structure_design/SSSP/Te_pbe_v1.uspp.F.UPF
     MD5 check sum: c319670d6894cc26e93307826a071b75
     Pseudo is Ultrasoft + core correction, Zval =  6.0
     Generated by new atomic code, or converted to UPF format
     Using radial grid of  891 points,  5 beta functions with:
                l(1) =   0
                l(2) =   0
                l(3) =   1
                l(4) =   1
                l(5) =   2
     Q(r) pseudized with  6 coefficients,  rinner =    1.800   1.800   1.800
                                                       1.800   1.800

     PseudoPot. # 4 for O  read from file:
     /home/pragov/projects/rrg-bengioy-ad/pragov/crystal_structure_design/SSSP/O.pbe-n-kjpaw_psl.0.1.UPF
     MD5 check sum: 0234752ac141de4415c5fc33072bef88
     Pseudo is Projector augmented-wave + core cor, Zval =  6.0
     Generated using "atomic" code by A. Dal Corso  v.5.0.99 svn rev. 10869
     Shape of augmentation charge: BESSEL
     Using radial grid of 1095 points,  4 beta functions with:
                l(1) =   0
                l(2) =   0
                l(3) =   1
                l(4) =   1
     Q(r) pseudized with 0 coefficients

     atomic species   valence    mass     pseudopotential
        Li             3.00     6.94000     Li( 1.00)
        V             13.00    50.94150     V ( 1.00)
        Te             6.00   127.60000     Te( 1.00)
        O              6.00    15.99900     O ( 1.00)

      2 Sym. Ops. (no inversion) found

                                    s                        frac. trans.

      isym =  1     identity

 cryst.   s( 1) = (     1          0          0      )
                  (     0          1          0      )
                  (     0          0          1      )

 cart.    s( 1) = (  1.0000000  0.0000000  0.0000000 )
                  (  0.0000000  1.0000000  0.0000000 )
                  (  0.0000000  0.0000000  1.0000000 )

      isym =  2     180 deg rotation - cart. axis [1,0,0]

 cryst.   s( 2) = (     1          0          0      )
                  (     0         -1          0      )
                  (     0          0         -1      )

 cart.    s( 2) = (  1.0000000  0.0000000  0.0000000 )
                  (  0.0000000 -1.0000000 -0.0000000 )
                  (  0.0000000  0.0000000 -1.0000000 )

   Cartesian axes

     site n.     atom                  positions (alat units)
         1           Li  tau(   1) = (   0.8070310   0.3063122   0.3084570  )
         2           V   tau(   2) = (   0.9027300   0.0000000   0.0000000  )
         3           Te  tau(   3) = (   0.5873590   0.2924066   0.0000000  )
         4           Te  tau(   4) = (   0.3974800   0.3063122   0.3084570  )
         5           Te  tau(   5) = (   0.0817130   0.0139056   0.3084570  )
         6           O   tau(   6) = (   0.7491010   0.1751574   0.5435845  )
         7           O   tau(   7) = (   0.4202710   0.1905974   0.5086690  )
         8           O   tau(   8) = (   0.0592870   0.1385112   0.4993462  )
         9           O   tau(   9) = (   0.5739280   0.4311973   0.4124175  )
        10           O   tau(  10) = (   0.9198170   0.4798449   0.4275682  )
        11           O   tau(  11) = (   0.2446140   0.4546202   0.3942173  )
        12           O   tau(  12) = (   0.2446140   0.1580042   0.2226967  )
        13           O   tau(  13) = (   0.9198170   0.1327795   0.1893457  )
        14           O   tau(  14) = (   0.5739280   0.1814271   0.2044965  )
        15           O   tau(  15) = (   0.0592870   0.4741132   0.1175678  )
        16           O   tau(  16) = (   0.4202710   0.4220270   0.1082450  )
        17           O   tau(  17) = (   0.7491010   0.4374670   0.0733295  )

   Crystallographic axes

     site n.     atom                  positions (cryst. coord.)
         1           Li  tau(   1) = (  0.8070310  0.5000000  0.5000000  )
         2           V   tau(   2) = (  0.9027300  0.0000000  0.0000000  )
         3           Te  tau(   3) = (  0.5873590  0.5000000  0.0000000  )
         4           Te  tau(   4) = (  0.3974800  0.5000000  0.5000000  )
         5           Te  tau(   5) = (  0.0817130  0.0000000  0.5000000  )
         6           O   tau(   6) = (  0.7491010  0.2576070  0.8811350  )
         7           O   tau(   7) = (  0.4202710  0.2867000  0.8245380  )
         8           O   tau(   8) = (  0.0592870  0.1983540  0.8094260  )
         9           O   tau(   9) = (  0.5739280  0.7055330  0.6685170  )
        10           O   tau(  10) = (  0.9198170  0.7875500  0.6930760  )
        11           O   tau(  11) = (  0.2446140  0.7469880  0.6390150  )
        12           O   tau(  12) = (  0.2446140  0.2530120  0.3609850  )
        13           O   tau(  13) = (  0.9198170  0.2124500  0.3069240  )
        14           O   tau(  14) = (  0.5739280  0.2944670  0.3314830  )
        15           O   tau(  15) = (  0.0592870  0.8016460  0.1905740  )
        16           O   tau(  16) = (  0.4202710  0.7133000  0.1754620  )
        17           O   tau(  17) = (  0.7491010  0.7423930  0.1188650  )

     number of k points=     1  Methfessel-Paxton smearing, width (Ry)=  0.0010
                       cart. coord. in units 2pi/alat
        k(    1) = (   0.0000000   0.0000000   0.0000000), wk =   2.0000000

                       cryst. coord.
        k(    1) = (   0.0000000   0.0000000   0.0000000), wk =   2.0000000

     Check: negative core charge=   -0.000009

     Initial potential from superposition of free atoms

     starting charge     105.5474, renormalised to     106.0000

     negative rho (up, down):  1.563E-03 0.000E+00
     Starting wfcs are   75 randomized atomic wfcs
     Checking if some PAW data can be deallocated...

     Self-consistent Calculation

     iteration #  1     ecut=    30.00 Ry     beta= 0.70
     Davidson diagonalization with overlap

     ethr =  1.00E-02,  avg # of iterations =  2.0

     negative rho (up, down):  3.419E-03 0.000E+00

     total energy              =    -734.59072456 Ry
     estimated scf accuracy    <       5.92338530 Ry

[...]

     total energy              =    -737.75658900 Ry
     estimated scf accuracy    <       0.00000166 Ry

     iteration # 14     ecut=    30.00 Ry     beta= 0.70
     Davidson diagonalization with overlap

     ethr =  1.57E-09,  avg # of iterations =  2.0

[...]

     End of self-consistent calculation

          k = 0.0000 0.0000 0.0000 (  2005 PWs)   bands (ev):

   -60.1843 -38.1751 -34.1118 -33.9147 -33.8741 -16.0948 -14.8337 -13.8706
   -13.6997 -13.1816 -12.8769 -12.7613 -12.6843 -12.4386 -12.3129 -11.7856
   -11.7585  -7.2445  -4.9852  -3.3817  -1.7939  -1.5181  -1.1557  -1.0433
    -0.8476  -0.2822   0.0837   0.8039   0.8804   0.9954   1.6218   1.6424
     1.6622   1.8855   1.9166   2.2724   2.5527   2.8768   2.9311   3.0343
     3.2058   3.3614   3.3846   3.4260   3.6591   3.6749   3.8374   3.9248
     3.9302   4.2001   4.2175   4.3968   4.7394   6.0990   6.4879   6.9157
     6.9788   8.0391   9.1877   9.2177   9.4249  10.7792  11.7090  11.8986

     occupation numbers
     1.0000   1.0000   1.0000   1.0000   1.0000   1.0000   1.0000   1.0000
     1.0000   1.0000   1.0000   1.0000   1.0000   1.0000   1.0000   1.0000
     1.0000   1.0000   1.0000   1.0000   1.0000   1.0000   1.0000   1.0000
     1.0000   1.0000   1.0000   1.0000   1.0000   1.0000   1.0000   1.0000
     1.0000   1.0000   1.0000   1.0000   1.0000   1.0000   1.0000   1.0000
     1.0000   1.0000   1.0000   1.0000   1.0000   1.0000   1.0000   1.0000
     1.0000   1.0000   1.0000   1.0000   1.0000  -0.0000  -0.0000  -0.0000
    -0.0000  -0.0000  -0.0000  -0.0000  -0.0000  -0.0000  -0.0000  -0.0000

     the Fermi energy is     5.2514 ev

!    total energy              =    -737.75658923 Ry
     estimated scf accuracy    <       0.00000009 Ry
     smearing contrib. (-TS)   =       0.00000000 Ry
     internal energy E=F+TS    =    -737.75658923 Ry

     The total energy is F=E-TS. E is the sum of the following terms:
     one-electron contribution =    -288.39631729 Ry
     hartree contribution      =     200.09814590 Ry
     xc contribution           =    -155.52382762 Ry
     ewald contribution        =    -379.55482222 Ry
     one-center paw contrib.   =    -114.37976800 Ry
      -> PAW hartree energy AE =     354.53483793 Ry
      -> PAW hartree energy PS =    -353.34825876 Ry
      -> PAW xc energy AE      =    -205.96362056 Ry
      -> PAW xc energy PS      =      90.39727340 Ry
      -> total E_H with PAW    =     201.28472507 Ry
      -> total E_XC with PAW   =    -271.09017478 Ry

     convergence has been achieved in  14 iterations

     negative rho (up, down):  2.368E-03 0.000E+00

     Forces acting on atoms (cartesian axes, Ry/au):

     atom    1 type  1   force =     0.00516200    0.00000000    0.00000000
     atom    2 type  2   force =     0.01104271    0.00000000    0.00000000
     atom    3 type  3   force =    -0.00857468    0.00000000    0.00000000
     atom    4 type  3   force =    -0.01038404    0.00000000    0.00000000
     atom    5 type  3   force =    -0.00100403    0.00000000    0.00000000
     atom    6 type  4   force =     0.05009905   -0.04218310   -0.01326187
     atom    7 type  4   force =    -0.03683568   -0.04038420    0.01993384
     atom    8 type  4   force =    -0.00597011    0.01719101    0.03852151
     atom    9 type  4   force =     0.03914444    0.03738121   -0.01725267
     atom   10 type  4   force =    -0.04336918   -0.01113514    0.00693408
     atom   11 type  4   force =    -0.00118950    0.00255912    0.04000188
     atom   12 type  4   force =    -0.00118950   -0.00255912   -0.04000188
     atom   13 type  4   force =    -0.04336918    0.01113514   -0.00693408
     atom   14 type  4   force =     0.03914444   -0.03738121    0.01725267
     atom   15 type  4   force =    -0.00597011   -0.01719101   -0.03852151
     atom   16 type  4   force =    -0.03683568    0.04038420   -0.01993384
     atom   17 type  4   force =     0.05009905    0.04218310    0.01326187
     The non-local contrib.  to forces
     atom    1 type  1   force =    -0.03967431    0.00000000    0.00000000
     atom    2 type  2   force =     0.02200251    0.00000000    0.00000000
     atom    3 type  3   force =     0.03290752    0.00000000    0.00000000
     atom    4 type  3   force =     0.00262623    0.00000000    0.00000000
     atom    5 type  3   force =    -0.16107051    0.00000000    0.00000000
     atom    6 type  4   force =    -0.47882841    0.42951980    0.77413131
     atom    7 type  4   force =     0.83487303    1.38952687   -0.65000244
     atom    8 type  4   force =    -0.47965744   -1.16198891   -0.80212003
     atom    9 type  4   force =    -0.76881621   -1.29281296    0.64687209
     atom   10 type  4   force =     0.82681000    0.89555936   -0.20180432
     atom   11 type  4   force =     0.08450245   -0.09863884   -1.48483040
     atom   12 type  4   force =     0.08450245    0.09863884    1.48483040
     atom   13 type  4   force =     0.82681000   -0.89555936    0.20180432
     atom   14 type  4   force =    -0.76881621    1.29281296   -0.64687209
     atom   15 type  4   force =    -0.47965744    1.16198891    0.80212003
     atom   16 type  4   force =     0.83487303   -1.38952687    0.65000244
     atom   17 type  4   force =    -0.47882841   -0.42951980   -0.77413131
     The ionic contribution  to forces
     atom    1 type  1   force =    -0.57501625   -0.00000000    0.00000000
     atom    2 type  2   force =    -0.89314096   -0.00000000   -0.00000000
     atom    3 type  3   force =    -3.34034271   -0.00000000   -0.00000000
     atom    4 type  3   force =    -1.44036778    0.00000000   -0.00000000
     atom    5 type  3   force =     4.97248611   -0.00000000    0.00000000
     atom    6 type  4   force =    -6.12679091    2.66021540   -4.73982157
     atom    7 type  4   force =    -3.77156860   -5.41985768    2.27959178
     atom    8 type  4   force =     9.93630945    8.37612713   -1.15203642
     atom    9 type  4   force =    -0.70950323    5.58993589   -2.27812901
     atom   10 type  4   force =    -0.85237357   -7.22314852   -5.00627245
     atom   11 type  4   force =     2.16211766    0.02253731    3.53147661
     atom   12 type  4   force =     2.16211766   -0.02253731   -3.53147661
     atom   13 type  4   force =    -0.85237357    7.22314852    5.00627245
     atom   14 type  4   force =    -0.70950323   -5.58993589    2.27812901
     atom   15 type  4   force =     9.93630945   -8.37612713    1.15203642
     atom   16 type  4   force =    -3.77156860    5.41985768   -2.27959178
     atom   17 type  4   force =    -6.12679091   -2.66021540    4.73982157
     The local contribution  to forces
     atom    1 type  1   force =     0.61984521    0.00001483   -0.00000228
     atom    2 type  2   force =     0.88660054   -0.00010481    0.00000456
     atom    3 type  3   force =     3.29539170    0.00002065    0.00001855
     atom    4 type  3   force =     1.42730210   -0.00000643   -0.00000493
     atom    5 type  3   force =    -4.79449274   -0.00003166    0.00000436
     atom    6 type  4   force =     6.65037776   -3.12726769    3.96050855
     atom    7 type  4   force =     2.90868010    4.00397094   -1.61618211
     atom    8 type  4   force =    -9.46724751   -7.20810052    1.98435755
     atom    9 type  4   force =     1.50965635   -4.27255854    1.62064049
     atom   10 type  4   force =    -0.00918323    6.32513207    5.21268748
     atom   11 type  4   force =    -2.24684094    0.07769557   -2.02270347
     atom   12 type  4   force =    -2.24684857   -0.07769067    2.02271360
     atom   13 type  4   force =    -0.00919814   -6.32513059   -5.21267669
     atom   14 type  4   force =     1.50964843    4.27256377   -1.62066624
     atom   15 type  4   force =    -9.46724585    7.20810024   -1.98435862
     atom   16 type  4   force =     2.90867450   -4.00396637    1.61619070
     atom   17 type  4   force =     6.65036517    3.12725455   -3.96052320
     The core correction contribution to forces
     atom    1 type  1   force =     0.00000000    0.00000000    0.00000000
     atom    2 type  2   force =    -0.00490540   -0.00000114   -0.00000032
     atom    3 type  3   force =     0.00370331   -0.00000035   -0.00000048
     atom    4 type  3   force =     0.00011730    0.00000046    0.00000010
     atom    5 type  3   force =    -0.01811834    0.00000110   -0.00000035
     atom    6 type  4   force =     0.00538003   -0.00460783   -0.00804938
     atom    7 type  4   force =    -0.00866418   -0.01395788    0.00655309
     atom    8 type  4   force =     0.00438223    0.01115890    0.00828306
     atom    9 type  4   force =     0.00800301    0.01270880   -0.00656500
     atom   10 type  4   force =    -0.00881730   -0.00869741    0.00233056
     atom   11 type  4   force =    -0.00100124    0.00090885    0.01606947
     atom   12 type  4   force =    -0.00100144   -0.00090884   -0.01606925
     atom   13 type  4   force =    -0.00881750    0.00869768   -0.00233041
     atom   14 type  4   force =     0.00800297   -0.01270873    0.00656478
     atom   15 type  4   force =     0.00438230   -0.01115864   -0.00828312
     atom   16 type  4   force =    -0.00866438    0.01395791   -0.00655299
     atom   17 type  4   force =     0.00537975    0.00460761    0.00804887
     The Hubbard contrib.    to forces
     atom    1 type  1   force =     0.00000000    0.00000000    0.00000000
     atom    2 type  2   force =     0.00000000    0.00000000    0.00000000
     atom    3 type  3   force =     0.00000000    0.00000000    0.00000000
     atom    4 type  3   force =     0.00000000    0.00000000    0.00000000
     atom    5 type  3   force =     0.00000000    0.00000000    0.00000000
     atom    6 type  4   force =     0.00000000    0.00000000    0.00000000
     atom    7 type  4   force =     0.00000000    0.00000000    0.00000000
     atom    8 type  4   force =     0.00000000    0.00000000    0.00000000
     atom    9 type  4   force =     0.00000000    0.00000000    0.00000000
     atom   10 type  4   force =     0.00000000    0.00000000    0.00000000
     atom   11 type  4   force =     0.00000000    0.00000000    0.00000000
     atom   12 type  4   force =     0.00000000    0.00000000    0.00000000
     atom   13 type  4   force =     0.00000000    0.00000000    0.00000000
     atom   14 type  4   force =     0.00000000    0.00000000    0.00000000
     atom   15 type  4   force =     0.00000000    0.00000000    0.00000000
     atom   16 type  4   force =     0.00000000    0.00000000    0.00000000
     atom   17 type  4   force =     0.00000000    0.00000000    0.00000000
     The SCF correction term to forces
     atom    1 type  1   force =     0.00000462   -0.00001434    0.00000168
     atom    2 type  2   force =     0.00048329    0.00010980   -0.00000799
     atom    3 type  3   force =    -0.00023723   -0.00001705   -0.00001466
     atom    4 type  3   force =    -0.00006462    0.00000180    0.00000523
     atom    5 type  3   force =     0.00018872    0.00002039   -0.00000039
     atom    6 type  4   force =    -0.00003592   -0.00004829   -0.00004135
     atom    7 type  4   force =    -0.00015260   -0.00006418   -0.00002579
     atom    8 type  4   force =     0.00023608    0.00000076    0.00003528
     atom    9 type  4   force =    -0.00019709    0.00010830   -0.00007628
     atom   10 type  4   force =     0.00019887    0.00002606   -0.00000467
     atom   11 type  4   force =     0.00003706    0.00005871   -0.00000399
     atom   12 type  4   force =     0.00003045   -0.00005864    0.00000631
     atom   13 type  4   force =     0.00020063   -0.00001442   -0.00000122
     atom   14 type  4   force =    -0.00019135   -0.00011303    0.00009216
     atom   15 type  4   force =     0.00024307    0.00001196   -0.00003830
     atom   16 type  4   force =    -0.00015910    0.00006413    0.00001848
     atom   17 type  4   force =    -0.00003552    0.00005063    0.00003540

     Total force =     0.182862     Total SCF correction =     0.000856

     Computing stress (Cartesian axis) and pressure

     negative rho (up, down):  2.368E-03 0.000E+00
          total   stress  (Ry/bohr**3)                   (kbar)     P=     -325.10
  -0.00204367   0.00000000   0.00000000         -300.63        0.00        0.00
   0.00000000  -0.00249998   0.00008800            0.00     -367.76       12.95
   0.00000000   0.00008800  -0.00208634            0.00       12.95     -306.91

     kinetic stress (kbar)  17495.09      0.00      0.00
                                0.00  17709.45     11.75
                                0.00     11.75  17263.17

     local   stress (kbar)  -4927.68     -0.02      0.01
                               -0.02  -6167.34   -484.66
                                0.01   -484.66 -12354.26

     nonloc. stress (kbar)    221.63      0.00      0.00
                                0.00    204.06      3.43
                                0.00      3.43    172.89

     hartree stress (kbar)   5318.25      0.01     -0.00
                                0.01   6456.87    169.81
                               -0.00    169.81   8464.61

     exc-cor stress (kbar)    -71.56     -0.00     -0.00
                               -0.00    -74.34      0.81
                               -0.00      0.81    -67.49

     corecor stress (kbar)  -4073.82      0.00     -0.00
                                0.00  -4073.33     -1.14
                               -0.00     -1.14  -4079.89

     ewald   stress (kbar) -14262.54     -0.00      0.00
                               -0.00 -14423.12    312.96
                                0.00    312.96  -9705.94

     hubbard stress (kbar)      0.00      0.00      0.00
                                0.00      0.00      0.00
                                0.00      0.00      0.00

     DFT-D   stress (kbar)      0.00      0.00      0.00
                                0.00      0.00      0.00
                                0.00      0.00      0.00

     XDM     stress (kbar)      0.00      0.00      0.00
                                0.00      0.00      0.00
                                0.00      0.00      0.00

     dft-nl  stress (kbar)      0.00      0.00      0.00
                                0.00      0.00      0.00
                                0.00      0.00      0.00

     TS-vdW  stress (kbar)      0.00      0.00      0.00
                                0.00      0.00      0.00
                                0.00      0.00      0.00

[...]

                                0.00      0.00      0.00

     Writing all to output data dir new_calculations/myprefix.save/

     General routines

     Parallel routines

     PAW routines

   This run was terminated on:  19:18:56  21May2023

   JOB DONE.