     Program PWSCF v.7.0 starts on 21May2023 at 11:22: 4

     Reading input from espresso_26656.pwi
Warning: card &CELL ignored
Warning: card / ignored

     Current dimensions of program PWSCF are:
     Max number of different atomic species (ntypx) = 10
     Max number of k-points (npk) =  40000
     Max angular momentum in pseudopotentials (lmaxx) =  4
     file O.pbe-n-kjpaw_psl.0.1.UPF: wavefunction(s)  2P renormalized

     gamma-point specific algorithms are used
     Message from routine setup:
     using ibrav=0 with symmetry is DISCOURAGED, use correct ibrav instead

     Subspace diagonalization in iterative solution of the eigenvalue problem:
     a serial algorithm will be used

     Using Slab Decomposition

     bravais-lattice index     =            0
     lattice parameter (alat)  =      11.7557  a.u.
     unit-cell volume          =    1235.9838 (a.u.)^3
     number of atoms/cell      =           12
     number of atomic types    =            3
     number of electrons       =       100.00
     number of Kohn-Sham states=           60
     kinetic-energy cutoff     =      30.0000  Ry
     charge density cutoff     =     240.0000  Ry
     scf convergence threshold =      1.0E-06
     mixing beta               =       0.7000
     number of iterations used =            8  plain     mixing
     Exchange-correlation= SLA  PW   PBX  PBC
                           (   1   4   3   4   0   0   0)

     celldm(1)=  11.755741  celldm(2)=   0.000000  celldm(3)=   0.000000
     celldm(4)=   0.000000  celldm(5)=   0.000000  celldm(6)=   0.000000

     crystal axes: (cart. coord. in units of alat)
               a(1) = (   1.000000   0.000000   0.000000 )
               a(2) = (  -0.447575   0.894246   0.000000 )
               a(3) = (  -0.276212  -0.447123   0.850757 )

     reciprocal axes: (cart. coord. in units 2 pi/alat)
               b(1) = (  1.000000  0.500506  0.587712 )
               b(2) = (  0.000000  1.118260  0.587712 )
               b(3) = (  0.000000  0.000000  1.175424 )

     PseudoPot. # 1 for Pr read from file:
     /home/pragov/projects/rrg-bengioy-ad/pragov/crystal_structure_design/SSSP/Pr.GGA-PBE-paw-v1.0.UPF
     MD5 check sum: b5e1e58e76df433569641143f671cc27
     Pseudo is Projector augmented-wave + core cor, Zval = 13.0
     Generated using ATOMPAW code
     Shape of augmentation charge: BESSEL
     Using radial grid of 1103 points,  8 beta functions with:
                l(1) =   0
                l(2) =   0
                l(3) =   1
                l(4) =   1
                l(5) =   2
                l(6) =   2
                l(7) =   3
                l(8) =   3
     Q(r) pseudized with 0 coefficients

     PseudoPot. # 2 for V  read from file:
     /home/pragov/projects/rrg-bengioy-ad/pragov/crystal_structure_design/SSSP/v_pbe_v1.4.uspp.F.UPF
     MD5 check sum: 22b79981416ebb76fdaf5b1b8640f6fb
     Pseudo is Ultrasoft + core correction, Zval = 13.0
     Generated by new atomic code, or converted to UPF format
     Using radial grid of  853 points,  6 beta functions with:
                l(1) =   0
                l(2) =   0
                l(3) =   1
                l(4) =   1
                l(5) =   2
                l(6) =   2
     Q(r) pseudized with  8 coefficients,  rinner =    1.100   1.100   1.100
                                                       1.100   1.100

     PseudoPot. # 3 for O  read from file:
     /home/pragov/projects/rrg-bengioy-ad/pragov/crystal_structure_design/SSSP/O.pbe-n-kjpaw_psl.0.1.UPF
     MD5 check sum: 0234752ac141de4415c5fc33072bef88
     Pseudo is Projector augmented-wave + core cor, Zval =  6.0
     Generated using "atomic" code by A. Dal Corso  v.5.0.99 svn rev. 10869
     Shape of augmentation charge: BESSEL
     Using radial grid of 1095 points,  4 beta functions with:
                l(1) =   0
                l(2) =   0
                l(3) =   1
                l(4) =   1
     Q(r) pseudized with 0 coefficients

     atomic species   valence    mass     pseudopotential
        Pr            13.00   140.90766     Pr( 1.00)
        V             13.00    50.94150     V ( 1.00)
        O              6.00    15.99900     O ( 1.00)

      4 Sym. Ops., with inversion, found ( 2 have fractional translation)

                                    s                        frac. trans.

      isym =  1     identity

 cryst.   s( 1) = (     1          0          0      )
                  (     0          1          0      )
                  (     0          0          1      )

 cart.    s( 1) = (  1.0000000  0.0000000  0.0000000 )
                  (  0.0000000  1.0000000  0.0000000 )
                  (  0.0000000  0.0000000  1.0000000 )

      isym =  2     180 deg rotation - cart. axis [0,0,1]

 cryst.   s( 2) = (    -1          0          0      )
                  (     0         -1          0      )
                  (     1          1          1      )

 cart.    s( 2) = ( -1.0000000 -0.0000000 -0.0000000 )
                  (  0.0000000 -1.0000000 -0.0000000 )
                  (  0.0000000  0.0000000  1.0000000 )

      isym =  3     inversion

 cryst.   s( 3) = (    -1          0          0      )    f =( -0.2500000 )
                  (     0         -1          0      )       (  0.2500000 )
                  (     0          0         -1      )       ( -0.5000000 )

 cart.    s( 3) = ( -1.0000000 -0.0000000 -0.0000000 )    f =( -0.2237876 )
                  (  0.0000000 -1.0000000 -0.0000000 )       (  0.4471231 )
                  (  0.0000000  0.0000000 -1.0000000 )       ( -0.4253785 )

      isym =  4     inv. 180 deg rotation - cart. axis [0,0,1]

 cryst.   s( 4) = (     1          0          0      )    f =( -0.2500000 )
                  (     0          1          0      )       (  0.2500000 )
                  (    -1         -1         -1      )       ( -0.5000000 )

 cart.    s( 4) = (  1.0000000  0.0000000  0.0000000 )    f =( -0.2237876 )
                  (  0.0000000  1.0000000  0.0000000 )       (  0.4471231 )
                  (  0.0000000  0.0000000 -1.0000000 )       ( -0.4253785 )

   Cartesian axes

     site n.     atom                  positions (alat units)
         1           Pr  tau(   1) = (  -0.2237876   0.4471231   0.4253785  )
         2           Pr  tau(   2) = (   0.0000000   0.0000000   0.0000000  )
         3           V   tau(   3) = (   0.2762124   0.4471231   0.0000000  )
         4           V   tau(   4) = (   0.5000000  -0.0000000   0.4253785  )
         5           O   tau(   5) = (   0.0357554  -0.2324007   0.6981985  )
         6           O   tau(   6) = (   0.0523866   0.3750804   0.1525586  )
         7           O   tau(   7) = (   0.5000391   0.5191658   0.1525586  )
         8           O   tau(   8) = (   0.7238257   0.0720427   0.2728199  )
         9           O   tau(   9) = (   0.4642446   0.2324007   0.5779372  )
        10           O   tau(  10) = (  -0.0357549   0.2323998   0.6981985  )
        11           O   tau(  11) = (   0.5357549  -0.2323998   0.5779372  )
        12           O   tau(  12) = (   0.2761733  -0.0720427   0.2728199  )

   Crystallographic axes

     site n.     atom                  positions (cryst. coord.)
         1           Pr  tau(   1) = (  0.2500000  0.7500000  0.5000000  )
         2           Pr  tau(   2) = (  0.0000000  0.0000000  0.0000000  )
         3           V   tau(   3) = (  0.5000000  0.5000000  0.0000000  )
         4           V   tau(   4) = (  0.7500000  0.2500000  0.5000000  )
         5           O   tau(   5) = (  0.3297770  0.1504550  0.8206790  )
         6           O   tau(   6) = (  0.3297770  0.5090980  0.1793210  )
         7           O   tau(   7) = (  0.8495450  0.6702230  0.1793210  )
         8           O   tau(   8) = (  0.9202230  0.2409020  0.3206790  )
         9           O   tau(   9) = (  0.9202230  0.5995450  0.6793210  )
        10           O   tau(  10) = (  0.4909020  0.6702230  0.8206790  )
        11           O   tau(  11) = (  0.7590980  0.0797770  0.6793210  )
        12           O   tau(  12) = (  0.4004550  0.0797770  0.3206790  )

     number of k points=     1  Methfessel-Paxton smearing, width (Ry)=  0.0010
                       cart. coord. in units 2pi/alat
        k(    1) = (   0.0000000   0.0000000   0.0000000), wk =   2.0000000

                       cryst. coord.
        k(    1) = (   0.0000000   0.0000000   0.0000000), wk =   2.0000000

     Check: negative core charge=   -0.000013

     Initial potential from superposition of free atoms

     starting charge      99.9827, renormalised to     100.0000

     negative rho (up, down):  2.536E-03 0.000E+00
     Starting wfcs are  116 randomized atomic wfcs
     Checking if some PAW data can be deallocated...

     Self-consistent Calculation

     iteration #  1     ecut=    30.00 Ry     beta= 0.70
     Davidson diagonalization with overlap

     ethr =  1.00E-02,  avg # of iterations =  4.0

     negative rho (up, down):  4.247E-03 0.000E+00

     total energy              =   -1638.82223773 Ry
     estimated scf accuracy    <       4.69937438 Ry

[...]

     total energy              =   -1641.59976832 Ry
     estimated scf accuracy    <       0.00000243 Ry

     iteration # 56     ecut=    30.00 Ry     beta= 0.70
     Davidson diagonalization with overlap

     ethr =  2.13E-09,  avg # of iterations =  1.0

[...]

     End of self-consistent calculation

          k = 0.0000 0.0000 0.0000 (  1742 PWs)   bands (ev):

   -57.5720 -57.4914 -31.4418 -31.3480 -31.3406 -31.1517 -31.0182 -30.3326
   -27.3786 -27.2334 -12.5956 -11.9459 -11.8809 -11.2771 -11.1452 -10.9828
   -10.7974 -10.5734 -10.3867  -9.3730  -9.0475  -8.8661  -8.3773  -8.0585
     2.3956   2.4303   2.7813   2.8683   3.1933   3.2406   3.2906   3.5083
     3.5375   3.5786   3.5913   3.7914   4.0576   4.1469   4.5329   4.5932
     5.0753   5.2263   5.4197   5.4664   5.4738   5.6471   5.8324   6.3083
     8.5638   8.6166   8.6210   8.6608   8.7435   8.8195   8.8478   8.8974
     8.9543   8.9960   9.0287   9.0787

     occupation numbers
     1.0000   1.0000   1.0000   1.0000   1.0000   1.0000   1.0000   1.0000
     1.0000   1.0000   1.0000   1.0000   1.0000   1.0000   1.0000   1.0000
     1.0000   1.0000   1.0000   1.0000   1.0000   1.0000   1.0000   1.0000
     1.0000   1.0000   1.0000   1.0000   1.0000   1.0000   1.0000   1.0000
     1.0000   1.0000   1.0000   1.0000   1.0000   1.0000   1.0000   1.0000
     1.0000   1.0000   1.0000   1.0000   1.0000   1.0000   1.0000   1.0000
     1.0000   0.6350   0.3650  -0.0001  -0.0000  -0.0000  -0.0000  -0.0000
    -0.0000  -0.0000  -0.0000  -0.0000

     the Fermi energy is     8.6188 ev

!    total energy              =   -1641.59976814 Ry
     estimated scf accuracy    <       0.00000019 Ry
     smearing contrib. (-TS)   =      -0.00052043 Ry
     internal energy E=F+TS    =   -1641.59924771 Ry

     The total energy is F=E-TS. E is the sum of the following terms:
     one-electron contribution =    -341.82175469 Ry
     hartree contribution      =     224.49751370 Ry
     xc contribution           =    -122.29349161 Ry
     ewald contribution        =    -486.81829597 Ry
     one-center paw contrib.   =    -915.16321915 Ry
      -> PAW hartree energy AE =     349.76852503 Ry
      -> PAW hartree energy PS =    -349.12141800 Ry
      -> PAW xc energy AE      =    -995.48814253 Ry
      -> PAW xc energy PS      =      79.67781635 Ry
      -> total E_H with PAW    =     225.14462074 Ry
      -> total E_XC with PAW   =   -1038.10381779 Ry

     convergence has been achieved in  56 iterations

     negative rho (up, down):  3.589E-03 0.000E+00

     Forces acting on atoms (cartesian axes, Ry/au):

     atom    1 type  1   force =     0.00000000    0.00000000    0.00576397
     atom    2 type  1   force =     0.00000000    0.00000000   -0.00576397
     atom    3 type  2   force =     0.00000000    0.00000000    0.01604952
     atom    4 type  2   force =     0.00000000    0.00000000   -0.01604952
     atom    5 type  3   force =    -0.05936933    0.05441397    0.06900633
     atom    6 type  3   force =     0.04171153   -0.01336339   -0.08143162
     atom    7 type  3   force =    -0.04171153    0.01336339   -0.08143162
     atom    8 type  3   force =    -0.04171153    0.01336339    0.08143162
     atom    9 type  3   force =     0.05936933   -0.05441397   -0.06900633
     atom   10 type  3   force =     0.05936933   -0.05441397    0.06900633
     atom   11 type  3   force =    -0.05936933    0.05441397   -0.06900633
     atom   12 type  3   force =     0.04171153   -0.01336339    0.08143162
     The non-local contrib.  to forces
     atom    1 type  1   force =     0.00000000    0.00000000   -0.01568855
     atom    2 type  1   force =     0.00000000    0.00000000    0.01568855
     atom    3 type  2   force =     0.00000000    0.00000000   -0.00620557
     atom    4 type  2   force =     0.00000000    0.00000000    0.00620557
     atom    5 type  3   force =    -0.22169747    0.42576288    0.34367482
     atom    6 type  3   force =     0.33995644    0.11712529   -0.38216681
     atom    7 type  3   force =    -0.33995644   -0.11712529   -0.38216681
     atom    8 type  3   force =    -0.33995644   -0.11712529    0.38216681
     atom    9 type  3   force =     0.22169747   -0.42576288   -0.34367482
     atom   10 type  3   force =     0.22169747   -0.42576288    0.34367482
     atom   11 type  3   force =    -0.22169747    0.42576288   -0.34367482
     atom   12 type  3   force =     0.33995644    0.11712529    0.38216681
     The ionic contribution  to forces
     atom    1 type  1   force =     0.00004505   -0.00002783    0.00000000
     atom    2 type  1   force =    -0.00004505    0.00002783   -0.00000000
     atom    3 type  2   force =     0.00004216   -0.00002604   -0.00000000
     atom    4 type  2   force =    -0.00004216    0.00002604    0.00000000
     atom    5 type  3   force =     2.28199875   -6.57529589   -5.39709095
     atom    6 type  3   force =    -6.90137606   -0.90229933    5.39718049
     atom    7 type  3   force =     6.90129998    0.90227100    5.39709095
     atom    8 type  3   force =     6.90137606    0.90229933   -5.39718049
     atom    9 type  3   force =    -2.28199875    6.57529589    5.39709095
     atom   10 type  3   force =    -2.28200747    6.57537661   -5.39718049
     atom   11 type  3   force =     2.28200747   -6.57537661    5.39718049
     atom   12 type  3   force =    -6.90129998   -0.90227100   -5.39709095
     The local contribution  to forces
     atom    1 type  1   force =    -0.00086119    0.02413891    0.02333947
     atom    2 type  1   force =    -0.04017744    0.01363968   -0.01957422
     atom    3 type  2   force =    -0.01306263    0.00418157    0.02143242
     atom    4 type  2   force =     0.00116296   -0.00224543   -0.02121311
     atom    5 type  3   force =    -2.09735456    6.16816664    5.14503177
     atom    6 type  3   force =     6.58481719    0.83639811   -5.15398024
     atom    7 type  3   force =    -6.63576615   -0.71149042   -4.99157327
     atom    8 type  3   force =    -6.63545367   -0.78072332    5.20211546
     atom    9 type  3   force =     2.11566480   -6.20653781   -5.07508645
     atom   10 type  3   force =     2.14685542   -6.24592405    5.17980516
     atom   11 type  3   force =    -2.12511807    6.20606412   -5.09901086
     atom   12 type  3   force =     6.56196585    0.76408308    5.04664597
     The core correction contribution to forces
     atom    1 type  1   force =    -0.00000252    0.00000625    0.00000455
     atom    2 type  1   force =    -0.00000913    0.00000229   -0.00000571
     atom    3 type  2   force =    -0.00114894   -0.00020123    0.00106023
     atom    4 type  2   force =     0.00023083    0.00132316   -0.00098125
     atom    5 type  3   force =     0.00265060   -0.00413227   -0.00185773
     atom    6 type  3   force =    -0.00255187    0.00006424    0.00189776
     atom    7 type  3   force =     0.00032005    0.00284807    0.00375521
     atom    8 type  3   force =     0.00118266    0.00102712   -0.00054010
     atom    9 type  3   force =    -0.00203893    0.00329957    0.00301261
     atom   10 type  3   force =    -0.00026440    0.00112353   -0.00167441
     atom   11 type  3   force =     0.00126054   -0.00231686    0.00245006
     atom   12 type  3   force =    -0.00158865   -0.00166483   -0.00262655
     The Hubbard contrib.    to forces
     atom    1 type  1   force =     0.00000000    0.00000000    0.00000000
     atom    2 type  1   force =     0.00000000    0.00000000    0.00000000
     atom    3 type  2   force =     0.00000000    0.00000000    0.00000000
     atom    4 type  2   force =     0.00000000    0.00000000    0.00000000
     atom    5 type  3   force =     0.00000000    0.00000000    0.00000000
     atom    6 type  3   force =     0.00000000    0.00000000    0.00000000
     atom    7 type  3   force =     0.00000000    0.00000000    0.00000000
     atom    8 type  3   force =     0.00000000    0.00000000    0.00000000
     atom    9 type  3   force =     0.00000000    0.00000000    0.00000000
     atom   10 type  3   force =     0.00000000    0.00000000    0.00000000
     atom   11 type  3   force =     0.00000000    0.00000000    0.00000000
     atom   12 type  3   force =     0.00000000    0.00000000    0.00000000
     The SCF correction term to forces
     atom    1 type  1   force =     0.00007009    0.00004063   -0.00000408
     atom    2 type  1   force =    -0.00002815   -0.00008717    0.00001482
     atom    3 type  2   force =     0.00002296    0.00015221   -0.00009961
     atom    4 type  2   force =    -0.00010944   -0.00006667    0.00007724
     atom    5 type  3   force =    -0.00005752   -0.00004211    0.00001046
     atom    6 type  3   force =    -0.00004530   -0.00008908   -0.00003195
     atom    7 type  3   force =     0.00008026    0.00015341   -0.00002580
     atom    8 type  3   force =    -0.00008597   -0.00013313    0.00003759
     atom    9 type  3   force =    -0.00010072   -0.00016157    0.00003601
     atom   10 type  3   force =     0.00004808    0.00010856   -0.00003249
     atom   11 type  3   force =     0.00008333    0.00011806    0.00001244
     atom   12 type  3   force =     0.00005239    0.00007615    0.00001147

     Total force =     0.282435     Total SCF correction =     0.000476

     Computing stress (Cartesian axis) and pressure

     negative rho (up, down):  3.589E-03 0.000E+00
          total   stress  (Ry/bohr**3)                   (kbar)     P=     -257.42
  -0.00162795  -0.00098558  -0.00000000         -239.48     -144.98       -0.00
  -0.00098558  -0.00190316  -0.00000000         -144.98     -279.96       -0.00
  -0.00000000  -0.00000000  -0.00171853           -0.00       -0.00     -252.80

     kinetic stress (kbar)  20030.73    -83.93      0.00
                              -83.93  19969.54      0.00
                                0.00      0.00  20068.71

     local   stress (kbar)  -8732.38  -9037.86    -55.08
                            -9037.86 -17701.29     10.81
                              -55.08     10.81  -3203.56

     nonloc. stress (kbar)   4553.55     -7.44      0.00
                               -7.44   4566.66      0.00
                                0.00      0.00   4518.49

     hartree stress (kbar)   8472.25   3427.03      4.74
                             3427.03  11886.57      3.56
                                4.74      3.56   6360.56

     exc-cor stress (kbar)  -3514.68      6.26      0.18
                                6.26  -3509.11      0.12
                                0.18      0.12  -3518.88

     corecor stress (kbar)  -1026.21     -1.04     -0.32
                               -1.04  -1027.21      0.14
                               -0.32      0.14  -1025.57

     ewald   stress (kbar) -20022.75   5551.99     -0.02
                             5551.99 -14465.14     -0.04
                               -0.02     -0.04 -23452.56

     hubbard stress (kbar)      0.00      0.00      0.00
                                0.00      0.00      0.00
                                0.00      0.00      0.00

     DFT-D   stress (kbar)      0.00      0.00      0.00
                                0.00      0.00      0.00
                                0.00      0.00      0.00

     XDM     stress (kbar)      0.00      0.00      0.00
                                0.00      0.00      0.00
                                0.00      0.00      0.00

     dft-nl  stress (kbar)      0.00      0.00      0.00
                                0.00      0.00      0.00
                                0.00      0.00      0.00

     TS-vdW  stress (kbar)      0.00      0.00      0.00
                                0.00      0.00      0.00
                                0.00      0.00      0.00

[...]

                                0.00      0.00      0.00

     Writing all to output data dir new_calculations/myprefix.save/

     General routines

     Parallel routines

     PAW routines

   This run was terminated on:  11:23:47  21May2023

   JOB DONE.