     Program PWSCF v.7.0 starts on 21May2023 at  2:15:30

     Reading input from espresso_1942.pwi
Warning: card &CELL ignored
Warning: card / ignored

     Current dimensions of program PWSCF are:
     Max number of different atomic species (ntypx) = 10
     Max number of k-points (npk) =  40000
     Max angular momentum in pseudopotentials (lmaxx) =  4
     file K.pbe-spn-kjpaw_psl.1.0.0.UPF: wavefunction(s)  3S renormalized
     file In.pbe-dn-rrkjus_psl.0.2.2.UPF: wavefunction(s)  5S renormalized

     gamma-point specific algorithms are used
     Message from routine setup:
     using ibrav=0 with symmetry is DISCOURAGED, use correct ibrav instead

     Subspace diagonalization in iterative solution of the eigenvalue problem:
     a serial algorithm will be used

     Using Slab Decomposition

     bravais-lattice index     =            0
     lattice parameter (alat)  =      14.8766  a.u.
     unit-cell volume          =    2328.0833 (a.u.)^3
     number of atoms/cell      =           10
     number of atomic types    =            4
     number of electrons       =        86.00
     number of Kohn-Sham states=           52
     kinetic-energy cutoff     =      30.0000  Ry
     charge density cutoff     =     240.0000  Ry
     scf convergence threshold =      1.0E-06
     mixing beta               =       0.7000
     number of iterations used =            8  plain     mixing
     Exchange-correlation=  SLA  PW   PBX  PBC
                           (   1   4   3   4   0   0   0)

     celldm(1)=  14.876628  celldm(2)=   0.000000  celldm(3)=   0.000000
     celldm(4)=   0.000000  celldm(5)=   0.000000  celldm(6)=   0.000000

     crystal axes: (cart. coord. in units of alat)
               a(1) = (   1.000000   0.000000   0.000000 )
               a(2) = (   0.500000   0.866025   0.000000 )
               a(3) = (   0.500000   0.288675   0.816497 )

     reciprocal axes: (cart. coord. in units 2 pi/alat)
               b(1) = (  1.000000 -0.577350 -0.408248 )
               b(2) = (  0.000000  1.154701 -0.408248 )
               b(3) = (  0.000000  0.000000  1.224745 )

     PseudoPot. # 1 for K  read from file:
     /home/pragov/projects/rrg-bengioy-ad/pragov/crystal_structure_design/SSSP/K.pbe-spn-kjpaw_psl.1.0.0.UPF
     MD5 check sum: 7d58810084cac21f60fbe77ea2b688fd
     Pseudo is Projector augmented-wave + core cor, Zval =  9.0
     Generated using "atomic" code by A. Dal Corso  v.5.1
     Shape of augmentation charge: PSQ
     Using radial grid of 1165 points,  6 beta functions with:
                l(1) =   0
                l(2) =   0
                l(3) =   1
                l(4) =   1
                l(5) =   2
                l(6) =   2
     Q(r) pseudized with 0 coefficients

     PseudoPot. # 2 for Tl read from file:
     /home/pragov/projects/rrg-bengioy-ad/pragov/crystal_structure_design/SSSP/Tl_pbe_v1.2.uspp.F.UPF
     MD5 check sum: b76cf1f7e72655a2b2c53cf6385d7059
     Pseudo is Ultrasoft + core correction, Zval = 13.0
     Generated by new atomic code, or converted to UPF format
     Using radial grid of  899 points,  6 beta functions with:
                l(1) =   0
                l(2) =   0
                l(3) =   1
                l(4) =   1
                l(5) =   2
                l(6) =   2
     Q(r) pseudized with  6 coefficients,  rinner =    1.100   1.100   1.100
                                                       1.100   1.100

     PseudoPot. # 3 for In read from file:
     /home/pragov/projects/rrg-bengioy-ad/pragov/crystal_structure_design/SSSP/In.pbe-dn-rrkjus_psl.0.2.2.UPF
     MD5 check sum: 25e7c42c3b55b68f4bf926be2e7201a4
     Pseudo is Ultrasoft + core correction, Zval = 13.0
     Generated using "atomic" code by A. Dal Corso  v.5.0.99 svn rev. 10869
     Using radial grid of 1241 points,  6 beta functions with:
                l(1) =   0
                l(2) =   0
                l(3) =   1
                l(4) =   1
                l(5) =   2
                l(6) =   2
     Q(r) pseudized with 0 coefficients

     PseudoPot. # 4 for Cl read from file:
     /home/pragov/projects/rrg-bengioy-ad/pragov/crystal_structure_design/SSSP/cl_pbe_v1.4.uspp.F.UPF
     MD5 check sum: fc6f6913ecf08c9257cb748ef0700058
     Pseudo is Ultrasoft + core correction, Zval =  7.0
     Generated by new atomic code, or converted to UPF format
     Using radial grid of  909 points,  6 beta functions with:
                l(1) =   0
                l(2) =   0
                l(3) =   1
                l(4) =   1
                l(5) =   2
                l(6) =   2
     Q(r) pseudized with  8 coefficients,  rinner =    1.300   1.300   1.300
                                                       1.300   1.300

     atomic species   valence    mass     pseudopotential
        K              9.00    39.09830     K ( 1.00)
        Tl            13.00   204.38000     Tl( 1.00)
        In            13.00   114.81800     In( 1.00)
        Cl             7.00    35.45000     Cl( 1.00)

     12 Sym. Ops., with inversion, found

                                    s                        frac. trans.

      isym =  1     identity

 cryst.   s( 1) = (     1          0          0      )
                  (     0          1          0      )
                  (     0          0          1      )

 cart.    s( 1) = (  1.0000000  0.0000000 -0.0000000 )
                  (  0.0000000  1.0000000  0.0000000 )
                  (  0.0000000  0.0000000  1.0000000 )

      isym =  2     180 deg rotation - cart. axis [1,0,0]

[...]

      isym =  3     120 deg rotation - cryst. axis [0,0,1]

[...]

      isym =  6     180 deg rotation - cryst. axis [1,1,0]

[...]

      isym =  7     inversion

[...]

      isym =  8     inv. 180 deg rotation - cart. axis [1,0,0]

[...]

      isym =  9     inv. 120 deg rotation - cryst. axis [0,0,1]

 cryst.   s( 9) = (     1         -1          0      )
                  (     1          0          0      )
                  (     1          0         -1      )

 cart.    s( 9) = (  0.5000000  0.8660254 -0.0000000 )
                  ( -0.8660254  0.5000000 -0.0000000 )
                  (  0.0000000  0.0000000 -1.0000000 )

[...]

 cryst.   s(10) = (     0          1          0      )
                  (    -1          1          0      )
                  (     0          1         -1      )

 cart.    s(10) = (  0.5000000 -0.8660254  0.0000000 )
                  (  0.8660254  0.5000000 -0.0000000 )
                  (  0.0000000  0.0000000 -1.0000000 )

[...]

      isym = 12     inv. 180 deg rotation - cryst. axis [1,1,0]

 cryst.   s(12) = (     1         -1          0      )
                  (     0         -1          0      )
                  (     0         -1          1      )

 cart.    s(12) = (  0.5000000 -0.8660254  0.0000000 )
                  ( -0.8660254 -0.5000000  0.0000000 )
                  (  0.0000000  0.0000000  1.0000000 )

   Cartesian axes

     site n.     atom                  positions (alat units)
         1           K   tau(   1) = (   1.5000000   0.8660254   0.6123724  )
         2           K   tau(   2) = (   0.5000000   0.2886751   0.2041241  )
         3           Tl  tau(   3) = (   1.0000000   0.5773503   0.4082483  )
         4           In  tau(   4) = (   0.0000000   0.0000000   0.0000000  )
         5           Cl  tau(   5) = (   1.0000000   0.2639045   0.1866087  )
         6           Cl  tau(   6) = (   0.7285480   0.4206274   0.6298879  )
         7           Cl  tau(   7) = (   1.0000000   0.8907960   0.6298879  )
         8           Cl  tau(   8) = (   0.7285480   0.7340732   0.1866087  )
         9           Cl  tau(   9) = (   1.2714520   0.4206274   0.6298879  )
        10           Cl  tau(  10) = (   1.2714520   0.7340732   0.1866087  )

   Crystallographic axes

     site n.     atom                  positions (cryst. coord.)
         1           K   tau(   1) = (  0.7500000  0.7500000  0.7500000  )
         2           K   tau(   2) = (  0.2500000  0.2500000  0.2500000  )
         3           Tl  tau(   3) = (  0.5000000  0.5000000  0.5000000  )
         4           In  tau(   4) = (  0.0000000  0.0000000  0.0000000  )
         5           Cl  tau(   5) = (  0.7714520  0.2285480  0.2285480  )
         6           Cl  tau(   6) = (  0.2285480  0.2285480  0.7714520  )
         7           Cl  tau(   7) = (  0.2285480  0.7714520  0.7714520  )
         8           Cl  tau(   8) = (  0.2285480  0.7714520  0.2285480  )
         9           Cl  tau(   9) = (  0.7714520  0.2285480  0.7714520  )
        10           Cl  tau(  10) = (  0.7714520  0.7714520  0.2285480  )

     number of k points=     1  Methfessel-Paxton smearing, width (Ry)=  0.0010
                       cart. coord. in units 2pi/alat
        k(    1) = (   0.0000000   0.0000000   0.0000000), wk =   2.0000000

                       cryst. coord.
        k(    1) = (   0.0000000   0.0000000   0.0000000), wk =   2.0000000

     Check: negative core charge=   -0.000003

     Initial potential from superposition of free atoms

     starting charge      85.9537, renormalised to      86.0000

     negative rho (up, down):  1.432E-01 0.000E+00
     Starting wfcs are   58 randomized atomic wfcs
     Checking if some PAW data can be deallocated...

     Self-consistent Calculation

     iteration #  1     ecut=    30.00 Ry     beta= 0.70
     Davidson diagonalization with overlap

     ethr =  1.00E-02,  avg # of iterations =  3.0

     Threshold (ethr) on eigenvalues was too large:
     Diagonalizing with lowered threshold

     Davidson diagonalization with overlap

[...]

     negative rho (up, down):  1.472E-01 0.000E+00

     total energy              =    -716.35254407 Ry
     estimated scf accuracy    <       0.47405828 Ry

[...]

     c_bands:  1 eigenvalues not converged
     ethr =  5.51E-04,  avg # of iterations = 20.0

[...]

     total energy              =    -716.51932058 Ry
     estimated scf accuracy    <       0.00000898 Ry

     iteration #  7     ecut=    30.00 Ry     beta= 0.70
     Davidson diagonalization with overlap

     ethr =  1.04E-08,  avg # of iterations =  2.0

[...]

     End of self-consistent calculation

          k = 0.0000 0.0000 0.0000 (  3212 PWs)   bands (ev):

   -27.7929 -27.7926 -12.2443 -12.2443 -12.0249 -11.5575 -11.5574 -11.5574
   -11.3302 -11.3302 -11.3302 -11.2423 -11.2423 -11.2423 -11.2401 -11.2401
   -11.2401 -10.5567 -10.5567  -7.9853  -7.9852  -7.9851  -7.9532  -7.9531
    -4.0963  -1.3858  -1.3858  -1.3858  -0.8359  -0.2431  -0.2431  -0.2430
     0.6060   0.6060   0.6061   0.6614   0.6614   0.6614   0.6841   0.6841
     1.1066   1.1066   1.1067   5.7490   6.1164   6.1164   6.1164   6.1671
     7.1191   8.0307   8.0310   8.8422

     occupation numbers
     1.0000   1.0000   1.0000   1.0000   1.0000   1.0000   1.0000   1.0000
     1.0000   1.0000   1.0000   1.0000   1.0000   1.0000   1.0000   1.0000
     1.0000   1.0000   1.0000   1.0000   1.0000   1.0000   1.0000   1.0000
     1.0000   1.0000   1.0000   1.0000   1.0000   1.0000   1.0000   1.0000
     1.0000   1.0000   1.0000   1.0000   1.0000   1.0000   1.0000   1.0000
     1.0000   1.0000   1.0000  -0.0000  -0.0000  -0.0000  -0.0000  -0.0000
    -0.0000  -0.0000  -0.0000  -0.0000

     the Fermi energy is     4.3648 ev

!    total energy              =    -716.51932256 Ry
     estimated scf accuracy    <       0.00000038 Ry
     smearing contrib. (-TS)   =       0.00000000 Ry
     internal energy E=F+TS    =    -716.51932256 Ry

     The total energy is F=E-TS. E is the sum of the following terms:
     one-electron contribution =    -253.23919990 Ry
     hartree contribution      =     165.35039075 Ry
     xc contribution           =    -189.18318018 Ry
     ewald contribution        =    -328.61476177 Ry
     one-center paw contrib.   =    -110.83257146 Ry
      -> PAW hartree energy AE =      74.99913211 Ry
      -> PAW hartree energy PS =     -74.57944545 Ry
      -> PAW xc energy AE      =    -132.38638765 Ry
      -> PAW xc energy PS      =      21.13412953 Ry
      -> total E_H with PAW    =     165.77007741 Ry
      -> total E_XC with PAW   =    -300.43543830 Ry

     convergence has been achieved in   7 iterations

     negative rho (up, down):  1.428E-01 0.000E+00

     Forces acting on atoms (cartesian axes, Ry/au):

     atom    1 type  1   force =     0.00000000   -0.00000000   -0.00001359
     atom    2 type  1   force =     0.00000000    0.00000000    0.00001359
     atom    3 type  2   force =     0.00000000    0.00000000   -0.00000000
     atom    4 type  3   force =    -0.00000000    0.00000000    0.00000000
     atom    5 type  4   force =     0.00000000    0.01674752    0.01184478
     atom    6 type  4   force =     0.01450377    0.00837376   -0.01184478
     atom    7 type  4   force =     0.00000000   -0.01674752   -0.01184478
     atom    8 type  4   force =     0.01450377   -0.00837376    0.01184478
     atom    9 type  4   force =    -0.01450377    0.00837376   -0.01184478
     atom   10 type  4   force =    -0.01450377   -0.00837376    0.01184478
     The non-local contrib.  to forces
     atom    1 type  1   force =    -0.00000000   -0.00000000   -0.00000586
     atom    2 type  1   force =     0.00000000    0.00000000    0.00000586
     atom    3 type  2   force =    -0.00000000   -0.00000000    0.00000000
     atom    4 type  3   force =     0.00000000    0.00000000    0.00000000
     atom    5 type  4   force =     0.00000000   -0.04282094   -0.03027748
     atom    6 type  4   force =    -0.03708402   -0.02141047    0.03027748
     atom    7 type  4   force =     0.00000000    0.04282094    0.03027748
     atom    8 type  4   force =    -0.03708402    0.02141047   -0.03027748
     atom    9 type  4   force =     0.03708402   -0.02141047    0.03027748
     atom   10 type  4   force =     0.03708402    0.02141047   -0.03027748
     The ionic contribution  to forces
     atom    1 type  1   force =    -0.00000000    0.00000000    0.00000000
     atom    2 type  1   force =    -0.00000000   -0.00000000    0.00000000
     atom    3 type  2   force =     0.00000000   -0.00000000   -0.00000000
     atom    4 type  3   force =    -0.00000000    0.00000000   -0.00000000
     atom    5 type  4   force =    -0.00000000    3.40921932    2.41068210
     atom    6 type  4   force =     2.95247054    1.70460966   -2.41068210
     atom    7 type  4   force =    -0.00000000   -3.40921932   -2.41068210
     atom    8 type  4   force =     2.95247054   -1.70460966    2.41068210
     atom    9 type  4   force =    -2.95247054    1.70460966   -2.41068210
     atom   10 type  4   force =    -2.95247054   -1.70460966    2.41068210
     The local contribution  to forces
     atom    1 type  1   force =     0.00002798   -0.00001238   -0.00003360
     atom    2 type  1   force =    -0.00009480    0.00004036    0.00001288
     atom    3 type  2   force =     0.00009866   -0.00006830    0.00000902
     atom    4 type  3   force =     0.00000645    0.00002606    0.00004871
     atom    5 type  4   force =     0.00009147   -3.34985020   -2.36874015
     atom    6 type  4   force =    -2.90106140   -1.67479728    2.36869279
     atom    7 type  4   force =    -0.00005308    3.34981312    2.36873470
     atom    8 type  4   force =    -2.90111191    1.67493179   -2.36864178
     atom    9 type  4   force =     2.90099633   -1.67486646    2.36853552
     atom   10 type  4   force =     2.90106420    1.67484103   -2.36867662
     The core correction contribution to forces
     atom    1 type  1   force =    -0.00000040    0.00000050   -0.00000006
     atom    2 type  1   force =    -0.00000016   -0.00000097   -0.00000015
     atom    3 type  2   force =     0.00000121   -0.00000167   -0.00000270
     atom    4 type  3   force =     0.00000027    0.00000042    0.00000207
     atom    5 type  4   force =     0.00000095    0.00058468    0.00041303
     atom    6 type  4   force =     0.00050709    0.00029487   -0.00041388
     atom    7 type  4   force =    -0.00000050   -0.00058575   -0.00041339
     atom    8 type  4   force =     0.00050667   -0.00029249    0.00041454
     atom    9 type  4   force =    -0.00050853    0.00029313   -0.00041586
     atom   10 type  4   force =    -0.00050793   -0.00029275    0.00041412
     The Hubbard contrib.    to forces
     atom    1 type  1   force =     0.00000000    0.00000000    0.00000000
     atom    2 type  1   force =     0.00000000    0.00000000    0.00000000
     atom    3 type  2   force =     0.00000000    0.00000000    0.00000000
     atom    4 type  3   force =     0.00000000    0.00000000    0.00000000
     atom    5 type  4   force =     0.00000000    0.00000000    0.00000000
     atom    6 type  4   force =     0.00000000    0.00000000    0.00000000
     atom    7 type  4   force =     0.00000000    0.00000000    0.00000000
     atom    8 type  4   force =     0.00000000    0.00000000    0.00000000
     atom    9 type  4   force =     0.00000000    0.00000000    0.00000000
     atom   10 type  4   force =     0.00000000    0.00000000    0.00000000
     The SCF correction term to forces
     atom    1 type  1   force =    -0.00005739    0.00003065    0.00001814
     atom    2 type  1   force =     0.00009494   -0.00006516   -0.00001281
     atom    3 type  2   force =    -0.00020816    0.00013032   -0.00004849
     atom    4 type  3   force =    -0.00000708   -0.00004902   -0.00005768
     atom    5 type  4   force =    -0.00009439   -0.00041341   -0.00025907
     atom    6 type  4   force =    -0.00031995   -0.00029668    0.00027676
     atom    7 type  4   force =     0.00004475    0.00043961    0.00024849
     atom    8 type  4   force =    -0.00027640    0.00018760   -0.00032007
     atom    9 type  4   force =     0.00036077   -0.00024890    0.00041885
     atom   10 type  4   force =     0.00032270    0.00029924   -0.00029907

     Total force =     0.050246     Total SCF correction =     0.001312

     Computing stress (Cartesian axis) and pressure

     negative rho (up, down):  1.428E-01 0.000E+00
          total   stress  (Ry/bohr**3)                   (kbar)     P=        8.10
   0.00005505  -0.00000000  -0.00000000            8.10       -0.00       -0.00
  -0.00000000   0.00005505  -0.00000000           -0.00        8.10       -0.00
  -0.00000000  -0.00000000   0.00005503           -0.00       -0.00        8.10

     kinetic stress (kbar)   6524.98     -0.00      0.00
                                0.00   6524.98     -0.00
                                0.00     -0.00   6524.99

     local   stress (kbar)  -5142.90     -0.00     -0.00
                               -0.00  -5142.90      0.00
                               -0.00      0.00  -5142.90

     nonloc. stress (kbar)   4365.86      0.00     -0.00
                                0.00   4365.86     -0.00
                                0.00     -0.00   4365.86

     hartree stress (kbar)   3482.67      0.00      0.00
                                0.00   3482.68     -0.00
                                0.00     -0.00   3482.68

     exc-cor stress (kbar)   4371.60      0.00     -0.00
                                0.00   4371.60      0.00
                               -0.00      0.00   4371.60

     corecor stress (kbar)  -6672.71     -0.00     -0.00
                               -0.00  -6672.71      0.00
                               -0.00      0.00  -6672.71

     ewald   stress (kbar)  -6921.42     -0.00     -0.00
                               -0.00  -6921.42     -0.00
                               -0.00     -0.00  -6921.42

     hubbard stress (kbar)      0.00      0.00      0.00
                                0.00      0.00      0.00
                                0.00      0.00      0.00

     DFT-D   stress (kbar)      0.00      0.00      0.00
                                0.00      0.00      0.00
                                0.00      0.00      0.00

     XDM     stress (kbar)      0.00      0.00      0.00
                                0.00      0.00      0.00
                                0.00      0.00      0.00

     dft-nl  stress (kbar)      0.00      0.00      0.00
                                0.00      0.00      0.00
                                0.00      0.00      0.00

     TS-vdW  stress (kbar)      0.00      0.00      0.00
                                0.00      0.00      0.00
                                0.00      0.00      0.00

[...]

                                0.00      0.00      0.00

     Writing all to output data dir new_calculations/myprefix.save/

     General routines

     Parallel routines

     PAW routines

   This run was terminated on:   2:15:51  21May2023

   JOB DONE.