     Program PWSCF v.7.0 starts on 20May2023 at 21:23:16

     Reading input from espresso_16623.pwi
Warning: card &CELL ignored
Warning: card / ignored

     Current dimensions of program PWSCF are:
     Max number of different atomic species (ntypx) = 10
     Max number of k-points (npk) =  40000
     Max angular momentum in pseudopotentials (lmaxx) =  4
     file O.pbe-n-kjpaw_psl.0.1.UPF: wavefunction(s)  2P renormalized

     gamma-point specific algorithms are used
     Message from routine setup:
     using ibrav=0 with symmetry is DISCOURAGED, use correct ibrav instead

     Subspace diagonalization in iterative solution of the eigenvalue problem:
     a serial algorithm will be used

     Using Slab Decomposition

     bravais-lattice index     =            0
     lattice parameter (alat)  =       7.3716  a.u.
     unit-cell volume          =    1762.0890 (a.u.)^3
     number of atoms/cell      =           10
     number of atomic types    =            3
     number of electrons       =        80.00
     number of Kohn-Sham states=           48
     kinetic-energy cutoff     =      30.0000  Ry
     charge density cutoff     =     240.0000  Ry
     scf convergence threshold =      1.0E-06
     mixing beta               =       0.7000
     number of iterations used =            8  plain     mixing
     Exchange-correlation= SLA  PW   PBX  PBC
                           (   1   4   3   4   0   0   0)

     celldm(1)=   7.371565  celldm(2)=   0.000000  celldm(3)=   0.000000
     celldm(4)=   0.000000  celldm(5)=   0.000000  celldm(6)=   0.000000

     crystal axes: (cart. coord. in units of alat)
               a(1) = (   1.000000   0.000000   0.000000 )
               a(2) = (   0.000000   1.976596   0.000000 )
               a(3) = (   0.000000   0.000000   2.225517 )

     reciprocal axes: (cart. coord. in units 2 pi/alat)
               b(1) = (  1.000000  0.000000  0.000000 )
               b(2) = (  0.000000  0.505920  0.000000 )
               b(3) = (  0.000000  0.000000  0.449334 )

     PseudoPot. # 1 for W  read from file:
     /home/pragov/projects/rrg-bengioy-ad/pragov/crystal_structure_design/SSSP/W_pbe_v1.2.uspp.F.UPF
     MD5 check sum: 9c083fa34c2a2ea0f02f1f893e16e1c8
     Pseudo is Ultrasoft + core correction, Zval = 14.0
     Generated by new atomic code, or converted to UPF format
     Using radial grid of  923 points,  8 beta functions with:
                l(1) =   0
                l(2) =   0
                l(3) =   0
                l(4) =   1
                l(5) =   1
                l(6) =   2
                l(7) =   2
                l(8) =   3
     Q(r) pseudized with  6 coefficients,  rinner =    1.350   1.350   1.350
                                                       1.350   1.350   1.350
                                                       1.350

     PseudoPot. # 2 for Br read from file:
     /home/pragov/projects/rrg-bengioy-ad/pragov/crystal_structure_design/SSSP/br_pbe_v1.4.uspp.F.UPF
     MD5 check sum: d3ffb7b29f6225aa16fe06858fb2a80b
     Pseudo is Ultrasoft + core correction, Zval =  7.0
     Generated by new atomic code, or converted to UPF format
     Using radial grid of  879 points,  6 beta functions with:
                l(1) =   0
                l(2) =   0
                l(3) =   1
                l(4) =   1
                l(5) =   2
                l(6) =   2
     Q(r) pseudized with  8 coefficients,  rinner =    1.100   1.100   1.100
                                                       1.100   1.100

     PseudoPot. # 3 for O  read from file:
     /home/pragov/projects/rrg-bengioy-ad/pragov/crystal_structure_design/SSSP/O.pbe-n-kjpaw_psl.0.1.UPF
     MD5 check sum: 0234752ac141de4415c5fc33072bef88
     Pseudo is Projector augmented-wave + core cor, Zval =  6.0
     Generated using "atomic" code by A. Dal Corso  v.5.0.99 svn rev. 10869
     Shape of augmentation charge: BESSEL
     Using radial grid of 1095 points,  4 beta functions with:
                l(1) =   0
                l(2) =   0
                l(3) =   1
                l(4) =   1
     Q(r) pseudized with 0 coefficients

     atomic species   valence    mass     pseudopotential
        W             14.00   183.84000     W ( 1.00)
        Br             7.00    79.90400     Br( 1.00)
        O              6.00    15.99900     O ( 1.00)

      4 Sym. Ops. (no inversion) found ( 2 have fractional translation)

                                    s                        frac. trans.

      isym =  1     identity

 cryst.   s( 1) = (     1          0          0      )
                  (     0          1          0      )
                  (     0          0          1      )

 cart.    s( 1) = (  1.0000000  0.0000000  0.0000000 )
                  (  0.0000000  1.0000000  0.0000000 )
                  (  0.0000000  0.0000000  1.0000000 )

      isym =  2     180 deg rotation - cart. axis [0,1,0]

 cryst.   s( 2) = (    -1          0          0      )    f =(  0.0000000 )
                  (     0          1          0      )       (  0.5000000 )
                  (     0          0         -1      )       (  0.0000000 )

 cart.    s( 2) = ( -1.0000000  0.0000000  0.0000000 )    f =(  0.0000000 )
                  (  0.0000000  1.0000000  0.0000000 )       (  0.9882980 )
                  (  0.0000000  0.0000000 -1.0000000 )       (  0.0000000 )

      isym =  3     inv. 180 deg rotation - cart. axis [0,0,1]

 cryst.   s( 3) = (     1          0          0      )
                  (     0          1          0      )
                  (     0          0         -1      )

 cart.    s( 3) = (  1.0000000  0.0000000  0.0000000 )
                  (  0.0000000  1.0000000  0.0000000 )
                  (  0.0000000  0.0000000 -1.0000000 )

      isym =  4     inv. 180 deg rotation - cart. axis [1,0,0]

 cryst.   s( 4) = (    -1          0          0      )    f =(  0.0000000 )
                  (     0          1          0      )       (  0.5000000 )
                  (     0          0          1      )       (  0.0000000 )

 cart.    s( 4) = ( -1.0000000  0.0000000  0.0000000 )    f =(  0.0000000 )
                  (  0.0000000  1.0000000  0.0000000 )       (  0.9882980 )
                  (  0.0000000  0.0000000  1.0000000 )       (  0.0000000 )

   Cartesian axes

     site n.     atom                  positions (alat units)
         1           W   tau(   1) = (   0.9526220   0.0352822   0.0000000  )
         2           W   tau(   2) = (   0.0473780   1.0235802   0.0000000  )
         3           Br  tau(   3) = (   0.0082970   0.0854957   0.6316462  )
         4           Br  tau(   4) = (   0.0082970   0.0854957   1.5938707  )
         5           Br  tau(   5) = (   0.9917030   1.0737937   0.6316462  )
         6           Br  tau(   6) = (   0.9917030   1.0737937   1.5938707  )
         7           O   tau(   7) = (   0.4940470   0.0672557   0.0000000  )
         8           O   tau(   8) = (   0.0036870   0.5623336   0.0000000  )
         9           O   tau(   9) = (   0.5059530   1.0555536   0.0000000  )
        10           O   tau(  10) = (   0.9963130   1.5506316   0.0000000  )

   Crystallographic axes

     site n.     atom                  positions (cryst. coord.)
         1           W   tau(   1) = (  0.9526220  0.0178500  0.0000000  )
         2           W   tau(   2) = (  0.0473780  0.5178500  0.0000000  )
         3           Br  tau(   3) = (  0.0082970  0.0432540  0.2838200  )
         4           Br  tau(   4) = (  0.0082970  0.0432540  0.7161800  )
         5           Br  tau(   5) = (  0.9917030  0.5432540  0.2838200  )
         6           Br  tau(   6) = (  0.9917030  0.5432540  0.7161800  )
         7           O   tau(   7) = (  0.4940470  0.0340260  0.0000000  )
         8           O   tau(   8) = (  0.0036870  0.2844960  0.0000000  )
         9           O   tau(   9) = (  0.5059530  0.5340260  0.0000000  )
        10           O   tau(  10) = (  0.9963130  0.7844960  0.0000000  )

     number of k points=     1  Methfessel-Paxton smearing, width (Ry)=  0.0010
                       cart. coord. in units 2pi/alat
        k(    1) = (   0.0000000   0.0000000   0.0000000), wk =   2.0000000

                       cryst. coord.
        k(    1) = (   0.0000000   0.0000000   0.0000000), wk =   2.0000000

     Check: negative core charge=   -0.000005

     Initial potential from superposition of free atoms

     starting charge      79.7992, renormalised to      80.0000

     negative rho (up, down):  1.273E-01 0.000E+00
     Starting wfcs are   58 randomized atomic wfcs
     Checking if some PAW data can be deallocated...

     Self-consistent Calculation

     iteration #  1     ecut=    30.00 Ry     beta= 0.70
     Davidson diagonalization with overlap

     ethr =  1.00E-02,  avg # of iterations =  2.0

     negative rho (up, down):  1.220E-01 0.000E+00

     total energy              =    -669.84203361 Ry
     estimated scf accuracy    <       3.13111569 Ry

[...]

     total energy              =    -671.55390160 Ry
     estimated scf accuracy    <       0.00000145 Ry

     iteration # 14     ecut=    30.00 Ry     beta= 0.70
     Davidson diagonalization with overlap

     ethr =  1.82E-09,  avg # of iterations =  2.0

[...]

     End of self-consistent calculation

          k = 0.0000 0.0000 0.0000 (  2433 PWs)   bands (ev):

   -72.4803 -72.4795 -36.8414 -36.7782 -36.6921 -36.6898 -36.5518 -36.5488
   -16.0965 -14.8054 -14.6201 -14.5838 -11.4659 -11.3348 -11.1946 -11.0409
    -4.7095  -2.3242  -1.8663  -1.6038  -1.5738  -0.8558  -0.5083  -0.2593
     0.1389   0.2117   0.4131   0.5025   0.7321   0.7372   0.8293   1.2216
     1.2844   1.3808   1.4178   1.8931   1.9282   1.9472   1.9689   2.0308
     4.0352   4.0969   4.3543   4.4209   6.0448   6.1047   6.5677   6.6602

     occupation numbers
     1.0000   1.0000   1.0000   1.0000   1.0000   1.0000   1.0000   1.0000
     1.0000   1.0000   1.0000   1.0000   1.0000   1.0000   1.0000   1.0000
     1.0000   1.0000   1.0000   1.0000   1.0000   1.0000   1.0000   1.0000
     1.0000   1.0000   1.0000   1.0000   1.0000   1.0000   1.0000   1.0000
     1.0000   1.0000   1.0000   1.0000   1.0000   1.0000   1.0000   1.0000
    -0.0000  -0.0000  -0.0000  -0.0000  -0.0000  -0.0000  -0.0000  -0.0000

     the Fermi energy is     3.0738 ev

!    total energy              =    -671.55390180 Ry
     estimated scf accuracy    <       0.00000003 Ry
     smearing contrib. (-TS)   =       0.00000000 Ry
     internal energy E=F+TS    =    -671.55390180 Ry

     The total energy is F=E-TS. E is the sum of the following terms:
     one-electron contribution =    -572.93281107 Ry
     hartree contribution      =     309.27613625 Ry
     xc contribution           =    -216.40659823 Ry
     ewald contribution        =    -153.46080793 Ry
     one-center paw contrib.   =     -38.02982082 Ry
      -> PAW hartree energy AE =     122.81621874 Ry
      -> PAW hartree energy PS =    -122.34720616 Ry
      -> PAW xc energy AE      =     -69.32584749 Ry
      -> PAW xc energy PS      =      30.82701409 Ry
      -> total E_H with PAW    =     309.74514883 Ry
      -> total E_XC with PAW   =    -254.90543163 Ry

     convergence has been achieved in  14 iterations

     negative rho (up, down):  1.254E-01 0.000E+00

     Forces acting on atoms (cartesian axes, Ry/au):

     atom    1 type  1   force =    -0.31244810   -0.26768706    0.00000000
     atom    2 type  1   force =     0.31244810   -0.26768706   -0.00000000
     atom    3 type  2   force =     0.02595981    0.00164986   -0.05166968
     atom    4 type  2   force =     0.02595981    0.00164986    0.05166968
     atom    5 type  2   force =    -0.02595981    0.00164986   -0.05166968
     atom    6 type  2   force =    -0.02595981    0.00164986    0.05166968
     atom    7 type  3   force =     0.22039880    0.18198406    0.00000000
     atom    8 type  3   force =    -0.01523219    0.08240328    0.00000000
     atom    9 type  3   force =    -0.22039880    0.18198406   -0.00000000
     atom   10 type  3   force =     0.01523219    0.08240328    0.00000000
     The non-local contrib.  to forces
     atom    1 type  1   force =     0.19856968   -0.02495490    0.00000000
     atom    2 type  1   force =    -0.19856968   -0.02495490    0.00000000
     atom    3 type  2   force =    -0.00173553    0.00261703   -0.01628611
     atom    4 type  2   force =    -0.00173553    0.00261703    0.01628611
     atom    5 type  2   force =     0.00173553    0.00261703   -0.01628611
     atom    6 type  2   force =     0.00173553    0.00261703    0.01628611
     atom    7 type  3   force =     0.66290997   -0.55808312    0.00000000
     atom    8 type  3   force =    -0.03817272    0.46436861    0.00000000
     atom    9 type  3   force =    -0.66290997   -0.55808312    0.00000000
     atom   10 type  3   force =     0.03817272    0.46436861    0.00000000
     The ionic contribution  to forces
     atom    1 type  1   force =     1.77010930    1.78454536   -0.00000000
     atom    2 type  1   force =    -1.77010930    1.78454536   -0.00000000
     atom    3 type  2   force =     0.34586504    0.32721088   18.44600951
     atom    4 type  2   force =     0.34586504    0.32721088  -18.44600951
     atom    5 type  2   force =    -0.34586504    0.32721088   18.44600951
     atom    6 type  2   force =    -0.34586504    0.32721088  -18.44600951
     atom    7 type  3   force =    -4.12641531    1.03507148    0.00000000
     atom    8 type  3   force =    -0.33104114   -3.47403860    0.00000000
     atom    9 type  3   force =     4.12641531    1.03507148    0.00000000
     atom   10 type  3   force =     0.33104114   -3.47403860    0.00000000
     The local contribution  to forces
     atom    1 type  1   force =    -2.30944227   -2.01220661    0.00003780
     atom    2 type  1   force =     2.30936644   -2.01246746    0.00021221
     atom    3 type  2   force =    -0.31882575   -0.33086613  -18.49911371
     atom    4 type  2   force =    -0.31882785   -0.33085888   18.49907277
     atom    5 type  2   force =     0.31882027   -0.33085969  -18.49906221
     atom    6 type  2   force =     0.31881481   -0.33086566   18.49906429
     atom    7 type  3   force =     3.68892663   -0.30191018   -0.00002252
     atom    8 type  3   force =     0.35318472    3.09485748    0.00002120
     atom    9 type  3   force =    -3.68882037   -0.30193366    0.00012841
     atom   10 type  3   force =    -0.35324032    3.09509496    0.00004691
     The core correction contribution to forces
     atom    1 type  1   force =     0.02825772   -0.01495072    0.00000102
     atom    2 type  1   force =    -0.02826091   -0.01495696    0.00000428
     atom    3 type  2   force =     0.00065105    0.00267072    0.01773008
     atom    4 type  2   force =     0.00065136    0.00267025   -0.01773227
     atom    5 type  2   force =    -0.00065142    0.00267054    0.01772790
     atom    6 type  2   force =    -0.00065054    0.00267073   -0.01773153
     atom    7 type  3   force =    -0.00491636    0.00687367   -0.00000013
     atom    8 type  3   force =     0.00077759   -0.00289925   -0.00000011
     atom    9 type  3   force =     0.00491627    0.00687397    0.00000021
     atom   10 type  3   force =    -0.00077789   -0.00290015    0.00000004
     The Hubbard contrib.    to forces
     atom    1 type  1   force =     0.00000000    0.00000000    0.00000000
     atom    2 type  1   force =     0.00000000    0.00000000    0.00000000
     atom    3 type  2   force =     0.00000000    0.00000000    0.00000000
     atom    4 type  2   force =     0.00000000    0.00000000    0.00000000
     atom    5 type  2   force =     0.00000000    0.00000000    0.00000000
     atom    6 type  2   force =     0.00000000    0.00000000    0.00000000
     atom    7 type  3   force =     0.00000000    0.00000000    0.00000000
     atom    8 type  3   force =     0.00000000    0.00000000    0.00000000
     atom    9 type  3   force =     0.00000000    0.00000000    0.00000000
     atom   10 type  3   force =     0.00000000    0.00000000    0.00000000
     The SCF correction term to forces
     atom    1 type  1   force =     0.00006404   -0.00013466   -0.00004217
     atom    2 type  1   force =     0.00002812    0.00013919   -0.00028923
     atom    3 type  2   force =     0.00000466    0.00001095   -0.00001199
     atom    4 type  2   force =     0.00000450    0.00000555    0.00006561
     atom    5 type  2   force =     0.00000186   -0.00000376   -0.00002513
     atom    6 type  2   force =     0.00000177   -0.00000111    0.00007841
     atom    7 type  3   force =    -0.00010486    0.00001444    0.00001637
     atom    8 type  3   force =     0.00001135    0.00013806   -0.00004026
     atom    9 type  3   force =     0.00000124    0.00005099   -0.00012179
     atom   10 type  3   force =     0.00002854   -0.00016670   -0.00005031

     Total force =     0.727584     Total SCF correction =     0.000469

     Computing stress (Cartesian axis) and pressure

     negative rho (up, down):  1.254E-01 0.000E+00
          total   stress  (Ry/bohr**3)                   (kbar)     P=      -36.05
   0.00113484   0.00000000   0.00000000          166.94        0.00        0.00
   0.00000000  -0.00077666   0.00000000            0.00     -114.25        0.00
   0.00000000   0.00000000  -0.00109335            0.00        0.00     -160.84

     kinetic stress (kbar)  11218.83      0.00      0.00
                                0.00  10906.18      0.00
                                0.00      0.00  10848.99

     local   stress (kbar) -31415.67     -0.00     -0.01
                               -0.00 -31713.70     -0.00
                               -0.01     -0.00  34529.82

     nonloc. stress (kbar)  -2821.43      0.00      0.00
                                0.00  -2854.06      0.00
                                0.00      0.00  -2858.32

     hartree stress (kbar)  18944.88      0.00      0.00
                                0.00  19040.81      0.00
                                0.00      0.00 -12166.28

     exc-cor stress (kbar)   8379.63     -0.00      0.00
                               -0.00   8383.49     -0.00
                                0.00     -0.00   8379.85

     corecor stress (kbar) -11374.13      0.00     -0.00
                                0.00 -11364.24      0.00
                               -0.00      0.00 -11361.38

     ewald   stress (kbar)   7234.82     -0.00     -0.00
                               -0.00   7487.27     -0.00
                               -0.00     -0.00 -27533.51

     hubbard stress (kbar)      0.00      0.00      0.00
                                0.00      0.00      0.00
                                0.00      0.00      0.00

     DFT-D   stress (kbar)      0.00      0.00      0.00
                                0.00      0.00      0.00
                                0.00      0.00      0.00

     XDM     stress (kbar)      0.00      0.00      0.00
                                0.00      0.00      0.00
                                0.00      0.00      0.00

     dft-nl  stress (kbar)      0.00      0.00      0.00
                                0.00      0.00      0.00
                                0.00      0.00      0.00

     TS-vdW  stress (kbar)      0.00      0.00      0.00
                                0.00      0.00      0.00
                                0.00      0.00      0.00

[...]

                                0.00      0.00      0.00

     Writing all to output data dir new_calculations/myprefix.save/

     General routines

     Parallel routines

     PAW routines

   This run was terminated on:  21:24: 1  20May2023

   JOB DONE.