     Program PWSCF v.7.0 starts on 20May2023 at 10:29:17

     Reading input from espresso_18241.pwi
Warning: card &CELL ignored
Warning: card / ignored

     Current dimensions of program PWSCF are:
     Max number of different atomic species (ntypx) = 10
     Max number of k-points (npk) =  40000
     Max angular momentum in pseudopotentials (lmaxx) =  4

     gamma-point specific algorithms are used
     Message from routine setup:
     using ibrav=0 with symmetry is DISCOURAGED, use correct ibrav instead

     Subspace diagonalization in iterative solution of the eigenvalue problem:
     a serial algorithm will be used

     Using Slab Decomposition

     bravais-lattice index     =            0
     lattice parameter (alat)  =      15.9908  a.u.
     unit-cell volume          =    3508.9472 (a.u.)^3
     number of atoms/cell      =           14
     number of atomic types    =            3
     number of electrons       =       148.00
     number of Kohn-Sham states=           89
     kinetic-energy cutoff     =      30.0000  Ry
     charge density cutoff     =     240.0000  Ry
     scf convergence threshold =      1.0E-06
     mixing beta               =       0.7000
     number of iterations used =            8  plain     mixing
     Exchange-correlation= SLA  PW   PBE  PBE
                           (   1   4   3   4   0   0   0)

     celldm(1)=  15.990797  celldm(2)=   0.000000  celldm(3)=   0.000000
     celldm(4)=   0.000000  celldm(5)=   0.000000  celldm(6)=   0.000000

     crystal axes: (cart. coord. in units of alat)
               a(1) = (   1.000000   0.000000   0.000000 )
               a(2) = (  -0.300574   0.953759   0.000000 )
               a(3) = (   0.016359   0.022308   0.899763 )

     reciprocal axes: (cart. coord. in units 2 pi/alat)
               b(1) = (  1.000000  0.315147 -0.025996 )
               b(2) = (  0.000000  1.048483 -0.025996 )
               b(3) = (  0.000000  0.000000  1.111404 )

     PseudoPot. # 1 for Cs read from file:
     /home/pragov/projects/rrg-bengioy-ad/pragov/crystal_structure_design/SSSP/Cs_pbe_v1.uspp.F.UPF
     MD5 check sum: 3476d69cb178dfad3ffaa59df4e07ca4
     Pseudo is Ultrasoft + core correction, Zval =  9.0
     Generated by new atomic code, or converted to UPF format
     Using radial grid of  905 points,  6 beta functions with:
                l(1) =   0
                l(2) =   0
                l(3) =   1
                l(4) =   1
                l(5) =   2
                l(6) =   2
     Q(r) pseudized with  6 coefficients,  rinner =    1.500   1.500   1.500
                                                       1.500   1.500

     PseudoPot. # 2 for Au read from file:
     /home/pragov/projects/rrg-bengioy-ad/pragov/crystal_structure_design/SSSP/Au_ONCV_PBE-1.0.oncvpsp.upf
     MD5 check sum: d14007822ba0e19f0206237467fc06c2
     Pseudo is Norm-conserving, Zval = 19.0
     Generated using ONCVPSP code by D. R. Hamann
     Using radial grid of 1278 points,  8 beta functions with:
                l(1) =   0
                l(2) =   0
                l(3) =   1
                l(4) =   1
                l(5) =   2
                l(6) =   2
                l(7) =   3
                l(8) =   3

     PseudoPot. # 3 for Se read from file:
     /home/pragov/projects/rrg-bengioy-ad/pragov/crystal_structure_design/SSSP/Se_pbe_v1.uspp.F.UPF
     MD5 check sum: 1b3568f3a8ae88f9a2a0ad0698632c85
     Pseudo is Ultrasoft + core correction, Zval =  6.0
     Generated by new atomic code, or converted to UPF format
     Using radial grid of  877 points,  6 beta functions with:
                l(1) =   0
                l(2) =   0
                l(3) =   1
                l(4) =   1
                l(5) =   2
                l(6) =   2
     Q(r) pseudized with  8 coefficients,  rinner =    1.300   1.300   1.300
                                                       1.300   1.300

     atomic species   valence    mass     pseudopotential
        Cs             9.00   132.90545     Cs( 1.00)
        Au            19.00   196.96657     Au( 1.00)
        Se             6.00    78.97100     Se( 1.00)

      2 Sym. Ops., with inversion, found

                                    s                        frac. trans.

      isym =  1     identity

 cryst.   s( 1) = (     1          0          0      )
                  (     0          1          0      )
                  (     0          0          1      )

 cart.    s( 1) = (  1.0000000 -0.0000000 -0.0000000 )
                  (  0.0000000  1.0000000  0.0000000 )
                  (  0.0000000  0.0000000  1.0000000 )

      isym =  2     inversion

 cryst.   s( 2) = (    -1          0          0      )
                  (     0         -1          0      )
                  (     0          0         -1      )

 cart.    s( 2) = ( -1.0000000  0.0000000  0.0000000 )
                  (  0.0000000 -1.0000000 -0.0000000 )
                  (  0.0000000  0.0000000 -1.0000000 )

   Cartesian axes

     site n.     atom                  positions (alat units)
         1           Cs  tau(   1) = (   0.6788518   0.6395817   0.5695121  )
         2           Cs  tau(   2) = (   0.3977817   0.8285481   0.1196307  )
         3           Cs  tau(   3) = (   0.0369339   0.3364851   0.3302508  )
         4           Cs  tau(   4) = (   0.3180039   0.1475188   0.7801322  )
         5           Au  tau(   5) = (   0.1290421   0.7528016   0.4871586  )
         6           Au  tau(   6) = (   0.6710246   0.3381933   0.0372772  )
         7           Au  tau(   7) = (   0.5867436   0.2232652   0.4126042  )
         8           Au  tau(   8) = (   0.0447611   0.6378735   0.8624857  )
         9           Se  tau(   9) = (   0.8824948   0.2728443   0.7415009  )
        10           Se  tau(  10) = (   0.4614710   0.4034994   0.2249407  )
        11           Se  tau(  11) = (   0.2543147   0.5725674   0.6748221  )
        12           Se  tau(  12) = (  -0.0132069   0.9125427   0.2916194  )
        13           Se  tau(  13) = (   0.7289926   0.0635242   0.6081434  )
        14           Se  tau(  14) = (  -0.1667091   0.7032225   0.1582620  )

   Crystallographic axes

     site n.     atom                  positions (cryst. coord.)
         1           Cs  tau(   1) = (  0.8656090  0.6557860  0.6329580  )
         2           Cs  tau(   2) = (  0.6557860  0.8656090  0.1329580  )
         3           Cs  tau(   3) = (  0.1343910  0.3442140  0.3670420  )
         4           Cs  tau(   4) = (  0.3442140  0.1343910  0.8670420  )
         5           Au  tau(   5) = (  0.3536210  0.7766360  0.5414300  )
         6           Au  tau(   6) = (  0.7766360  0.3536210  0.0414300  )
         7           Au  tau(   7) = (  0.6463790  0.2233640  0.4585700  )
         8           Au  tau(   8) = (  0.2233640  0.6463790  0.9585700  )
         9           Se  tau(   9) = (  0.9492050  0.2667970  0.8241070  )
        10           Se  tau(  10) = (  0.5827850  0.4172150  0.2500000  )
        11           Se  tau(  11) = (  0.4172150  0.5827850  0.7500000  )
        12           Se  tau(  12) = (  0.2667970  0.9492050  0.3241070  )
        13           Se  tau(  13) = (  0.7332030  0.0507950  0.6758930  )
        14           Se  tau(  14) = (  0.0507950  0.7332030  0.1758930  )

     number of k points=     1  Methfessel-Paxton smearing, width (Ry)=  0.0010
                       cart. coord. in units 2pi/alat
        k(    1) = (   0.0000000   0.0000000   0.0000000), wk =   2.0000000

                       cryst. coord.
        k(    1) = (   0.0000000   0.0000000   0.0000000), wk =   2.0000000

     Initial potential from superposition of free atoms

     starting charge     147.8417, renormalised to     148.0000
     Starting wfcs are  116 randomized atomic wfcs

     Self-consistent Calculation

     iteration #  1     ecut=    30.00 Ry     beta= 0.70
     Davidson diagonalization with overlap

     ethr =  1.00E-02,  avg # of iterations =  4.0

     Threshold (ethr) on eigenvalues was too large:
     Diagonalizing with lowered threshold

     Davidson diagonalization with overlap

[...]

     total energy              =   -1612.67411903 Ry
     estimated scf accuracy    <       0.26528245 Ry

[...]

     total energy              =   -1612.73760192 Ry
     estimated scf accuracy    <       0.00000948 Ry

     iteration #  8     ecut=    30.00 Ry     beta= 0.70
     Davidson diagonalization with overlap

     ethr =  6.41E-09,  avg # of iterations =  5.0

     End of self-consistent calculation

          k = 0.0000 0.0000 0.0000 (  4867 PWs)   bands (ev):

  -100.0871-100.0869-100.0867-100.0864 -51.3950 -51.3939 -51.3913 -51.3907
   -50.9826 -50.9823 -50.9821 -50.9816 -50.9636 -50.9633 -50.9612 -50.9607
   -16.1161 -16.0983 -16.0965 -16.0867  -8.2247  -8.1827  -6.9029  -6.8626
    -6.1112  -6.0417  -3.1492  -3.1443  -3.0396  -2.9994  -2.9738  -2.9436
    -2.9349  -2.9227  -2.9101  -2.8889  -2.8563  -2.8339   0.3090   0.3116
     0.4071   0.4231   1.1360   1.1572   1.5422   1.5639   1.6784   1.7492
     2.0203   2.0528   2.3482   2.4567   2.4813   2.4886   2.5029   2.6559
     2.6610   2.6741   2.7296   2.8181   2.8565   3.0871   3.1504   3.1586
     3.3460   3.4177   3.5234   3.7363   4.2707   4.6328   4.7057   4.7496
     4.7947   4.8734   7.0056   7.4044   7.6117   7.8874   8.3932   8.5458
     8.6620   8.7565   9.0699   9.3727   9.5301   9.6566   9.8171   9.9811
    10.0608

     occupation numbers
     1.0000   1.0000   1.0000   1.0000   1.0000   1.0000   1.0000   1.0000
     1.0000   1.0000   1.0000   1.0000   1.0000   1.0000   1.0000   1.0000
     1.0000   1.0000   1.0000   1.0000   1.0000   1.0000   1.0000   1.0000
     1.0000   1.0000   1.0000   1.0000   1.0000   1.0000   1.0000   1.0000
     1.0000   1.0000   1.0000   1.0000   1.0000   1.0000   1.0000   1.0000
     1.0000   1.0000   1.0000   1.0000   1.0000   1.0000   1.0000   1.0000
     1.0000   1.0000   1.0000   1.0000   1.0000   1.0000   1.0000   1.0000
     1.0000   1.0000   1.0000   1.0000   1.0000   1.0000   1.0000   1.0000
     1.0000   1.0000   1.0000   1.0000   1.0000   1.0000   1.0000   1.0000
     1.0000   1.0000  -0.0000  -0.0000  -0.0000  -0.0000  -0.0000  -0.0000
    -0.0000  -0.0000  -0.0000  -0.0000  -0.0000  -0.0000  -0.0000  -0.0000
    -0.0000

     the Fermi energy is     6.7463 ev

!    total energy              =   -1612.73760506 Ry
     estimated scf accuracy    <       0.00000038 Ry
     smearing contrib. (-TS)   =       0.00000000 Ry
     internal energy E=F+TS    =   -1612.73760506 Ry

     The total energy is F=E-TS. E is the sum of the following terms:
     one-electron contribution =   -1028.23138550 Ry
     hartree contribution      =     539.82762540 Ry
     xc contribution           =    -400.31201959 Ry
     ewald contribution        =    -724.02182538 Ry

     convergence has been achieved in   8 iterations

     Forces acting on atoms (cartesian axes, Ry/au):

     atom    1 type  1   force =    -0.00284178   -0.00082192   -0.00109190
     atom    2 type  1   force =     0.00007949   -0.00295679   -0.00109419
     atom    3 type  1   force =     0.00284178    0.00082192    0.00109190
     atom    4 type  1   force =    -0.00007949    0.00295679    0.00109419
     atom    5 type  2   force =    -0.00094798    0.00495408    0.00145488
     atom    6 type  2   force =     0.00501563    0.00056797    0.00145071
     atom    7 type  2   force =     0.00094798   -0.00495408   -0.00145488
     atom    8 type  2   force =    -0.00501563   -0.00056797   -0.00145071
     atom    9 type  3   force =    -0.00457378    0.00912016    0.00665122
     atom   10 type  3   force =     0.00858770   -0.00629960    0.00000260
     atom   11 type  3   force =    -0.00858770    0.00629960   -0.00000260
     atom   12 type  3   force =     0.01008329   -0.00161807    0.00665407
     atom   13 type  3   force =    -0.01008329    0.00161807   -0.00665407
     atom   14 type  3   force =     0.00457378   -0.00912016   -0.00665122
     The non-local contrib.  to forces
     atom    1 type  1   force =     0.00668068    0.00537493   -0.00700943
     atom    2 type  1   force =     0.00307335    0.00798954   -0.00701290
     atom    3 type  1   force =    -0.00668068   -0.00537493    0.00700943
     atom    4 type  1   force =    -0.00307335   -0.00798954    0.00701290
     atom    5 type  2   force =     0.00590575    0.04144307   -0.01201734
     atom    6 type  2   force =     0.03773226    0.01806974   -0.01201875
     atom    7 type  2   force =    -0.00590575   -0.04144307    0.01201734
     atom    8 type  2   force =    -0.03773226   -0.01806974    0.01201875
     atom    9 type  3   force =    -0.30926217   -0.12389774    0.09440656
     atom   10 type  3   force =     0.27776220   -0.20367781    0.00000783
     atom   11 type  3   force =    -0.27776220    0.20367781   -0.00000783
     atom   12 type  3   force =    -0.02522384   -0.33220433    0.09439958
     atom   13 type  3   force =     0.02522384    0.33220433   -0.09439958
     atom   14 type  3   force =     0.30926217    0.12389774   -0.09440656
     The ionic contribution  to forces
     atom    1 type  1   force =    -2.76349681    5.24777879   -0.97335047
     atom    2 type  1   force =     5.83574867   -1.05836397   -0.97335047
     atom    3 type  1   force =     2.76349681   -5.24777879    0.97335047
     atom    4 type  1   force =    -5.83574867    1.05836397    0.97335047
     atom    5 type  2   force =     0.61208230   -0.62962364   -4.66467070
     atom    6 type  2   force =    -0.78448483    0.39453037   -4.66467070
     atom    7 type  2   force =    -0.61208230    0.62962364    4.66467070
     atom    8 type  2   force =     0.78448483   -0.39453037    4.66467070
     atom    9 type  3   force =     7.32553787   -4.51400957   -3.42057266
     atom   10 type  3   force =    -8.73730743    6.40738866    0.00000000
     atom   11 type  3   force =     8.73730743   -6.40738866    0.00000000
     atom   12 type  3   force =    -6.50713998    5.63000149   -3.42057266
     atom   13 type  3   force =     6.50713998   -5.63000149    3.42057266
     atom   14 type  3   force =    -7.32553787    4.51400957    3.42057266
     The local contribution  to forces
     atom    1 type  1   force =     2.75469160   -5.25262544    0.97880389
     atom    2 type  1   force =    -5.83780555    1.04852770    0.97885517
     atom    3 type  1   force =    -2.75467031    5.25274471   -0.97882721
     atom    4 type  1   force =     5.83777341   -1.04851098   -0.97883593
     atom    5 type  2   force =    -0.61732134    0.59532279    4.67942057
     atom    6 type  2   force =     0.75316177   -0.41018763    4.67953119
     atom    7 type  2   force =     0.61737821   -0.59544717   -4.67957452
     atom    8 type  2   force =    -0.75309500    0.41025522   -4.67953328
     atom    9 type  3   force =    -7.05792324    4.63206839    3.34435086
     atom   10 type  3   force =     8.50127753   -6.23435771    0.00002004
     atom   11 type  3   force =    -8.50122126    6.23432933   -0.00003236
     atom   12 type  3   force =     6.53937998   -5.33921764    3.34439151
     atom   13 type  3   force =    -6.53940122    5.33923967   -3.34441334
     atom   14 type  3   force =     7.05790700   -4.63205735   -3.34433237
     The core correction contribution to forces
     atom    1 type  1   force =    -0.00075135   -0.00117304    0.00061155
     atom    2 type  1   force =    -0.00089331   -0.00107042    0.00061268
     atom    3 type  1   force =     0.00075275    0.00119033   -0.00061144
     atom    4 type  1   force =     0.00089083    0.00107256   -0.00061369
     atom    5 type  2   force =     0.00000000    0.00000000    0.00000000
     atom    6 type  2   force =     0.00000000    0.00000000    0.00000000
     atom    7 type  2   force =     0.00000000    0.00000000    0.00000000
     atom    8 type  2   force =     0.00000000    0.00000000    0.00000000
     atom    9 type  3   force =     0.03713607    0.01501698   -0.01144871
     atom   10 type  3   force =    -0.03306944    0.02424791   -0.00000139
     atom   11 type  3   force =     0.03307093   -0.02424730    0.00000113
     atom   12 type  3   force =     0.00316296    0.03993134   -0.01144687
     atom   13 type  3   force =    -0.00316316   -0.03993321    0.01144939
     atom   14 type  3   force =    -0.03713451   -0.01501680    0.01145059
     The Hubbard contrib.    to forces
     atom    1 type  1   force =     0.00000000    0.00000000    0.00000000
     atom    2 type  1   force =     0.00000000    0.00000000    0.00000000
     atom    3 type  1   force =     0.00000000    0.00000000    0.00000000
     atom    4 type  1   force =     0.00000000    0.00000000    0.00000000
     atom    5 type  2   force =     0.00000000    0.00000000    0.00000000
     atom    6 type  2   force =     0.00000000    0.00000000    0.00000000
     atom    7 type  2   force =     0.00000000    0.00000000    0.00000000
     atom    8 type  2   force =     0.00000000    0.00000000    0.00000000
     atom    9 type  3   force =     0.00000000    0.00000000    0.00000000
     atom   10 type  3   force =     0.00000000    0.00000000    0.00000000
     atom   11 type  3   force =     0.00000000    0.00000000    0.00000000
     atom   12 type  3   force =     0.00000000    0.00000000    0.00000000
     atom   13 type  3   force =     0.00000000    0.00000000    0.00000000
     atom   14 type  3   force =     0.00000000    0.00000000    0.00000000
     The SCF correction term to forces
     atom    1 type  1   force =     0.00004909   -0.00011149   -0.00015448
     atom    2 type  1   force =    -0.00005986   -0.00004212   -0.00020041
     atom    3 type  1   force =    -0.00004179    0.00010627    0.00016360
     atom    4 type  1   force =     0.00006211    0.00001829    0.00017871
     atom    5 type  2   force =    -0.00162560   -0.00221509   -0.00131296
     atom    6 type  2   force =    -0.00135767   -0.00183709   -0.00141493
     atom    7 type  2   force =     0.00154692    0.00228559    0.00139630
     atom    8 type  2   force =     0.00136270    0.00178436    0.00136922
     atom    9 type  3   force =    -0.00005486   -0.00005384   -0.00007869
     atom   10 type  3   force =    -0.00007143    0.00010251   -0.00002576
     atom   11 type  3   force =     0.00002113   -0.00006842    0.00003458
     atom   12 type  3   force =    -0.00009906   -0.00013514   -0.00011216
     atom   13 type  3   force =     0.00011404    0.00010255    0.00014210
     atom   14 type  3   force =     0.00008444    0.00005073    0.00007062

     Total force =     0.031157     Total SCF correction =     0.005768
     SCF correction compared to forces is large: reduce conv_thr to get better values

     Computing stress (Cartesian axis) and pressure

          total   stress  (Ry/bohr**3)                   (kbar)     P=     -134.76
  -0.00092514   0.00001121  -0.00000665         -136.09        1.65       -0.98
   0.00001121  -0.00091814  -0.00000902            1.65     -135.06       -1.33
  -0.00000665  -0.00000902  -0.00090499           -0.98       -1.33     -133.13

     kinetic stress (kbar)  11658.20     61.91     12.63
                               61.91  11697.22     17.22
                               12.63     17.22  11628.47

     local   stress (kbar)  -6349.05  -4482.15   1807.88
                            -4482.15  -9174.15   2465.31
                             1807.88   2465.31 -19398.71

     nonloc. stress (kbar)   4872.46    -29.39    -14.87
                              -29.39   4853.93    -20.28
                              -14.87    -20.28   4882.02

     hartree stress (kbar)   5054.15   2356.90   -757.23
                             2356.90   6539.73  -1032.60
                             -757.23  -1032.60  11037.24

     exc-cor stress (kbar)   7880.99     -2.26     -0.95
                               -2.26   7879.57     -1.29
                               -0.95     -1.29   7882.13

     corecor stress (kbar) -10332.28      3.30      1.81
                                3.30 -10330.20      2.47
                                1.81      2.47 -10332.93

     ewald   stress (kbar) -12920.57   2093.34  -1050.25
                             2093.34 -11601.15  -1432.16
                            -1050.25  -1432.16  -5831.34

     hubbard stress (kbar)      0.00      0.00      0.00
                                0.00      0.00      0.00
                                0.00      0.00      0.00

     DFT-D   stress (kbar)      0.00      0.00      0.00
                                0.00      0.00      0.00
                                0.00      0.00      0.00

     XDM     stress (kbar)      0.00      0.00      0.00
                                0.00      0.00      0.00
                                0.00      0.00      0.00

     dft-nl  stress (kbar)      0.00      0.00      0.00
                                0.00      0.00      0.00
                                0.00      0.00      0.00

     TS-vdW  stress (kbar)      0.00      0.00      0.00
                                0.00      0.00      0.00
                                0.00      0.00      0.00

[...]

                                0.00      0.00      0.00

     Writing all to output data dir new_calculations/myprefix.save/

     General routines

     Parallel routines

   This run was terminated on:  10:29:53  20May2023

   JOB DONE.