     Program PWSCF v.7.0 starts on 20May2023 at  8: 2:50

     Reading input from espresso_19161.pwi
Warning: card &CELL ignored
Warning: card / ignored

     Current dimensions of program PWSCF are:
     Max number of different atomic species (ntypx) = 10
     Max number of k-points (npk) =  40000
     Max angular momentum in pseudopotentials (lmaxx) =  4

     gamma-point specific algorithms are used
     Message from routine setup:
     using ibrav=0 with symmetry is DISCOURAGED, use correct ibrav instead

     Subspace diagonalization in iterative solution of the eigenvalue problem:
     a serial algorithm will be used

     Using Slab Decomposition

     bravais-lattice index     =            0
     lattice parameter (alat)  =      12.4977  a.u.
     unit-cell volume          =     804.0154 (a.u.)^3
     number of atoms/cell      =            7
     number of atomic types    =            3
     number of electrons       =        67.00
     number of Kohn-Sham states=           41
     kinetic-energy cutoff     =      30.0000  Ry
     charge density cutoff     =     240.0000  Ry
     scf convergence threshold =      1.0E-06
     mixing beta               =       0.7000
     number of iterations used =            8  plain     mixing
     Exchange-correlation= SLA  PW   PBE  PBE
                           (   1   4   3   4   0   0   0)

     celldm(1)=  12.497673  celldm(2)=   0.000000  celldm(3)=   0.000000
     celldm(4)=   0.000000  celldm(5)=   0.000000  celldm(6)=   0.000000

     crystal axes: (cart. coord. in units of alat)
               a(1) = (   1.000000   0.000000   0.000000 )
               a(2) = (   0.868215   0.496189   0.000000 )
               a(3) = (   0.404533   0.107442   0.830099 )

     reciprocal axes: (cart. coord. in units 2 pi/alat)
               b(1) = (  1.000000 -1.749766 -0.260854 )
               b(2) = (  0.000000  2.015362 -0.260854 )
               b(3) = (  0.000000  0.000000  1.204676 )

     PseudoPot. # 1 for V  read from file:
     /home/pragov/projects/rrg-bengioy-ad/pragov/crystal_structure_design/SSSP/v_pbe_v1.4.uspp.F.UPF
     MD5 check sum: 22b79981416ebb76fdaf5b1b8640f6fb
     Pseudo is Ultrasoft + core correction, Zval = 13.0
     Generated by new atomic code, or converted to UPF format
     Using radial grid of  853 points,  6 beta functions with:
                l(1) =   0
                l(2) =   0
                l(3) =   1
                l(4) =   1
                l(5) =   2
                l(6) =   2
     Q(r) pseudized with  8 coefficients,  rinner =    1.100   1.100   1.100
                                                       1.100   1.100

     PseudoPot. # 2 for Co read from file:
     /home/pragov/projects/rrg-bengioy-ad/pragov/crystal_structure_design/SSSP/Co_pbe_v1.2.uspp.F.UPF
     MD5 check sum: 5f91765df6ddd3222702df6e7b74a16d
     Pseudo is Ultrasoft + core correction, Zval = 17.0
     Generated by new atomic code, or converted to UPF format
     Using radial grid of  863 points,  6 beta functions with:
                l(1) =   0
                l(2) =   0
                l(3) =   1
                l(4) =   1
                l(5) =   2
                l(6) =   2
     Q(r) pseudized with  8 coefficients,  rinner =    1.200   1.200   1.200
                                                       1.200   1.200

     PseudoPot. # 3 for Se read from file:
     /home/pragov/projects/rrg-bengioy-ad/pragov/crystal_structure_design/SSSP/Se_pbe_v1.uspp.F.UPF
     MD5 check sum: 1b3568f3a8ae88f9a2a0ad0698632c85
     Pseudo is Ultrasoft + core correction, Zval =  6.0
     Generated by new atomic code, or converted to UPF format
     Using radial grid of  877 points,  6 beta functions with:
                l(1) =   0
                l(2) =   0
                l(3) =   1
                l(4) =   1
                l(5) =   2
                l(6) =   2
     Q(r) pseudized with  8 coefficients,  rinner =    1.300   1.300   1.300
                                                       1.300   1.300

     atomic species   valence    mass     pseudopotential
        V             13.00    50.94150     V ( 1.00)
        Co            17.00    58.93319     Co( 1.00)
        Se             6.00    78.97100     Se( 1.00)

      2 Sym. Ops., with inversion, found

                                    s                        frac. trans.

      isym =  1     identity

 cryst.   s( 1) = (     1          0          0      )
                  (     0          1          0      )
                  (     0          0          1      )

 cart.    s( 1) = (  1.0000000  0.0000000  0.0000000 )
                  (  0.0000000  1.0000000  0.0000000 )
                  (  0.0000000  0.0000000  1.0000000 )

      isym =  2     inversion

 cryst.   s( 2) = (    -1          0          0      )
                  (     0         -1          0      )
                  (     0          0         -1      )

 cart.    s( 2) = ( -1.0000000 -0.0000000 -0.0000000 )
                  (  0.0000000 -1.0000000 -0.0000000 )
                  (  0.0000000  0.0000000 -1.0000000 )

   Cartesian axes

     site n.     atom                  positions (alat units)
         1           V   tau(   1) = (   0.7559435   0.2007750   0.5689365  )
         2           V   tau(   2) = (   1.5168038   0.4028558   0.2611624  )
         3           Co  tau(   3) = (   0.0000000   0.0000000   0.0000000  )
         4           Se  tau(   4) = (   1.0757540   0.2857151   0.8099533  )
         5           Se  tau(   5) = (   1.1969933   0.3179157   0.0201457  )
         6           Se  tau(   6) = (   0.4174047   0.1108607   0.4627129  )
         7           Se  tau(   7) = (   1.8553426   0.4927701   0.3673860  )

   Crystallographic axes

     site n.     atom                  positions (cryst. coord.)
         1           V   tau(   1) = (  0.2562250  0.2562250  0.6853840  )
         2           V   tau(   2) = (  0.7437750  0.7437750  0.3146160  )
         3           Co  tau(   3) = (  0.0000000  0.0000000  0.0000000  )
         4           Se  tau(   4) = (  0.3645400  0.3645400  0.9757310  )
         5           Se  tau(   5) = (  0.6354600  0.6354600  0.0242690  )
         6           Se  tau(   6) = (  0.1027240  0.1027240  0.5574190  )
         7           Se  tau(   7) = (  0.8972760  0.8972760  0.4425810  )

     number of k points=     1  Methfessel-Paxton smearing, width (Ry)=  0.0010
                       cart. coord. in units 2pi/alat
        k(    1) = (   0.0000000   0.0000000   0.0000000), wk =   2.0000000

                       cryst. coord.
        k(    1) = (   0.0000000   0.0000000   0.0000000), wk =   2.0000000

     Check: negative core charge=   -0.000005

     Initial potential from superposition of free atoms

     starting charge      65.9973, renormalised to      67.0000

     negative rho (up, down):  2.160E-03 0.000E+00
     Starting wfcs are   49 randomized atomic wfcs

     Self-consistent Calculation

     iteration #  1     ecut=    30.00 Ry     beta= 0.70
     Davidson diagonalization with overlap

     ethr =  1.00E-02,  avg # of iterations =  2.0

     negative rho (up, down):  4.094E-03 0.000E+00

     total energy              =    -757.87134892 Ry
     estimated scf accuracy    <       5.88434126 Ry

[...]

     total energy              =    -762.43139265 Ry
     estimated scf accuracy    <       0.00009099 Ry

     iteration # 26     ecut=    30.00 Ry     beta= 0.70
     Davidson diagonalization with overlap

     ethr =  1.36E-07,  avg # of iterations =  1.0

[...]

     End of self-consistent calculation

          k = 0.0000 0.0000 0.0000 (  1121 PWs)   bands (ev):

   -83.2285 -52.4261 -52.4014 -46.8948 -46.3670 -46.2773 -26.6252 -26.6238
   -26.3443 -26.2225 -26.0214 -25.9560  -3.7241  -2.0446  -1.7315  -1.3922
     4.6719   5.0907   5.0928   7.8406   8.1538   8.4260   8.4905   8.9886
     9.2324   9.8607  10.3626  10.5543  10.5960  10.7803  11.4112  11.4459
    11.5508  11.5543  11.9424  12.2421  12.7333  12.8772  13.3675  14.0001
    14.4564

     occupation numbers
     1.0000   1.0000   1.0000   1.0000   1.0000   1.0000   1.0000   1.0000
     1.0000   1.0000   1.0000   1.0000   1.0000   1.0000   1.0000   1.0000
     1.0000   1.0000   1.0000   1.0000   1.0000   1.0000   1.0000   1.0000
     1.0000   1.0000   1.0000   1.0000   1.0000   1.0000   1.0000   1.0000
     0.8419   0.6581  -0.0000  -0.0000  -0.0000  -0.0000  -0.0000  -0.0000
    -0.0000

     the Fermi energy is    11.5569 ev

!    total energy              =    -762.43139274 Ry
     estimated scf accuracy    <       0.00000091 Ry
     smearing contrib. (-TS)   =      -0.00038889 Ry
     internal energy E=F+TS    =    -762.43100385 Ry

     The total energy is F=E-TS. E is the sum of the following terms:
     one-electron contribution =    -416.71525709 Ry
     hartree contribution      =     239.67665322 Ry
     xc contribution           =    -191.44876489 Ry
     ewald contribution        =    -393.94363509 Ry

     convergence has been achieved in  26 iterations

     negative rho (up, down):  2.568E-03 0.000E+00

     Forces acting on atoms (cartesian axes, Ry/au):

     atom    1 type  1   force =    -0.03792340   -0.01005682   -0.01226331
     atom    2 type  1   force =     0.03792340    0.01005682    0.01226331
     atom    3 type  2   force =     0.00000000    0.00000000    0.00000000
     atom    4 type  3   force =    -0.05505545   -0.01462533   -0.00347334
     atom    5 type  3   force =     0.05505545    0.01462533    0.00347334
     atom    6 type  3   force =     0.07400603    0.01965045   -0.04284141
     atom    7 type  3   force =    -0.07400603   -0.01965045    0.04284141
     The non-local contrib.  to forces
     atom    1 type  1   force =     0.06677429    0.01774307   -0.03400056
     atom    2 type  1   force =    -0.06677429   -0.01774307    0.03400056
     atom    3 type  2   force =     0.00000000    0.00000000    0.00000000
     atom    4 type  3   force =     0.16056779    0.04265345    0.07635478
     atom    5 type  3   force =    -0.16056779   -0.04265345   -0.07635478
     atom    6 type  3   force =     0.12342064    0.03277949    0.00304655
     atom    7 type  3   force =    -0.12342064   -0.03277949   -0.00304655
     The ionic contribution  to forces
     atom    1 type  1   force =     9.67893081    2.57067770    3.11492781
     atom    2 type  1   force =    -9.67893081   -2.57067770   -3.11492781
     atom    3 type  2   force =    -0.00000000   -0.00000000   -0.00000000
     atom    4 type  3   force =    -3.97972271   -1.05699530   -4.97567513
     atom    5 type  3   force =     3.97972271    1.05699530    4.97567513
     atom    6 type  3   force =    -8.70032113   -2.31076365   -3.20325378
     atom    7 type  3   force =     8.70032113    2.31076365    3.20325378
     The local contribution  to forces
     atom    1 type  1   force =    -9.77222556   -2.59531460   -3.09364188
     atom    2 type  1   force =     9.77331046    2.59589026    3.09321444
     atom    3 type  2   force =     0.00104510    0.00024090    0.00154109
     atom    4 type  3   force =     3.78453921    1.00501444    4.90500602
     atom    5 type  3   force =    -3.78497745   -1.00539141   -4.90469145
     atom    6 type  3   force =     8.66278053    2.30072844    3.15773136
     atom    7 type  3   force =    -8.66211179   -2.30067689   -3.15811686
     The core correction contribution to forces
     atom    1 type  1   force =    -0.01114620   -0.00295634   -0.00037283
     atom    2 type  1   force =     0.01114999    0.00296415    0.00037176
     atom    3 type  2   force =     0.00001130    0.00000282   -0.00000565
     atom    4 type  3   force =    -0.02079203   -0.00553267   -0.00877640
     atom    5 type  3   force =     0.02070579    0.00549264    0.00878358
     atom    6 type  3   force =    -0.01099060   -0.00292821   -0.00067883
     atom    7 type  3   force =     0.01107864    0.00293688    0.00064513
     The Hubbard contrib.    to forces
     atom    1 type  1   force =     0.00000000    0.00000000    0.00000000
     atom    2 type  1   force =     0.00000000    0.00000000    0.00000000
     atom    3 type  2   force =     0.00000000    0.00000000    0.00000000
     atom    4 type  3   force =     0.00000000    0.00000000    0.00000000
     atom    5 type  3   force =     0.00000000    0.00000000    0.00000000
     atom    6 type  3   force =     0.00000000    0.00000000    0.00000000
     atom    7 type  3   force =     0.00000000    0.00000000    0.00000000
     The SCF correction term to forces
     atom    1 type  1   force =    -0.00036652   -0.00022629    0.00083648
     atom    2 type  1   force =    -0.00094174   -0.00039648   -0.00038332
     atom    3 type  2   force =    -0.00081299   -0.00014518   -0.00173472
     atom    4 type  3   force =     0.00014665    0.00008715   -0.00031271
     atom    5 type  3   force =    -0.00003346    0.00003465    0.00013075
     atom    6 type  3   force =    -0.00052250   -0.00012298    0.00022025
     atom    7 type  3   force =     0.00048755    0.00014803    0.00001288

     Total force =     0.159030     Total SCF correction =     0.002552

     Computing stress (Cartesian axis) and pressure

     negative rho (up, down):  2.568E-03 0.000E+00
          total   stress  (Ry/bohr**3)                   (kbar)     P=       55.72
  -0.00054616  -0.00063910   0.00026731          -80.34      -94.02       39.32
  -0.00063910   0.00168993   0.00007108          -94.02      248.60       10.46
   0.00026731   0.00007108  -0.00000740           39.32       10.46       -1.09

     kinetic stress (kbar)  17145.17   -237.42    130.04
                             -237.42  17976.11     34.53
                              130.04     34.53  17483.52

     local   stress (kbar)  -3848.27   3234.46   9864.19
                             3234.46 -15167.64   2619.89
                             9864.19   2619.89  -8135.41

     nonloc. stress (kbar)   6548.43    -68.18     35.81
                              -68.18   6787.08      9.52
                               35.81      9.52   6608.19

     hartree stress (kbar)  12127.35  -1566.75  -4449.57
                            -1566.75  17610.34  -1181.79
                            -4449.57  -1181.79  14114.27

     exc-cor stress (kbar)  14073.89     -0.55     -0.65
                               -0.55  14075.83     -0.17
                               -0.65     -0.17  14075.23

     corecor stress (kbar) -19732.77      8.08      1.88
                                8.08 -19761.03      0.50
                                1.88      0.50 -19736.01

     ewald   stress (kbar) -26394.15  -1463.64  -5542.38
                            -1463.64 -21272.08  -1472.03
                            -5542.38  -1472.03 -24410.89

     hubbard stress (kbar)      0.00      0.00      0.00
                                0.00      0.00      0.00
                                0.00      0.00      0.00

     DFT-D   stress (kbar)      0.00      0.00      0.00
                                0.00      0.00      0.00
                                0.00      0.00      0.00

     XDM     stress (kbar)      0.00      0.00      0.00
                                0.00      0.00      0.00
                                0.00      0.00      0.00

     dft-nl  stress (kbar)      0.00      0.00      0.00
                                0.00      0.00      0.00
                                0.00      0.00      0.00

     TS-vdW  stress (kbar)      0.00      0.00      0.00
                                0.00      0.00      0.00
                                0.00      0.00      0.00

[...]

                                0.00      0.00      0.00

     Writing all to output data dir new_calculations/myprefix.save/

     General routines

     Parallel routines

   This run was terminated on:   8: 3:19  20May2023

   JOB DONE.