     Program PWSCF v.7.0 starts on 21May2023 at  5:15:56

     Reading input from espresso_23416.pwi
Warning: card &CELL ignored
Warning: card / ignored

     Current dimensions of program PWSCF are:
     Max number of different atomic species (ntypx) = 10
     Max number of k-points (npk) =  40000
     Max angular momentum in pseudopotentials (lmaxx) =  4
     file Fe.pbe-spn-kjpaw_psl.0.2.1.UPF: wavefunction(s)  3D renormalized
     file O.pbe-n-kjpaw_psl.0.1.UPF: wavefunction(s)  2P renormalized

     gamma-point specific algorithms are used

     Subspace diagonalization in iterative solution of the eigenvalue problem:
     a serial algorithm will be used

     Using Slab Decomposition

     bravais-lattice index     =            0
     lattice parameter (alat)  =      11.2142  a.u.
     unit-cell volume          =    1768.9094 (a.u.)^3
     number of atoms/cell      =           18
     number of atomic types    =            3
     number of electrons       =       156.00
     number of Kohn-Sham states=           94
     kinetic-energy cutoff     =      30.0000  Ry
     charge density cutoff     =     240.0000  Ry
     scf convergence threshold =      1.0E-06
     mixing beta               =       0.7000
     number of iterations used =            8  plain     mixing
     Exchange-correlation= SLA  PW   PBX  PBC
                           (   1   4   3   4   0   0   0)

     celldm(1)=  11.214225  celldm(2)=   0.000000  celldm(3)=   0.000000
     celldm(4)=   0.000000  celldm(5)=   0.000000  celldm(6)=   0.000000

     crystal axes: (cart. coord. in units of alat)
               a(1) = (   1.000000   0.000000   0.000000 )
               a(2) = (  -0.308515   1.127233   0.000000 )
               a(3) = (   0.292823  -0.036109   1.112715 )

     reciprocal axes: (cart. coord. in units 2 pi/alat)
               b(1) = (  1.000000  0.273692 -0.254279 )
               b(2) = (  0.000000  0.887128  0.028788 )
               b(3) = (  0.000000  0.000000  0.898702 )

     PseudoPot. # 1 for V  read from file:
     /home/pragov/projects/rrg-bengioy-ad/pragov/crystal_structure_design/SSSP/v_pbe_v1.4.uspp.F.UPF
     MD5 check sum: 22b79981416ebb76fdaf5b1b8640f6fb
     Pseudo is Ultrasoft + core correction, Zval = 13.0
     Generated by new atomic code, or converted to UPF format
     Using radial grid of  853 points,  6 beta functions with:
                l(1) =   0
                l(2) =   0
                l(3) =   1
                l(4) =   1
                l(5) =   2
                l(6) =   2
     Q(r) pseudized with  8 coefficients,  rinner =    1.100   1.100   1.100
                                                       1.100   1.100

     PseudoPot. # 2 for Fe read from file:
     /home/pragov/projects/rrg-bengioy-ad/pragov/crystal_structure_design/SSSP/Fe.pbe-spn-kjpaw_psl.0.2.1.UPF
     MD5 check sum: e86618425769142926afa95317d90200
     Pseudo is Projector augmented-wave + core cor, Zval = 16.0
     Generated using "atomic" code by A. Dal Corso  v.5.0.99 svn rev. 10869
     Shape of augmentation charge: PSQ
     Using radial grid of 1191 points,  6 beta functions with:
                l(1) =   0
                l(2) =   0
                l(3) =   1
                l(4) =   1
                l(5) =   2
                l(6) =   2
     Q(r) pseudized with 0 coefficients

     PseudoPot. # 3 for O  read from file:
     /home/pragov/projects/rrg-bengioy-ad/pragov/crystal_structure_design/SSSP/O.pbe-n-kjpaw_psl.0.1.UPF
     MD5 check sum: 0234752ac141de4415c5fc33072bef88
     Pseudo is Projector augmented-wave + core cor, Zval =  6.0
     Generated using "atomic" code by A. Dal Corso  v.5.0.99 svn rev. 10869
     Shape of augmentation charge: BESSEL
     Using radial grid of 1095 points,  4 beta functions with:
                l(1) =   0
                l(2) =   0
                l(3) =   1
                l(4) =   1
     Q(r) pseudized with 0 coefficients

     atomic species   valence    mass     pseudopotential
        V             13.00    50.94150     V ( 1.00)
        Fe            16.00    55.84500     Fe( 1.00)
        O              6.00    15.99900     O ( 1.00)

     No symmetry found

                                    s                        frac. trans.

      isym =  1     identity

 cryst.   s( 1) = (     1          0          0      )
                  (     0          1          0      )
                  (     0          0          1      )

 cart.    s( 1) = (  1.0000000 -0.0000000 -0.0000000 )
                  (  0.0000000  1.0000000  0.0000000 )
                  (  0.0000000  0.0000000  1.0000000 )

   Cartesian axes

     site n.     atom                  positions (alat units)
         1           V   tau(   1) = (   0.6135964   0.6855116   0.2323294  )
         2           V   tau(   2) = (   0.1126575   0.8775568   0.4301646  )
         3           V   tau(   3) = (   0.8717450   0.2136523   0.6826397  )
         4           V   tau(   4) = (   0.3707015   0.4055882   0.8802647  )
         5           Fe  tau(   5) = (   0.2332368   0.9929059   1.0166402  )
         6           Fe  tau(   6) = (   0.7512195   0.0983910   0.0962065  )
         7           O   tau(   7) = (   0.8696201   0.0197278   0.8981059  )
         8           O   tau(   8) = (   0.3618495   0.1860849   1.0683124  )
         9           O   tau(   9) = (   0.6220444   0.9047418   0.0440502  )
        10           O   tau(  10) = (   0.1150824   1.0713173   0.2144392  )
        11           O   tau(  11) = (   0.8548693   0.0900468   0.4274652  )
        12           O   tau(  12) = (   0.6293407   0.4347061   0.1043827  )
        13           O   tau(  13) = (   0.3548860   0.6561339   1.0086820  )
        14           O   tau(  14) = (   0.1290524   1.0011527   0.6853258  )
        15           O   tau(  15) = (   0.6301308   0.3905880   0.7216627  )
        16           O   tau(  16) = (   0.1277799   0.3730566   0.6995564  )
        17           O   tau(  17) = (   0.8566046   0.7182791   0.4128218  )
        18           O   tau(  18) = (   0.3543571   0.7006763   0.3913876  )

   Crystallographic axes

     site n.     atom                  positions (cryst. coord.)
         1           V   tau(   1) = (  0.7421390  0.6148250  0.2087950  )
         2           V   tau(   2) = (  0.2434560  0.7908890  0.3865900  )
         3           V   tau(   3) = (  0.7566390  0.2091890  0.6134900  )
         4           V   tau(   4) = (  0.2578750  0.3851500  0.7910960  )
         5           Fe  tau(   5) = (  0.2464770  0.9101020  0.9136570  )
         6           Fe  tau(   6) = (  0.7536850  0.0900550  0.0864610  )
         7           O   tau(   7) = (  0.6466500  0.0433560  0.8071300  )
         8           O   tau(   8) = (  0.1411300  0.1958360  0.9600950  )
         9           O   tau(   9) = (  0.8584640  0.8038900  0.0395880  )
        10           O   tau(  10) = (  0.3537660  0.9565690  0.1927170  )
        11           O   tau(  11) = (  0.7708190  0.0921890  0.3841640  )
        12           O   tau(  12) = (  0.7217740  0.3886450  0.0938090  )
        13           O   tau(  13) = (  0.2779780  0.6111130  0.9065050  )
        14           O   tau(  14) = (  0.2287960  0.9078800  0.6159040  )
        15           O   tau(  15) = (  0.5535280  0.3672770  0.6485600  )
        16           O   tau(  16) = (  0.0520000  0.3510880  0.6286930  )
        17           O   tau(  17) = (  0.9482200  0.6490900  0.3710040  )
        18           O   tau(  18) = (  0.4466050  0.6328570  0.3517410  )

     number of k points=     1  Methfessel-Paxton smearing, width (Ry)=  0.0010
                       cart. coord. in units 2pi/alat
        k(    1) = (   0.0000000   0.0000000   0.0000000), wk =   2.0000000

                       cryst. coord.
        k(    1) = (   0.0000000   0.0000000   0.0000000), wk =   2.0000000

     Check: negative core charge=   -0.000066

     Initial potential from superposition of free atoms

     starting charge     155.9942, renormalised to     156.0000

     negative rho (up, down):  1.095E-03 0.000E+00
     Starting wfcs are  114 randomized atomic wfcs
     Checking if some PAW data can be deallocated...

     Self-consistent Calculation

     iteration #  1     ecut=    30.00 Ry     beta= 0.70
     Davidson diagonalization with overlap

     ethr =  1.00E-02,  avg # of iterations =  2.0

     negative rho (up, down):  1.153E-02 0.000E+00

     total energy              =   -1733.10762303 Ry
     estimated scf accuracy    <       8.45347200 Ry

[...]

     total energy              =   -1738.33667907 Ry
     estimated scf accuracy    <       0.00000292 Ry

     iteration # 25     ecut=    30.00 Ry     beta= 0.70
     Davidson diagonalization with overlap

     ethr =  1.07E-09,  avg # of iterations =  3.0

[...]

     End of self-consistent calculation

          k = 0.0000 0.0000 0.0000 (  2447 PWs)   bands (ev):

   -81.5488 -81.5457 -60.5063 -60.5061 -60.4371 -60.4362 -47.1846 -47.1841
   -47.1328 -47.1214 -47.0556 -47.0417 -34.4579 -34.4576 -34.4422 -34.4405
   -34.3876 -34.3865 -34.3796 -34.3775 -34.3417 -34.3407 -34.2678 -34.2668
   -13.6114 -13.3110 -13.0507 -13.0443 -13.0146 -12.8429 -12.7887 -12.6738
   -12.4952 -12.4729 -12.4182 -12.4022  -0.5757  -0.4975  -0.4283  -0.3993
    -0.3966  -0.2832   0.0562   0.0765   0.1490   0.3303   0.3329   0.4973
     0.6454   0.7193   0.7719   0.8245   0.8879   0.9283   0.9337   1.0622
     1.3215   1.4162   1.5635   1.6144   1.6427   1.7488   2.0640   2.2158
     2.3567   2.4267   2.7495   2.8875   2.9043   3.0034   3.2553   3.2845
     4.6714   4.6858   4.8303   4.9523   5.0148   5.0182   5.7780   5.7994
     6.0217   6.2144   6.5288   6.5580   6.5641   6.8749   6.9386   7.2318
     7.3233   7.3774   7.4580   7.6877   7.9798   8.0065

     occupation numbers
     1.0000   1.0000   1.0000   1.0000   1.0000   1.0000   1.0000   1.0000
     1.0000   1.0000   1.0000   1.0000   1.0000   1.0000   1.0000   1.0000
     1.0000   1.0000   1.0000   1.0000   1.0000   1.0000   1.0000   1.0000
     1.0000   1.0000   1.0000   1.0000   1.0000   1.0000   1.0000   1.0000
     1.0000   1.0000   1.0000   1.0000   1.0000   1.0000   1.0000   1.0000
     1.0000   1.0000   1.0000   1.0000   1.0000   1.0000   1.0000   1.0000
     1.0000   1.0000   1.0000   1.0000   1.0000   1.0000   1.0000   1.0000
     1.0000   1.0000   1.0000   1.0000   1.0000   1.0000   1.0000   1.0000
     1.0000   1.0000   1.0000   1.0000   1.0000   1.0000   1.0000   1.0000
     1.0000   1.0000   1.0000   1.0000   1.0000   1.0000  -0.0000  -0.0000
    -0.0000  -0.0000  -0.0000  -0.0000  -0.0000  -0.0000  -0.0000  -0.0000
    -0.0000  -0.0000  -0.0000  -0.0000  -0.0000  -0.0000

     the Fermi energy is     5.3354 ev

!    total energy              =   -1738.33667923 Ry
     estimated scf accuracy    <       0.00000028 Ry
     smearing contrib. (-TS)   =       0.00000000 Ry
     internal energy E=F+TS    =   -1738.33667923 Ry

     The total energy is F=E-TS. E is the sum of the following terms:
     one-electron contribution =   -1053.70198857 Ry
     hartree contribution      =     578.10992669 Ry
     xc contribution           =    -235.59757169 Ry
     ewald contribution        =    -760.66796324 Ry
     one-center paw contrib.   =    -266.47908242 Ry
      -> PAW hartree energy AE =     764.66240129 Ry
      -> PAW hartree energy PS =    -761.89151307 Ry
      -> PAW xc energy AE      =    -427.51092527 Ry
      -> PAW xc energy PS      =     158.26095464 Ry
      -> total E_H with PAW    =     580.88081491 Ry
      -> total E_XC with PAW   =    -504.84754233 Ry

     convergence has been achieved in  25 iterations

     negative rho (up, down):  5.992E-03 0.000E+00

     Forces acting on atoms (cartesian axes, Ry/au):

     atom    1 type  1   force =    -0.00653829   -0.01138966   -0.00690053
     atom    2 type  1   force =    -0.00654875    0.02834898    0.01502386
     atom    3 type  1   force =     0.00665301   -0.02851665   -0.01567676
     atom    4 type  1   force =     0.00647757    0.01140343    0.00746205
     atom    5 type  2   force =     0.00624168    0.00670740    0.00793701
     atom    6 type  2   force =    -0.00667930   -0.00749808   -0.00872803
     atom    7 type  3   force =    -0.01145382    0.00422414    0.00960170
     atom    8 type  3   force =    -0.00607576   -0.02187400   -0.00287220
     atom    9 type  3   force =     0.00641919    0.02209847    0.00303223
     atom   10 type  3   force =     0.01132387   -0.00405646   -0.00907226
     atom   11 type  3   force =    -0.00450836    0.03203380    0.03402989
     atom   12 type  3   force =     0.01218606    0.01561346    0.02707986
     atom   13 type  3   force =    -0.01219562   -0.01530155   -0.02733606
     atom   14 type  3   force =     0.00490328   -0.03179605   -0.03377245
     atom   15 type  3   force =    -0.00943864   -0.00108545    0.00757343
     atom   16 type  3   force =     0.00590218   -0.00276048    0.00833203
     atom   17 type  3   force =    -0.00599510    0.00269627   -0.00811873
     atom   18 type  3   force =     0.00932680    0.00115243   -0.00759502
     The non-local contrib.  to forces
     atom    1 type  1   force =     0.00859365   -0.07627992   -0.12827018
     atom    2 type  1   force =     0.01403560    0.11908175    0.06816162
     atom    3 type  1   force =    -0.01415859   -0.11925494   -0.06732052
     atom    4 type  1   force =    -0.00874274    0.07642620    0.12784267
     atom    5 type  2   force =     0.00502816    0.04118217    0.03454699
     atom    6 type  2   force =    -0.00471083   -0.04222496   -0.03525463
     atom    7 type  3   force =    -0.09976949    0.59701939   -0.20736204
     atom    8 type  3   force =    -0.15024401    0.23739171   -0.57490056
     atom    9 type  3   force =     0.15286673   -0.23699613    0.58017623
     atom   10 type  3   force =     0.09689736   -0.59439552    0.20788065
     atom   11 type  3   force =    -0.09591389    0.41325133    0.38402742
     atom   12 type  3   force =     0.13145516    0.42982211    0.39901971
     atom   13 type  3   force =    -0.13020664   -0.43009507   -0.40240393
     atom   14 type  3   force =     0.09926643   -0.41312695   -0.38569962
     atom   15 type  3   force =    -0.06318797   -0.54996293    0.38015341
     atom   16 type  3   force =    -0.06036016   -0.40768377    0.55572453
     atom   17 type  3   force =     0.06016641    0.40662563   -0.55355251
     atom   18 type  3   force =     0.06169889    0.54921809   -0.38199866
     The ionic contribution  to forces
     atom    1 type  1   force =    -3.30621298   -5.55137193    4.92488822
     atom    2 type  1   force =    -2.96627771   -4.71453908    5.56381208
     atom    3 type  1   force =     2.96428541    4.72180974   -5.56701310
     atom    4 type  1   force =     3.30717493    5.56213081   -4.93271939
     atom    5 type  2   force =     0.24100265   -3.86674523   -4.29619389
     atom    6 type  2   force =    -0.22506619    3.84875336    4.30292449
     atom    7 type  3   force =     2.46454359   -8.03483424   -1.71124990
     atom    8 type  3   force =     3.31303601    1.12958924    7.86600241
     atom    9 type  3   force =    -3.31393223   -1.13013233   -7.91074044
     atom   10 type  3   force =    -2.46414709    8.00171315    1.71119340
     atom   11 type  3   force =     3.95233923   -3.36373980   -1.96810495
     atom   12 type  3   force =    -4.00264425   -2.99319727   -3.30502431
     atom   13 type  3   force =     3.98368743    3.01032964    3.33102869
     atom   14 type  3   force =    -3.96967239    3.35996254    1.98855864
     atom   15 type  3   force =     0.30475428    8.70849063   -4.68456303
     atom   16 type  3   force =     0.91463913    5.20486775   -8.56392415
     atom   17 type  3   force =    -0.91247189   -5.19739857    8.54868520
     atom   18 type  3   force =    -0.28503794   -8.69568841    4.70244004
     The local contribution  to forces
     atom    1 type  1   force =     3.29336630    5.60928646   -4.81666604
     atom    2 type  1   force =     2.94797493    4.63575990   -5.61071588
     atom    3 type  1   force =    -2.94584021   -4.64314468    5.61195995
     atom    4 type  1   force =    -3.29421579   -5.61977515    4.82594409
     atom    5 type  2   force =    -0.24120618    3.83032708    4.26996066
     atom    6 type  2   force =     0.22466856   -3.81255264   -4.27637309
     atom    7 type  3   force =    -2.37672885    7.44643273    1.92845410
     atom    8 type  3   force =    -3.17055624   -1.38848400   -7.29793951
     atom    9 type  3   force =     3.16916207    1.38843185    7.33804366
     atom   10 type  3   force =     2.37902687   -7.41594152   -1.92837914
     atom   11 type  3   force =    -3.86195591    2.98540631    1.61956334
     atom   12 type  3   force =     3.88504466    2.58048408    2.93597993
     atom   13 type  3   force =    -3.86734797   -2.59649676   -2.95850009
     atom   14 type  3   force =     3.87638281   -2.98168268   -1.63823866
     atom   15 type  3   force =    -0.25161955   -8.16437405    4.31509168
     atom   16 type  3   force =    -0.84898005   -4.80341880    8.02127651
     atom   17 type  3   force =     0.84655999    4.79691155   -8.00831795
     atom   18 type  3   force =     0.23364006    8.15243219   -4.33150854
     The core correction contribution to forces
     atom    1 type  1   force =    -0.00230099    0.00694163    0.01380191
     atom    2 type  1   force =    -0.00229232   -0.01239095   -0.00639097
     atom    3 type  1   force =     0.00229939    0.01239635    0.00634826
     atom    4 type  1   force =     0.00231878   -0.00696295   -0.01378128
     atom    5 type  2   force =     0.00160237    0.00159893   -0.00026678
     atom    6 type  2   force =    -0.00157619   -0.00161229    0.00027807
     atom    7 type  3   force =     0.00047454   -0.00458212   -0.00010709
     atom    8 type  3   force =     0.00167861   -0.00068200    0.00425715
     atom    9 type  3   force =    -0.00166769    0.00069865   -0.00432914
     atom   10 type  3   force =    -0.00043335    0.00456466    0.00009075
     atom   11 type  3   force =     0.00100163   -0.00295420   -0.00167845
     atom   12 type  3   force =    -0.00166452   -0.00138659   -0.00269367
     atom   13 type  3   force =     0.00165808    0.00137879    0.00272647
     atom   14 type  3   force =    -0.00104026    0.00295011    0.00168371
     atom   15 type  3   force =     0.00079785    0.00493811   -0.00340168
     atom   16 type  3   force =     0.00044157    0.00360144   -0.00505058
     atom   17 type  3   force =    -0.00044284   -0.00359479    0.00503255
     atom   18 type  3   force =    -0.00078801   -0.00493239    0.00341983
     The Hubbard contrib.    to forces
     atom    1 type  1   force =     0.00000000    0.00000000    0.00000000
     atom    2 type  1   force =     0.00000000    0.00000000    0.00000000
     atom    3 type  1   force =     0.00000000    0.00000000    0.00000000
     atom    4 type  1   force =     0.00000000    0.00000000    0.00000000
     atom    5 type  2   force =     0.00000000    0.00000000    0.00000000
     atom    6 type  2   force =     0.00000000    0.00000000    0.00000000
     atom    7 type  3   force =     0.00000000    0.00000000    0.00000000
     atom    8 type  3   force =     0.00000000    0.00000000    0.00000000
     atom    9 type  3   force =     0.00000000    0.00000000    0.00000000
     atom   10 type  3   force =     0.00000000    0.00000000    0.00000000
     atom   11 type  3   force =     0.00000000    0.00000000    0.00000000
     atom   12 type  3   force =     0.00000000    0.00000000    0.00000000
     atom   13 type  3   force =     0.00000000    0.00000000    0.00000000
     atom   14 type  3   force =     0.00000000    0.00000000    0.00000000
     atom   15 type  3   force =     0.00000000    0.00000000    0.00000000
     atom   16 type  3   force =     0.00000000    0.00000000    0.00000000
     atom   17 type  3   force =     0.00000000    0.00000000    0.00000000
     atom   18 type  3   force =     0.00000000    0.00000000    0.00000000
     The SCF correction term to forces
     atom    1 type  1   force =     0.00001533    0.00001963   -0.00066945
     atom    2 type  1   force =     0.00001034    0.00042289    0.00014201
     atom    3 type  1   force =     0.00006660   -0.00033757    0.00033364
     atom    4 type  1   force =    -0.00005801   -0.00042994    0.00016095
     atom    5 type  2   force =    -0.00018572    0.00032999   -0.00012498
     atom    6 type  2   force =     0.00000495    0.00012398   -0.00031788
     atom    7 type  3   force =     0.00002598    0.00017393   -0.00014837
     atom    8 type  3   force =     0.00000946    0.00029658   -0.00030669
     atom    9 type  3   force =    -0.00001011    0.00008196   -0.00013308
     atom   10 type  3   force =    -0.00002033   -0.00001169    0.00012708
     atom   11 type  3   force =     0.00002017    0.00005569    0.00020752
     atom   12 type  3   force =    -0.00000538   -0.00012334   -0.00021681
     atom   13 type  3   force =     0.00001309   -0.00043260   -0.00020220
     atom   14 type  3   force =    -0.00003371    0.00008647   -0.00009152
     atom   15 type  3   force =    -0.00018365   -0.00019167    0.00027806
     atom   16 type  3   force =     0.00016128   -0.00014157    0.00029071
     atom   17 type  3   force =     0.00019283    0.00013797    0.00001897
     atom   18 type  3   force =    -0.00018659    0.00010850    0.00003730

     Total force =     0.107835     Total SCF correction =     0.001543

     Computing stress (Cartesian axis) and pressure

     negative rho (up, down):  5.992E-03 0.000E+00
          total   stress  (Ry/bohr**3)                   (kbar)     P=     -507.99
  -0.00342078  -0.00002995   0.00007805         -503.21       -4.41       11.48
  -0.00002995  -0.00348773  -0.00007965           -4.41     -513.06      -11.72
   0.00007805  -0.00007965  -0.00345134           11.48      -11.72     -507.71

     kinetic stress (kbar)  24591.01     13.04     -5.60
                               13.04  24736.33     31.63
                               -5.60     31.63  24757.53

     local   stress (kbar) -14905.37  -1397.10    726.20
                            -1397.10 -10523.09   7227.75
                              726.20   7227.75 -11140.01

     nonloc. stress (kbar)  -1936.87      3.12     -5.30
                                3.12  -1985.61     -3.49
                               -5.30     -3.49  -1991.37

     hartree stress (kbar)  17423.63    629.59   -354.99
                              629.59  15214.52  -3267.30
                             -354.99  -3267.30  15438.32

     exc-cor stress (kbar)  -3261.99      0.06      0.53
                                0.06  -3257.49      0.91
                                0.53      0.91  -3255.95

     corecor stress (kbar)  -2723.11     -0.45      0.81
                               -0.45  -2723.15     -1.27
                                0.81     -1.27  -2723.06

     ewald   stress (kbar) -19690.51    747.33   -350.17
                              747.33 -21974.56  -3999.95
                             -350.17  -3999.95 -21593.18

     hubbard stress (kbar)      0.00      0.00      0.00
                                0.00      0.00      0.00
                                0.00      0.00      0.00

     DFT-D   stress (kbar)      0.00      0.00      0.00
                                0.00      0.00      0.00
                                0.00      0.00      0.00

     XDM     stress (kbar)      0.00      0.00      0.00
                                0.00      0.00      0.00
                                0.00      0.00      0.00

     dft-nl  stress (kbar)      0.00      0.00      0.00
                                0.00      0.00      0.00
                                0.00      0.00      0.00

     TS-vdW  stress (kbar)      0.00      0.00      0.00
                                0.00      0.00      0.00
                                0.00      0.00      0.00

[...]

                                0.00      0.00      0.00

     Writing all to output data dir new_calculations/myprefix.save/

     General routines

     Parallel routines

     PAW routines

   This run was terminated on:   5:16:47  21May2023

   JOB DONE.