     Program PWSCF v.7.0 starts on 21May2023 at  4:59:51

     Reading input from espresso_14084.pwi
Warning: card &CELL ignored
Warning: card / ignored

     Current dimensions of program PWSCF are:
     Max number of different atomic species (ntypx) = 10
     Max number of k-points (npk) =  40000
     Max angular momentum in pseudopotentials (lmaxx) =  4

     gamma-point specific algorithms are used
     Message from routine setup:
     using ibrav=0 with symmetry is DISCOURAGED, use correct ibrav instead

     Subspace diagonalization in iterative solution of the eigenvalue problem:
     a serial algorithm will be used

     Using Slab Decomposition

     bravais-lattice index     =            0
     lattice parameter (alat)  =      13.6759  a.u.
     unit-cell volume          =    3690.7162 (a.u.)^3
     number of atoms/cell      =           16
     number of atomic types    =            3
     number of electrons       =       132.00
     number of Kohn-Sham states=           79
     kinetic-energy cutoff     =      30.0000  Ry
     charge density cutoff     =     240.0000  Ry
     scf convergence threshold =      1.0E-06
     mixing beta               =       0.7000
     number of iterations used =            8  plain     mixing
     Exchange-correlation=  SLA  PW   PBX  PBC
                           (   1   4   3   4   0   0   0)

     celldm(1)=  13.675899  celldm(2)=   0.000000  celldm(3)=   0.000000
     celldm(4)=   0.000000  celldm(5)=   0.000000  celldm(6)=   0.000000

     crystal axes: (cart. coord. in units of alat)
               a(1) = (   1.000000   0.000000   0.000000 )
               a(2) = (   0.561755   0.827304   0.000000 )
               a(3) = (   0.344565   0.182525   1.744126 )

     reciprocal axes: (cart. coord. in units 2 pi/alat)
               b(1) = (  1.000000 -0.679018 -0.126497 )
               b(2) = (  0.000000  1.208746 -0.126497 )
               b(3) = (  0.000000  0.000000  0.573353 )

     PseudoPot. # 1 for Cs read from file:
     /home/pragov/projects/rrg-bengioy-ad/pragov/crystal_structure_design/SSSP/Cs_pbe_v1.uspp.F.UPF
     MD5 check sum: 3476d69cb178dfad3ffaa59df4e07ca4
     Pseudo is Ultrasoft + core correction, Zval =  9.0
     Generated by new atomic code, or converted to UPF format
     Using radial grid of  905 points,  6 beta functions with:
                l(1) =   0
                l(2) =   0
                l(3) =   1
                l(4) =   1
                l(5) =   2
                l(6) =   2
     Q(r) pseudized with  6 coefficients,  rinner =    1.500   1.500   1.500
                                                       1.500   1.500

     PseudoPot. # 2 for Sb read from file:
     /home/pragov/projects/rrg-bengioy-ad/pragov/crystal_structure_design/SSSP/sb_pbe_v1.4.uspp.F.UPF
     MD5 check sum: 9bc50dfb53373b713f5709b9110fe27f
     Pseudo is Ultrasoft + core correction, Zval = 15.0
     Generated by new atomic code, or converted to UPF format
     Using radial grid of  891 points,  6 beta functions with:
                l(1) =   0
                l(2) =   0
                l(3) =   1
                l(4) =   1
                l(5) =   2
                l(6) =   2
     Q(r) pseudized with  8 coefficients,  rinner =    1.350   1.350   1.350
                                                       1.350   1.350

     PseudoPot. # 3 for Cl read from file:
     /home/pragov/projects/rrg-bengioy-ad/pragov/crystal_structure_design/SSSP/cl_pbe_v1.4.uspp.F.UPF
     MD5 check sum: fc6f6913ecf08c9257cb748ef0700058
     Pseudo is Ultrasoft + core correction, Zval =  7.0
     Generated by new atomic code, or converted to UPF format
     Using radial grid of  909 points,  6 beta functions with:
                l(1) =   0
                l(2) =   0
                l(3) =   1
                l(4) =   1
                l(5) =   2
                l(6) =   2
     Q(r) pseudized with  8 coefficients,  rinner =    1.300   1.300   1.300
                                                       1.300   1.300

     atomic species   valence    mass     pseudopotential
        Cs             9.00   132.90545     Cs( 1.00)
        Sb            15.00   121.76000     Sb( 1.00)
        Cl             7.00    35.45000     Cl( 1.00)

      2 Sym. Ops., with inversion, found

                                    s                        frac. trans.

      isym =  1     identity

 cryst.   s( 1) = (     1          0          0      )
                  (     0          1          0      )
                  (     0          0          1      )

 cart.    s( 1) = (  1.0000000 -0.0000000  0.0000000 )
                  (  0.0000000  1.0000000  0.0000000 )
                  (  0.0000000  0.0000000  1.0000000 )

      isym =  2     inversion

 cryst.   s( 2) = (    -1          0          0      )
                  (     0         -1          0      )
                  (     0          0         -1      )

 cart.    s( 2) = ( -1.0000000  0.0000000 -0.0000000 )
                  (  0.0000000 -1.0000000 -0.0000000 )
                  (  0.0000000  0.0000000 -1.0000000 )

   Cartesian axes

     site n.     atom                  positions (alat units)
         1           Cs  tau(   1) = (   1.2051877   0.2373907   1.3080946  )
         2           Cs  tau(   2) = (   0.7011316   0.7724385   0.4360315  )
         3           Sb  tau(   3) = (   0.6722823   0.0912626   0.8720631  )
         4           Sb  tau(   4) = (   0.2808773   0.4136520   0.0000000  )
         5           Cl  tau(   5) = (   1.0637880   0.6995737   1.0565916  )
         6           Cl  tau(   6) = (   1.0040655   0.3958246   0.1845285  )
         7           Cl  tau(   7) = (   1.4484095   0.6749135   1.4747371  )
         8           Cl  tau(   8) = (   0.8425312   0.3102555   0.6875345  )
         9           Cl  tau(   9) = (   1.1997269   0.7278764   0.6026741  )
        10           Cl  tau(  10) = (   0.4579098   0.3349157   0.2693890  )
        11           Cl  tau(  11) = (   0.5957254   0.2726958   1.6724269  )
        12           Cl  tau(  12) = (   0.3879715   0.2483952   0.8003638  )
        13           Cl  tau(  13) = (   1.3105939   0.7371334   0.0716993  )
        14           Cl  tau(  14) = (   0.7065924   0.2819528   1.1414521  )
        15           Cl  tau(  15) = (   1.5183478   0.7614340   0.9437624  )
        16           Cl  tau(  16) = (   0.9022538   0.6140046   1.5595976  )

   Crystallographic axes

     site n.     atom                  positions (cryst. coord.)
         1           Cs  tau(   1) = (  0.8785250  0.1214750  0.7500000  )
         2           Cs  tau(   2) = (  0.1214750  0.8785250  0.2500000  )
         3           Sb  tau(   3) = (  0.5000000 -0.0000000  0.5000000  )
         4           Sb  tau(   4) = (  0.0000000  0.5000000  0.0000000  )
         5           Cl  tau(   5) = (  0.4551090  0.7119510  0.6058000  )
         6           Cl  tau(   6) = (  0.7119510  0.4551090  0.1058000  )
         7           Cl  tau(   7) = (  0.8035810  0.6292490  0.8455450  )
         8           Cl  tau(   8) = (  0.5448910  0.2880490  0.3942000  )
         9           Cl  tau(   9) = (  0.6292490  0.8035810  0.3455450  )
        10           Cl  tau(  10) = (  0.1964190  0.3707510  0.1544550  )
        11           Cl  tau(  11) = (  0.1990030  0.1180630  0.9588910  )
        12           Cl  tau(  12) = (  0.1180630  0.1990030  0.4588910  )
        13           Cl  tau(  13) = (  0.8009970  0.8819370  0.0411090  )
        14           Cl  tau(  14) = (  0.3707510  0.1964190  0.6544550  )
        15           Cl  tau(  15) = (  0.8819370  0.8009970  0.5411090  )
        16           Cl  tau(  16) = (  0.2880490  0.5448910  0.8942000  )

     number of k points=     1  Methfessel-Paxton smearing, width (Ry)=  0.0010
                       cart. coord. in units 2pi/alat
        k(    1) = (   0.0000000   0.0000000   0.0000000), wk =   2.0000000

                       cryst. coord.
        k(    1) = (   0.0000000   0.0000000   0.0000000), wk =   2.0000000

     Check: negative core charge=   -0.000002

     Initial potential from superposition of free atoms

     starting charge     129.9211, renormalised to     132.0000

     negative rho (up, down):  1.846E-01 0.000E+00
     Starting wfcs are   92 randomized atomic wfcs

     Self-consistent Calculation

     iteration #  1     ecut=    30.00 Ry     beta= 0.70
     Davidson diagonalization with overlap

     ethr =  1.00E-02,  avg # of iterations =  3.0

     Threshold (ethr) on eigenvalues was too large:
     Diagonalizing with lowered threshold

     Davidson diagonalization with overlap

[...]

     negative rho (up, down):  1.841E-01 0.000E+00

     total energy              =    -896.41794277 Ry
     estimated scf accuracy    <       0.67834175 Ry

[...]

     total energy              =    -896.64684393 Ry
     estimated scf accuracy    <       0.00003263 Ry

     iteration #  7     ecut=    30.00 Ry     beta= 0.70
     Davidson diagonalization with overlap

     ethr =  2.47E-08,  avg # of iterations =  2.0

[...]

     End of self-consistent calculation

          k = 0.0000 0.0000 0.0000 (  5103 PWs)   bands (ev):

   -28.2246 -28.2231 -28.2219 -28.2199 -28.1659 -28.1632 -28.1631 -28.1621
   -28.1575 -28.1572 -18.2375 -18.2369 -13.6642 -13.6285 -12.5020 -12.4450
   -12.4264 -12.4216 -12.3797 -12.3627 -12.0081 -11.9979 -11.9650 -11.9389
    -6.9413  -6.8674  -5.0903  -5.0771  -5.0746  -5.0615  -5.0479  -5.0185
    -2.9152  -2.9132  -2.8812  -2.8630  -2.7640  -2.6994  -1.0053  -1.0029
    -0.9629  -0.8697  -0.7945  -0.7803  -0.5309  -0.4685  -0.2955  -0.2715
    -0.2416  -0.0679   0.0249   0.0926   0.1408   0.2043   0.2759   0.2970
     0.3187   0.4284   0.4908   0.5082   0.5093   0.5910   0.6266   0.6455
     0.7846   0.8640   2.8852   3.0732   6.5406   6.6684   6.7344   6.8902
     7.0672   7.1574   7.1691   8.3164   8.6182   8.7110   8.7929

     occupation numbers
     1.0000   1.0000   1.0000   1.0000   1.0000   1.0000   1.0000   1.0000
     1.0000   1.0000   1.0000   1.0000   1.0000   1.0000   1.0000   1.0000
     1.0000   1.0000   1.0000   1.0000   1.0000   1.0000   1.0000   1.0000
     1.0000   1.0000   1.0000   1.0000   1.0000   1.0000   1.0000   1.0000
     1.0000   1.0000   1.0000   1.0000   1.0000   1.0000   1.0000   1.0000
     1.0000   1.0000   1.0000   1.0000   1.0000   1.0000   1.0000   1.0000
     1.0000   1.0000   1.0000   1.0000   1.0000   1.0000   1.0000   1.0000
     1.0000   1.0000   1.0000   1.0000   1.0000   1.0000   1.0000   1.0000
     1.0000   1.0000  -0.0000  -0.0000  -0.0000  -0.0000  -0.0000  -0.0000
    -0.0000  -0.0000  -0.0000  -0.0000  -0.0000  -0.0000  -0.0000

     the Fermi energy is     1.9371 ev

!    total energy              =    -896.64685266 Ry
     estimated scf accuracy    <       0.00000067 Ry
     smearing contrib. (-TS)   =       0.00000000 Ry
     internal energy E=F+TS    =    -896.64685266 Ry

     The total energy is F=E-TS. E is the sum of the following terms:
     one-electron contribution =    -470.77841253 Ry
     hartree contribution      =     282.06044137 Ry
     xc contribution           =    -262.02651423 Ry
     ewald contribution        =    -445.90236727 Ry

     convergence has been achieved in   7 iterations

     negative rho (up, down):  1.803E-01 0.000E+00

     Forces acting on atoms (cartesian axes, Ry/au):

     atom    1 type  1   force =     0.00113953   -0.00215264    0.00000408
     atom    2 type  1   force =    -0.00113953    0.00215264   -0.00000408
     atom    3 type  2   force =     0.00000000    0.00000000    0.00000000
     atom    4 type  2   force =     0.00000000    0.00000000    0.00000000
     atom    5 type  3   force =     0.00297284   -0.00579349    0.00440689
     atom    6 type  3   force =    -0.00312686    0.00571488    0.00439904
     atom    7 type  3   force =    -0.00159305    0.00419782   -0.01245861
     atom    8 type  3   force =    -0.00297284    0.00579349   -0.00440689
     atom    9 type  3   force =     0.00257656   -0.00367496   -0.01246857
     atom   10 type  3   force =     0.00159305   -0.00419782    0.01245861
     atom   11 type  3   force =    -0.00347482    0.00360519    0.00679588
     atom   12 type  3   force =     0.00103456   -0.00489741    0.00679235
     atom   13 type  3   force =     0.00347482   -0.00360519   -0.00679588
     atom   14 type  3   force =    -0.00257656    0.00367496    0.01246857
     atom   15 type  3   force =    -0.00103456    0.00489741   -0.00679235
     atom   16 type  3   force =     0.00312686   -0.00571488   -0.00439904
     The non-local contrib.  to forces
     atom    1 type  1   force =    -0.00305261    0.00577386    0.00000118
     atom    2 type  1   force =     0.00305261   -0.00577386   -0.00000118
     atom    3 type  2   force =     0.00000000    0.00000000    0.00000000
     atom    4 type  2   force =     0.00000000    0.00000000    0.00000000
     atom    5 type  3   force =     0.11340914    0.15071077   -0.09409545
     atom    6 type  3   force =     0.18840594    0.00915723   -0.09408686
     atom    7 type  3   force =     0.10764160   -0.06592850    0.17290832
     atom    8 type  3   force =    -0.11340914   -0.15071077    0.09409545
     atom    9 type  3   force =     0.00592656    0.12608624    0.17289845
     atom   10 type  3   force =    -0.10764160    0.06592850   -0.17290832
     atom   11 type  3   force =     0.00625331    0.20809011    0.03056703
     atom   12 type  3   force =     0.17565552   -0.11172989    0.03056433
     atom   13 type  3   force =    -0.00625331   -0.20809011   -0.03056703
     atom   14 type  3   force =    -0.00592656   -0.12608624   -0.17289845
     atom   15 type  3   force =    -0.17565552    0.11172989   -0.03056433
     atom   16 type  3   force =    -0.18840594   -0.00915723    0.09408686
     The ionic contribution  to forces
     atom    1 type  1   force =    -0.49142773    0.92769960   -0.00000000
     atom    2 type  1   force =     0.49142773   -0.92769960   -0.00000000
     atom    3 type  2   force =    -0.00000000    0.00000000   -0.00000000
     atom    4 type  2   force =    -0.00000000    0.00000000    0.00000000
     atom    5 type  3   force =    -4.86269295   -6.65824010    5.34923142
     atom    6 type  3   force =    -8.24002824   -0.28262793    5.34923142
     atom    7 type  3   force =    -5.40545012    2.09113798   -7.55039706
     atom    8 type  3   force =     4.86269295    6.65824010   -5.34923142
     atom    9 type  3   force =    -1.30652982   -5.64665644   -7.55039706
     atom   10 type  3   force =     5.40545013   -2.09113798    7.55039706
     atom   11 type  3   force =    -0.82095452   -9.15287002   -2.23446802
     atom   12 type  3   force =    -8.03338019    4.46248793   -2.23446802
     atom   13 type  3   force =     0.82095452    9.15287002    2.23446802
     atom   14 type  3   force =     1.30652982    5.64665644    7.55039706
     atom   15 type  3   force =     8.03338019   -4.46248793    2.23446802
     atom   16 type  3   force =     8.24002824    0.28262793   -5.34923142
     The local contribution  to forces
     atom    1 type  1   force =     0.49525096   -0.93477534   -0.00000399
     atom    2 type  1   force =    -0.49514524    0.93480657   -0.00003658
     atom    3 type  2   force =    -0.00000248   -0.00001488   -0.00004857
     atom    4 type  2   force =     0.00002696    0.00004529    0.00005064
     atom    5 type  3   force =     4.75452625    6.50465314   -5.25234950
     atom    6 type  3   force =     8.05215583    0.27941595   -5.25228273
     atom    7 type  3   force =     5.29799474   -2.02236812    7.36849912
     atom    8 type  3   force =    -4.75451520   -6.50463825    5.25225280
     atom    9 type  3   force =     1.30306315    5.51912228    7.36848162
     atom   10 type  3   force =    -5.29795717    2.02239077   -7.36845356
     atom   11 type  3   force =     0.81150350    8.95223074    2.21102274
     atom   12 type  3   force =     7.86213120   -4.35757764    2.21097238
     atom   13 type  3   force =    -0.81147397   -8.95226358   -2.21097758
     atom   14 type  3   force =    -1.30306146   -5.51911039   -7.36852128
     atom   15 type  3   force =    -7.86211753    4.35758405   -2.21105453
     atom   16 type  3   force =    -8.05215425   -0.27941668    5.25234567
     The core correction contribution to forces
     atom    1 type  1   force =     0.00040908   -0.00074809   -0.00000430
     atom    2 type  1   force =    -0.00038470    0.00075557   -0.00000425
     atom    3 type  2   force =     0.00000131    0.00000069    0.00000022
     atom    4 type  2   force =     0.00000424    0.00000246    0.00000096
     atom    5 type  3   force =    -0.00239726   -0.00319508    0.00174283
     atom    6 type  3   force =    -0.00399020   -0.00018818    0.00172657
     atom    7 type  3   force =    -0.00201232    0.00147634   -0.00354360
     atom    8 type  3   force =     0.00239772    0.00319547   -0.00174315
     atom    9 type  3   force =     0.00009021   -0.00249458   -0.00356638
     atom   10 type  3   force =     0.00201385   -0.00147587    0.00354396
     atom   11 type  3   force =    -0.00017702   -0.00418404   -0.00031888
     atom   12 type  3   force =    -0.00355871    0.00220395   -0.00032520
     atom   13 type  3   force =     0.00017738    0.00418301    0.00031813
     atom   14 type  3   force =    -0.00009070    0.00249425    0.00356608
     atom   15 type  3   force =     0.00356000   -0.00220445    0.00032471
     atom   16 type  3   force =     0.00399069    0.00018809   -0.00172676
     The Hubbard contrib.    to forces
     atom    1 type  1   force =     0.00000000    0.00000000    0.00000000
     atom    2 type  1   force =     0.00000000    0.00000000    0.00000000
     atom    3 type  2   force =     0.00000000    0.00000000    0.00000000
     atom    4 type  2   force =     0.00000000    0.00000000    0.00000000
     atom    5 type  3   force =     0.00000000    0.00000000    0.00000000
     atom    6 type  3   force =     0.00000000    0.00000000    0.00000000
     atom    7 type  3   force =     0.00000000    0.00000000    0.00000000
     atom    8 type  3   force =     0.00000000    0.00000000    0.00000000
     atom    9 type  3   force =     0.00000000    0.00000000    0.00000000
     atom   10 type  3   force =     0.00000000    0.00000000    0.00000000
     atom   11 type  3   force =     0.00000000    0.00000000    0.00000000
     atom   12 type  3   force =     0.00000000    0.00000000    0.00000000
     atom   13 type  3   force =     0.00000000    0.00000000    0.00000000
     atom   14 type  3   force =     0.00000000    0.00000000    0.00000000
     atom   15 type  3   force =     0.00000000    0.00000000    0.00000000
     atom   16 type  3   force =     0.00000000    0.00000000    0.00000000
     The SCF correction term to forces
     atom    1 type  1   force =     0.00002532   -0.00008027   -0.00000861
     atom    2 type  1   force =    -0.00002443    0.00008639    0.00001815
     atom    3 type  2   force =     0.00001586    0.00002097    0.00006047
     atom    4 type  2   force =     0.00001099   -0.00005604   -0.00006510
     atom    5 type  3   force =     0.00013138    0.00028083   -0.00012663
     atom    6 type  3   force =     0.00033131   -0.00004354   -0.00019033
     atom    7 type  3   force =     0.00024370   -0.00011452    0.00007331
     atom    8 type  3   force =    -0.00013545   -0.00029001    0.00021522
     atom    9 type  3   force =     0.00002391    0.00026577    0.00011426
     atom   10 type  3   force =    -0.00026150    0.00010213   -0.00012182
     atom   11 type  3   force =    -0.00009249    0.00033260   -0.00001651
     atom   12 type  3   force =     0.00019187   -0.00028011    0.00004961
     atom   13 type  3   force =     0.00007781   -0.00031034   -0.00004695
     atom   14 type  3   force =    -0.00003021   -0.00028084   -0.00007537
     atom   15 type  3   force =    -0.00019658    0.00027749    0.00003454
     atom   16 type  3   force =    -0.00033037    0.00004167    0.00012562

     Total force =     0.035298     Total SCF correction =     0.001167

     Computing stress (Cartesian axis) and pressure

     negative rho (up, down):  1.803E-01 0.000E+00
          total   stress  (Ry/bohr**3)                   (kbar)     P=      -15.34
  -0.00007984   0.00003348  -0.00000722          -11.75        4.93       -1.06
   0.00003348  -0.00012532  -0.00000382            4.93      -18.44       -0.56
  -0.00000722  -0.00000382  -0.00010761           -1.06       -0.56      -15.83

     kinetic stress (kbar)   6120.72      7.70      4.40
                                7.70   6110.26      2.33
                                4.40      2.33   6085.54

     local   stress (kbar)  -6195.09     80.68     29.55
                               80.68  -6304.66     15.65
                               29.55     15.65  -6490.59

     nonloc. stress (kbar)   4438.16      1.12      1.84
                                1.12   4436.64      0.97
                                1.84      0.97   4424.33

     hartree stress (kbar)   3677.21    -61.10     -2.60
                              -61.10   3760.19     -1.38
                               -2.60     -1.38   3805.01

     exc-cor stress (kbar)   3491.33      0.04      0.00
                                0.04   3491.28      0.00
                                0.00      0.00   3491.32

     corecor stress (kbar)  -5538.75     -0.14     -0.17
                               -0.14  -5538.56     -0.09
                               -0.17     -0.09  -5537.53

     ewald   stress (kbar)  -6005.33    -23.37    -34.07
                              -23.37  -5973.59    -18.05
                              -34.07    -18.05  -5793.91

     hubbard stress (kbar)      0.00      0.00      0.00
                                0.00      0.00      0.00
                                0.00      0.00      0.00

     DFT-D   stress (kbar)      0.00      0.00      0.00
                                0.00      0.00      0.00
                                0.00      0.00      0.00

     XDM     stress (kbar)      0.00      0.00      0.00
                                0.00      0.00      0.00
                                0.00      0.00      0.00

     dft-nl  stress (kbar)      0.00      0.00      0.00
                                0.00      0.00      0.00
                                0.00      0.00      0.00

     TS-vdW  stress (kbar)      0.00      0.00      0.00
                                0.00      0.00      0.00
                                0.00      0.00      0.00

[...]

                                0.00      0.00      0.00

     Writing all to output data dir new_calculations/myprefix.save/

     General routines

     Parallel routines

   This run was terminated on:   5: 0:18  21May2023

   JOB DONE.