     Program PWSCF v.7.0 starts on 20May2023 at  4:24:15

     Reading input from espresso_15043.pwi
Warning: card &CELL ignored
Warning: card / ignored

     Current dimensions of program PWSCF are:
     Max number of different atomic species (ntypx) = 10
     Max number of k-points (npk) =  40000
     Max angular momentum in pseudopotentials (lmaxx) =  4
     file K.pbe-spn-kjpaw_psl.1.0.0.UPF: wavefunction(s)  3S renormalized
     file O.pbe-n-kjpaw_psl.0.1.UPF: wavefunction(s)  2P renormalized

     gamma-point specific algorithms are used
     Message from routine setup:
     using ibrav=0 with symmetry is DISCOURAGED, use correct ibrav instead

     Subspace diagonalization in iterative solution of the eigenvalue problem:
     a serial algorithm will be used

     Using Slab Decomposition

     bravais-lattice index     =            0
     lattice parameter (alat)  =      13.3149  a.u.
     unit-cell volume          =    1849.0645 (a.u.)^3
     number of atoms/cell      =           14
     number of atomic types    =            3
     number of electrons       =       112.00
     number of Kohn-Sham states=           67
     kinetic-energy cutoff     =      30.0000  Ry
     charge density cutoff     =     240.0000  Ry
     scf convergence threshold =      1.0E-06
     mixing beta               =       0.7000
     number of iterations used =            8  plain     mixing
     Exchange-correlation= SLA  PW   PBX  PBC
                           (   1   4   3   4   0   0   0)

     celldm(1)=  13.314915  celldm(2)=   0.000000  celldm(3)=   0.000000
     celldm(4)=   0.000000  celldm(5)=   0.000000  celldm(6)=   0.000000

     crystal axes: (cart. coord. in units of alat)
               a(1) = (   1.000000   0.000000   0.000000 )
               a(2) = (   0.601470   0.798895   0.000000 )
               a(3) = (   0.431218   0.215113   0.980499 )

     reciprocal axes: (cart. coord. in units 2 pi/alat)
               b(1) = (  1.000000 -0.752878 -0.274619 )
               b(2) = (  0.000000  1.251729 -0.274619 )
               b(3) = (  0.000000  0.000000  1.019889 )

     PseudoPot. # 1 for K  read from file:
     /home/pragov/projects/rrg-bengioy-ad/pragov/crystal_structure_design/SSSP/K.pbe-spn-kjpaw_psl.1.0.0.UPF
     MD5 check sum: 7d58810084cac21f60fbe77ea2b688fd
     Pseudo is Projector augmented-wave + core cor, Zval =  9.0
     Generated using "atomic" code by A. Dal Corso  v.5.1
     Shape of augmentation charge: PSQ
     Using radial grid of 1165 points,  6 beta functions with:
                l(1) =   0
                l(2) =   0
                l(3) =   1
                l(4) =   1
                l(5) =   2
                l(6) =   2
     Q(r) pseudized with 0 coefficients

     PseudoPot. # 2 for W  read from file:
     /home/pragov/projects/rrg-bengioy-ad/pragov/crystal_structure_design/SSSP/W_pbe_v1.2.uspp.F.UPF
     MD5 check sum: 9c083fa34c2a2ea0f02f1f893e16e1c8
     Pseudo is Ultrasoft + core correction, Zval = 14.0
     Generated by new atomic code, or converted to UPF format
     Using radial grid of  923 points,  8 beta functions with:
                l(1) =   0
                l(2) =   0
                l(3) =   0
                l(4) =   1
                l(5) =   1
                l(6) =   2
                l(7) =   2
                l(8) =   3
     Q(r) pseudized with  6 coefficients,  rinner =    1.350   1.350   1.350
                                                       1.350   1.350   1.350
                                                       1.350

     PseudoPot. # 3 for O  read from file:
     /home/pragov/projects/rrg-bengioy-ad/pragov/crystal_structure_design/SSSP/O.pbe-n-kjpaw_psl.0.1.UPF
     MD5 check sum: 0234752ac141de4415c5fc33072bef88
     Pseudo is Projector augmented-wave + core cor, Zval =  6.0
     Generated using "atomic" code by A. Dal Corso  v.5.0.99 svn rev. 10869
     Shape of augmentation charge: BESSEL
     Using radial grid of 1095 points,  4 beta functions with:
                l(1) =   0
                l(2) =   0
                l(3) =   1
                l(4) =   1
     Q(r) pseudized with 0 coefficients

     atomic species   valence    mass     pseudopotential
        K              9.00    39.09830     K ( 1.00)
        W             14.00   183.84000     W ( 1.00)
        O              6.00    15.99900     O ( 1.00)

      2 Sym. Ops., with inversion, found

                                    s                        frac. trans.

      isym =  1     identity

 cryst.   s( 1) = (     1          0          0      )
                  (     0          1          0      )
                  (     0          0          1      )

 cart.    s( 1) = (  1.0000000  0.0000000  0.0000000 )
                  (  0.0000000  1.0000000  0.0000000 )
                  (  0.0000000  0.0000000  1.0000000 )

      isym =  2     inversion

 cryst.   s( 2) = (    -1          0          0      )
                  (     0         -1          0      )
                  (     0          0         -1      )

 cart.    s( 2) = ( -1.0000000 -0.0000000 -0.0000000 )
                  (  0.0000000 -1.0000000 -0.0000000 )
                  (  0.0000000  0.0000000 -1.0000000 )

   Cartesian axes

     site n.     atom                  positions (alat units)
         1           K   tau(   1) = (   1.1429166   0.5701450   0.7521330  )
         2           K   tau(   2) = (   0.8897717   0.4438634   0.2283661  )
         3           K   tau(   3) = (   0.3586605   0.1789181   0.2468328  )
         4           K   tau(   4) = (   1.6740278   0.8350903   0.7336663  )
         5           W   tau(   5) = (   0.6145481   0.3065679   0.7560217  )
         6           W   tau(   6) = (   1.4181402   0.7074405   0.2244774  )
         7           O   tau(   7) = (   1.3221388   0.9225498   0.9042977  )
         8           O   tau(   8) = (   0.5004404   0.5126448   0.0762014  )
         9           O   tau(   9) = (   0.7105495   0.0914586   0.0762014  )
        10           O   tau(  10) = (   1.5322479   0.5013636   0.9042977  )
        11           O   tau(  11) = (   1.6169740   0.8066290   0.3566134  )
        12           O   tau(  12) = (   0.4157143   0.2073794   0.6238857  )
        13           O   tau(  13) = (   0.7992112   0.3986872   0.6002292  )
        14           O   tau(  14) = (   1.2334771   0.6153212   0.3802699  )

   Crystallographic axes

     site n.     atom                  positions (cryst. coord.)
         1           K   tau(   1) = (  0.5071170  0.5071170  0.7670920  )
         2           K   tau(   2) = (  0.4928830  0.4928830  0.2329080  )
         3           K   tau(   3) = (  0.1561720  0.1561720  0.2517420  )
         4           K   tau(   4) = (  0.8438280  0.8438280  0.7482580  )
         5           W   tau(   5) = (  0.1761220  0.1761220  0.7710580  )
         6           W   tau(   6) = (  0.8238780  0.8238780  0.2289420  )
         7           O   tau(   7) = (  0.3792340  0.9064450  0.9222830  )
         8           O   tau(   8) = (  0.0935550  0.6207660  0.0777170  )
         9           O   tau(   9) = (  0.6207660  0.0935550  0.0777170  )
        10           O   tau(  10) = (  0.9064450  0.3792340  0.9222830  )
        11           O   tau(  11) = (  0.9117480  0.9117480  0.3637060  )
        12           O   tau(  12) = (  0.0882520  0.0882520  0.6362940  )
        13           O   tau(  13) = (  0.3342140  0.3342140  0.6121670  )
        14           O   tau(  14) = (  0.6657860  0.6657860  0.3878330  )

     number of k points=     1  Methfessel-Paxton smearing, width (Ry)=  0.0010
                       cart. coord. in units 2pi/alat
        k(    1) = (   0.0000000   0.0000000   0.0000000), wk =   2.0000000

                       cryst. coord.
        k(    1) = (   0.0000000   0.0000000   0.0000000), wk =   2.0000000

     Check: negative core charge=   -0.000010

     Initial potential from superposition of free atoms

     starting charge     111.7240, renormalised to     112.0000

     negative rho (up, down):  1.269E-01 0.000E+00
     Starting wfcs are   90 randomized atomic wfcs
     Checking if some PAW data can be deallocated...

     Self-consistent Calculation

     iteration #  1     ecut=    30.00 Ry     beta= 0.70
     Davidson diagonalization with overlap

     ethr =  1.00E-02,  avg # of iterations =  2.0

     negative rho (up, down):  1.198E-01 0.000E+00

     total energy              =   -1101.47520205 Ry
     estimated scf accuracy    <       4.83510412 Ry

[...]

     total energy              =   -1104.23828670 Ry
     estimated scf accuracy    <       0.00000494 Ry

     iteration # 10     ecut=    30.00 Ry     beta= 0.70
     Davidson diagonalization with overlap

     ethr =  4.41E-09,  avg # of iterations =  2.0

[...]

     End of self-consistent calculation

          k = 0.0000 0.0000 0.0000 (  2584 PWs)   bands (ev):

   -69.8986 -69.8985 -34.3114 -34.3101 -34.3015 -34.3015 -34.2903 -34.2892
   -24.2955 -24.2660 -24.2093 -24.2028 -13.0894 -12.9737 -12.6029 -12.5494
   -12.5240 -12.5031 -12.4714 -12.4326  -7.8958  -7.8935  -7.8501  -7.8022
    -7.7806  -7.7091  -7.6957  -7.6902  -7.6774  -7.6696  -7.6383  -7.6156
     0.1422   0.2028   0.2124   0.3351   0.3379   0.4607   0.4823   0.5015
     0.5205   0.6033   0.7615   0.9269   1.8851   2.0670   2.1339   2.3445
     2.4610   2.6179   2.7115   2.8886   2.9158   2.9383   2.9936   3.0819
     7.6436   7.9843   8.1197   8.2383   8.4159   9.4027   9.4448   9.5619
     9.6847   9.9515  10.1507

     occupation numbers
     1.0000   1.0000   1.0000   1.0000   1.0000   1.0000   1.0000   1.0000
     1.0000   1.0000   1.0000   1.0000   1.0000   1.0000   1.0000   1.0000
     1.0000   1.0000   1.0000   1.0000   1.0000   1.0000   1.0000   1.0000
     1.0000   1.0000   1.0000   1.0000   1.0000   1.0000   1.0000   1.0000
     1.0000   1.0000   1.0000   1.0000   1.0000   1.0000   1.0000   1.0000
     1.0000   1.0000   1.0000   1.0000   1.0000   1.0000   1.0000   1.0000
     1.0000   1.0000   1.0000   1.0000   1.0000   1.0000   1.0000   1.0000
    -0.0000  -0.0000  -0.0000  -0.0000  -0.0000  -0.0000  -0.0000  -0.0000
    -0.0000  -0.0000  -0.0000

     the Fermi energy is     5.2667 ev

!    total energy              =   -1104.23828698 Ry
     estimated scf accuracy    <       0.00000042 Ry
     smearing contrib. (-TS)   =       0.00000000 Ry
     internal energy E=F+TS    =   -1104.23828698 Ry

     The total energy is F=E-TS. E is the sum of the following terms:
     one-electron contribution =    -390.00803544 Ry
     hartree contribution      =     236.98001585 Ry
     xc contribution           =    -186.64596888 Ry
     ewald contribution        =    -466.66862864 Ry
     one-center paw contrib.   =    -297.89566988 Ry
      -> PAW hartree energy AE =     384.43955566 Ry
      -> PAW hartree energy PS =    -382.79864955 Ry
      -> PAW xc energy AE      =    -401.72666997 Ry
      -> PAW xc energy PS      =     102.19009398 Ry
      -> total E_H with PAW    =     238.62092196 Ry
      -> total E_XC with PAW   =    -486.18254486 Ry

     convergence has been achieved in  10 iterations

     negative rho (up, down):  1.214E-01 0.000E+00

     Forces acting on atoms (cartesian axes, Ry/au):

     atom    1 type  1   force =    -0.00022965   -0.00011983    0.00115299
     atom    2 type  1   force =     0.00022965    0.00011983   -0.00115299
     atom    3 type  1   force =    -0.00019782   -0.00012304   -0.00313860
     atom    4 type  1   force =     0.00019782    0.00012304    0.00313860
     atom    5 type  2   force =    -0.00028221   -0.00011172    0.01070865
     atom    6 type  2   force =     0.00028221    0.00011172   -0.01070865
     atom    7 type  3   force =    -0.01040371    0.02489626   -0.02679594
     atom    8 type  3   force =    -0.01361699    0.02322451    0.02676038
     atom    9 type  3   force =     0.01040371   -0.02489626    0.02679594
     atom   10 type  3   force =     0.01361699   -0.02322451   -0.02676038
     atom   11 type  3   force =    -0.02861253   -0.01426855   -0.02054593
     atom   12 type  3   force =     0.02861253    0.01426855    0.02054593
     atom   13 type  3   force =    -0.02709646   -0.01352109    0.01868764
     atom   14 type  3   force =     0.02709646    0.01352109   -0.01868764
     The non-local contrib.  to forces
     atom    1 type  1   force =    -0.00068181   -0.00033853   -0.00363928
     atom    2 type  1   force =     0.00068181    0.00033853    0.00363928
     atom    3 type  1   force =     0.00019556    0.00011130    0.00217524
     atom    4 type  1   force =    -0.00019556   -0.00011130   -0.00217524
     atom    5 type  2   force =    -0.00336821   -0.00162269    0.00779343
     atom    6 type  2   force =     0.00336821    0.00162269   -0.00779343
     atom    7 type  3   force =    -0.47839781    0.84672137   -0.68211088
     atom    8 type  3   force =    -0.38868269    0.89140271    0.68206659
     atom    9 type  3   force =     0.47839781   -0.84672137    0.68211088
     atom   10 type  3   force =     0.38868269   -0.89140271   -0.68206659
     atom   11 type  3   force =    -0.90076727   -0.44934170   -0.60118667
     atom   12 type  3   force =     0.90076727    0.44934170    0.60118667
     atom   13 type  3   force =    -0.83572587   -0.41690629    0.73190287
     atom   14 type  3   force =     0.83572587    0.41690629   -0.73190287
     The ionic contribution  to forces
     atom    1 type  1   force =    -1.27090288   -0.63399106   -2.53261075
     atom    2 type  1   force =     1.27090288    0.63399106    2.53261075
     atom    3 type  1   force =    -0.61778486   -0.30818254    2.70994842
     atom    4 type  1   force =     0.61778486    0.30818254   -2.70994842
     atom    5 type  2   force =     0.40606696    0.20256687   -3.46111868
     atom    6 type  2   force =    -0.40606697   -0.20256687    3.46111868
     atom    7 type  3   force =     4.99884197   -7.84875654    5.89380510
     atom    8 type  3   force =     3.26367650   -8.71434541   -5.89380510
     atom    9 type  3   force =    -4.99884197    7.84875653   -5.89380510
     atom   10 type  3   force =    -3.26367650    8.71434541    5.89380510
     atom   11 type  3   force =     8.81247197    4.39610965    6.78020853
     atom   12 type  3   force =    -8.81247197   -4.39610965   -6.78020853
     atom   13 type  3   force =     8.54911735    4.26473496   -7.43823841
     atom   14 type  3   force =    -8.54911735   -4.26473496    7.43823841
     The local contribution  to forces
     atom    1 type  1   force =     1.27123973    0.63410509    2.53750979
     atom    2 type  1   force =    -1.27123384   -0.63424077   -2.53755850
     atom    3 type  1   force =     0.61714267    0.30789203   -2.71552574
     atom    4 type  1   force =    -0.61699139   -0.30782425    2.71538885
     atom    5 type  2   force =    -0.40337410   -0.20069768    3.46433529
     atom    6 type  2   force =     0.40313576    0.20115472   -3.46432033
     atom    7 type  3   force =    -4.53493217    7.03402494   -5.24403028
     atom    8 type  3   force =    -2.89184106    7.85364161    5.24401603
     atom    9 type  3   force =     4.53492286   -7.03396029    5.24399491
     atom   10 type  3   force =     2.89178704   -7.85360151   -5.24398951
     atom   11 type  3   force =    -7.94778137   -3.96474331   -6.20485159
     atom   12 type  3   force =     7.94776656    3.96480276    6.20485596
     atom   13 type  3   force =    -7.74734872   -3.86473698    6.73126964
     atom   14 type  3   force =     7.74733488    3.86474826   -6.73125826
     The core correction contribution to forces
     atom    1 type  1   force =     0.00008825    0.00004455    0.00018401
     atom    2 type  1   force =    -0.00009028   -0.00004461   -0.00018475
     atom    3 type  1   force =     0.00015385    0.00007614   -0.00005783
     atom    4 type  1   force =    -0.00015045   -0.00007414    0.00005474
     atom    5 type  2   force =    -0.00001094    0.00001297    0.00031480
     atom    6 type  2   force =     0.00000056    0.00000239   -0.00031255
     atom    7 type  3   force =     0.00409692   -0.00729715    0.00578438
     atom    8 type  3   force =     0.00336544   -0.00766148   -0.00578381
     atom    9 type  3   force =    -0.00409679    0.00729689   -0.00578409
     atom   10 type  3   force =    -0.00336528    0.00766102    0.00578372
     atom   11 type  3   force =     0.00773032    0.00385619    0.00522924
     atom   12 type  3   force =    -0.00773040   -0.00385615   -0.00522928
     atom   13 type  3   force =     0.00719366    0.00358859   -0.00639043
     atom   14 type  3   force =    -0.00719353   -0.00358853    0.00639040
     The Hubbard contrib.    to forces
     atom    1 type  1   force =     0.00000000    0.00000000    0.00000000
     atom    2 type  1   force =     0.00000000    0.00000000    0.00000000
     atom    3 type  1   force =     0.00000000    0.00000000    0.00000000
     atom    4 type  1   force =     0.00000000    0.00000000    0.00000000
     atom    5 type  2   force =     0.00000000    0.00000000    0.00000000
     atom    6 type  2   force =     0.00000000    0.00000000    0.00000000
     atom    7 type  3   force =     0.00000000    0.00000000    0.00000000
     atom    8 type  3   force =     0.00000000    0.00000000    0.00000000
     atom    9 type  3   force =     0.00000000    0.00000000    0.00000000
     atom   10 type  3   force =     0.00000000    0.00000000    0.00000000
     atom   11 type  3   force =     0.00000000    0.00000000    0.00000000
     atom   12 type  3   force =     0.00000000    0.00000000    0.00000000
     atom   13 type  3   force =     0.00000000    0.00000000    0.00000000
     atom   14 type  3   force =     0.00000000    0.00000000    0.00000000
     The SCF correction term to forces
     atom    1 type  1   force =    -0.00000553    0.00006491   -0.00030724
     atom    2 type  1   force =    -0.00006349    0.00008043    0.00032376
     atom    3 type  1   force =     0.00014511    0.00000476    0.00027070
     atom    4 type  1   force =    -0.00019950   -0.00002508   -0.00023194
     atom    5 type  2   force =     0.00042210   -0.00039747   -0.00061986
     atom    6 type  2   force =    -0.00013732   -0.00012749    0.00059530
     atom    7 type  3   force =    -0.00002059    0.00020459   -0.00024405
     atom    8 type  3   force =    -0.00013423    0.00019213    0.00027183
     atom    9 type  3   force =     0.00001385   -0.00026707    0.00027952
     atom   10 type  3   force =     0.00018997   -0.00022166   -0.00028794
     atom   11 type  3   force =    -0.00026723   -0.00015157    0.00005371
     atom   12 type  3   force =     0.00028001    0.00008771   -0.00005975
     atom   13 type  3   force =    -0.00032810   -0.00020209    0.00014319
     atom   14 type  3   force =     0.00035137    0.00018931   -0.00015609

     Total force =     0.106993     Total SCF correction =     0.001613

     Computing stress (Cartesian axis) and pressure

     negative rho (up, down):  1.214E-01 0.000E+00
          total   stress  (Ry/bohr**3)                   (kbar)     P=     -231.85
  -0.00158022  -0.00000121   0.00001357         -232.46       -0.18        2.00
  -0.00000121  -0.00157842   0.00000670           -0.18     -232.19        0.98
   0.00001357   0.00000670  -0.00156970            2.00        0.98     -230.91

     kinetic stress (kbar)  16948.08      5.65     -9.35
                                5.65  16939.57     -4.67
                               -9.35     -4.67  16965.73

     local   stress (kbar)  -8026.38   -277.70    554.57
                             -277.70  -7608.25    276.60
                              554.57    276.60  -7783.79

     nonloc. stress (kbar)    527.47     -1.16      1.23
                               -1.16    529.21      0.62
                                1.23      0.62    528.02

     hartree stress (kbar)   6365.25     95.62   -285.52
                               95.62   6221.31   -142.40
                             -285.52   -142.40   6266.74

     exc-cor stress (kbar)   1472.85      0.72     -0.15
                                0.72   1471.76     -0.08
                               -0.15     -0.08   1472.97

     corecor stress (kbar)  -5286.59      0.02     -0.07
                                0.02  -5286.63     -0.03
                               -0.07     -0.03  -5286.37

     ewald   stress (kbar) -12233.14    176.67   -258.71
                              176.67 -12499.17   -129.06
                             -258.71   -129.06 -12394.21

     hubbard stress (kbar)      0.00      0.00      0.00
                                0.00      0.00      0.00
                                0.00      0.00      0.00

     DFT-D   stress (kbar)      0.00      0.00      0.00
                                0.00      0.00      0.00
                                0.00      0.00      0.00

     XDM     stress (kbar)      0.00      0.00      0.00
                                0.00      0.00      0.00
                                0.00      0.00      0.00

     dft-nl  stress (kbar)      0.00      0.00      0.00
                                0.00      0.00      0.00
                                0.00      0.00      0.00

     TS-vdW  stress (kbar)      0.00      0.00      0.00
                                0.00      0.00      0.00
                                0.00      0.00      0.00

[...]

                                0.00      0.00      0.00

     Writing all to output data dir new_calculations/myprefix.save/

     General routines

     Parallel routines

     PAW routines

   This run was terminated on:   4:24:55  20May2023

   JOB DONE.