     Program PWSCF v.7.0 starts on 21May2023 at  4:16:42

     Reading input from espresso_3046.pwi
Warning: card &CELL ignored
Warning: card / ignored

     Current dimensions of program PWSCF are:
     Max number of different atomic species (ntypx) = 10
     Max number of k-points (npk) =  40000
     Max angular momentum in pseudopotentials (lmaxx) =  4
     file Nb.pbe-spn-kjpaw_psl.0.3.0.UPF: wavefunction(s)  4S 4P renormalized

     gamma-point specific algorithms are used

     Subspace diagonalization in iterative solution of the eigenvalue problem:
     a serial algorithm will be used

     Using Slab Decomposition

     bravais-lattice index     =            0
     lattice parameter (alat)  =      12.7838  a.u.
     unit-cell volume          =    1529.7873 (a.u.)^3
     number of atoms/cell      =           12
     number of atomic types    =            3
     number of electrons       =       103.00
     number of Kohn-Sham states=           62
     kinetic-energy cutoff     =      30.0000  Ry
     charge density cutoff     =     240.0000  Ry
     scf convergence threshold =      1.0E-06
     mixing beta               =       0.7000
     number of iterations used =            8  plain     mixing
     Exchange-correlation=  SLA  PW   PBX  PBC
                           (   1   4   3   4   0   0   0)

     celldm(1)=  12.783757  celldm(2)=   0.000000  celldm(3)=   0.000000
     celldm(4)=   0.000000  celldm(5)=   0.000000  celldm(6)=   0.000000

     crystal axes: (cart. coord. in units of alat)
               a(1) = (   1.000000   0.000000   0.000000 )
               a(2) = (   0.517040   0.880610   0.000000 )
               a(3) = (   0.516897   0.283621   0.831519 )

     reciprocal axes: (cart. coord. in units 2 pi/alat)
               b(1) = (  1.000000 -0.587139 -0.421364 )
               b(2) = (  0.000000  1.135577 -0.387331 )
               b(3) = (  0.000000  0.000000  1.202619 )

     PseudoPot. # 1 for Nb read from file:
     /home/pragov/projects/rrg-bengioy-ad/pragov/crystal_structure_design/SSSP/Nb.pbe-spn-kjpaw_psl.0.3.0.UPF
     MD5 check sum: 411d72ad547312f8017e2943ceca08cc
     Pseudo is Projector augmented-wave + core cor, Zval = 13.0
     Generated using "atomic" code by A. Dal Corso  v.5.0.99 svn rev. 10869
     Shape of augmentation charge: PSQ
     Using radial grid of 1227 points,  6 beta functions with:
                l(1) =   0
                l(2) =   0
                l(3) =   1
                l(4) =   1
                l(5) =   2
                l(6) =   2
     Q(r) pseudized with 0 coefficients

     PseudoPot. # 2 for Cr read from file:
     /home/pragov/projects/rrg-bengioy-ad/pragov/crystal_structure_design/SSSP/cr_pbe_v1.5.uspp.F.UPF
     MD5 check sum: 0d52af634a40206e4dee301ad30da4bf
     Pseudo is Ultrasoft + core correction, Zval = 14.0
     Generated by new atomic code, or converted to UPF format
     Using radial grid of  857 points,  6 beta functions with:
                l(1) =   0
                l(2) =   0
                l(3) =   1
                l(4) =   1
                l(5) =   2
                l(6) =   2
     Q(r) pseudized with  8 coefficients,  rinner =    0.950   0.950   0.950
                                                       0.950   0.950

     PseudoPot. # 3 for S  read from file:
     /home/pragov/projects/rrg-bengioy-ad/pragov/crystal_structure_design/SSSP/s_pbe_v1.4.uspp.F.UPF
     MD5 check sum: 88d86576ff6df21479756cfb9bdac1df
     Pseudo is Ultrasoft + core correction, Zval =  6.0
     Generated by new atomic code, or converted to UPF format
     Using radial grid of  907 points,  6 beta functions with:
                l(1) =   0
                l(2) =   0
                l(3) =   1
                l(4) =   1
                l(5) =   2
                l(6) =   2
     Q(r) pseudized with  8 coefficients,  rinner =    1.300   1.300   1.300
                                                       1.300   1.300

     atomic species   valence    mass     pseudopotential
        Nb            13.00    92.90637     Nb( 1.00)
        Cr            14.00    51.99610     Cr( 1.00)
        S              6.00    32.06000     S ( 1.00)

     No symmetry found

                                    s                        frac. trans.

      isym =  1     identity

 cryst.   s( 1) = (     1          0          0      )
                  (     0          1          0      )
                  (     0          0          1      )

 cart.    s( 1) = (  1.0000000  0.0000000 -0.0000000 )
                  (  0.0000000  1.0000000 -0.0000000 )
                  (  0.0000000  0.0000000  1.0000000 )

   Cartesian axes

     site n.     atom                  positions (alat units)
         1           Nb  tau(   1) = (   1.5169727   0.5821554   0.4158101  )
         2           Cr  tau(   2) = (   1.0169789   0.5820541   0.4157145  )
         3           Cr  tau(   3) = (   0.7583729   0.4402901   0.0000366  )
         4           Cr  tau(   4) = (   0.7585285   0.1418647   0.4158309  )
         5           S   tau(   5) = (   1.5187677   0.8785894   0.6277077  )
         6           S   tau(   6) = (   0.7752377   0.4284483   0.6219586  )
         7           S   tau(   7) = (   0.7752195   0.7281873   0.2041187  )
         8           S   tau(   8) = (   0.9978323   0.2973163   0.2123183  )
         9           S   tau(   9) = (   1.2587238   0.4360119   0.6273676  )
        10           S   tau(  10) = (   1.0360842   0.8668945   0.6190241  )
        11           S   tau(  11) = (   0.5151995   0.2856636   0.2038385  )
        12           S   tau(  12) = (   1.2587286   0.7357933   0.2096184  )

   Crystallographic axes

     site n.     atom                  positions (cryst. coord.)
         1           Nb  tau(   1) = (  0.9999590  0.5000260  0.5000610  )
         2           Cr  tau(   2) = (  0.5000650  0.4999480  0.4999460  )
         3           Cr  tau(   3) = (  0.4998460  0.4999690  0.0000440  )
         4           Cr  tau(   4) = (  0.5000180  0.0000340  0.5000860  )
         5           S   tau(   5) = (  0.7384200  0.7545750  0.7548930  )
         6           S   tau(   6) = (  0.2616080  0.2456320  0.7479790  )
         7           S   tau(   7) = (  0.2616640  0.7478510  0.2454770  )
         8           S   tau(   8) = (  0.7338030  0.2553880  0.2553380  )
         9           S   tau(   9) = (  0.7383740  0.2521260  0.7544840  )
        10           S   tau(  10) = (  0.2662620  0.7446580  0.7444500  )
        11           S   tau(  11) = (  0.2615850  0.2454400  0.2451400  )
        12           S   tau(  12) = (  0.7383900  0.7543580  0.2520910  )

     number of k points=     1  Methfessel-Paxton smearing, width (Ry)=  0.0010
                       cart. coord. in units 2pi/alat
        k(    1) = (   0.0000000   0.0000000   0.0000000), wk =   2.0000000

                       cryst. coord.
        k(    1) = (   0.0000000   0.0000000   0.0000000), wk =   2.0000000

     Check: negative core charge=   -0.000008

     Initial potential from superposition of free atoms

     starting charge      99.9975, renormalised to     103.0000

     negative rho (up, down):  4.555E-03 0.000E+00
     Starting wfcs are   72 randomized atomic wfcs
     Checking if some PAW data can be deallocated...

     Self-consistent Calculation

     iteration #  1     ecut=    30.00 Ry     beta= 0.70
     Davidson diagonalization with overlap

     ethr =  1.00E-02,  avg # of iterations =  2.0

     negative rho (up, down):  5.383E-03 0.000E+00

     total energy              =   -1051.24768130 Ry
     estimated scf accuracy    <       3.93789528 Ry

[...]

     ethr =  3.95E-06,  avg # of iterations =  1.0
     Minimization algorithm failed to find Fermi energy: reverting to bisection
     Possible cause: smearing is larger than the electronic band-gap.

[...]

     ethr =  6.98E-08,  avg # of iterations =  1.0
     Minimization algorithm failed to find Fermi energy: reverting to bisection
     Possible cause: smearing is larger than the electronic band-gap.

[...]

     total energy              =   -1053.52298870 Ry
     estimated scf accuracy    <       0.00000241 Ry

     iteration # 80     ecut=    30.00 Ry     beta= 0.70
     Davidson diagonalization with overlap

     ethr =  1.01E-09,  avg # of iterations =  1.0

[...]

     End of self-consistent calculation

          k = 0.0000 0.0000 0.0000 (  2114 PWs)   bands (ev):

   -63.7562 -63.7544 -63.7534 -47.2186 -35.3256 -35.3129 -35.3118 -34.9742
   -34.9641 -34.9547 -34.9520 -34.9434 -34.9369 -23.5011 -23.2241 -23.2144
    -5.8294  -4.1865  -4.0125  -3.9947  -3.9617  -3.9558  -3.9355  -3.7985
     2.4205   2.4382   2.4454   2.6843   3.6162   3.6197   3.7321   4.8251
     4.8259   5.0890   5.1089   5.3654   5.7779   5.7781   5.8444   6.2253
     6.2949   6.3112   6.5171   6.5318   6.6944   7.1558   7.1578   7.7787
     8.1220   8.1241   8.1247   8.1290   8.2228   8.2642   8.3868   8.4350
     8.4470   9.5337   9.5814   9.6042  11.0750  11.0841

     occupation numbers
     1.0000   1.0000   1.0000   1.0000   1.0000   1.0000   1.0000   1.0000
     1.0000   1.0000   1.0000   1.0000   1.0000   1.0000   1.0000   1.0000
     1.0000   1.0000   1.0000   1.0000   1.0000   1.0000   1.0000   1.0000
     1.0000   1.0000   1.0000   1.0000   1.0000   1.0000   1.0000   1.0000
     1.0000   1.0000   1.0000   1.0000   1.0000   1.0000   1.0000   1.0000
     1.0000   1.0000   1.0000   1.0000   1.0000   1.0000   1.0000   1.0000
     0.9795   0.9217   0.9003   0.6985  -0.0000  -0.0000  -0.0000  -0.0000
    -0.0000  -0.0000  -0.0000  -0.0000  -0.0000  -0.0000

     the Fermi energy is     8.1323 ev

!    total energy              =   -1053.52298833 Ry
     estimated scf accuracy    <       0.00000050 Ry
     smearing contrib. (-TS)   =      -0.00034057 Ry
     internal energy E=F+TS    =   -1053.52264776 Ry

     The total energy is F=E-TS. E is the sum of the following terms:
     one-electron contribution =    -479.59698720 Ry
     hartree contribution      =     277.68905867 Ry
     xc contribution           =    -163.34373008 Ry
     ewald contribution        =    -479.78723864 Ry
     one-center paw contrib.   =    -208.48375052 Ry
      -> PAW hartree energy AE =      67.74353265 Ry
      -> PAW hartree energy PS =     -67.37530469 Ry
      -> PAW xc energy AE      =    -235.78765316 Ry
      -> PAW xc energy PS      =      26.93567468 Ry
      -> total E_H with PAW    =     278.05728663 Ry
      -> total E_XC with PAW   =    -372.19570856 Ry

     convergence has been achieved in  80 iterations

     negative rho (up, down):  4.539E-03 0.000E+00

     Forces acting on atoms (cartesian axes, Ry/au):

     atom    1 type  1   force =    -0.00061428    0.00043626    0.00013680
     atom    2 type  2   force =     0.00071833   -0.00141007    0.00118829
     atom    3 type  2   force =    -0.00153813    0.00027214    0.00220253
     atom    4 type  2   force =     0.00133767   -0.00048863    0.00155065
     atom    5 type  3   force =    -0.01093947    0.00733553    0.00477226
     atom    6 type  3   force =     0.01264886   -0.00585700   -0.00171784
     atom    7 type  3   force =     0.01230345   -0.00129761   -0.00730856
     atom    8 type  3   force =    -0.00863304    0.00416160    0.00318009
     atom    9 type  3   force =    -0.01260508    0.00141566    0.00556549
     atom   10 type  3   force =     0.00891224   -0.00404693   -0.00367664
     atom   11 type  3   force =     0.01108953   -0.00654310   -0.00673278
     atom   12 type  3   force =    -0.01268008    0.00602216    0.00083970
     The non-local contrib.  to forces
     atom    1 type  1   force =    -0.00049043    0.00031905   -0.00110847
     atom    2 type  2   force =     0.00018234    0.00018139   -0.00011894
     atom    3 type  2   force =     0.00034936    0.00040129   -0.00131607
     atom    4 type  2   force =    -0.00023058    0.00002919   -0.00109443
     atom    5 type  3   force =    -0.18107294   -0.06942242   -0.04854420
     atom    6 type  3   force =     0.02916419   -0.01293490   -0.20178922
     atom    7 type  3   force =     0.02678732   -0.20163618    0.05200127
     atom    8 type  3   force =    -0.14281479    0.08397236    0.06091589
     atom    9 type  3   force =    -0.02868776    0.20023854   -0.05420931
     atom   10 type  3   force =     0.14311144   -0.08422180   -0.05969097
     atom   11 type  3   force =     0.18080038    0.06969322    0.04830633
     atom   12 type  3   force =    -0.02733121    0.01396081    0.20514391
     The ionic contribution  to forces
     atom    1 type  1   force =     0.00234697    0.00044224    0.00301859
     atom    2 type  2   force =     0.00644002    0.00271419   -0.00425133
     atom    3 type  2   force =    -0.00613467    0.00215336   -0.00809336
     atom    4 type  2   force =    -0.00034231   -0.00537810    0.00108137
     atom    5 type  3   force =     9.26881727    4.46870341    3.17220258
     atom    6 type  3   force =    -0.63426644    0.26155751   10.78077328
     atom    7 type  3   force =    -0.63086687   10.32425329   -3.19957294
     atom    8 type  3   force =     9.19819953   -5.50364093   -3.90928503
     atom    9 type  3   force =     0.63506284  -10.32211307    3.20122221
     atom   10 type  3   force =    -9.19889261    5.50315299    3.89997969
     atom   11 type  3   force =    -9.27246832   -4.47729972   -3.15914388
     atom   12 type  3   force =     0.63210458   -0.25454516  -10.77793118
     The local contribution  to forces
     atom    1 type  1   force =    -0.00248986   -0.00044289   -0.00193772
     atom    2 type  2   force =    -0.00575574   -0.00423206    0.00549812
     atom    3 type  2   force =     0.00423273   -0.00228629    0.01156696
     atom    4 type  2   force =     0.00182376    0.00501754    0.00134855
     atom    5 type  3   force =    -9.10807448   -4.39541683   -3.12113494
     atom    6 type  3   force =     0.61966350   -0.25512288  -10.59113015
     atom    7 type  3   force =     0.61815926  -10.13452824    3.14289824
     atom    8 type  3   force =    -9.07124766    5.42841380    3.85470019
     atom    9 type  3   force =    -0.62088200   10.13377902   -3.14417202
     atom   10 type  3   force =     9.07192352   -5.42758855   -3.84704308
     atom   11 type  3   force =     9.11209523    4.40451106    3.10634009
     atom   12 type  3   force =    -0.61927613    0.24729984   10.58426766
     The core correction contribution to forces
     atom    1 type  1   force =     0.00004962   -0.00003719    0.00009394
     atom    2 type  2   force =    -0.00003276   -0.00004263    0.00003584
     atom    3 type  2   force =    -0.00001727   -0.00003286    0.00008028
     atom    4 type  2   force =     0.00003105    0.00003564    0.00009554
     atom    5 type  3   force =     0.00973364    0.00340041    0.00237827
     atom    6 type  3   force =    -0.00185517    0.00092028    0.01061268
     atom    7 type  3   force =    -0.00172866    0.01067737   -0.00251842
     atom    8 type  3   force =     0.00755895   -0.00445912   -0.00323410
     atom    9 type  3   force =     0.00183458   -0.01059989    0.00263820
     atom   10 type  3   force =    -0.00757464    0.00447342    0.00316541
     atom   11 type  3   force =    -0.00971651   -0.00341289   -0.00237499
     atom   12 type  3   force =     0.00175300   -0.00098093   -0.01080216
     The Hubbard contrib.    to forces
     atom    1 type  1   force =     0.00000000    0.00000000    0.00000000
     atom    2 type  2   force =     0.00000000    0.00000000    0.00000000
     atom    3 type  2   force =     0.00000000    0.00000000    0.00000000
     atom    4 type  2   force =     0.00000000    0.00000000    0.00000000
     atom    5 type  3   force =     0.00000000    0.00000000    0.00000000
     atom    6 type  3   force =     0.00000000    0.00000000    0.00000000
     atom    7 type  3   force =     0.00000000    0.00000000    0.00000000
     atom    8 type  3   force =     0.00000000    0.00000000    0.00000000
     atom    9 type  3   force =     0.00000000    0.00000000    0.00000000
     atom   10 type  3   force =     0.00000000    0.00000000    0.00000000
     atom   11 type  3   force =     0.00000000    0.00000000    0.00000000
     atom   12 type  3   force =     0.00000000    0.00000000    0.00000000
     The SCF correction term to forces
     atom    1 type  1   force =    -0.00002774    0.00015438    0.00007007
     atom    2 type  2   force =    -0.00011268   -0.00003163    0.00002421
     atom    3 type  2   force =     0.00003456    0.00003598   -0.00003567
     atom    4 type  2   force =     0.00005860   -0.00019357    0.00011923
     atom    5 type  3   force =    -0.00034013    0.00007029   -0.00012984
     atom    6 type  3   force =    -0.00005438   -0.00027768   -0.00018482
     atom    7 type  3   force =    -0.00004476   -0.00006452   -0.00011709
     atom    8 type  3   force =    -0.00032622   -0.00012519    0.00008276
     atom    9 type  3   force =     0.00007010    0.00011038    0.00008602
     atom   10 type  3   force =     0.00034736    0.00013634   -0.00008807
     atom   11 type  3   force =     0.00038160   -0.00003544    0.00013929
     atom   12 type  3   force =     0.00007252    0.00028693    0.00016107

     Total force =     0.037792     Total SCF correction =     0.000977

     Computing stress (Cartesian axis) and pressure

     negative rho (up, down):  4.539E-03 0.000E+00
          total   stress  (Ry/bohr**3)                   (kbar)     P=      -73.50
  -0.00069233   0.00010826   0.00008389         -101.85       15.93       12.34
   0.00010826  -0.00039541  -0.00009313           15.93      -58.17      -13.70
   0.00008389  -0.00009313  -0.00041123           12.34      -13.70      -60.49

     kinetic stress (kbar)  14057.66    117.76     81.73
                              117.76  14258.34    -80.90
                               81.73    -80.90  14276.15

     local   stress (kbar)  -8587.91  -2250.25  -1601.98
                            -2250.25 -11043.79    967.40
                            -1601.98    967.40 -11703.44

     nonloc. stress (kbar)   6536.28     39.08     27.48
                               39.08   6604.07    -26.32
                               27.48    -26.32   6609.62

     hartree stress (kbar)   8112.65    983.87    702.48
                              983.87   9146.65   -402.84
                              702.48   -402.84   9443.41

     exc-cor stress (kbar)   1268.18      1.81      1.24
                                1.81   1270.81     -1.13
                                1.24     -1.13   1271.21

     corecor stress (kbar)  -5196.79     -3.75     -2.59
                               -3.75  -5203.25      2.62
                               -2.59      2.62  -5203.80

     ewald   stress (kbar) -16291.93   1127.41    803.98
                             1127.41 -15090.99   -472.52
                              803.98   -472.52 -14753.65

     hubbard stress (kbar)      0.00      0.00      0.00
                                0.00      0.00      0.00
                                0.00      0.00      0.00

     DFT-D   stress (kbar)      0.00      0.00      0.00
                                0.00      0.00      0.00
                                0.00      0.00      0.00

     XDM     stress (kbar)      0.00      0.00      0.00
                                0.00      0.00      0.00
                                0.00      0.00      0.00

     dft-nl  stress (kbar)      0.00      0.00      0.00
                                0.00      0.00      0.00
                                0.00      0.00      0.00

     TS-vdW  stress (kbar)      0.00      0.00      0.00
                                0.00      0.00      0.00
                                0.00      0.00      0.00

[...]

                                0.00      0.00      0.00

     Writing all to output data dir new_calculations/myprefix.save/

     General routines

     Parallel routines

     PAW routines

   This run was terminated on:   4:18:26  21May2023

   JOB DONE.