     Program PWSCF v.7.0 starts on 20May2023 at 15: 3:58

     Reading input from espresso_17454.pwi
Warning: card &CELL ignored
Warning: card / ignored

     Current dimensions of program PWSCF are:
     Max number of different atomic species (ntypx) = 10
     Max number of k-points (npk) =  40000
     Max angular momentum in pseudopotentials (lmaxx) =  4
     file O.pbe-n-kjpaw_psl.0.1.UPF: wavefunction(s)  2P renormalized

     gamma-point specific algorithms are used
     Message from routine setup:
     using ibrav=0 with symmetry is DISCOURAGED, use correct ibrav instead

     Subspace diagonalization in iterative solution of the eigenvalue problem:
     a serial algorithm will be used

     Using Slab Decomposition

     bravais-lattice index     =            0
     lattice parameter (alat)  =      11.1024  a.u.
     unit-cell volume          =    1368.5294 (a.u.)^3
     number of atoms/cell      =           16
     number of atomic types    =            3
     number of electrons       =       164.00
     number of Kohn-Sham states=           98
     kinetic-energy cutoff     =      30.0000  Ry
     charge density cutoff     =     240.0000  Ry
     scf convergence threshold =      1.0E-06
     mixing beta               =       0.7000
     number of iterations used =            8  plain     mixing
     Exchange-correlation= SLA  PW   PBX  PBC
                           (   1   4   3   4   0   0   0)

     celldm(1)=  11.102430  celldm(2)=   0.000000  celldm(3)=   0.000000
     celldm(4)=   0.000000  celldm(5)=   0.000000  celldm(6)=   0.000000

     crystal axes: (cart. coord. in units of alat)
               a(1) = (   1.000000   0.000000   0.000000 )
               a(2) = (   0.000000   1.000000   0.000000 )
               a(3) = (   0.000000   0.000000   1.000000 )

     reciprocal axes: (cart. coord. in units 2 pi/alat)
               b(1) = (  1.000000  0.000000  0.000000 )
               b(2) = (  0.000000  1.000000  0.000000 )
               b(3) = (  0.000000  0.000000  1.000000 )

     PseudoPot. # 1 for Ca read from file:
     /home/pragov/projects/rrg-bengioy-ad/pragov/crystal_structure_design/SSSP/Ca_pbe_v1.uspp.F.UPF
     MD5 check sum: 403a4c14b9e4d4dfdc3024c9a3812218
     Pseudo is Ultrasoft + core correction, Zval = 10.0
     Generated by new atomic code, or converted to UPF format
     Using radial grid of  845 points,  6 beta functions with:
                l(1) =   0
                l(2) =   0
                l(3) =   1
                l(4) =   1
                l(5) =   2
                l(6) =   2
     Q(r) pseudized with  8 coefficients,  rinner =    1.500   1.500   1.500
                                                       1.500   1.500

     PseudoPot. # 2 for Pt read from file:
     /home/pragov/projects/rrg-bengioy-ad/pragov/crystal_structure_design/SSSP/pt_pbe_v1.4.uspp.F.UPF
     MD5 check sum: f09d6de1a584b5a045c4fc126da2d0c4
     Pseudo is Ultrasoft + core correction, Zval = 16.0
     Generated by new atomic code, or converted to UPF format
     Using radial grid of  985 points,  6 beta functions with:
                l(1) =   0
                l(2) =   0
                l(3) =   1
                l(4) =   1
                l(5) =   2
                l(6) =   2
     Q(r) pseudized with  8 coefficients,  rinner =    1.300   1.300   1.300
                                                       1.300   1.300

     PseudoPot. # 3 for O  read from file:
     /home/pragov/projects/rrg-bengioy-ad/pragov/crystal_structure_design/SSSP/O.pbe-n-kjpaw_psl.0.1.UPF
     MD5 check sum: 0234752ac141de4415c5fc33072bef88
     Pseudo is Projector augmented-wave + core cor, Zval =  6.0
     Generated using "atomic" code by A. Dal Corso  v.5.0.99 svn rev. 10869
     Shape of augmentation charge: BESSEL
     Using radial grid of 1095 points,  4 beta functions with:
                l(1) =   0
                l(2) =   0
                l(3) =   1
                l(4) =   1
     Q(r) pseudized with 0 coefficients

     atomic species   valence    mass     pseudopotential
        Ca            10.00    40.07800     Ca( 1.00)
        Pt            16.00   195.08400     Pt( 1.00)
        O              6.00    15.99900     O ( 1.00)

     48 Sym. Ops., with inversion, found (24 have fractional translation)

                                    s                        frac. trans.

      isym =  1     identity

 cryst.   s( 1) = (     1          0          0      )
                  (     0          1          0      )
                  (     0          0          1      )

 cart.    s( 1) = (  1.0000000  0.0000000  0.0000000 )
                  (  0.0000000  1.0000000  0.0000000 )
                  (  0.0000000  0.0000000  1.0000000 )

      isym =  2     180 deg rotation - cart. axis [0,0,1]

[...]

 cryst.   s( 4) = (     1          0          0      )
                  (     0         -1          0      )
                  (     0          0         -1      )

 cart.    s( 4) = (  1.0000000  0.0000000  0.0000000 )
                  (  0.0000000 -1.0000000  0.0000000 )
                  (  0.0000000  0.0000000 -1.0000000 )

[...]

 cryst.   s( 5) = (     0          1          0      )    f =( -0.5000000 )
                  (     1          0          0      )       ( -0.5000000 )
                  (     0          0         -1      )       (  0.5000000 )

 cart.    s( 5) = (  0.0000000  1.0000000  0.0000000 )    f =( -0.5000000 )
                  (  1.0000000  0.0000000  0.0000000 )       ( -0.5000000 )
                  (  0.0000000  0.0000000 -1.0000000 )       (  0.5000000 )

[...]

 cryst.   s( 9) = (     0          0          1      )    f =( -0.5000000 )
                  (     0         -1          0      )       (  0.5000000 )
                  (     1          0          0      )       ( -0.5000000 )

 cart.    s( 9) = (  0.0000000  0.0000000  1.0000000 )    f =( -0.5000000 )
                  (  0.0000000 -1.0000000  0.0000000 )       (  0.5000000 )
                  (  1.0000000  0.0000000  0.0000000 )       ( -0.5000000 )

[...]

 cryst.   s(10) = (     0          0         -1      )    f =(  0.5000000 )
                  (     0         -1          0      )       (  0.5000000 )
                  (    -1          0          0      )       (  0.5000000 )

 cart.    s(10) = (  0.0000000  0.0000000 -1.0000000 )    f =(  0.5000000 )
                  (  0.0000000 -1.0000000  0.0000000 )       (  0.5000000 )
                  ( -1.0000000  0.0000000  0.0000000 )       (  0.5000000 )

[...]

 cryst.   s(17) = (     0          0          1      )
                  (     1          0          0      )
                  (     0          1          0      )

 cart.    s(17) = (  0.0000000  1.0000000  0.0000000 )
                  (  0.0000000  0.0000000  1.0000000 )
                  (  1.0000000  0.0000000  0.0000000 )

[...]

      isym = 24     120 deg rotation - cart. axis [-1,-1,1]

[...]

      isym = 25     inversion

[...]

      isym = 26     inv. 180 deg rotation - cart. axis [0,0,1]

[...]

 cryst.   s(40) = (    -1          0          0      )    f =(  0.5000000 )
                  (     0          0         -1      )       ( -0.5000000 )
                  (     0          1          0      )       (  0.5000000 )

 cart.    s(40) = ( -1.0000000  0.0000000  0.0000000 )    f =(  0.5000000 )
                  (  0.0000000  0.0000000  1.0000000 )       ( -0.5000000 )
                  (  0.0000000 -1.0000000  0.0000000 )       (  0.5000000 )

[...]

      isym = 48     inv. 120 deg rotation - cart. axis [-1,-1,1]

 cryst.   s(48) = (     0         -1          0      )
                  (     0          0          1      )
                  (     1          0          0      )

 cart.    s(48) = (  0.0000000  0.0000000  1.0000000 )
                  ( -1.0000000  0.0000000  0.0000000 )
                  (  0.0000000  1.0000000  0.0000000 )

   Cartesian axes

     site n.     atom                  positions (alat units)
         1           Ca  tau(   1) = (   0.0000000   0.0000000   0.0000000  )
         2           Ca  tau(   2) = (   0.5000000   0.5000000   0.5000000  )
         3           Pt  tau(   3) = (   0.0000000   0.5000000   0.2500000  )
         4           Pt  tau(   4) = (   0.0000000   0.5000000   0.7500000  )
         5           Pt  tau(   5) = (   0.2500000   0.0000000   0.5000000  )
         6           Pt  tau(   6) = (   0.5000000   0.2500000   0.0000000  )
         7           Pt  tau(   7) = (   0.5000000   0.7500000   0.0000000  )
         8           Pt  tau(   8) = (   0.7500000   0.0000000   0.5000000  )
         9           O   tau(   9) = (   0.2500000   0.2500000   0.2500000  )
        10           O   tau(  10) = (   0.2500000   0.7500000   0.2500000  )
        11           O   tau(  11) = (   0.2500000   0.2500000   0.7500000  )
        12           O   tau(  12) = (   0.2500000   0.7500000   0.7500000  )
        13           O   tau(  13) = (   0.7500000   0.2500000   0.2500000  )
        14           O   tau(  14) = (   0.7500000   0.2500000   0.7500000  )
        15           O   tau(  15) = (   0.7500000   0.7500000   0.2500000  )
        16           O   tau(  16) = (   0.7500000   0.7500000   0.7500000  )

   Crystallographic axes

     site n.     atom                  positions (cryst. coord.)
         1           Ca  tau(   1) = (  0.0000000  0.0000000  0.0000000  )
         2           Ca  tau(   2) = (  0.5000000  0.5000000  0.5000000  )
         3           Pt  tau(   3) = (  0.0000000  0.5000000  0.2500000  )
         4           Pt  tau(   4) = (  0.0000000  0.5000000  0.7500000  )
         5           Pt  tau(   5) = (  0.2500000  0.0000000  0.5000000  )
         6           Pt  tau(   6) = (  0.5000000  0.2500000  0.0000000  )
         7           Pt  tau(   7) = (  0.5000000  0.7500000  0.0000000  )
         8           Pt  tau(   8) = (  0.7500000  0.0000000  0.5000000  )
         9           O   tau(   9) = (  0.2500000  0.2500000  0.2500000  )
        10           O   tau(  10) = (  0.2500000  0.7500000  0.2500000  )
        11           O   tau(  11) = (  0.2500000  0.2500000  0.7500000  )
        12           O   tau(  12) = (  0.2500000  0.7500000  0.7500000  )
        13           O   tau(  13) = (  0.7500000  0.2500000  0.2500000  )
        14           O   tau(  14) = (  0.7500000  0.2500000  0.7500000  )
        15           O   tau(  15) = (  0.7500000  0.7500000  0.2500000  )
        16           O   tau(  16) = (  0.7500000  0.7500000  0.7500000  )

     number of k points=     1  Methfessel-Paxton smearing, width (Ry)=  0.0010
                       cart. coord. in units 2pi/alat
        k(    1) = (   0.0000000   0.0000000   0.0000000), wk =   2.0000000

                       cryst. coord.
        k(    1) = (   0.0000000   0.0000000   0.0000000), wk =   2.0000000

     Check: negative core charge=   -0.000008

     Initial potential from superposition of free atoms

     starting charge     160.9890, renormalised to     164.0000

     negative rho (up, down):  1.079E+00 0.000E+00
     Starting wfcs are  124 randomized atomic wfcs
     Checking if some PAW data can be deallocated...

     Self-consistent Calculation

     iteration #  1     ecut=    30.00 Ry     beta= 0.70
     Davidson diagonalization with overlap

     ethr =  1.00E-02,  avg # of iterations =  2.0

     negative rho (up, down):  9.701E-01 0.000E+00

     total energy              =   -1739.08079786 Ry
     estimated scf accuracy    <      12.29596016 Ry

[...]

     total energy              =   -1746.41464858 Ry
     estimated scf accuracy    <       0.00000830 Ry

     iteration # 25     ecut=    30.00 Ry     beta= 0.70
     Davidson diagonalization with overlap

     ethr =  5.06E-09,  avg # of iterations =  1.0

[...]

     End of self-consistent calculation

          k = 0.0000 0.0000 0.0000 (  1896 PWs)   bands (ev):

   -38.0513 -38.0513 -38.0513 -38.0344 -38.0344 -38.0344 -38.0320 -38.0320
   -38.0320 -38.0263 -38.0263 -38.0263 -37.8375 -37.8375 -37.8321 -37.7059
   -37.7059 -37.7059 -25.9316 -25.9297  -7.1831  -7.1831  -7.1831  -6.9902
    -6.9902  -6.9902  -5.5143  -4.6019  -4.4717  -4.4717  -4.4716  -4.4420
    -4.4420  -4.4420   6.3568   6.3568   7.3640   7.3640   7.3640   7.4361
     7.7385   7.7385   8.1834   8.1834   8.1834   8.2626   8.2626   8.2626
     9.4170   9.4244   9.4244   9.4244   9.7606   9.7606  10.6194  10.6194
    10.6194  11.0297  11.0297  11.0297  11.3135  11.3135  11.3135  11.9218
    11.9257  11.9257  12.0535  12.0535  12.0535  12.8766  12.8766  12.8766
    13.6975  13.6975  13.6975  13.8487  13.8487  13.8487  14.4155  14.4189
    15.1349  15.1349  15.1349  15.8070  16.0497  16.0497  17.0379  17.0379
    17.0379  17.7150  17.7150  19.3878  19.3878  19.4483  19.5912  19.5921
    19.5922  19.6950

     occupation numbers
     1.0000   1.0000   1.0000   1.0000   1.0000   1.0000   1.0000   1.0000
     1.0000   1.0000   1.0000   1.0000   1.0000   1.0000   1.0000   1.0000
     1.0000   1.0000   1.0000   1.0000   1.0000   1.0000   1.0000   1.0000
     1.0000   1.0000   1.0000   1.0000   1.0000   1.0000   1.0000   1.0000
     1.0000   1.0000   1.0000   1.0000   1.0000   1.0000   1.0000   1.0000
     1.0000   1.0000   1.0000   1.0000   1.0000   1.0000   1.0000   1.0000
     1.0000   1.0000   1.0000   1.0000   1.0000   1.0000   1.0000   1.0000
     1.0000   1.0000   1.0000   1.0000   1.0000   1.0000   1.0000   1.0000
     1.0000   1.0000   1.0000   1.0000   1.0000   1.0000   1.0000   1.0000
     1.0000   1.0000   1.0000   1.0000   1.0000   1.0000   1.0000   1.0000
     0.6671   0.6666   0.6663  -0.0000  -0.0000  -0.0000  -0.0000  -0.0000
    -0.0000  -0.0000  -0.0000  -0.0000  -0.0000  -0.0000  -0.0000  -0.0000
    -0.0000  -0.0000

     the Fermi energy is    15.1376 ev

!    total energy              =   -1746.41464834 Ry
     estimated scf accuracy    <       0.00000028 Ry
     smearing contrib. (-TS)   =      -0.00074672 Ry
     internal energy E=F+TS    =   -1746.41390162 Ry

     The total energy is F=E-TS. E is the sum of the following terms:
     one-electron contribution =    -340.40152692 Ry
     hartree contribution      =     285.40600930 Ry
     xc contribution           =    -425.02739831 Ry
     ewald contribution        =   -1190.19566743 Ry
     one-center paw contrib.   =     -76.19531826 Ry
      -> PAW hartree energy AE =     231.93776341 Ry
      -> PAW hartree energy PS =    -231.12657381 Ry
      -> PAW xc energy AE      =    -136.56408890 Ry
      -> PAW xc energy PS      =      59.55758105 Ry
      -> total E_H with PAW    =     286.21719889 Ry
      -> total E_XC with PAW   =    -502.03390616 Ry

     convergence has been achieved in  25 iterations

     negative rho (up, down):  1.019E+00 0.000E+00

     Forces acting on atoms (cartesian axes, Ry/au):

     atom    1 type  1   force =     0.00000000    0.00000000    0.00000000
     atom    2 type  1   force =     0.00000000    0.00000000    0.00000000
     atom    3 type  2   force =     0.00000000    0.00000000   -0.00000000
     atom    4 type  2   force =     0.00000000    0.00000000    0.00000000
     atom    5 type  2   force =    -0.00000000    0.00000000    0.00000000
     atom    6 type  2   force =     0.00000000   -0.00000000    0.00000000
     atom    7 type  2   force =     0.00000000   -0.00000000    0.00000000
     atom    8 type  2   force =    -0.00000000    0.00000000    0.00000000
     atom    9 type  3   force =    -0.00000000   -0.00000000   -0.00000000
     atom   10 type  3   force =    -0.00000000   -0.00000000    0.00000000
     atom   11 type  3   force =    -0.00000000   -0.00000000    0.00000000
     atom   12 type  3   force =    -0.00000000   -0.00000000    0.00000000
     atom   13 type  3   force =    -0.00000000   -0.00000000    0.00000000
     atom   14 type  3   force =    -0.00000000   -0.00000000    0.00000000
     atom   15 type  3   force =    -0.00000000   -0.00000000   -0.00000000
     atom   16 type  3   force =    -0.00000000   -0.00000000    0.00000000
     The non-local contrib.  to forces
     atom    1 type  1   force =     0.00000000    0.00000000    0.00000000
     atom    2 type  1   force =     0.00000000    0.00000000    0.00000000
     atom    3 type  2   force =    -0.00000000    0.00000000    0.00000000
     atom    4 type  2   force =    -0.00000000    0.00000000    0.00000000
     atom    5 type  2   force =     0.00000000    0.00000000   -0.00000000
     atom    6 type  2   force =     0.00000000    0.00000000   -0.00000000
     atom    7 type  2   force =     0.00000000    0.00000000    0.00000000
     atom    8 type  2   force =    -0.00000000    0.00000000    0.00000000
     atom    9 type  3   force =    -0.00000000    0.00000000    0.00000000
     atom   10 type  3   force =     0.00000000    0.00000000   -0.00000000
     atom   11 type  3   force =     0.00000000    0.00000000    0.00000000
     atom   12 type  3   force =     0.00000000   -0.00000000   -0.00000000
     atom   13 type  3   force =     0.00000000   -0.00000000   -0.00000000
     atom   14 type  3   force =    -0.00000000    0.00000000   -0.00000000
     atom   15 type  3   force =    -0.00000000   -0.00000000   -0.00000000
     atom   16 type  3   force =     0.00000000    0.00000000   -0.00000000
     The ionic contribution  to forces
     atom    1 type  1   force =     0.00000000    0.00000000    0.00000000
     atom    2 type  1   force =     0.00000000    0.00000000    0.00000000
     atom    3 type  2   force =     0.00000000    0.00000000   -0.00000000
     atom    4 type  2   force =     0.00000000   -0.00000000   -0.00000000
     atom    5 type  2   force =     0.00000000    0.00000000    0.00000000
     atom    6 type  2   force =     0.00000000    0.00000000    0.00000000
     atom    7 type  2   force =    -0.00000000   -0.00000000    0.00000000
     atom    8 type  2   force =    -0.00000000    0.00000000   -0.00000000
     atom    9 type  3   force =    -0.00000000   -0.00000000   -0.00000000
     atom   10 type  3   force =     0.00000000   -0.00000000   -0.00000000
     atom   11 type  3   force =    -0.00000000   -0.00000000   -0.00000000
     atom   12 type  3   force =    -0.00000000   -0.00000000    0.00000000
     atom   13 type  3   force =     0.00000000   -0.00000000    0.00000000
     atom   14 type  3   force =     0.00000000   -0.00000000   -0.00000000
     atom   15 type  3   force =    -0.00000000    0.00000000   -0.00000000
     atom   16 type  3   force =     0.00000000    0.00000000    0.00000000
     The local contribution  to forces
     atom    1 type  1   force =    -0.00001149   -0.00000758    0.00000184
     atom    2 type  1   force =     0.00001098    0.00000662   -0.00000147
     atom    3 type  2   force =    -0.00000923    0.00000785    0.00016966
     atom    4 type  2   force =    -0.00002601    0.00002488   -0.00016899
     atom    5 type  2   force =     0.00020589   -0.00001685   -0.00001339
     atom    6 type  2   force =     0.00002037   -0.00037495    0.00000820
     atom    7 type  2   force =     0.00001745    0.00037268   -0.00000532
     atom    8 type  2   force =    -0.00020705   -0.00001296    0.00000291
     atom    9 type  3   force =     0.00018251   -0.00041770    0.00023646
     atom   10 type  3   force =     0.00018308    0.00041485    0.00023268
     atom   11 type  3   force =     0.00017236   -0.00041061   -0.00023956
     atom   12 type  3   force =     0.00017171    0.00041115   -0.00024023
     atom   13 type  3   force =    -0.00017660   -0.00042761    0.00025254
     atom   14 type  3   force =    -0.00017643   -0.00042065   -0.00024571
     atom   15 type  3   force =    -0.00017874    0.00042647    0.00024860
     atom   16 type  3   force =    -0.00017745    0.00042293   -0.00024610
     The core correction contribution to forces
     atom    1 type  1   force =    -0.00000001   -0.00000002    0.00000007
     atom    2 type  1   force =     0.00000000    0.00000001   -0.00000007
     atom    3 type  2   force =     0.00000051   -0.00000024   -0.00000164
     atom    4 type  2   force =    -0.00000057    0.00000040    0.00000164
     atom    5 type  2   force =    -0.00000089   -0.00000021   -0.00000050
     atom    6 type  2   force =     0.00000014    0.00000238    0.00000021
     atom    7 type  2   force =    -0.00000005   -0.00000251   -0.00000034
     atom    8 type  2   force =     0.00000081    0.00000002    0.00000057
     atom    9 type  3   force =     0.00000033   -0.00000072    0.00000040
     atom   10 type  3   force =     0.00000033    0.00000069    0.00000036
     atom   11 type  3   force =     0.00000026   -0.00000069   -0.00000042
     atom   12 type  3   force =     0.00000026    0.00000070   -0.00000043
     atom   13 type  3   force =    -0.00000026   -0.00000077    0.00000051
     atom   14 type  3   force =    -0.00000031   -0.00000074   -0.00000043
     atom   15 type  3   force =    -0.00000028    0.00000075    0.00000047
     atom   16 type  3   force =    -0.00000032    0.00000076   -0.00000044
     The Hubbard contrib.    to forces
     atom    1 type  1   force =     0.00000000    0.00000000    0.00000000
     atom    2 type  1   force =     0.00000000    0.00000000    0.00000000
     atom    3 type  2   force =     0.00000000    0.00000000    0.00000000
     atom    4 type  2   force =     0.00000000    0.00000000    0.00000000
     atom    5 type  2   force =     0.00000000    0.00000000    0.00000000
     atom    6 type  2   force =     0.00000000    0.00000000    0.00000000
     atom    7 type  2   force =     0.00000000    0.00000000    0.00000000
     atom    8 type  2   force =     0.00000000    0.00000000    0.00000000
     atom    9 type  3   force =     0.00000000    0.00000000    0.00000000
     atom   10 type  3   force =     0.00000000    0.00000000    0.00000000
     atom   11 type  3   force =     0.00000000    0.00000000    0.00000000
     atom   12 type  3   force =     0.00000000    0.00000000    0.00000000
     atom   13 type  3   force =     0.00000000    0.00000000    0.00000000
     atom   14 type  3   force =     0.00000000    0.00000000    0.00000000
     atom   15 type  3   force =     0.00000000    0.00000000    0.00000000
     atom   16 type  3   force =     0.00000000    0.00000000    0.00000000
     The SCF correction term to forces
     atom    1 type  1   force =     0.00001162    0.00000780   -0.00000187
     atom    2 type  1   force =    -0.00001131   -0.00000692    0.00000149
     atom    3 type  2   force =     0.00000945   -0.00000873   -0.00015688
     atom    4 type  2   force =     0.00002611   -0.00002668    0.00015383
     atom    5 type  2   force =    -0.00020569    0.00001771    0.00001590
     atom    6 type  2   force =    -0.00002082    0.00035836   -0.00001038
     atom    7 type  2   force =    -0.00001814   -0.00035634    0.00000413
     atom    8 type  2   force =     0.00020693    0.00001387   -0.00000201
     atom    9 type  3   force =    -0.00016470    0.00037502   -0.00021175
     atom   10 type  3   force =    -0.00016503   -0.00037409   -0.00021028
     atom   11 type  3   force =    -0.00015922    0.00036986    0.00021277
     atom   12 type  3   force =    -0.00015809   -0.00036920    0.00021246
     atom   13 type  3   force =     0.00016271    0.00038270   -0.00022183
     atom   14 type  3   force =     0.00016070    0.00037806    0.00021943
     atom   15 type  3   force =     0.00016356   -0.00038259   -0.00022019
     atom   16 type  3   force =     0.00016050   -0.00037782    0.00021845

     Total force =     0.000000     Total SCF correction =     0.001452

     Computing stress (Cartesian axis) and pressure

     negative rho (up, down):  1.019E+00 0.000E+00
          total   stress  (Ry/bohr**3)                   (kbar)     P=     -171.58
  -0.00116641   0.00000000   0.00000000         -171.58        0.00        0.00
   0.00000000  -0.00116641   0.00000000            0.00     -171.58        0.00
   0.00000000   0.00000000  -0.00116641            0.00        0.00     -171.58

     kinetic stress (kbar)  37560.14      0.00      0.00
                                0.00  37560.14      0.00
                                0.00      0.00  37560.14

     local   stress (kbar)   1933.86      0.00     -0.00
                                0.00   1934.42     -0.00
                               -0.00     -0.00   1934.80

     nonloc. stress (kbar)   2398.59      0.00      0.00
                                0.00   2398.59      0.00
                                0.00      0.00   2398.59

     hartree stress (kbar)  10226.37      0.00     -0.00
                                0.00  10226.21     -0.00
                               -0.00     -0.00  10226.10

     exc-cor stress (kbar)  15947.11     -0.00      0.00
                               -0.00  15947.11      0.00
                                0.00      0.00  15947.10

     corecor stress (kbar) -25592.78      0.00     -0.00
                                0.00 -25592.76     -0.00
                               -0.00     -0.00 -25592.75

     ewald   stress (kbar) -42645.25      0.00      0.00
                                0.00 -42645.25      0.00
                                0.00      0.00 -42645.25

     hubbard stress (kbar)      0.00      0.00      0.00
                                0.00      0.00      0.00
                                0.00      0.00      0.00

     DFT-D   stress (kbar)      0.00      0.00      0.00
                                0.00      0.00      0.00
                                0.00      0.00      0.00

     XDM     stress (kbar)      0.00      0.00      0.00
                                0.00      0.00      0.00
                                0.00      0.00      0.00

     dft-nl  stress (kbar)      0.00      0.00      0.00
                                0.00      0.00      0.00
                                0.00      0.00      0.00

     TS-vdW  stress (kbar)      0.00      0.00      0.00
                                0.00      0.00      0.00
                                0.00      0.00      0.00

[...]

                                0.00      0.00      0.00

     Writing all to output data dir new_calculations/myprefix.save/

     General routines

     Parallel routines

     PAW routines

   This run was terminated on:  15: 4:35  20May2023

   JOB DONE.