     Program PWSCF v.7.0 starts on 21May2023 at  8:24:27

     Reading input from espresso_17984.pwi
Warning: card &CELL ignored
Warning: card / ignored

     Current dimensions of program PWSCF are:
     Max number of different atomic species (ntypx) = 10
     Max number of k-points (npk) =  40000
     Max angular momentum in pseudopotentials (lmaxx) =  4

     gamma-point specific algorithms are used
     Message from routine setup:
     using ibrav=0 with symmetry is DISCOURAGED, use correct ibrav instead

     Subspace diagonalization in iterative solution of the eigenvalue problem:
     a serial algorithm will be used

     Using Slab Decomposition

     bravais-lattice index     =            0
     lattice parameter (alat)  =       6.4952  a.u.
     unit-cell volume          =    1689.7401 (a.u.)^3
     number of atoms/cell      =            6
     number of atomic types    =            3
     number of electrons       =        52.00
     number of Kohn-Sham states=           31
     kinetic-energy cutoff     =      30.0000  Ry
     charge density cutoff     =     240.0000  Ry
     scf convergence threshold =      1.0E-06
     mixing beta               =       0.7000
     number of iterations used =            8  plain     mixing
     Exchange-correlation= SLA  PW   PBE  PBE
                           (   1   4   3   4   0   0   0)

     celldm(1)=   6.495186  celldm(2)=   0.000000  celldm(3)=   0.000000
     celldm(4)=   0.000000  celldm(5)=   0.000000  celldm(6)=   0.000000

     crystal axes: (cart. coord. in units of alat)
               a(1) = (   1.000000   0.000000   0.000000 )
               a(2) = (  -0.500000   0.866025   0.000000 )
               a(3) = (   0.000000   0.000000   7.120566 )

     reciprocal axes: (cart. coord. in units 2 pi/alat)
               b(1) = (  1.000000  0.577351  0.000000 )
               b(2) = (  0.000000  1.154701  0.000000 )
               b(3) = (  0.000000  0.000000  0.140438 )

     PseudoPot. # 1 for Te read from file:
     /home/pragov/projects/rrg-bengioy-ad/pragov/crystal_structure_design/SSSP/Te_pbe_v1.uspp.F.UPF
     MD5 check sum: c319670d6894cc26e93307826a071b75
     Pseudo is Ultrasoft + core correction, Zval =  6.0
     Generated by new atomic code, or converted to UPF format
     Using radial grid of  891 points,  5 beta functions with:
                l(1) =   0
                l(2) =   0
                l(3) =   1
                l(4) =   1
                l(5) =   2
     Q(r) pseudized with  6 coefficients,  rinner =    1.800   1.800   1.800
                                                       1.800   1.800

     PseudoPot. # 2 for W  read from file:
     /home/pragov/projects/rrg-bengioy-ad/pragov/crystal_structure_design/SSSP/W_pbe_v1.2.uspp.F.UPF
     MD5 check sum: 9c083fa34c2a2ea0f02f1f893e16e1c8
     Pseudo is Ultrasoft + core correction, Zval = 14.0
     Generated by new atomic code, or converted to UPF format
     Using radial grid of  923 points,  8 beta functions with:
                l(1) =   0
                l(2) =   0
                l(3) =   0
                l(4) =   1
                l(5) =   1
                l(6) =   2
                l(7) =   2
                l(8) =   3
     Q(r) pseudized with  6 coefficients,  rinner =    1.350   1.350   1.350
                                                       1.350   1.350   1.350
                                                       1.350

     PseudoPot. # 3 for Se read from file:
     /home/pragov/projects/rrg-bengioy-ad/pragov/crystal_structure_design/SSSP/Se_pbe_v1.uspp.F.UPF
     MD5 check sum: 1b3568f3a8ae88f9a2a0ad0698632c85
     Pseudo is Ultrasoft + core correction, Zval =  6.0
     Generated by new atomic code, or converted to UPF format
     Using radial grid of  877 points,  6 beta functions with:
                l(1) =   0
                l(2) =   0
                l(3) =   1
                l(4) =   1
                l(5) =   2
                l(6) =   2
     Q(r) pseudized with  8 coefficients,  rinner =    1.300   1.300   1.300
                                                       1.300   1.300

     atomic species   valence    mass     pseudopotential
        Te             6.00   127.60000     Te( 1.00)
        W             14.00   183.84000     W ( 1.00)
        Se             6.00    78.97100     Se( 1.00)

      6 Sym. Ops. (no inversion) found

                                    s                        frac. trans.

      isym =  1     identity

 cryst.   s( 1) = (     1          0          0      )
                  (     0          1          0      )
                  (     0          0          1      )

 cart.    s( 1) = (  1.0000000  0.0000000  0.0000000 )
                  (  0.0000000  1.0000000  0.0000000 )
                  (  0.0000000  0.0000000  1.0000000 )

      isym =  2     120 deg rotation - cryst. axis [0,0,1]

[...]

      isym =  3     120 deg rotation - cryst. axis [0,0,-1]

[...]

      isym =  4     inv. 180 deg rotation - cart. axis [1,0,0]

[...]

      isym =  5     inv. 180 deg rotation - cryst. axis [0,1,0]

[...]

      isym =  6     inv. 180 deg rotation - cryst. axis [1,1,0]

 cryst.   s( 6) = (     0         -1          0      )
                  (    -1          0          0      )
                  (     0          0          1      )

 cart.    s( 6) = (  0.5000002 -0.8660253  0.0000000 )
                  ( -0.8660253 -0.5000002  0.0000000 )
                  (  0.0000000  0.0000000  1.0000000 )

   Cartesian axes

     site n.     atom                  positions (alat units)
         1           Te  tau(   1) = (  -0.0000006   0.5773505   3.7575582  )
         2           Te  tau(   2) = (  -0.0000006   0.5773505   2.6710453  )
         3           W   tau(   3) = (  -0.0000006   0.5773505   1.0711681  )
         4           W   tau(   4) = (   0.5000004   0.2886748   3.2143587  )
         5           Se  tau(   5) = (   0.5000004   0.2886748   0.5930078  )
         6           Se  tau(   6) = (   0.5000004   0.2886748   1.5497840  )

   Crystallographic axes

     site n.     atom                  positions (cryst. coord.)
         1           Te  tau(   1) = (  0.3333330  0.6666670  0.5277050  )
         2           Te  tau(   2) = (  0.3333330  0.6666670  0.3751170  )
         3           W   tau(   3) = (  0.3333330  0.6666670  0.1504330  )
         4           W   tau(   4) = (  0.6666670  0.3333330  0.4514190  )
         5           Se  tau(   5) = (  0.6666670  0.3333330  0.0832810  )
         6           Se  tau(   6) = (  0.6666670  0.3333330  0.2176490  )

     number of k points=     1  Methfessel-Paxton smearing, width (Ry)=  0.0010
                       cart. coord. in units 2pi/alat
        k(    1) = (   0.0000000   0.0000000   0.0000000), wk =   2.0000000

                       cryst. coord.
        k(    1) = (   0.0000000   0.0000000   0.0000000), wk =   2.0000000

     Check: negative core charge=   -0.000001

     Initial potential from superposition of free atoms

     starting charge      51.7987, renormalised to      52.0000

     negative rho (up, down):  1.261E-01 0.000E+00
     Starting wfcs are   42 randomized atomic wfcs

     Self-consistent Calculation

     iteration #  1     ecut=    30.00 Ry     beta= 0.70
     Davidson diagonalization with overlap

     ethr =  1.00E-02,  avg # of iterations =  2.0

     negative rho (up, down):  1.302E-01 0.000E+00

     total energy              =    -454.06164605 Ry
     estimated scf accuracy    <       4.46976501 Ry

[...]

     total energy              =    -457.20545590 Ry
     estimated scf accuracy    <       0.00000123 Ry

     iteration # 23     ecut=    30.00 Ry     beta= 0.70
     Davidson diagonalization with overlap

     ethr =  2.36E-09,  avg # of iterations =  2.0

[...]

     End of self-consistent calculation

          k = 0.0000 0.0000 0.0000 (  2351 PWs)   bands (ev):

   -69.6419 -67.9253 -33.9967 -33.9966 -33.7395 -32.3305 -32.2111 -32.2110
   -11.8139 -10.7349 -10.3886  -9.5907  -2.8992  -2.2161   0.4517   0.5709
     0.5709   1.2381   1.5042   1.5042   2.7749   2.7750   3.2882   3.4233
     3.4233   3.6508   5.6207   5.6208   5.6998   5.6998   6.7477

     occupation numbers
     1.0000   1.0000   1.0000   1.0000   1.0000   1.0000   1.0000   1.0000
     1.0000   1.0000   1.0000   1.0000   1.0000   1.0000   1.0000   1.0000
     1.0000   1.0000   1.0000   1.0000   1.0000   1.0000   1.0000   1.0000
     1.0000   1.0000  -0.0000  -0.0000  -0.0000  -0.0000  -0.0000

     the Fermi energy is     4.4881 ev

!    total energy              =    -457.20545548 Ry
     estimated scf accuracy    <       0.00000047 Ry
     smearing contrib. (-TS)   =       0.00000000 Ry
     internal energy E=F+TS    =    -457.20545548 Ry

     The total energy is F=E-TS. E is the sum of the following terms:
     one-electron contribution =   -1632.99736429 Ry
     hartree contribution      =     825.05103116 Ry
     xc contribution           =    -171.23962808 Ry
     ewald contribution        =     521.98050574 Ry

     convergence has been achieved in  23 iterations

     negative rho (up, down):  1.221E-01 0.000E+00

     Forces acting on atoms (cartesian axes, Ry/au):

     atom    1 type  1   force =     0.00000000    0.00000000   -0.09108038
     atom    2 type  1   force =     0.00000000    0.00000000    0.11098943
     atom    3 type  2   force =     0.00000000    0.00000000   -0.00294147
     atom    4 type  2   force =     0.00000000    0.00000000    0.00356243
     atom    5 type  3   force =     0.00000000    0.00000000    0.06604579
     atom    6 type  3   force =     0.00000000    0.00000000   -0.08657580
     The non-local contrib.  to forces
     atom    1 type  1   force =     0.00000000    0.00000000   -0.24470095
     atom    2 type  1   force =     0.00000000   -0.00000000    0.21150996
     atom    3 type  2   force =     0.00000000    0.00000000   -0.00504102
     atom    4 type  2   force =     0.00000000    0.00000000    0.00476214
     atom    5 type  3   force =     0.00000000    0.00000000    0.01228572
     atom    6 type  3   force =     0.00000000    0.00000000   -0.05898834
     The ionic contribution  to forces
     atom    1 type  1   force =     0.00000583   -0.00000337   44.75482151
     atom    2 type  1   force =     0.00000587   -0.00000339   -2.04605212
     atom    3 type  2   force =     0.00001745   -0.00001007  -49.83821741
     atom    4 type  2   force =    -0.00001165    0.00000673   49.83722513
     atom    5 type  3   force =    -0.00000874    0.00000504  -45.91956678
     atom    6 type  3   force =    -0.00000876    0.00000506    3.21178967
     The local contribution  to forces
     atom    1 type  1   force =    -0.00001636    0.00000341  -44.58713380
     atom    2 type  1   force =    -0.00000520   -0.00000319    1.93413688
     atom    3 type  2   force =    -0.00001455    0.00000788   49.84025675
     atom    4 type  2   force =    -0.00003592    0.00000737  -49.84137676
     atom    5 type  3   force =     0.00000906   -0.00000494   45.97067027
     atom    6 type  3   force =     0.00000938   -0.00000310   -3.24268412
     The core correction contribution to forces
     atom    1 type  1   force =    -0.00000000    0.00000188   -0.01537354
     atom    2 type  1   force =    -0.00000049    0.00000093    0.01166945
     atom    3 type  2   force =     0.00000037   -0.00000015   -0.00003618
     atom    4 type  2   force =    -0.00000149   -0.00000046    0.00016348
     atom    5 type  3   force =     0.00000019   -0.00000014    0.00268091
     atom    6 type  3   force =     0.00000034    0.00000002    0.00334458
     The Hubbard contrib.    to forces
     atom    1 type  1   force =     0.00000000    0.00000000    0.00000000
     atom    2 type  1   force =     0.00000000    0.00000000    0.00000000
     atom    3 type  2   force =     0.00000000    0.00000000    0.00000000
     atom    4 type  2   force =     0.00000000    0.00000000    0.00000000
     atom    5 type  3   force =     0.00000000    0.00000000    0.00000000
     atom    6 type  3   force =     0.00000000    0.00000000    0.00000000
     The SCF correction term to forces
     atom    1 type  1   force =     0.00000584   -0.00001024    0.00122135
     atom    2 type  1   force =     0.00000355   -0.00000468   -0.00035979
     atom    3 type  2   force =    -0.00000077    0.00000268    0.00001134
     atom    4 type  2   force =     0.00005069   -0.00000059    0.00270339
     atom    5 type  3   force =    -0.00000092   -0.00000032   -0.00010938
     atom    6 type  3   force =    -0.00000020   -0.00000050   -0.00012264

     Total force =     0.180258     Total SCF correction =     0.002993

     Computing stress (Cartesian axis) and pressure

     negative rho (up, down):  1.221E-01 0.000E+00
          total   stress  (Ry/bohr**3)                   (kbar)     P=       77.42
   0.00104500   0.00000000   0.00000000          153.72        0.00        0.00
   0.00000000   0.00104500  -0.00000000            0.00      153.72       -0.00
   0.00000000   0.00000000  -0.00051108            0.00        0.00      -75.18

     kinetic stress (kbar)   6829.57      0.00      0.00
                                0.00   6829.57      0.00
                                0.00      0.00   6897.65

     local   stress (kbar)-132265.05     -0.03     -0.01
                               -0.03-132265.11      0.01
                               -0.01      0.01 142234.14

     nonloc. stress (kbar)  -2930.09     -0.00      0.00
                               -0.00  -2930.09     -0.00
                                0.00     -0.00  -2954.84

     hartree stress (kbar)  68701.94      0.01      0.00
                                0.01  68701.96     -0.00
                                0.00     -0.00 -65576.76

     exc-cor stress (kbar)   8672.32      0.00      0.00
                                0.00   8672.32     -0.00
                                0.00     -0.00   8679.54

     corecor stress (kbar) -10832.38      0.00     -0.00
                                0.00 -10832.38      0.00
                               -0.00      0.00 -10842.51

     ewald   stress (kbar)  61977.43      0.01      0.00
                                0.01  61977.44     -0.00
                                0.00     -0.00 -78512.40

     hubbard stress (kbar)      0.00      0.00      0.00
                                0.00      0.00      0.00
                                0.00      0.00      0.00

     DFT-D   stress (kbar)      0.00      0.00      0.00
                                0.00      0.00      0.00
                                0.00      0.00      0.00

     XDM     stress (kbar)      0.00      0.00      0.00
                                0.00      0.00      0.00
                                0.00      0.00      0.00

     dft-nl  stress (kbar)      0.00      0.00      0.00
                                0.00      0.00      0.00
                                0.00      0.00      0.00

     TS-vdW  stress (kbar)      0.00      0.00      0.00
                                0.00      0.00      0.00
                                0.00      0.00      0.00

[...]

                                0.00      0.00      0.00

     Writing all to output data dir new_calculations/myprefix.save/

     General routines

     Parallel routines

   This run was terminated on:   8:25: 0  21May2023

   JOB DONE.