     Program PWSCF v.7.0 starts on 21May2023 at 15:11: 5

     Reading input from espresso_24809.pwi
Warning: card &CELL ignored
Warning: card / ignored

     Current dimensions of program PWSCF are:
     Max number of different atomic species (ntypx) = 10
     Max number of k-points (npk) =  40000
     Max angular momentum in pseudopotentials (lmaxx) =  4
     file Al.pbe-n-kjpaw_psl.1.0.0.UPF: wavefunction(s)  3S 3P renormalized
     file O.pbe-n-kjpaw_psl.0.1.UPF: wavefunction(s)  2P renormalized

     gamma-point specific algorithms are used

     Subspace diagonalization in iterative solution of the eigenvalue problem:
     a serial algorithm will be used

     Using Slab Decomposition

     bravais-lattice index     =            0
     lattice parameter (alat)  =      10.0870  a.u.
     unit-cell volume          =    1215.8011 (a.u.)^3
     number of atoms/cell      =           16
     number of atomic types    =            4
     number of electrons       =       100.00
     number of Kohn-Sham states=           60
     kinetic-energy cutoff     =      30.0000  Ry
     charge density cutoff     =     240.0000  Ry
     scf convergence threshold =      1.0E-06
     mixing beta               =       0.7000
     number of iterations used =            8  plain     mixing
     Exchange-correlation= SLA  PW   PBX  PBC
                           (   1   4   3   4   0   0   0)

     celldm(1)=  10.086990  celldm(2)=   0.000000  celldm(3)=   0.000000
     celldm(4)=   0.000000  celldm(5)=   0.000000  celldm(6)=   0.000000

     crystal axes: (cart. coord. in units of alat)
               a(1) = (   1.000000   0.000000   0.000000 )
               a(2) = (   0.008253   0.999966   0.000000 )
               a(3) = (  -0.000023   0.000022   1.184657 )

     reciprocal axes: (cart. coord. in units 2 pi/alat)
               b(1) = (  1.000000 -0.008254  0.000019 )
               b(2) = (  0.000000  1.000034 -0.000019 )
               b(3) = (  0.000000  0.000000  0.844126 )

     PseudoPot. # 1 for Li read from file:
     /home/pragov/projects/rrg-bengioy-ad/pragov/crystal_structure_design/SSSP/li_pbe_v1.4.uspp.F.UPF
     MD5 check sum: e912e257baa3777c20ea3d68f190483c
     Pseudo is Ultrasoft, Zval =  3.0
     Generated by new atomic code, or converted to UPF format
     Using radial grid of  751 points,  5 beta functions with:
                l(1) =   0
                l(2) =   0
                l(3) =   0
                l(4) =   1
                l(5) =   1
     Q(r) pseudized with 10 coefficients,  rinner =    1.150   1.150   1.150

     PseudoPot. # 2 for Al read from file:
     /home/pragov/projects/rrg-bengioy-ad/pragov/crystal_structure_design/SSSP/Al.pbe-n-kjpaw_psl.1.0.0.UPF
     MD5 check sum: cfc449ca30b5f3223ec38ddd88ac046d
     Pseudo is Projector augmented-wave + core cor, Zval =  3.0
     Generated using "atomic" code by A. Dal Corso  v.5.1
     Shape of augmentation charge: PSQ
     Using radial grid of 1135 points,  6 beta functions with:
                l(1) =   0
                l(2) =   0
                l(3) =   1
                l(4) =   1
                l(5) =   2
                l(6) =   2
     Q(r) pseudized with 0 coefficients

     PseudoPot. # 3 for Co read from file:
     /home/pragov/projects/rrg-bengioy-ad/pragov/crystal_structure_design/SSSP/Co_pbe_v1.2.uspp.F.UPF
     MD5 check sum: 5f91765df6ddd3222702df6e7b74a16d
     Pseudo is Ultrasoft + core correction, Zval = 17.0
     Generated by new atomic code, or converted to UPF format
     Using radial grid of  863 points,  6 beta functions with:
                l(1) =   0
                l(2) =   0
                l(3) =   1
                l(4) =   1
                l(5) =   2
                l(6) =   2
     Q(r) pseudized with  8 coefficients,  rinner =    1.200   1.200   1.200
                                                       1.200   1.200

     PseudoPot. # 4 for O  read from file:
     /home/pragov/projects/rrg-bengioy-ad/pragov/crystal_structure_design/SSSP/O.pbe-n-kjpaw_psl.0.1.UPF
     MD5 check sum: 0234752ac141de4415c5fc33072bef88
     Pseudo is Projector augmented-wave + core cor, Zval =  6.0
     Generated using "atomic" code by A. Dal Corso  v.5.0.99 svn rev. 10869
     Shape of augmentation charge: BESSEL
     Using radial grid of 1095 points,  4 beta functions with:
                l(1) =   0
                l(2) =   0
                l(3) =   1
                l(4) =   1
     Q(r) pseudized with 0 coefficients

     atomic species   valence    mass     pseudopotential
        Li             3.00     6.94000     Li( 1.00)
        Al             3.00    26.98154     Al( 1.00)
        Co            17.00    58.93319     Co( 1.00)
        O              6.00    15.99900     O ( 1.00)

     No symmetry found

                                    s                        frac. trans.

      isym =  1     identity

 cryst.   s( 1) = (     1          0          0      )
                  (     0          1          0      )
                  (     0          0          1      )

 cart.    s( 1) = (  1.0000000  0.0000000 -0.0000000 )
                  (  0.0000000  1.0000000  0.0000000 )
                  (  0.0000000  0.0000000  1.0000000 )

   Cartesian axes

     site n.     atom                  positions (alat units)
         1           Li  tau(   1) = (   0.3226059   0.6830089   0.5923297  )
         2           Li  tau(   2) = (   0.6856145   0.3169916   1.1846558  )
         3           Li  tau(   3) = (   0.1855843   0.1840925   0.8884927  )
         4           Li  tau(   4) = (   0.8226454   0.8158948   0.2961642  )
         5           Al  tau(   5) = (   0.3263286   0.6792622   1.1846546  )
         6           Al  tau(   6) = (   0.6818989   0.3207453   0.5923309  )
         7           Co  tau(   7) = (   0.1759598   0.1745246   0.2961642  )
         8           Co  tau(   8) = (   0.8322771   0.8254697   0.8884927  )
         9           O   tau(   9) = (   0.2051742   0.8228372   0.2748108  )
        10           O   tau(  10) = (   0.1837426   0.8016009   0.9098521  )
        11           O   tau(  11) = (   0.8030565   0.1771543   0.8671334  )
        12           O   tau(  12) = (   0.8244913   0.1983872   0.3175177  )
        13           O   tau(  13) = (   0.2951789   0.3464115   0.0164691  )
        14           O   tau(  14) = (   0.6593844   0.7076710   1.1681914  )
        15           O   tau(  15) = (   0.3488246   0.2923209   0.5758594  )
        16           O   tau(  16) = (   0.7130555   0.6535552   0.6087940  )

   Crystallographic axes

     site n.     atom                  positions (cryst. coord.)
         1           Li  tau(   1) = (  0.3169800  0.6830210  0.5000010  )
         2           Li  tau(   2) = (  0.6830210  0.3169800  0.9999990  )
         3           Li  tau(   3) = (  0.1840820  0.1840820  0.7500000  )
         4           Li  tau(   4) = (  0.8159170  0.8159170  0.2500000  )
         5           Al  tau(   5) = (  0.3207450  0.6792630  0.9999980  )
         6           Al  tau(   6) = (  0.6792630  0.3207450  0.5000020  )
         7           Co  tau(   7) = (  0.1745250  0.1745250  0.2500000  )
         8           Co  tau(   8) = (  0.8254810  0.8254810  0.7500000  )
         9           O   tau(   9) = (  0.1983880  0.8228600  0.2319750  )
        10           O   tau(  10) = (  0.1771440  0.8016110  0.7680300  )
        11           O   tau(  11) = (  0.8016110  0.1771440  0.7319700  )
        12           O   tau(  12) = (  0.8228600  0.1983880  0.2680250  )
        13           O   tau(  13) = (  0.2923200  0.3464230  0.0139020  )
        14           O   tau(  14) = (  0.6535660  0.7076730  0.9861010  )
        15           O   tau(  15) = (  0.3464230  0.2923200  0.4860980  )
        16           O   tau(  16) = (  0.7076730  0.6535660  0.5138990  )

     number of k points=     1  Methfessel-Paxton smearing, width (Ry)=  0.0010
                       cart. coord. in units 2pi/alat
        k(    1) = (   0.0000000   0.0000000   0.0000000), wk =   2.0000000

                       cryst. coord.
        k(    1) = (   0.0000000   0.0000000   0.0000000), wk =   2.0000000

     Check: negative core charge=   -0.000015

     Initial potential from superposition of free atoms

     starting charge      96.1924, renormalised to     100.0000
     Starting wfcs are   86 randomized atomic wfcs
     Checking if some PAW data can be deallocated...

     Self-consistent Calculation

     iteration #  1     ecut=    30.00 Ry     beta= 0.70
     Davidson diagonalization with overlap

     ethr =  1.00E-02,  avg # of iterations =  4.0

     total energy              =   -1028.46543548 Ry
     estimated scf accuracy    <      49.99752057 Ry

[...]

     WARNING: integrated charge=    99.99943048, expected=   100.00000000

[...]

     WARNING: integrated charge=    99.99998511, expected=   100.00000000

[...]

     total energy              =   -1067.61567790 Ry
     estimated scf accuracy    <       0.00001345 Ry

     iteration # 53     ecut=    30.00 Ry     beta= 0.70
     Davidson diagonalization with overlap

     ethr =  1.82E-09,  avg # of iterations =  1.0

     End of self-consistent calculation

          k = 0.0000 0.0000 0.0000 (  1699 PWs)   bands (ev):

   -89.9072 -89.9067 -53.4181 -53.4142 -53.2262 -53.2255 -52.8340 -52.8329
   -38.6965 -38.6955 -38.6296 -38.6294 -13.5878 -13.2044 -12.9119 -12.7095
   -12.6394 -12.6129 -12.6067 -12.4270  -1.1760  -0.4783   0.0545   0.1626
     0.1910   0.4500   0.5957   0.8503   1.0350   1.0865   1.1431   1.2830
     1.3060   1.6331   1.6913   1.8147   1.9667   2.1088   2.1703   2.2545
     2.4086   2.6091   2.7350   3.2799   4.8672   4.9963   5.0849   5.1242
     5.4259   5.7986   5.7986   5.8120   5.8293   5.9640   8.1938  12.0473
    12.3725  12.7786  13.0877  13.1807

     occupation numbers
     1.0000   1.0000   1.0000   1.0000   1.0000   1.0000   1.0000   1.0000
     1.0000   1.0000   1.0000   1.0000   1.0000   1.0000   1.0000   1.0000
     1.0000   1.0000   1.0000   1.0000   1.0000   1.0000   1.0000   1.0000
     1.0000   1.0000   1.0000   1.0000   1.0000   1.0000   1.0000   1.0000
     1.0000   1.0000   1.0000   1.0000   1.0000   1.0000   1.0000   1.0000
     1.0000   1.0000   1.0000   1.0000   1.0000   1.0000   1.0000   1.0000
     1.0000   0.5132   0.5123  -0.0222  -0.0034  -0.0000  -0.0000  -0.0000
    -0.0000  -0.0000  -0.0000  -0.0000

     the Fermi energy is     5.7988 ev

!    total energy              =   -1067.61567780 Ry
     estimated scf accuracy    <       0.00000020 Ry
     smearing contrib. (-TS)   =      -0.00044929 Ry
     internal energy E=F+TS    =   -1067.61522851 Ry

     The total energy is F=E-TS. E is the sum of the following terms:
     one-electron contribution =    -708.58581760 Ry
     hartree contribution      =     392.51759494 Ry
     xc contribution           =    -143.91172576 Ry
     ewald contribution        =    -462.13111560 Ry
     one-center paw contrib.   =    -145.50416450 Ry
      -> PAW hartree energy AE =     244.10769434 Ry
      -> PAW hartree energy PS =    -243.23651919 Ry
      -> PAW xc energy AE      =    -211.96355841 Ry
      -> PAW xc energy PS      =      65.58821877 Ry
      -> total E_H with PAW    =     393.38877009 Ry
      -> total E_XC with PAW   =    -290.28706541 Ry

     convergence has been achieved in  53 iterations

     Forces acting on atoms (cartesian axes, Ry/au):

     atom    1 type  1   force =    -0.00761783    0.00767980    0.00000915
     atom    2 type  1   force =     0.00762280   -0.00768333    0.00002264
     atom    3 type  1   force =    -0.00362330   -0.00359932    0.00001412
     atom    4 type  1   force =     0.00364108    0.00360364    0.00001392
     atom    5 type  2   force =    -0.01510694    0.01518673    0.00007465
     atom    6 type  2   force =     0.01505924   -0.01524623   -0.00003735
     atom    7 type  3   force =    -0.00353613   -0.00342241   -0.00008852
     atom    8 type  3   force =     0.00342954    0.00340981   -0.00016333
     atom    9 type  4   force =    -0.00629220    0.00497892    0.01643597
     atom   10 type  4   force =    -0.00497587    0.00636813   -0.01645603
     atom   11 type  4   force =     0.00633305   -0.00504910    0.01647465
     atom   12 type  4   force =     0.00494366   -0.00633647   -0.01640324
     atom   13 type  4   force =    -0.00096319   -0.00043857    0.01699422
     atom   14 type  4   force =     0.00052151    0.00096139   -0.01699954
     atom   15 type  4   force =    -0.00042485   -0.00095020   -0.01695160
     atom   16 type  4   force =     0.00098942    0.00053721    0.01706028
     The non-local contrib.  to forces
     atom    1 type  1   force =     0.00454342   -0.00459303    0.00001920
     atom    2 type  1   force =    -0.00455252    0.00458095   -0.00002051
     atom    3 type  1   force =     0.01327014    0.01316175   -0.00000213
     atom    4 type  1   force =    -0.01327288   -0.01316292   -0.00000105
     atom    5 type  2   force =    -0.01496982    0.01502895    0.00006412
     atom    6 type  2   force =     0.01489996   -0.01509650   -0.00006725
     atom    7 type  3   force =    -0.00542441   -0.00523728   -0.00018985
     atom    8 type  3   force =     0.00531392    0.00532027   -0.00031012
     atom    9 type  4   force =     0.16496871    0.33341691   -0.54767817
     atom   10 type  4   force =    -0.33481827   -0.16214254    0.54767577
     atom   11 type  4   force =    -0.16488068   -0.33352384   -0.54772778
     atom   12 type  4   force =     0.33484130    0.16227635    0.54765470
     atom   13 type  4   force =    -0.11151202    0.42656784    0.45858093
     atom   14 type  4   force =    -0.42574929    0.11489673   -0.45853098
     atom   15 type  4   force =     0.42571392   -0.11492648   -0.45853860
     atom   16 type  4   force =     0.11148794   -0.42653965    0.45860254
     The ionic contribution  to forces
     atom    1 type  1   force =     0.38493866   -0.38830274    0.00019515
     atom    2 type  1   force =    -0.38511411    0.38813206   -0.00019515
     atom    3 type  1   force =     1.58155956    1.56855915   -0.00000130
     atom    4 type  1   force =    -1.58142726   -1.56842902    0.00000130
     atom    5 type  2   force =     0.36245138   -0.36560158    0.00033957
     atom    6 type  2   force =    -0.36259590    0.36545473   -0.00033957
     atom    7 type  3   force =     2.88090434    2.85722802   -0.00000656
     atom    8 type  3   force =    -2.88208185   -2.85838843    0.00000656
     atom    9 type  4   force =     1.68712415  -10.14339042    0.50642521
     atom   10 type  4   force =    10.12897264   -1.77102745   -0.50663484
     atom   11 type  4   force =    -1.68736849   10.14324320    0.50663314
     atom   12 type  4   force =   -10.12911888    1.77078458   -0.50642351
     atom   13 type  4   force =     3.72848481    4.22813392   -8.61249947
     atom   14 type  4   force =    -4.25794940   -3.69252713    8.61072279
     atom   15 type  4   force =     4.25876363    3.69346041    8.61251149
     atom   16 type  4   force =    -3.72754326   -4.22732928   -8.61073481
     The local contribution  to forces
     atom    1 type  1   force =    -0.39710485    0.40055307   -0.00026899
     atom    2 type  1   force =     0.39726390   -0.40038839    0.00027114
     atom    3 type  1   force =    -1.59842041   -1.58528911   -0.00000648
     atom    4 type  1   force =     1.59834008    1.58519353   -0.00001044
     atom    5 type  2   force =    -0.36473195    0.36790979   -0.00028733
     atom    6 type  2   force =     0.36486484   -0.36777803    0.00030102
     atom    7 type  3   force =    -2.87957561   -2.85608140    0.00027395
     atom    8 type  3   force =     2.88085912    2.85720065    0.00036818
     atom    9 type  4   force =    -1.85702921    9.81927302    0.05256178
     atom   10 type  4   force =    -9.80318862    1.93821068   -0.05240344
     atom   11 type  4   force =     1.85719833   -9.81881721    0.05242627
     atom   12 type  4   force =     9.80354116   -1.93810011   -0.05255408
     atom   13 type  4   force =    -3.61934113   -4.65160399    8.17625396
     atom   14 type  4   force =     4.68053724    3.57999546   -8.17419943
     atom   15 type  4   force =    -4.68141835   -3.58093878   -8.17630731
     atom   16 type  4   force =     3.61835776    4.65070144    8.17413421
     The core correction contribution to forces
     atom    1 type  1   force =     0.00000000    0.00000000    0.00000000
     atom    2 type  1   force =     0.00000000    0.00000000    0.00000000
     atom    3 type  1   force =     0.00000000    0.00000000    0.00000000
     atom    4 type  1   force =     0.00000000    0.00000000    0.00000000
     atom    5 type  2   force =     0.00216065   -0.00216991   -0.00000846
     atom    6 type  2   force =    -0.00215140    0.00217866    0.00000890
     atom    7 type  3   force =     0.00090711    0.00089534    0.00000544
     atom    8 type  3   force =    -0.00090469   -0.00089979    0.00000916
     atom    9 type  4   force =    -0.00137566   -0.00425792    0.00512745
     atom   10 type  4   force =     0.00426980    0.00133941   -0.00512644
     atom   11 type  4   force =     0.00137431    0.00425936    0.00512721
     atom   12 type  4   force =    -0.00427020   -0.00134145   -0.00512707
     atom   13 type  4   force =     0.00138780   -0.00358673   -0.00518135
     atom   14 type  4   force =     0.00357578   -0.00141543    0.00518089
     atom   15 type  4   force =    -0.00357630    0.00141583    0.00518079
     atom   16 type  4   force =    -0.00138747    0.00358523   -0.00518180
     The Hubbard contrib.    to forces
     atom    1 type  1   force =     0.00000000    0.00000000    0.00000000
     atom    2 type  1   force =     0.00000000    0.00000000    0.00000000
     atom    3 type  1   force =     0.00000000    0.00000000    0.00000000
     atom    4 type  1   force =     0.00000000    0.00000000    0.00000000
     atom    5 type  2   force =     0.00000000    0.00000000    0.00000000
     atom    6 type  2   force =     0.00000000    0.00000000    0.00000000
     atom    7 type  3   force =     0.00000000    0.00000000    0.00000000
     atom    8 type  3   force =     0.00000000    0.00000000    0.00000000
     atom    9 type  4   force =     0.00000000    0.00000000    0.00000000
     atom   10 type  4   force =     0.00000000    0.00000000    0.00000000
     atom   11 type  4   force =     0.00000000    0.00000000    0.00000000
     atom   12 type  4   force =     0.00000000    0.00000000    0.00000000
     atom   13 type  4   force =     0.00000000    0.00000000    0.00000000
     atom   14 type  4   force =     0.00000000    0.00000000    0.00000000
     atom   15 type  4   force =     0.00000000    0.00000000    0.00000000
     atom   16 type  4   force =     0.00000000    0.00000000    0.00000000
     The SCF correction term to forces
     atom    1 type  1   force =     0.00000033    0.00002291    0.00004821
     atom    2 type  1   force =     0.00002091   -0.00000753   -0.00004844
     atom    3 type  1   force =    -0.00003721   -0.00003069    0.00000844
     atom    4 type  1   force =    -0.00000347    0.00000248    0.00000851
     atom    5 type  2   force =    -0.00002183    0.00001990   -0.00004885
     atom    6 type  2   force =     0.00003711   -0.00000466    0.00004395
     atom    7 type  3   force =    -0.00035217   -0.00022667   -0.00018709
     atom    8 type  3   force =     0.00023843    0.00017752   -0.00025271
     atom    9 type  4   force =     0.00001519   -0.00006226   -0.00001589
     atom   10 type  4   force =    -0.00021603   -0.00001155    0.00001733
     atom   11 type  4   force =     0.00000497   -0.00021020    0.00000022
     atom   12 type  4   force =    -0.00005433    0.00004457    0.00003112
     atom   13 type  4   force =     0.00001275    0.00005080   -0.00017543
     atom   14 type  4   force =     0.00010257    0.00001217   -0.00018840
     atom   15 type  4   force =     0.00008763    0.00003923    0.00018645
     atom   16 type  4   force =     0.00006985    0.00011989    0.00022455

     Total force =     0.061273     Total SCF correction =     0.000820

     Computing stress (Cartesian axis) and pressure

          total   stress  (Ry/bohr**3)                   (kbar)     P=     -425.84
  -0.00293612   0.00008900   0.00000034         -431.92       13.09        0.05
   0.00008900  -0.00293738  -0.00000026           13.09     -432.10       -0.04
   0.00000034  -0.00000026  -0.00281097            0.05       -0.04     -413.51

     kinetic stress (kbar)  19225.34    -54.00     -0.01
                              -54.00  19226.16     -0.02
                               -0.01     -0.02  19261.87

     local   stress (kbar) -15969.58  -4926.00      0.06
                            -4926.00 -15888.00      0.07
                                0.06      0.07 -18534.99

     nonloc. stress (kbar)   5325.43    -55.33     -0.06
                              -55.33   5326.28      0.02
                               -0.06      0.02   5380.53

     hartree stress (kbar)  15461.63   2177.82     -0.05
                             2177.82  15425.58     -0.00
                               -0.05     -0.00  16605.20

     exc-cor stress (kbar)  -4211.08      0.05     -0.00
                                0.05  -4211.08     -0.00
                               -0.00     -0.00  -4208.14

     corecor stress (kbar)  -1191.99      2.07     -0.00
                                2.07  -1192.03      0.00
                               -0.00      0.00  -1193.43

     ewald   stress (kbar) -19071.68   2868.48      0.11
                             2868.48 -19119.03     -0.10
                                0.11     -0.10 -17724.55

     hubbard stress (kbar)      0.00      0.00      0.00
                                0.00      0.00      0.00
                                0.00      0.00      0.00

     DFT-D   stress (kbar)      0.00      0.00      0.00
                                0.00      0.00      0.00
                                0.00      0.00      0.00

     XDM     stress (kbar)      0.00      0.00      0.00
                                0.00      0.00      0.00
                                0.00      0.00      0.00

     dft-nl  stress (kbar)      0.00      0.00      0.00
                                0.00      0.00      0.00
                                0.00      0.00      0.00

     TS-vdW  stress (kbar)      0.00      0.00      0.00
                                0.00      0.00      0.00
                                0.00      0.00      0.00

[...]

                                0.00      0.00      0.00

     Writing all to output data dir new_calculations/myprefix.save/

     General routines

     Parallel routines

     PAW routines

   This run was terminated on:  15:11:59  21May2023

   JOB DONE.