     Program PWSCF v.7.0 starts on 20May2023 at 16:53:30

     Reading input from espresso_13543.pwi
Warning: card &CELL ignored
Warning: card / ignored

     Current dimensions of program PWSCF are:
     Max number of different atomic species (ntypx) = 10
     Max number of k-points (npk) =  40000
     Max angular momentum in pseudopotentials (lmaxx) =  4
     file Pb.pbe-dn-kjpaw_psl.0.2.2.UPF: wavefunction(s)  6S renormalized

     gamma-point specific algorithms are used
     Message from routine setup:
     using ibrav=0 with symmetry is DISCOURAGED, use correct ibrav instead

     Subspace diagonalization in iterative solution of the eigenvalue problem:
     a serial algorithm will be used

     Using Slab Decomposition

     bravais-lattice index     =            0
     lattice parameter (alat)  =       8.8617  a.u.
     unit-cell volume          =     964.2946 (a.u.)^3
     number of atoms/cell      =            3
     number of atomic types    =            2
     number of electrons       =        28.00
     number of Kohn-Sham states=           18
     kinetic-energy cutoff     =      30.0000  Ry
     charge density cutoff     =     240.0000  Ry
     scf convergence threshold =      1.0E-06
     mixing beta               =       0.7000
     number of iterations used =            8  plain     mixing
     Exchange-correlation= SLA  PW   PBX  PBC
                           (   1   4   3   4   0   0   0)

     celldm(1)=   8.861720  celldm(2)=   0.000000  celldm(3)=   0.000000
     celldm(4)=   0.000000  celldm(5)=   0.000000  celldm(6)=   0.000000

     crystal axes: (cart. coord. in units of alat)
               a(1) = (   1.000000   0.000000   0.000000 )
               a(2) = (  -0.500000   0.866025   0.000000 )
               a(3) = (   0.000000   0.000000   1.600019 )

     reciprocal axes: (cart. coord. in units 2 pi/alat)
               b(1) = (  1.000000  0.577350  0.000000 )
               b(2) = (  0.000000  1.154701  0.000000 )
               b(3) = (  0.000000  0.000000  0.624993 )

     PseudoPot. # 1 for Pb read from file:
     /home/pragov/projects/rrg-bengioy-ad/pragov/crystal_structure_design/SSSP/Pb.pbe-dn-kjpaw_psl.0.2.2.UPF
     MD5 check sum: 9d431e6316058b74ade52399a6cf67da
     Pseudo is Projector augmented-wave + core cor, Zval = 14.0
     Generated using "atomic" code by A. Dal Corso  v.5.0.99 svn rev. 10869
     Shape of augmentation charge: PSQ
     Using radial grid of 1281 points,  6 beta functions with:
                l(1) =   0
                l(2) =   0
                l(3) =   1
                l(4) =   1
                l(5) =   2
                l(6) =   2
     Q(r) pseudized with 0 coefficients

     PseudoPot. # 2 for I  read from file:
     /home/pragov/projects/rrg-bengioy-ad/pragov/crystal_structure_design/SSSP/I.pbe-n-kjpaw_psl.0.2.UPF
     MD5 check sum: d4ef18d9c8f18dc85e5843bca1e50dc0
     Pseudo is Projector augmented-wave + core cor, Zval =  7.0
     Generated using "atomic" code by A. Dal Corso  v.5.0.99 svn rev. 10869
     Shape of augmentation charge: PSQ
     Using radial grid of 1247 points,  4 beta functions with:
                l(1) =   0
                l(2) =   0
                l(3) =   1
                l(4) =   1
     Q(r) pseudized with 0 coefficients

     atomic species   valence    mass     pseudopotential
        Pb            14.00   207.20000     Pb( 1.00)
        I              7.00   126.90447     I ( 1.00)

     12 Sym. Ops., with inversion, found

                                    s                        frac. trans.

      isym =  1     identity

 cryst.   s( 1) = (     1          0          0      )
                  (     0          1          0      )
                  (     0          0          1      )

 cart.    s( 1) = (  1.0000000  0.0000000  0.0000000 )
                  (  0.0000000  1.0000000  0.0000000 )
                  (  0.0000000  0.0000000  1.0000000 )

      isym =  2     180 deg rotation - cart. axis [1,0,0]

[...]

      isym =  3     120 deg rotation - cryst. axis [0,0,1]

[...]

      isym =  6     180 deg rotation - cryst. axis [1,1,0]

[...]

      isym =  7     inversion

[...]

      isym =  8     inv. 180 deg rotation - cart. axis [1,0,0]

[...]

      isym =  9     inv. 120 deg rotation - cryst. axis [0,0,1]

 cryst.   s( 9) = (     0         -1          0      )
                  (     1          1          0      )
                  (     0          0         -1      )

 cart.    s( 9) = (  0.5000000  0.8660254  0.0000000 )
                  ( -0.8660254  0.5000000  0.0000000 )
                  (  0.0000000  0.0000000 -1.0000000 )

[...]

 cryst.   s(10) = (     1          1          0      )
                  (    -1          0          0      )
                  (     0          0         -1      )

 cart.    s(10) = (  0.5000000 -0.8660254  0.0000000 )
                  (  0.8660254  0.5000000  0.0000000 )
                  (  0.0000000  0.0000000 -1.0000000 )

[...]

      isym = 12     inv. 180 deg rotation - cryst. axis [1,1,0]

 cryst.   s(12) = (     0         -1          0      )
                  (    -1          0          0      )
                  (     0          0          1      )

 cart.    s(12) = (  0.5000000 -0.8660254  0.0000000 )
                  ( -0.8660254 -0.5000000  0.0000000 )
                  (  0.0000000  0.0000000  1.0000000 )

   Cartesian axes

     site n.     atom                  positions (alat units)
         1           Pb  tau(   1) = (   0.0000000   0.0000000   0.0000000  )
         2           I   tau(   2) = (   0.5000005   0.2886748   1.2047917  )
         3           I   tau(   3) = (  -0.0000005   0.5773505   0.3952270  )

   Crystallographic axes

     site n.     atom                  positions (cryst. coord.)
         1           Pb  tau(   1) = (  0.0000000  0.0000000  0.0000000  )
         2           I   tau(   2) = (  0.6666670  0.3333330  0.7529860  )
         3           I   tau(   3) = (  0.3333330  0.6666670  0.2470140  )

     number of k points=     1  Methfessel-Paxton smearing, width (Ry)=  0.0010
                       cart. coord. in units 2pi/alat
        k(    1) = (   0.0000000   0.0000000   0.0000000), wk =   2.0000000

                       cryst. coord.
        k(    1) = (   0.0000000   0.0000000   0.0000000), wk =   2.0000000

     Check: negative core charge=   -0.000001

     Initial potential from superposition of free atoms

     starting charge      27.9975, renormalised to      28.0000
     Starting wfcs are   17 randomized atomic wfcs +    1 random wfcs
     Checking if some PAW data can be deallocated...

     Self-consistent Calculation

     iteration #  1     ecut=    30.00 Ry     beta= 0.70
     Davidson diagonalization with overlap

     ethr =  1.00E-02,  avg # of iterations =  8.0

     total energy              =   -1627.94793616 Ry
     estimated scf accuracy    <       0.30062182 Ry

[...]

     negative rho (up, down):  2.770E-06 0.000E+00

[...]

     total energy              =   -1628.09199873 Ry
     estimated scf accuracy    <       0.00000617 Ry

     iteration #  7     ecut=    30.00 Ry     beta= 0.70
     Davidson diagonalization with overlap

     ethr =  2.20E-08,  avg # of iterations =  5.0

[...]

     End of self-consistent calculation

          k = 0.0000 0.0000 0.0000 (  1354 PWs)   bands (ev):

   -13.8450 -13.8330 -13.8329 -13.8162 -13.8162  -8.7609  -8.0739  -4.2613
     1.9923   2.0113   2.0113   2.2550   2.2550   2.3137   5.0079   5.7750
     5.7750   8.7443

     occupation numbers
     1.0000   1.0000   1.0000   1.0000   1.0000   1.0000   1.0000   1.0000
     1.0000   1.0000   1.0000   1.0000   1.0000   1.0000  -0.0000  -0.0000
    -0.0000  -0.0000

     the Fermi energy is     3.1650 ev

!    total energy              =   -1628.09199962 Ry

     total all-electron energy =    -70229.615356 Ry
     estimated scf accuracy    <       0.00000052 Ry
     smearing contrib. (-TS)   =       0.00000000 Ry
     internal energy E=F+TS    =   -1628.09199962 Ry

     The total energy is F=E-TS. E is the sum of the following terms:
     one-electron contribution =     -86.27569355 Ry
     hartree contribution      =      58.96484904 Ry
     xc contribution           =    -128.07572518 Ry
     ewald contribution        =    -103.15763029 Ry
     one-center paw contrib.   =   -1369.54779962 Ry
      -> PAW hartree energy AE =     117.16971318 Ry
      -> PAW hartree energy PS =    -117.09089247 Ry
      -> PAW xc energy AE      =   -1494.54209356 Ry
      -> PAW xc energy PS      =     124.91547323 Ry
      -> total E_H with PAW    =      59.04366975 Ry
      -> total E_XC with PAW   =   -1497.70234552 Ry

     convergence has been achieved in   7 iterations

     negative rho (up, down):  1.376E-05 0.000E+00

     Forces acting on atoms (cartesian axes, Ry/au):

     atom    1 type  1   force =    -0.00000000    0.00000000    0.00000000
     atom    2 type  2   force =     0.00000000    0.00000000   -0.00089284
     atom    3 type  2   force =     0.00000000    0.00000000    0.00089284
     The non-local contrib.  to forces
     atom    1 type  1   force =    -0.00000000    0.00000000    0.00000000
     atom    2 type  2   force =     0.00000000   -0.00000000    0.08528086
     atom    3 type  2   force =     0.00000000    0.00000000   -0.08528086
     The ionic contribution  to forces
     atom    1 type  1   force =    -0.00000000    0.00000000   -0.00000000
     atom    2 type  2   force =    -0.00000446    0.00000257   -6.72749207
     atom    3 type  2   force =     0.00000446   -0.00000257    6.72749207
     The local contribution  to forces
     atom    1 type  1   force =    -0.00000442    0.00000513   -0.00141469
     atom    2 type  2   force =    -0.00000023   -0.00000317    6.63611998
     atom    3 type  2   force =     0.00000254    0.00000289   -6.63605118
     The core correction contribution to forces
     atom    1 type  1   force =    -0.00000023    0.00000011   -0.00002600
     atom    2 type  2   force =    -0.00000059   -0.00000020    0.00531504
     atom    3 type  2   force =     0.00000164    0.00000018   -0.00528294
     The Hubbard contrib.    to forces
     atom    1 type  1   force =     0.00000000    0.00000000    0.00000000
     atom    2 type  2   force =     0.00000000    0.00000000    0.00000000
     atom    3 type  2   force =     0.00000000    0.00000000    0.00000000
     The SCF correction term to forces
     atom    1 type  1   force =     0.00000018   -0.00000790    0.00145651
     atom    2 type  2   force =     0.00000175    0.00000076   -0.00009922
     atom    3 type  2   force =    -0.00000480    0.00000045    0.00003318

     Total force =     0.001263     Total SCF correction =     0.001460
     SCF correction compared to forces is large: reduce conv_thr to get better values

     Computing stress (Cartesian axis) and pressure

     negative rho (up, down):  1.376E-05 0.000E+00
          total   stress  (Ry/bohr**3)                   (kbar)     P=      105.12
   0.00108417   0.00000000   0.00000000          159.49        0.00        0.00
   0.00000000   0.00108417   0.00000000            0.00      159.49        0.00
   0.00000000   0.00000000  -0.00002463            0.00        0.00       -3.62

     kinetic stress (kbar)   4640.66      0.00      0.00
                                0.00   4640.66      0.00
                                0.00      0.00   4490.60

     local   stress (kbar)  -3761.27      0.01     -0.00
                                0.01  -3761.26      0.00
                               -0.00      0.00   7949.50

     nonloc. stress (kbar)   -380.47     -0.00      0.00
                               -0.00   -380.47      0.00
                                0.00      0.00   -371.72

     hartree stress (kbar)   4756.30     -0.00      0.00
                               -0.00   4756.29     -0.00
                                0.00     -0.00   -517.39

     exc-cor stress (kbar)  13521.61      0.00     -0.00
                                0.00  13521.61     -0.00
                               -0.00     -0.00  13521.23

     corecor stress (kbar) -15526.87      0.00     -0.00
                                0.00 -15526.87      0.00
                               -0.00      0.00 -15519.89

     ewald   stress (kbar)  -3090.47     -0.01      0.00
                               -0.01  -3090.48     -0.00
                                0.00     -0.00  -9555.95

     hubbard stress (kbar)      0.00      0.00      0.00
                                0.00      0.00      0.00
                                0.00      0.00      0.00

     DFT-D   stress (kbar)      0.00      0.00      0.00
                                0.00      0.00      0.00
                                0.00      0.00      0.00

     XDM     stress (kbar)      0.00      0.00      0.00
                                0.00      0.00      0.00
                                0.00      0.00      0.00

     dft-nl  stress (kbar)      0.00      0.00      0.00
                                0.00      0.00      0.00
                                0.00      0.00      0.00

     TS-vdW  stress (kbar)      0.00      0.00      0.00
                                0.00      0.00      0.00
                                0.00      0.00      0.00

[...]

                                0.00      0.00      0.00

     Writing all to output data dir new_calculations/myprefix.save/

     General routines

     Parallel routines

     PAW routines

   This run was terminated on:  16:53:39  20May2023

   JOB DONE.