     Program PWSCF v.7.0 starts on 21May2023 at  0: 7:54

     Reading input from espresso_9793.pwi
Warning: card &CELL ignored
Warning: card / ignored

     Current dimensions of program PWSCF are:
     Max number of different atomic species (ntypx) = 10
     Max number of k-points (npk) =  40000
     Max angular momentum in pseudopotentials (lmaxx) =  4
     file In.pbe-dn-rrkjus_psl.0.2.2.UPF: wavefunction(s)  5S renormalized

     gamma-point specific algorithms are used
     Message from routine setup:
     using ibrav=0 with symmetry is DISCOURAGED, use correct ibrav instead

     Subspace diagonalization in iterative solution of the eigenvalue problem:
     a serial algorithm will be used

     Using Slab Decomposition

     bravais-lattice index     =            0
     lattice parameter (alat)  =       7.9996  a.u.
     unit-cell volume          =    1490.1662 (a.u.)^3
     number of atoms/cell      =            7
     number of atomic types    =            3
     number of electrons       =        62.00
     number of Kohn-Sham states=           37
     kinetic-energy cutoff     =      30.0000  Ry
     charge density cutoff     =     240.0000  Ry
     scf convergence threshold =      1.0E-06
     mixing beta               =       0.7000
     number of iterations used =            8  plain     mixing
     Exchange-correlation= SLA  PW   PBE  PBE
                           (   1   4   3   4   0   0   0)

     celldm(1)=   7.999641  celldm(2)=   0.000000  celldm(3)=   0.000000
     celldm(4)=   0.000000  celldm(5)=   0.000000  celldm(6)=   0.000000

     crystal axes: (cart. coord. in units of alat)
               a(1) = (   1.000000   0.000000   0.000000 )
               a(2) = (   0.000000   1.753325   0.000000 )
               a(3) = (  -0.500000  -0.256555   1.660201 )

     reciprocal axes: (cart. coord. in units 2 pi/alat)
               b(1) = (  1.000000  0.000000  0.301168 )
               b(2) = (  0.000000  0.570345  0.088137 )
               b(3) = (  0.000000  0.000000  0.602337 )

     PseudoPot. # 1 for In read from file:
     /home/pragov/projects/rrg-bengioy-ad/pragov/crystal_structure_design/SSSP/In.pbe-dn-rrkjus_psl.0.2.2.UPF
     MD5 check sum: 25e7c42c3b55b68f4bf926be2e7201a4
     Pseudo is Ultrasoft + core correction, Zval = 13.0
     Generated using "atomic" code by A. Dal Corso  v.5.0.99 svn rev. 10869
     Using radial grid of 1241 points,  6 beta functions with:
                l(1) =   0
                l(2) =   0
                l(3) =   1
                l(4) =   1
                l(5) =   2
                l(6) =   2
     Q(r) pseudized with 0 coefficients

     PseudoPot. # 2 for As read from file:
     /home/pragov/projects/rrg-bengioy-ad/pragov/crystal_structure_design/SSSP/As.pbe-n-rrkjus_psl.0.2.UPF
     MD5 check sum: 767315de957beeeb34f87d97bf945c8f
     Pseudo is Ultrasoft + core correction, Zval =  5.0
     Generated using "atomic" code by A. Dal Corso  v.5.0.99 svn rev. 10869
     Using radial grid of 1209 points,  4 beta functions with:
                l(1) =   0
                l(2) =   0
                l(3) =   1
                l(4) =   1
     Q(r) pseudized with 0 coefficients

     PseudoPot. # 3 for Se read from file:
     /home/pragov/projects/rrg-bengioy-ad/pragov/crystal_structure_design/SSSP/Se_pbe_v1.uspp.F.UPF
     MD5 check sum: 1b3568f3a8ae88f9a2a0ad0698632c85
     Pseudo is Ultrasoft + core correction, Zval =  6.0
     Generated by new atomic code, or converted to UPF format
     Using radial grid of  877 points,  6 beta functions with:
                l(1) =   0
                l(2) =   0
                l(3) =   1
                l(4) =   1
                l(5) =   2
                l(6) =   2
     Q(r) pseudized with  8 coefficients,  rinner =    1.300   1.300   1.300
                                                       1.300   1.300

     atomic species   valence    mass     pseudopotential
        In            13.00   114.81800     In( 1.00)
        As             5.00    74.92159     As( 1.00)
        Se             6.00    78.97100     Se( 1.00)

      2 Sym. Ops. (no inversion) found

                                    s                        frac. trans.

      isym =  1     identity

 cryst.   s( 1) = (     1          0          0      )
                  (     0          1          0      )
                  (     0          0          1      )

 cart.    s( 1) = (  1.0000000  0.0000000  0.0000000 )
                  (  0.0000000  1.0000000  0.0000000 )
                  (  0.0000000  0.0000000  1.0000000 )

      isym =  2     inv. 180 deg rotation - cart. axis [1,0,0]

 cryst.   s( 2) = (    -1          0          0      )
                  (     0          1          0      )
                  (     1          0          1      )

 cart.    s( 2) = ( -1.0000000  0.0000000  0.0000000 )
                  (  0.0000000  1.0000000  0.0000000 )
                  (  0.0000000  0.0000000  1.0000000 )

   Cartesian axes

     site n.     atom                  positions (alat units)
         1           In  tau(   1) = (   0.5000000   0.3142547   0.8424458  )
         2           In  tau(   2) = (   0.0000005   0.6453056   1.6289711  )
         3           In  tau(   3) = (   0.0000000   1.1766294   0.8592271  )
         4           As  tau(   4) = (   0.4999995   0.8930242   0.6035877  )
         5           Se  tau(   5) = (  -0.0000005   1.2246954   1.4619017  )
         6           Se  tau(   6) = (  -0.0000005   0.0090524   0.6065462  )
         7           Se  tau(   7) = (   0.4999995   0.2808480   1.4682271  )

   Crystallographic axes

     site n.     atom                  positions (cryst. coord.)
         1           In  tau(   1) = (  0.7537180  0.2534840  0.5074360  )
         2           In  tau(   2) = (  0.4905950  0.5116190  0.9811890  )
         3           In  tau(   3) = (  0.2587720  0.7468140  0.5175440  )
         4           As  tau(   4) = (  0.6817810  0.5625300  0.3635630  )
         5           Se  tau(   5) = (  0.4402780  0.8273460  0.8805570  )
         6           Se  tau(   6) = (  0.1826720  0.0586220  0.3653450  )
         7           Se  tau(   7) = (  0.9421830  0.2895850  0.8843670  )

     number of k points=     1  Methfessel-Paxton smearing, width (Ry)=  0.0010
                       cart. coord. in units 2pi/alat
        k(    1) = (   0.0000000   0.0000000   0.0000000), wk =   2.0000000

                       cryst. coord.
        k(    1) = (   0.0000000   0.0000000   0.0000000), wk =   2.0000000

     Initial potential from superposition of free atoms

     starting charge      61.9884, renormalised to      62.0000
     Starting wfcs are   43 randomized atomic wfcs

     Self-consistent Calculation

     iteration #  1     ecut=    30.00 Ry     beta= 0.70
     Davidson diagonalization with overlap

     ethr =  1.00E-02,  avg # of iterations =  3.0

     total energy              =    -582.77351392 Ry
     estimated scf accuracy    <       0.62089671 Ry

[...]

     total energy              =    -583.08696414 Ry
     estimated scf accuracy    <       0.00000266 Ry

     iteration # 22     ecut=    30.00 Ry     beta= 0.70
     Davidson diagonalization with overlap

     ethr =  4.29E-09,  avg # of iterations =  5.0

     End of self-consistent calculation

          k = 0.0000 0.0000 0.0000 (  2054 PWs)   bands (ev):

    -9.8426  -9.8007  -9.7859  -9.7007  -9.6713  -9.6546  -9.6161  -9.6072
    -9.5979  -9.5957  -9.5699  -9.5344  -9.5224  -9.4995  -9.4567  -7.7089
    -7.0291  -6.6266  -5.2051  -0.7162  -0.6064   0.8960   2.0645   2.6662
     2.9746   3.2851   3.7240   4.3272   4.4076   4.5302   5.0178   5.0312
     6.2561   7.3592   8.6741   8.6999   9.3122

     occupation numbers
     1.0000   1.0000   1.0000   1.0000   1.0000   1.0000   1.0000   1.0000
     1.0000   1.0000   1.0000   1.0000   1.0000   1.0000   1.0000   1.0000
     1.0000   1.0000   1.0000   1.0000   1.0000   1.0000   1.0000   1.0000
     1.0000   1.0000   1.0000   1.0000   1.0000   1.0000   0.8653   0.1347
    -0.0000  -0.0000  -0.0000  -0.0000  -0.0000

     the Fermi energy is     5.0245 ev

!    total energy              =    -583.08696505 Ry
     estimated scf accuracy    <       0.00000053 Ry
     smearing contrib. (-TS)   =      -0.00022922 Ry
     internal energy E=F+TS    =    -583.08673583 Ry

     The total energy is F=E-TS. E is the sum of the following terms:
     one-electron contribution =    -236.54182869 Ry
     hartree contribution      =     158.20273193 Ry
     xc contribution           =    -241.53300900 Ry
     ewald contribution        =    -263.21463006 Ry

     convergence has been achieved in  22 iterations

     Forces acting on atoms (cartesian axes, Ry/au):

     atom    1 type  1   force =     0.00000000    0.02398801    0.03591656
     atom    2 type  1   force =     0.00000000    0.01807228    0.02191722
     atom    3 type  1   force =     0.00000000    0.02663981    0.03291788
     atom    4 type  2   force =     0.00000000   -0.02766555   -0.04094658
     atom    5 type  3   force =     0.00000000    0.00772176    0.00616465
     atom    6 type  3   force =     0.00000000   -0.02773759   -0.04890107
     atom    7 type  3   force =     0.00000000   -0.02101872   -0.00706865
     The non-local contrib.  to forces
     atom    1 type  1   force =     0.00000000   -0.13584627   -0.08838676
     atom    2 type  1   force =     0.00000000   -0.19055029   -0.15185745
     atom    3 type  1   force =     0.00000000   -0.01963172   -0.19101395
     atom    4 type  2   force =     0.00000000   -0.01131589    0.12904088
     atom    5 type  3   force =     0.00000000   -0.34841872   -0.20664874
     atom    6 type  3   force =     0.00000000   -0.01466749    0.54669268
     atom    7 type  3   force =     0.00000000    0.42515668   -0.10335323
     The ionic contribution  to forces
     atom    1 type  1   force =    -0.00000530   -2.44142071   -2.10471520
     atom    2 type  1   force =    -0.00001055   -0.05920095    2.10324786
     atom    3 type  1   force =    -0.00000388    2.60308820   -0.28266585
     atom    4 type  2   force =     0.00000306    0.34557117   -1.35373916
     atom    5 type  3   force =    -0.00000852    5.38029255    4.06224953
     atom    6 type  3   force =     0.00000828   -0.55567413   -5.19805734
     atom    7 type  3   force =     0.00001691   -5.27265613    2.77368017
     The local contribution  to forces
     atom    1 type  1   force =    -0.00000500    2.59555231    2.22736919
     atom    2 type  1   force =     0.00002834    0.25750534   -1.93405085
     atom    3 type  1   force =    -0.00005584   -2.55477077    0.49902776
     atom    4 type  2   force =    -0.00010006   -0.36220862    1.20095958
     atom    5 type  3   force =    -0.00010371   -5.06448416   -3.87322550
     atom    6 type  3   force =    -0.00007214    0.54013476    4.66793134
     atom    7 type  3   force =    -0.00007086    4.87662578   -2.68886225
     The core correction contribution to forces
     atom    1 type  1   force =    -0.00000070    0.00597521    0.00226541
     atom    2 type  1   force =     0.00000089    0.01126131    0.00405243
     atom    3 type  1   force =    -0.00000303   -0.00237827    0.00862094
     atom    4 type  2   force =    -0.00001530    0.00039062   -0.01730278
     atom    5 type  3   force =    -0.00002231    0.04017696    0.02367936
     atom    6 type  3   force =     0.00000395    0.00226127   -0.06578325
     atom    7 type  3   force =    -0.00001940   -0.05021694    0.01141798
     The Hubbard contrib.    to forces
     atom    1 type  1   force =     0.00000000    0.00000000    0.00000000
     atom    2 type  1   force =     0.00000000    0.00000000    0.00000000
     atom    3 type  1   force =     0.00000000    0.00000000    0.00000000
     atom    4 type  2   force =     0.00000000    0.00000000    0.00000000
     atom    5 type  3   force =     0.00000000    0.00000000    0.00000000
     atom    6 type  3   force =     0.00000000    0.00000000    0.00000000
     atom    7 type  3   force =     0.00000000    0.00000000    0.00000000
     The SCF correction term to forces
     atom    1 type  1   force =     0.00001164   -0.00032261   -0.00069719
     atom    2 type  1   force =    -0.00000420   -0.00099321    0.00044411
     atom    3 type  1   force =     0.00003604    0.00028230   -0.00113212
     atom    4 type  2   force =     0.00001511   -0.00015290    0.00001378
     atom    5 type  3   force =     0.00001460    0.00010505    0.00002889
     atom    6 type  3   force =     0.00001025    0.00015792    0.00023439
     atom    7 type  3   force =     0.00001023    0.00002182   -0.00003244

     Total force =     0.103236     Total SCF correction =     0.001804

     Computing stress (Cartesian axis) and pressure

          total   stress  (Ry/bohr**3)                   (kbar)     P=       78.91
   0.00103775   0.00000000  -0.00000000          152.66        0.00       -0.00
   0.00000000   0.00055465   0.00011677            0.00       81.59       17.18
  -0.00000000   0.00011677   0.00001679           -0.00       17.18        2.47

     kinetic stress (kbar)   7462.56      0.00     -0.00
                                0.00   7269.09     -3.40
                               -0.00     -3.40   7165.86

     local   stress (kbar)  -5614.76      0.02      0.01
                                0.02  -3056.82    374.95
                                0.01    374.95  -2793.25

     nonloc. stress (kbar)   3132.91      0.00     -0.00
                                0.00   3083.31    -11.24
                               -0.00    -11.24   3065.81

     hartree stress (kbar)   6052.57     -0.01     -0.00
                               -0.01   4825.54   -169.54
                               -0.00   -169.54   4739.23

     exc-cor stress (kbar)  13668.04      0.00      0.00
                                0.00  13668.44     -1.22
                                0.00     -1.22  13668.18

     corecor stress (kbar) -16715.75     -0.00      0.00
                               -0.00 -16702.59      1.11
                                0.00      1.11 -16697.82

     ewald   stress (kbar)  -7832.90     -0.01     -0.01
                               -0.01  -9005.38   -173.49
                               -0.01   -173.49  -9145.54

     hubbard stress (kbar)      0.00      0.00      0.00
                                0.00      0.00      0.00
                                0.00      0.00      0.00

     DFT-D   stress (kbar)      0.00      0.00      0.00
                                0.00      0.00      0.00
                                0.00      0.00      0.00

     XDM     stress (kbar)      0.00      0.00      0.00
                                0.00      0.00      0.00
                                0.00      0.00      0.00

     dft-nl  stress (kbar)      0.00      0.00      0.00
                                0.00      0.00      0.00
                                0.00      0.00      0.00

     TS-vdW  stress (kbar)      0.00      0.00      0.00
                                0.00      0.00      0.00
                                0.00      0.00      0.00

[...]

                                0.00      0.00      0.00

     Writing all to output data dir new_calculations/myprefix.save/

     General routines

     Parallel routines

   This run was terminated on:   0: 8:34  21May2023

   JOB DONE.