     Program PWSCF v.7.0 starts on 21May2023 at  1: 0:55

     Reading input from espresso_16730.pwi
Warning: card &CELL ignored
Warning: card / ignored

     Current dimensions of program PWSCF are:
     Max number of different atomic species (ntypx) = 10
     Max number of k-points (npk) =  40000
     Max angular momentum in pseudopotentials (lmaxx) =  4
     file O.pbe-n-kjpaw_psl.0.1.UPF: wavefunction(s)  2P renormalized

     gamma-point specific algorithms are used

     Subspace diagonalization in iterative solution of the eigenvalue problem:
     a serial algorithm will be used

     Using Slab Decomposition

     bravais-lattice index     =            0
     lattice parameter (alat)  =      11.3611  a.u.
     unit-cell volume          =    1156.9604 (a.u.)^3
     number of atoms/cell      =           14
     number of atomic types    =            3
     number of electrons       =       130.00
     number of Kohn-Sham states=           78
     kinetic-energy cutoff     =      30.0000  Ry
     charge density cutoff     =     240.0000  Ry
     scf convergence threshold =      1.0E-06
     mixing beta               =       0.7000
     number of iterations used =            8  plain     mixing
     Exchange-correlation= SLA  PW   PBX  PBC
                           (   1   4   3   4   0   0   0)

     celldm(1)=  11.361114  celldm(2)=   0.000000  celldm(3)=   0.000000
     celldm(4)=   0.000000  celldm(5)=   0.000000  celldm(6)=   0.000000

     crystal axes: (cart. coord. in units of alat)
               a(1) = (   1.000000   0.000000   0.000000 )
               a(2) = (   0.499213   0.920522   0.000000 )
               a(3) = (   0.000001   0.584708   0.857080 )

     reciprocal axes: (cart. coord. in units 2 pi/alat)
               b(1) = (  1.000000 -0.542315  0.369971 )
               b(2) = (  0.000000  1.086340 -0.741111 )
               b(3) = (  0.000000  0.000000  1.166752 )

     PseudoPot. # 1 for Sc read from file:
     /home/pragov/projects/rrg-bengioy-ad/pragov/crystal_structure_design/SSSP/Sc_ONCV_PBE-1.0.oncvpsp.upf
     MD5 check sum: e21af8023abb52e52cb7cd3133e4a229
     Pseudo is Norm-conserving, Zval = 11.0
     Generated using ONCVPSP code by D. R. Hamann
     Using radial grid of 1662 points,  6 beta functions with:
                l(1) =   0
                l(2) =   0
                l(3) =   1
                l(4) =   1
                l(5) =   2
                l(6) =   2

     PseudoPot. # 2 for Mn read from file:
     /home/pragov/projects/rrg-bengioy-ad/pragov/crystal_structure_design/SSSP/mn_pbe_v1.5.uspp.F.UPF
     MD5 check sum: 82ef2b46521d7a7d9e736dc3972e4928
     Pseudo is Ultrasoft + core correction, Zval = 15.0
     Generated by new atomic code, or converted to UPF format
     Using radial grid of  859 points,  6 beta functions with:
                l(1) =   0
                l(2) =   0
                l(3) =   1
                l(4) =   1
                l(5) =   2
                l(6) =   2
     Q(r) pseudized with  8 coefficients,  rinner =    0.950   0.950   0.950
                                                       0.950   0.950

     PseudoPot. # 3 for O  read from file:
     /home/pragov/projects/rrg-bengioy-ad/pragov/crystal_structure_design/SSSP/O.pbe-n-kjpaw_psl.0.1.UPF
     MD5 check sum: 0234752ac141de4415c5fc33072bef88
     Pseudo is Projector augmented-wave + core cor, Zval =  6.0
     Generated using "atomic" code by A. Dal Corso  v.5.0.99 svn rev. 10869
     Shape of augmentation charge: BESSEL
     Using radial grid of 1095 points,  4 beta functions with:
                l(1) =   0
                l(2) =   0
                l(3) =   1
                l(4) =   1
     Q(r) pseudized with 0 coefficients

     atomic species   valence    mass     pseudopotential
        Sc            11.00    44.95591     Sc( 1.00)
        Mn            15.00    54.93804     Mn( 1.00)
        O              6.00    15.99900     O ( 1.00)

     No symmetry found

                                    s                        frac. trans.

      isym =  1     identity

 cryst.   s( 1) = (     1          0          0      )
                  (     0          1          0      )
                  (     0          0          1      )

 cart.    s( 1) = (  1.0000000 -0.0000000 -0.0000000 )
                  (  0.0000000  1.0000000  0.0000000 )
                  (  0.0000000  0.0000000  1.0000000 )

   Cartesian axes

     site n.     atom                  positions (alat units)
         1           Sc  tau(   1) = (   0.4998038   0.5955644   0.5356921  )
         2           Sc  tau(   2) = (   0.4997939   0.3031756   0.1071590  )
         3           Mn  tau(   3) = (   0.9990904   0.6121919   0.2103686  )
         4           Mn  tau(   4) = (   0.4997618   0.9148574   0.0038860  )
         5           Mn  tau(   5) = (   0.7496816   1.0557686   0.5355319  )
         6           Mn  tau(   6) = (   1.2491737   1.0558402   0.5357016  )
         7           O   tau(   7) = (   0.5008753   0.9169261   0.3617992  )
         8           O   tau(   8) = (   0.5008548   1.1670678   0.7284743  )
         9           O   tau(   9) = (   0.9979201   0.9446226   0.3429340  )
        10           O   tau(  10) = (   0.9979380   1.1947434   0.7095637  )
        11           O   tau(  11) = (   0.2699427   0.7476188   0.7459424  )
        12           O   tau(  12) = (   0.7304441   0.7469103   0.7464327  )
        13           O   tau(  13) = (   0.2691605   0.4442412   0.3249310  )
        14           O   tau(  14) = (   0.7296614   0.4435186   0.3254127  )

   Crystallographic axes

     site n.     atom                  positions (cryst. coord.)
         1           Sc  tau(   1) = (  0.3750110  0.2499780  0.6250200  )
         2           Sc  tau(   2) = (  0.3750230  0.2499350  0.1250280  )
         3           Mn  tau(   3) = (  0.7449200  0.5091420  0.2454480  )
         4           Mn  tau(   4) = (  0.0050590  0.9909660  0.0045340  )
         5           Mn  tau(   5) = (  0.3752540  0.7500350  0.6248330  )
         6           Mn  tau(   6) = (  0.8747700  0.7499870  0.6250310  )
         7           O   tau(   7) = (  0.1374680  0.7279600  0.4221300  )
         8           O   tau(   8) = (  0.1374510  0.7279520  0.8499490  )
         9           O   tau(   9) = (  0.6125130  0.7720290  0.4001190  )
        10           O   tau(  10) = (  0.6125290  0.7720320  0.8278850  )
        11           O   tau(  11) = (  0.1404750  0.2593420  0.8703300  )
        12           O   tau(  12) = (  0.6015420  0.2582090  0.8709020  )
        13           O   tau(  13) = (  0.1484570  0.2417870  0.3791140  )
        14           O   tau(  14) = (  0.6095280  0.2406450  0.3796760  )

     number of k points=     1  Methfessel-Paxton smearing, width (Ry)=  0.0010
                       cart. coord. in units 2pi/alat
        k(    1) = (   0.0000000   0.0000000   0.0000000), wk =   2.0000000

                       cryst. coord.
        k(    1) = (   0.0000000   0.0000000   0.0000000), wk =   2.0000000

     Check: negative core charge=   -0.000028

     Initial potential from superposition of free atoms

     starting charge     127.9944, renormalised to     130.0000
     Starting wfcs are  104 randomized atomic wfcs
     Checking if some PAW data can be deallocated...

     Self-consistent Calculation

     iteration #  1     ecut=    30.00 Ry     beta= 0.70
     Davidson diagonalization with overlap

     ethr =  1.00E-02,  avg # of iterations =  2.0

     total energy              =   -1356.38245333 Ry
     estimated scf accuracy    <       7.81257925 Ry

[...]

     total energy              =   -1361.73158507 Ry
     estimated scf accuracy    <       0.00000129 Ry

     iteration # 56     ecut=    30.00 Ry     beta= 0.70
     Davidson diagonalization with overlap

     ethr =  9.90E-10,  avg # of iterations =  1.0

     End of self-consistent calculation

          k = 0.0000 0.0000 0.0000 (  1614 PWs)   bands (ev):

   -69.3517 -69.3338 -69.0698 -69.0679 -39.3860 -39.3414 -38.2348 -38.1642
   -38.1426 -38.1161 -37.9138 -37.9013 -37.8544 -37.8519 -37.8141 -37.8109
   -37.8095 -37.8060 -18.4449 -18.1328 -18.1112 -18.0812 -17.9573 -17.8690
    -9.4908  -8.6660  -8.6455  -8.6084  -8.5093  -8.4956  -8.0504  -8.0263
     2.8359   3.4984   3.8743   4.1939   4.1976   4.6445   4.7290   5.0846
     5.2423   5.3269   5.3406   5.3561   5.7128   5.7773   5.7926   5.8117
     5.9575   6.0612   6.6801   6.7698   6.7788   6.9684   6.9889   7.2049
     9.1526   9.2559   9.7955   9.8349   9.9357  10.0884  10.1020  10.1660
    10.1691  10.1772  10.3662  10.4076  10.4500  10.8154  10.9363  11.1240
    11.5504  11.5901  12.1056  12.1893  12.2058  12.8306

     occupation numbers
     1.0000   1.0000   1.0000   1.0000   1.0000   1.0000   1.0000   1.0000
     1.0000   1.0000   1.0000   1.0000   1.0000   1.0000   1.0000   1.0000
     1.0000   1.0000   1.0000   1.0000   1.0000   1.0000   1.0000   1.0000
     1.0000   1.0000   1.0000   1.0000   1.0000   1.0000   1.0000   1.0000
     1.0000   1.0000   1.0000   1.0000   1.0000   1.0000   1.0000   1.0000
     1.0000   1.0000   1.0000   1.0000   1.0000   1.0000   1.0000   1.0000
     1.0000   1.0000   1.0000   1.0000   1.0000   1.0000   1.0000   1.0000
     1.0000   1.0000   1.0000   1.0000   1.0000   1.0000   1.0000   0.9126
     0.7823   0.3050  -0.0000  -0.0000  -0.0000  -0.0000  -0.0000  -0.0000
    -0.0000  -0.0000  -0.0000  -0.0000  -0.0000  -0.0000

     the Fermi energy is    10.1739 ev

!    total energy              =   -1361.73158486 Ry
     estimated scf accuracy    <       0.00000027 Ry
     smearing contrib. (-TS)   =      -0.00048502 Ry
     internal energy E=F+TS    =   -1361.73109985 Ry

     The total energy is F=E-TS. E is the sum of the following terms:
     one-electron contribution =    -654.39981464 Ry
     hartree contribution      =     385.12286507 Ry
     xc contribution           =    -188.79901501 Ry
     ewald contribution        =    -827.49474330 Ry
     one-center paw contrib.   =     -76.16039196 Ry
      -> PAW hartree energy AE =     232.60873003 Ry
      -> PAW hartree energy PS =    -231.77294498 Ry
      -> PAW xc energy AE      =    -136.64795028 Ry
      -> PAW xc energy PS      =      59.65177328 Ry
      -> total E_H with PAW    =     385.95865011 Ry
      -> total E_XC with PAW   =    -265.79519202 Ry

     convergence has been achieved in  56 iterations

     Forces acting on atoms (cartesian axes, Ry/au):

     atom    1 type  1   force =     0.00004824    0.00016269   -0.00023245
     atom    2 type  1   force =     0.00004549    0.00048825   -0.00013013
     atom    3 type  2   force =    -0.00003456   -0.00770154    0.00531155
     atom    4 type  2   force =    -0.00012628    0.00716986   -0.00483190
     atom    5 type  2   force =    -0.00101615   -0.00009696   -0.00002380
     atom    6 type  2   force =     0.00070285   -0.00020475   -0.00041819
     atom    7 type  3   force =    -0.00232113    0.02103572   -0.05312639
     atom    8 type  3   force =    -0.00226871    0.05743536    0.00004447
     atom    9 type  3   force =     0.00250032   -0.05722137    0.00001512
     atom   10 type  3   force =     0.00242676   -0.02075493    0.05364421
     atom   11 type  3   force =    -0.06900906   -0.00631182    0.00422891
     atom   12 type  3   force =     0.06740541   -0.00652271    0.00428907
     atom   13 type  3   force =    -0.06699409    0.00632273   -0.00446837
     atom   14 type  3   force =     0.06864090    0.00619948   -0.00430212
     The non-local contrib.  to forces
     atom    1 type  1   force =     0.00002462   -0.00014007    0.00009529
     atom    2 type  1   force =    -0.00003062   -0.00021357    0.00015776
     atom    3 type  2   force =     0.00189155    0.09519679   -0.06509562
     atom    4 type  2   force =    -0.00167239   -0.09451665    0.06432155
     atom    5 type  2   force =     0.00146032    0.00107634    0.00109393
     atom    6 type  2   force =    -0.00119218    0.00090050    0.00117745
     atom    7 type  3   force =    -0.00372910    0.16121043    0.09231670
     atom    8 type  3   force =    -0.00510545   -0.02705307   -0.18370951
     atom    9 type  3   force =     0.00369044    0.02886106    0.18713974
     atom   10 type  3   force =     0.00498918   -0.16365339   -0.09504982
     atom   11 type  3   force =    -0.07327708    0.00054378    0.00027648
     atom   12 type  3   force =     0.06814078   -0.00103389    0.00061545
     atom   13 type  3   force =    -0.06719319   -0.00013702    0.00003273
     atom   14 type  3   force =     0.07215049   -0.00088698    0.00126658
     The ionic contribution  to forces
     atom    1 type  1   force =    -0.00079664    0.01602132   -0.00142268
     atom    2 type  1   force =     0.00630053    0.01502865   -0.02407591
     atom    3 type  2   force =     0.13319329    1.72283328   -1.18313861
     atom    4 type  2   force =    -0.13884933   -1.75368971    1.18852041
     atom    5 type  2   force =    -0.10184984   -0.00264775    0.02748888
     atom    6 type  2   force =     0.09223502   -0.00747812    0.01014795
     atom    7 type  3   force =    -0.15489777   -3.46485857   -6.71700435
     atom    8 type  3   force =    -0.13413616    4.98711894    5.67166059
     atom    9 type  3   force =     0.15843085   -5.01936434   -5.72039753
     atom   10 type  3   force =     0.13768006    3.49164891    6.75571652
     atom   11 type  3   force =    -1.94613169   -2.02162658    1.37698700
     atom   12 type  3   force =     1.92698547   -2.07617440    1.42001229
     atom   13 type  3   force =    -1.94200863    2.08653714   -1.41976704
     atom   14 type  3   force =     1.96384486    2.02665123   -1.38472753
     The local contribution  to forces
     atom    1 type  1   force =     0.00080651   -0.01570081    0.00110578
     atom    2 type  1   force =    -0.00623898   -0.01431832    0.02375890
     atom    3 type  2   force =    -0.13514260   -1.82782054    1.25493125
     atom    4 type  2   force =     0.14042608    1.85744540   -1.25911047
     atom    5 type  2   force =     0.09943909    0.00151946   -0.02853205
     atom    6 type  2   force =    -0.09038352    0.00641113   -0.01162945
     atom    7 type  3   force =     0.15646429    3.32686199    6.57152347
     atom    8 type  3   force =     0.13713655   -4.90180871   -5.48991702
     atom    9 type  3   force =    -0.15980211    4.93229617    5.53525109
     atom   10 type  3   force =    -0.14039628   -3.35095827   -6.60681707
     atom   11 type  3   force =     1.94811628    2.01488503   -1.37310531
     atom   12 type  3   force =    -1.92549998    2.07100372   -1.41653929
     atom   13 type  3   force =     1.93982151   -2.08029868    1.41540179
     atom   14 type  3   force =    -1.96492381   -2.01958456    1.37918559
     The core correction contribution to forces
     atom    1 type  1   force =     0.00000000    0.00000000    0.00000000
     atom    2 type  1   force =     0.00000000    0.00000000    0.00000000
     atom    3 type  2   force =    -0.00007324    0.00215900   -0.00145160
     atom    4 type  2   force =     0.00006441   -0.00214776    0.00148621
     atom    5 type  2   force =    -0.00007942   -0.00005002   -0.00004455
     atom    6 type  2   force =     0.00005297   -0.00005838   -0.00007405
     atom    7 type  3   force =     0.00009013   -0.00229167   -0.00003183
     atom    8 type  3   force =     0.00010182   -0.00080494    0.00214737
     atom    9 type  3   force =    -0.00009157    0.00079264   -0.00217775
     atom   10 type  3   force =    -0.00010209    0.00231778    0.00005884
     atom   11 type  3   force =     0.00238696   -0.00029709    0.00019398
     atom   12 type  3   force =    -0.00232178   -0.00027014    0.00018456
     atom   13 type  3   force =     0.00231082    0.00028276   -0.00019301
     atom   14 type  3   force =    -0.00237467    0.00029962   -0.00021331
     The Hubbard contrib.    to forces
     atom    1 type  1   force =     0.00000000    0.00000000    0.00000000
     atom    2 type  1   force =     0.00000000    0.00000000    0.00000000
     atom    3 type  2   force =     0.00000000    0.00000000    0.00000000
     atom    4 type  2   force =     0.00000000    0.00000000    0.00000000
     atom    5 type  2   force =     0.00000000    0.00000000    0.00000000
     atom    6 type  2   force =     0.00000000    0.00000000    0.00000000
     atom    7 type  3   force =     0.00000000    0.00000000    0.00000000
     atom    8 type  3   force =     0.00000000    0.00000000    0.00000000
     atom    9 type  3   force =     0.00000000    0.00000000    0.00000000
     atom   10 type  3   force =     0.00000000    0.00000000    0.00000000
     atom   11 type  3   force =     0.00000000    0.00000000    0.00000000
     atom   12 type  3   force =     0.00000000    0.00000000    0.00000000
     atom   13 type  3   force =     0.00000000    0.00000000    0.00000000
     atom   14 type  3   force =     0.00000000    0.00000000    0.00000000
     The SCF correction term to forces
     atom    1 type  1   force =     0.00001379   -0.00001784   -0.00001099
     atom    2 type  1   force =     0.00001460   -0.00000859    0.00002898
     atom    3 type  2   force =     0.00009648   -0.00007014    0.00006599
     atom    4 type  2   force =    -0.00009501    0.00007851   -0.00004973
     atom    5 type  2   force =     0.00001374    0.00000493   -0.00003015
     atom    6 type  2   force =    -0.00000939    0.00002004   -0.00004023
     atom    7 type  3   force =    -0.00024865    0.00011346    0.00006949
     atom    8 type  3   force =    -0.00026543   -0.00001694   -0.00013711
     atom    9 type  3   force =     0.00027275    0.00019302    0.00019943
     atom   10 type  3   force =     0.00025593   -0.00011003   -0.00026440
     atom   11 type  3   force =    -0.00010350    0.00018297   -0.00012338
     atom   12 type  3   force =     0.00010096   -0.00004808    0.00001593
     atom   13 type  3   force =     0.00007542   -0.00006154    0.00005701
     atom   14 type  3   force =    -0.00005595   -0.00027991    0.00018641

     Total force =     0.179094     Total SCF correction =     0.000843

     Computing stress (Cartesian axis) and pressure

          total   stress  (Ry/bohr**3)                   (kbar)     P=     -589.91
  -0.00414662  -0.00000947   0.00000642         -609.99       -1.39        0.94
  -0.00000947  -0.00406696   0.00031928           -1.39     -598.27       46.97
   0.00000642   0.00031928  -0.00381678            0.94       46.97     -561.47

     kinetic stress (kbar)  31091.03      0.77     -0.54
                                0.77  31197.74    109.55
                               -0.54    109.55  31283.63

     local   stress (kbar) -22405.12    -40.02     27.08
                              -40.02  -8736.77  -2164.06
                               27.08  -2164.06 -10432.76

     nonloc. stress (kbar)   8293.92     -0.91      0.60
                               -0.91   8343.91    -69.63
                                0.60    -69.63   8289.39

     hartree stress (kbar)  19947.88     15.11    -10.22
                               15.11  14258.01    642.65
                              -10.22    642.65  14761.67

     exc-cor stress (kbar)  -5220.97     -0.01      0.01
                               -0.01  -5229.28      6.44
                                0.01      6.44  -5224.23

     corecor stress (kbar)  -2257.37     -0.00      0.00
                               -0.00  -2258.55      1.16
                                0.00      1.16  -2257.64

     ewald   stress (kbar) -30059.37     23.66    -15.98
                               23.66 -38173.32   1520.86
                              -15.98   1520.86 -36981.53

     hubbard stress (kbar)      0.00      0.00      0.00
                                0.00      0.00      0.00
                                0.00      0.00      0.00

     DFT-D   stress (kbar)      0.00      0.00      0.00
                                0.00      0.00      0.00
                                0.00      0.00      0.00

     XDM     stress (kbar)      0.00      0.00      0.00
                                0.00      0.00      0.00
                                0.00      0.00      0.00

     dft-nl  stress (kbar)      0.00      0.00      0.00
                                0.00      0.00      0.00
                                0.00      0.00      0.00

     TS-vdW  stress (kbar)      0.00      0.00      0.00
                                0.00      0.00      0.00
                                0.00      0.00      0.00

[...]

                                0.00      0.00      0.00

     Writing all to output data dir new_calculations/myprefix.save/

     General routines

     Parallel routines

     PAW routines

   This run was terminated on:   1: 2: 0  21May2023

   JOB DONE.