     Program PWSCF v.7.0 starts on 20May2023 at 16:12:16

     Reading input from espresso_639.pwi
Warning: card &CELL ignored
Warning: card / ignored

     Current dimensions of program PWSCF are:
     Max number of different atomic species (ntypx) = 10
     Max number of k-points (npk) =  40000
     Max angular momentum in pseudopotentials (lmaxx) =  4

     gamma-point specific algorithms are used
     Message from routine setup:
     using ibrav=0 with symmetry is DISCOURAGED, use correct ibrav instead

     Subspace diagonalization in iterative solution of the eigenvalue problem:
     a serial algorithm will be used

     Using Slab Decomposition

     bravais-lattice index     =            0
     lattice parameter (alat)  =      26.6310  a.u.
     unit-cell volume          =    2032.5250 (a.u.)^3
     number of atoms/cell      =           12
     number of atomic types    =            3
     number of electrons       =       167.00
     number of Kohn-Sham states=          101
     kinetic-energy cutoff     =      30.0000  Ry
     charge density cutoff     =     240.0000  Ry
     scf convergence threshold =      1.0E-06
     mixing beta               =       0.7000
     number of iterations used =            8  plain     mixing
     Exchange-correlation= SLA  PW   PBE  PBE
                           (   1   4   3   4   0   0   0)

     celldm(1)=  26.630998  celldm(2)=   0.000000  celldm(3)=   0.000000
     celldm(4)=   0.000000  celldm(5)=   0.000000  celldm(6)=   0.000000

     crystal axes: (cart. coord. in units of alat)
               a(1) = (   1.000000   0.000000   0.000000 )
               a(2) = (  -0.945422   0.325848   0.000000 )
               a(3) = (   0.000000   0.000000   0.330262 )

     reciprocal axes: (cart. coord. in units 2 pi/alat)
               b(1) = (  1.000000  2.901424  0.000000 )
               b(2) = (  0.000000  3.068918  0.000000 )
               b(3) = (  0.000000  0.000000  3.027897 )

     PseudoPot. # 1 for La read from file:
     /home/pragov/projects/rrg-bengioy-ad/pragov/crystal_structure_design/SSSP/La.GGA-PBE-paw-v1.0.UPF
     MD5 check sum: 436541e95c1ad8901025bd0b0ed42ae2
     Pseudo is Projector augmented-wave + core cor, Zval = 11.0
     Generated using ATOMPAW code
     Shape of augmentation charge: BESSEL
     Using radial grid of 1101 points,  8 beta functions with:
                l(1) =   0
                l(2) =   0
                l(3) =   1
                l(4) =   1
                l(5) =   2
                l(6) =   2
                l(7) =   3
                l(8) =   3
     Q(r) pseudized with 0 coefficients

     PseudoPot. # 2 for Ni read from file:
     /home/pragov/projects/rrg-bengioy-ad/pragov/crystal_structure_design/SSSP/ni_pbe_v1.4.uspp.F.UPF
     MD5 check sum: 1ee80287db30b12d2bc1f57a5b5d6409
     Pseudo is Ultrasoft + core correction, Zval = 18.0
     Generated by new atomic code, or converted to UPF format
     Using radial grid of  865 points,  6 beta functions with:
                l(1) =   0
                l(2) =   0
                l(3) =   1
                l(4) =   1
                l(5) =   2
                l(6) =   2
     Q(r) pseudized with 10 coefficients,  rinner =    0.980   0.980   0.980
                                                       0.980   0.980

     PseudoPot. # 3 for Sn read from file:
     /home/pragov/projects/rrg-bengioy-ad/pragov/crystal_structure_design/SSSP/Sn_pbe_v1.uspp.F.UPF
     MD5 check sum: 4cf58ce39ec5d5d420df3dd08604eb00
     Pseudo is Ultrasoft + core correction, Zval = 14.0
     Generated by new atomic code, or converted to UPF format
     Using radial grid of  891 points,  6 beta functions with:
                l(1) =   0
                l(2) =   0
                l(3) =   1
                l(4) =   1
                l(5) =   2
                l(6) =   2
     Q(r) pseudized with  6 coefficients,  rinner =    1.200   1.200   1.200
                                                       1.200   1.200

     atomic species   valence    mass     pseudopotential
        La            11.00   138.90547     La( 1.00)
        Ni            18.00    58.69340     Ni( 1.00)
        Sn            14.00   118.71000     Sn( 1.00)

      4 Sym. Ops., with inversion, found

                                    s                        frac. trans.

      isym =  1     identity

 cryst.   s( 1) = (     1          0          0      )
                  (     0          1          0      )
                  (     0          0          1      )

 cart.    s( 1) = (  1.0000000 -0.0000000  0.0000000 )
                  (  0.0000000  1.0000000  0.0000000 )
                  (  0.0000000  0.0000000  1.0000000 )

      isym =  2     180 deg rotation - cart. axis [0,0,1]

[...]

      isym =  3     inversion

[...]

      isym =  4     inv. 180 deg rotation - cart. axis [0,0,1]

 cryst.   s( 4) = (     1          0          0      )
                  (     0          1          0      )
                  (     0          0         -1      )

 cart.    s( 4) = (  1.0000000 -0.0000000  0.0000000 )
                  (  0.0000000  1.0000000  0.0000000 )
                  (  0.0000000  0.0000000 -1.0000000 )

   Cartesian axes

     site n.     atom                  positions (alat units)
         1           La  tau(   1) = (  -0.5867856   0.2657780   0.0000000  )
         2           La  tau(   2) = (   0.6413633   0.0600697   0.0000000  )
         3           La  tau(   3) = (   0.0272889   0.1629238   0.1651311  )
         4           Ni  tau(   4) = (  -0.2217077   0.2046294   0.1651311  )
         5           Ni  tau(   5) = (   0.2762854   0.1212183   0.1651311  )
         6           Sn  tau(   6) = (  -0.7715988   0.2967332   0.1651311  )
         7           Sn  tau(   7) = (   0.8261765   0.0291145   0.1651311  )
         8           Sn  tau(   8) = (  -0.3977665   0.2341183   0.1651311  )
         9           Sn  tau(   9) = (   0.4523442   0.0917294   0.1651311  )
        10           Sn  tau(  10) = (   0.0000000   0.0000000   0.0000000  )
        11           Sn  tau(  11) = (   0.2008361   0.1338556   0.0000000  )
        12           Sn  tau(  12) = (  -0.1462584   0.1919921   0.0000000  )

   Crystallographic axes

     site n.     atom                  positions (cryst. coord.)
         1           La  tau(   1) = (  0.1843490  0.8156510  0.0000000  )
         2           La  tau(   2) = (  0.8156510  0.1843490  0.0000000  )
         3           La  tau(   3) = (  0.5000000  0.5000000  0.5000000  )
         4           Ni  tau(   4) = (  0.3720090  0.6279910  0.5000000  )
         5           Ni  tau(   5) = (  0.6279910  0.3720090  0.5000000  )
         6           Sn  tau(   6) = (  0.0893500  0.9106500  0.5000000  )
         7           Sn  tau(   7) = (  0.9106500  0.0893500  0.5000000  )
         8           Sn  tau(   8) = (  0.2815100  0.7184900  0.5000000  )
         9           Sn  tau(   9) = (  0.7184900  0.2815100  0.5000000  )
        10           Sn  tau(  10) = (  0.0000000  0.0000000  0.0000000  )
        11           Sn  tau(  11) = (  0.5892080  0.4107920  0.0000000  )
        12           Sn  tau(  12) = (  0.4107920  0.5892080  0.0000000  )

     number of k points=     1  Methfessel-Paxton smearing, width (Ry)=  0.0010
                       cart. coord. in units 2pi/alat
        k(    1) = (   0.0000000   0.0000000   0.0000000), wk =   2.0000000

                       cryst. coord.
        k(    1) = (   0.0000000   0.0000000   0.0000000), wk =   2.0000000

     Check: negative core charge=   -0.000002

     Initial potential from superposition of free atoms

     starting charge     155.9741, renormalised to     167.0000
     Starting wfcs are  185 randomized atomic wfcs
     Checking if some PAW data can be deallocated...

     Self-consistent Calculation

     iteration #  1     ecut=    30.00 Ry     beta= 0.70
     Davidson diagonalization with overlap

     ethr =  1.00E-02,  avg # of iterations =  4.0

     total energy              =   -3108.47233171 Ry
     estimated scf accuracy    <     124.15914573 Ry

[...]

     total energy              =   -3203.35576923 Ry
     estimated scf accuracy    <       0.00001102 Ry

     iteration # 45     ecut=    30.00 Ry     beta= 0.70
     Davidson diagonalization with overlap

     ethr =  8.26E-10,  avg # of iterations =  1.0

     End of self-consistent calculation

          k = 0.0000 0.0000 0.0000 (  2829 PWs)   bands (ev):

   -90.9590 -90.9558 -51.4942 -51.4835 -51.2412 -51.2338 -51.2310 -51.2231
   -20.2393 -20.2274 -20.1327  -9.0162  -8.9951  -8.9911  -8.9910  -8.9885
    -8.9740  -8.9365  -8.9033  -8.9000  -8.8975  -8.8972  -8.8892  -8.8678
    -8.8617  -8.8582  -8.8479  -8.8442  -8.8422  -8.8370  -8.8296  -8.8196
    -8.8162  -8.8017  -8.7924  -8.7776  -8.7711  -8.7588  -8.7421  -8.7009
    -8.7008  -8.6924  -8.6574  -8.6412  -8.6297  -8.5244  -4.2118  -4.1862
    -4.0100  -3.9908  -3.9677  -3.9672  -3.9131  -3.8093  -3.7674   2.0975
     2.8529   3.5380   5.2825   6.1359   7.0968   7.2720   9.0692   9.0825
     9.1134   9.2014   9.2204   9.6963   9.8527  10.2139  10.6162  10.6370
    10.6572  10.8359  10.8667  10.9082  10.9270  11.0786  11.2513  11.3408
    12.1135  12.2856  12.7289  12.7292  12.7316  13.2688  13.4788  13.6516
    13.8789  13.9453  13.9740  13.9978  14.2040  14.2681  14.3039  14.3602
    14.3633  14.3903  14.5197  14.5275  14.5501

     occupation numbers
     1.0000   1.0000   1.0000   1.0000   1.0000   1.0000   1.0000   1.0000
     1.0000   1.0000   1.0000   1.0000   1.0000   1.0000   1.0000   1.0000
     1.0000   1.0000   1.0000   1.0000   1.0000   1.0000   1.0000   1.0000
     1.0000   1.0000   1.0000   1.0000   1.0000   1.0000   1.0000   1.0000
     1.0000   1.0000   1.0000   1.0000   1.0000   1.0000   1.0000   1.0000
     1.0000   1.0000   1.0000   1.0000   1.0000   1.0000   1.0000   1.0000
     1.0000   1.0000   1.0000   1.0000   1.0000   1.0000   1.0000   1.0000
     1.0000   1.0000   1.0000   1.0000   1.0000   1.0000   1.0000   1.0000
     1.0000   1.0000   1.0000   1.0000   1.0000   1.0000   1.0000   1.0000
     1.0000   1.0000   1.0000   1.0000   1.0000   1.0000   1.0000   1.0000
     1.0000   1.0000   0.5598   0.5452   0.3950  -0.0000  -0.0000  -0.0000
    -0.0000  -0.0000  -0.0000  -0.0000  -0.0000  -0.0000  -0.0000  -0.0000
    -0.0000  -0.0000  -0.0000  -0.0000  -0.0000

     the Fermi energy is    12.7299 ev

!    total energy              =   -3203.35576885 Ry
     estimated scf accuracy    <       0.00000051 Ry
     smearing contrib. (-TS)   =      -0.00082655 Ry
     internal energy E=F+TS    =   -3203.35494230 Ry

     The total energy is F=E-TS. E is the sum of the following terms:
     one-electron contribution =   -1085.55910739 Ry
     hartree contribution      =     657.08392142 Ry
     xc contribution           =    -431.00086824 Ry
     ewald contribution        =   -1149.57630594 Ry
     one-center paw contrib.   =   -1194.30258214 Ry
      -> PAW hartree energy AE =     106.03179364 Ry
      -> PAW hartree energy PS =    -106.12174827 Ry
      -> PAW xc energy AE      =   -1216.25838594 Ry
      -> PAW xc energy PS      =      22.04575843 Ry
      -> total E_H with PAW    =     656.99396678 Ry
      -> total E_XC with PAW   =   -1625.21349575 Ry

     convergence has been achieved in  45 iterations

     Forces acting on atoms (cartesian axes, Ry/au):

     atom    1 type  1   force =    -0.00544331    0.00091237   -0.00000000
     atom    2 type  1   force =     0.00544331   -0.00091237   -0.00000000
     atom    3 type  1   force =     0.00000000    0.00000000    0.00000000
     atom    4 type  2   force =    -0.00232402    0.00039328   -0.00000000
     atom    5 type  2   force =     0.00232402   -0.00039328    0.00000000
     atom    6 type  3   force =     0.00161443   -0.00026944   -0.00000000
     atom    7 type  3   force =    -0.00161443    0.00026944   -0.00000000
     atom    8 type  3   force =    -0.08338858    0.01396339    0.00000000
     atom    9 type  3   force =     0.08338858   -0.01396339    0.00000000
     atom   10 type  3   force =     0.00000000    0.00000000    0.00000000
     atom   11 type  3   force =    -0.00812686    0.00135982   -0.00000000
     atom   12 type  3   force =     0.00812686   -0.00135982   -0.00000000
     The non-local contrib.  to forces
     atom    1 type  1   force =     0.07334875   -0.01228512    0.00000000
     atom    2 type  1   force =    -0.07334875    0.01228512    0.00000000
     atom    3 type  1   force =     0.00000000    0.00000000    0.00000000
     atom    4 type  2   force =     0.25139578   -0.04210308    0.00000000
     atom    5 type  2   force =    -0.25139578    0.04210308   -0.00000000
     atom    6 type  3   force =     0.11858004   -0.01986080    0.00000000
     atom    7 type  3   force =    -0.11858004    0.01986080    0.00000000
     atom    8 type  3   force =     0.07068919   -0.01184591    0.00000000
     atom    9 type  3   force =    -0.07068919    0.01184591    0.00000000
     atom   10 type  3   force =     0.00000000    0.00000000    0.00000000
     atom   11 type  3   force =     0.14565258   -0.02439630   -0.00000000
     atom   12 type  3   force =    -0.14565258    0.02439630   -0.00000000
     The ionic contribution  to forces
     atom    1 type  1   force =    11.54290311   -1.93337378   -0.00000000
     atom    2 type  1   force =   -11.54290311    1.93337377   -0.00000000
     atom    3 type  1   force =    -0.00000000    0.00000000   -0.00000000
     atom    4 type  2   force =   -16.93428446    2.83640096   -0.00000000
     atom    5 type  2   force =    16.93428446   -2.83640096   -0.00000000
     atom    6 type  3   force =    -3.92714540    0.65777559   -0.00000000
     atom    7 type  3   force =     3.92714540   -0.65777559    0.00000000
     atom    8 type  3   force =   -13.97688452    2.34105248    0.00000000
     atom    9 type  3   force =    13.97688452   -2.34105248   -0.00000000
     atom   10 type  3   force =    -0.00000000   -0.00000000   -0.00000000
     atom   11 type  3   force =    -3.79775645    0.63610364   -0.00000000
     atom   12 type  3   force =     3.79775645   -0.63610364   -0.00000000
     The local contribution  to forces
     atom    1 type  1   force =   -11.62171782    1.94663916   -0.00000841
     atom    2 type  1   force =    11.62186895   -1.94653323   -0.00000894
     atom    3 type  1   force =     0.00005212    0.00038321    0.00002075
     atom    4 type  2   force =    16.68071316   -2.79407930   -0.00000696
     atom    5 type  2   force =   -16.68119595    2.79386229   -0.00000481
     atom    6 type  3   force =     3.81103134   -0.63828218    0.00000952
     atom    7 type  3   force =    -3.81131815    0.63842453    0.00000887
     atom    8 type  3   force =    13.82800104   -2.31599662   -0.00000453
     atom    9 type  3   force =   -13.82738019    2.31611635   -0.00000897
     atom   10 type  3   force =    -0.00025069   -0.00133945    0.00002392
     atom   11 type  3   force =     3.64514501   -0.61061195    0.00000485
     atom   12 type  3   force =    -3.64545324    0.61052127    0.00000912
     The core correction contribution to forces
     atom    1 type  1   force =    -0.00012810    0.00002148   -0.00000000
     atom    2 type  1   force =     0.00012810   -0.00002143   -0.00000000
     atom    3 type  1   force =     0.00000006    0.00000023    0.00000001
     atom    4 type  2   force =     0.00044242   -0.00008051   -0.00000001
     atom    5 type  2   force =    -0.00044423    0.00006818    0.00000006
     atom    6 type  3   force =    -0.00223251    0.00037787    0.00000017
     atom    7 type  3   force =     0.00223296   -0.00037000    0.00000020
     atom    8 type  3   force =    -0.00489377    0.00082318   -0.00000015
     atom    9 type  3   force =     0.00489798   -0.00081741   -0.00000039
     atom   10 type  3   force =    -0.00000612   -0.00004276    0.00000132
     atom   11 type  3   force =    -0.00236624    0.00039335    0.00000021
     atom   12 type  3   force =     0.00236514   -0.00039912    0.00000030
     The Hubbard contrib.    to forces
     atom    1 type  1   force =     0.00000000    0.00000000    0.00000000
     atom    2 type  1   force =     0.00000000    0.00000000    0.00000000
     atom    3 type  1   force =     0.00000000    0.00000000    0.00000000
     atom    4 type  2   force =     0.00000000    0.00000000    0.00000000
     atom    5 type  2   force =     0.00000000    0.00000000    0.00000000
     atom    6 type  3   force =     0.00000000    0.00000000    0.00000000
     atom    7 type  3   force =     0.00000000    0.00000000    0.00000000
     atom    8 type  3   force =     0.00000000    0.00000000    0.00000000
     atom    9 type  3   force =     0.00000000    0.00000000    0.00000000
     atom   10 type  3   force =     0.00000000    0.00000000    0.00000000
     atom   11 type  3   force =     0.00000000    0.00000000    0.00000000
     atom   12 type  3   force =     0.00000000    0.00000000    0.00000000
     The SCF correction term to forces
     atom    1 type  1   force =     0.00015992   -0.00004369    0.00000354
     atom    2 type  1   force =    -0.00029270    0.00002908    0.00000577
     atom    3 type  1   force =    -0.00001815   -0.00022678   -0.00000753
     atom    4 type  2   force =    -0.00057040    0.00019182    0.00000785
     atom    5 type  2   force =     0.00109602   -0.00008926    0.00000518
     atom    6 type  3   force =     0.00138343   -0.00024417   -0.00001156
     atom    7 type  3   force =    -0.00109213    0.00016544   -0.00000984
     atom    8 type  3   force =    -0.00029432   -0.00004173    0.00000174
     atom    9 type  3   force =    -0.00031834   -0.00002776    0.00000521
     atom   10 type  3   force =     0.00017327    0.00101592   -0.00001662
     atom   11 type  3   force =     0.00119112   -0.00015052   -0.00000128
     atom   12 type  3   force =    -0.00089604    0.00020379   -0.00000726

     Total force =     0.120459     Total SCF correction =     0.002910

     Computing stress (Cartesian axis) and pressure

          total   stress  (Ry/bohr**3)                   (kbar)     P=     -110.64
  -0.00145371   0.00018252   0.00000000         -213.85       26.85        0.00
   0.00018252  -0.00039454   0.00000000           26.85      -58.04        0.00
   0.00000000   0.00000000  -0.00040810            0.00        0.00      -60.03

     kinetic stress (kbar)  14249.67     27.40      0.00
                               27.40  14408.64      0.00
                                0.00      0.00  14465.96

     local   stress (kbar)   1881.17  -2052.80     -0.00
                            -2052.80 -10030.93     -0.03
                               -0.00     -0.03  -6114.10

     nonloc. stress (kbar)   8602.08     18.87      0.00
                               18.87   8711.61      0.00
                                0.00      0.00   8681.71

     hartree stress (kbar)  12604.23    990.32      0.00
                              990.32  18350.91      0.01
                                0.00      0.01  16601.67

     exc-cor stress (kbar)   8342.66      0.06      0.00
                                0.06   8342.99      0.00
                                0.00      0.00   8342.75

     corecor stress (kbar) -14855.52     -0.52     -0.00
                               -0.52 -14858.56     -0.00
                               -0.00     -0.00 -14857.62

     ewald   stress (kbar) -31038.12   1043.53     -0.00
                             1043.53 -24982.69      0.00
                               -0.00      0.00 -27180.39

     hubbard stress (kbar)      0.00      0.00      0.00
                                0.00      0.00      0.00
                                0.00      0.00      0.00

     DFT-D   stress (kbar)      0.00      0.00      0.00
                                0.00      0.00      0.00
                                0.00      0.00      0.00

     XDM     stress (kbar)      0.00      0.00      0.00
                                0.00      0.00      0.00
                                0.00      0.00      0.00

     dft-nl  stress (kbar)      0.00      0.00      0.00
                                0.00      0.00      0.00
                                0.00      0.00      0.00

     TS-vdW  stress (kbar)      0.00      0.00      0.00
                                0.00      0.00      0.00
                                0.00      0.00      0.00

[...]

                                0.00      0.00      0.00

     Writing all to output data dir new_calculations/myprefix.save/

     General routines

     Parallel routines

     PAW routines

   This run was terminated on:  16:14:22  20May2023

   JOB DONE.