     Program PWSCF v.7.0 starts on 20May2023 at 11: 9:55

     Reading input from espresso_1361.pwi
Warning: card &CELL ignored
Warning: card / ignored

     Current dimensions of program PWSCF are:
     Max number of different atomic species (ntypx) = 10
     Max number of k-points (npk) =  40000
     Max angular momentum in pseudopotentials (lmaxx) =  4
     file C.pbe-n-kjpaw_psl.1.0.0.UPF: wavefunction(s)  2S 2P renormalized

     gamma-point specific algorithms are used
     Message from routine setup:
     using ibrav=0 with symmetry is DISCOURAGED, use correct ibrav instead

     Subspace diagonalization in iterative solution of the eigenvalue problem:
     a serial algorithm will be used

     Using Slab Decomposition

     bravais-lattice index     =            0
     lattice parameter (alat)  =       9.7196  a.u.
     unit-cell volume          =    2204.7981 (a.u.)^3
     number of atoms/cell      =           20
     number of atomic types    =            3
     number of electrons       =       184.00
     number of Kohn-Sham states=          110
     kinetic-energy cutoff     =      30.0000  Ry
     charge density cutoff     =     240.0000  Ry
     scf convergence threshold =      1.0E-06
     mixing beta               =       0.7000
     number of iterations used =            8  plain     mixing
     Exchange-correlation= SLA  PW   PBX  PBC
                           (   1   4   3   4   0   0   0)

     celldm(1)=   9.719564  celldm(2)=   0.000000  celldm(3)=   0.000000
     celldm(4)=   0.000000  celldm(5)=   0.000000  celldm(6)=   0.000000

     crystal axes: (cart. coord. in units of alat)
               a(1) = (   1.000000   0.000000   0.000000 )
               a(2) = (   0.000000   1.255445   0.000000 )
               a(3) = (   0.000000   0.000000   1.912629 )

     reciprocal axes: (cart. coord. in units 2 pi/alat)
               b(1) = (  1.000000  0.000000  0.000000 )
               b(2) = (  0.000000  0.796530  0.000000 )
               b(3) = (  0.000000  0.000000  0.522841 )

     PseudoPot. # 1 for Y  read from file:
     /home/pragov/projects/rrg-bengioy-ad/pragov/crystal_structure_design/SSSP/Y_pbe_v1.uspp.F.UPF
     MD5 check sum: 2cf71db95cafeb975fc457bd7f14888e
     Pseudo is Ultrasoft + core correction, Zval = 11.0
     Generated by new atomic code, or converted to UPF format
     Using radial grid of  885 points,  6 beta functions with:
                l(1) =   0
                l(2) =   0
                l(3) =   1
                l(4) =   1
                l(5) =   2
                l(6) =   2
     Q(r) pseudized with  6 coefficients,  rinner =    1.200   1.200   1.200
                                                       1.200   1.200

     PseudoPot. # 2 for Os read from file:
     /home/pragov/projects/rrg-bengioy-ad/pragov/crystal_structure_design/SSSP/Os_pbe_v1.2.uspp.F.UPF
     MD5 check sum: a3fb40a04f0c37c25c34bbc47164c9a8
     Pseudo is Ultrasoft + core correction, Zval = 16.0
     Generated by new atomic code, or converted to UPF format
     Using radial grid of  983 points,  8 beta functions with:
                l(1) =   0
                l(2) =   0
                l(3) =   1
                l(4) =   1
                l(5) =   2
                l(6) =   2
                l(7) =   3
                l(8) =   3
     Q(r) pseudized with  8 coefficients,  rinner =    1.150   1.150   1.150
                                                       1.150   1.150   1.150
                                                       1.150

     PseudoPot. # 3 for C  read from file:
     /home/pragov/projects/rrg-bengioy-ad/pragov/crystal_structure_design/SSSP/C.pbe-n-kjpaw_psl.1.0.0.UPF
     MD5 check sum: 5d2aebdfa2cae82b50a7e79e9516da0f
     Pseudo is Projector augmented-wave + core cor, Zval =  4.0
     Generated using "atomic" code by A. Dal Corso  v.5.1
     Shape of augmentation charge: PSQ
     Using radial grid of 1073 points,  4 beta functions with:
                l(1) =   0
                l(2) =   0
                l(3) =   1
                l(4) =   1
     Q(r) pseudized with 0 coefficients

     atomic species   valence    mass     pseudopotential
        Y             11.00    88.90584     Y ( 1.00)
        Os            16.00   190.23000     Os( 1.00)
        C              4.00    12.01100     C ( 1.00)

      8 Sym. Ops., with inversion, found ( 6 have fractional translation)

                                    s                        frac. trans.

      isym =  1     identity

 cryst.   s( 1) = (     1          0          0      )
                  (     0          1          0      )
                  (     0          0          1      )

 cart.    s( 1) = (  1.0000000  0.0000000  0.0000000 )
                  (  0.0000000  1.0000000  0.0000000 )
                  (  0.0000000  0.0000000  1.0000000 )

      isym =  2     180 deg rotation - cart. axis [0,0,1]

 cryst.   s( 2) = (    -1          0          0      )    f =(  0.0000000 )
                  (     0         -1          0      )       ( -0.5000000 )
                  (     0          0          1      )       (  0.5000000 )

 cart.    s( 2) = ( -1.0000000  0.0000000  0.0000000 )    f =(  0.0000000 )
                  (  0.0000000 -1.0000000  0.0000000 )       ( -0.6277224 )
                  (  0.0000000  0.0000000  1.0000000 )       (  0.9563146 )

[...]

      isym =  4     180 deg rotation - cart. axis [1,0,0]

[...]

      isym =  5     inversion

 cryst.   s( 5) = (    -1          0          0      )
                  (     0         -1          0      )
                  (     0          0         -1      )

 cart.    s( 5) = ( -1.0000000  0.0000000  0.0000000 )
                  (  0.0000000 -1.0000000  0.0000000 )
                  (  0.0000000  0.0000000 -1.0000000 )

      isym =  6     inv. 180 deg rotation - cart. axis [0,0,1]

[...]

      isym =  8     inv. 180 deg rotation - cart. axis [1,0,0]

 cryst.   s( 8) = (    -1          0          0      )    f =(  0.5000000 )
                  (     0          1          0      )       (  0.0000000 )
                  (     0          0          1      )       (  0.0000000 )

 cart.    s( 8) = ( -1.0000000  0.0000000  0.0000000 )    f =(  0.5000000 )
                  (  0.0000000  1.0000000  0.0000000 )       (  0.0000000 )
                  (  0.0000000  0.0000000  1.0000000 )       (  0.0000000 )

   Cartesian axes

     site n.     atom                  positions (alat units)
         1           Y   tau(   1) = (   0.2500000   0.8621479   1.0559300  )
         2           Y   tau(   2) = (   0.7500000   0.3932970   0.8566991  )
         3           Y   tau(   3) = (   0.7500000   1.0210194   0.0996155  )
         4           Y   tau(   4) = (   0.2500000   0.2344255   1.8130136  )
         5           Y   tau(   5) = (   0.2500000   0.6570823   0.4239419  )
         6           Y   tau(   6) = (   0.7500000   0.5983626   1.4886872  )
         7           Y   tau(   7) = (   0.7500000   1.2260850   1.3802564  )
         8           Y   tau(   8) = (   0.2500000   0.0293598   0.5323727  )
         9           Os  tau(   9) = (   0.2500000   0.9154327   1.6522686  )
        10           Os  tau(  10) = (   0.7500000   0.3400121   0.2603605  )
        11           Os  tau(  11) = (   0.7500000   0.9677346   0.6959541  )
        12           Os  tau(  12) = (   0.2500000   0.2877103   1.2166750  )
        13           C   tau(  13) = (   0.2500000   0.5849670   1.4495644  )
        14           C   tau(  14) = (   0.7500000   0.6704779   0.4630647  )
        15           C   tau(  15) = (   0.7500000   0.0427554   0.4932498  )
        16           C   tau(  16) = (   0.2500000   1.2126894   1.4193793  )
        17           C   tau(  17) = (   0.2500000   1.0323624   0.0982881  )
        18           C   tau(  18) = (   0.7500000   0.2230825   1.8143410  )
        19           C   tau(  19) = (   0.7500000   0.8508049   1.0546027  )
        20           C   tau(  20) = (   0.2500000   0.4046399   0.8580265  )

   Crystallographic axes

     site n.     atom                  positions (cryst. coord.)
         1           Y   tau(   1) = (  0.2500000  0.6867270  0.5520830  )
         2           Y   tau(   2) = (  0.7500000  0.3132730  0.4479170  )
         3           Y   tau(   3) = (  0.7500000  0.8132730  0.0520830  )
         4           Y   tau(   4) = (  0.2500000  0.1867270  0.9479170  )
         5           Y   tau(   5) = (  0.2500000  0.5233860  0.2216540  )
         6           Y   tau(   6) = (  0.7500000  0.4766140  0.7783460  )
         7           Y   tau(   7) = (  0.7500000  0.9766140  0.7216540  )
         8           Y   tau(   8) = (  0.2500000  0.0233860  0.2783460  )
         9           Os  tau(   9) = (  0.2500000  0.7291700  0.8638730  )
        10           Os  tau(  10) = (  0.7500000  0.2708300  0.1361270  )
        11           Os  tau(  11) = (  0.7500000  0.7708300  0.3638730  )
        12           Os  tau(  12) = (  0.2500000  0.2291700  0.6361270  )
        13           C   tau(  13) = (  0.2500000  0.4659440  0.7578910  )
        14           C   tau(  14) = (  0.7500000  0.5340560  0.2421090  )
        15           C   tau(  15) = (  0.7500000  0.0340560  0.2578910  )
        16           C   tau(  16) = (  0.2500000  0.9659440  0.7421090  )
        17           C   tau(  17) = (  0.2500000  0.8223080  0.0513890  )
        18           C   tau(  18) = (  0.7500000  0.1776920  0.9486110  )
        19           C   tau(  19) = (  0.7500000  0.6776920  0.5513890  )
        20           C   tau(  20) = (  0.2500000  0.3223080  0.4486110  )

     number of k points=     1  Methfessel-Paxton smearing, width (Ry)=  0.0010
                       cart. coord. in units 2pi/alat
        k(    1) = (   0.0000000   0.0000000   0.0000000), wk =   2.0000000

                       cryst. coord.
        k(    1) = (   0.0000000   0.0000000   0.0000000), wk =   2.0000000

     Check: negative core charge=   -0.000014

     Initial potential from superposition of free atoms

     starting charge     181.9638, renormalised to     184.0000

     negative rho (up, down):  8.514E-01 0.000E+00
     Starting wfcs are  188 randomized atomic wfcs
     Checking if some PAW data can be deallocated...

     Self-consistent Calculation

     iteration #  1     ecut=    30.00 Ry     beta= 0.70
     Davidson diagonalization with overlap

     ethr =  1.00E-02,  avg # of iterations =  2.0

     negative rho (up, down):  8.660E-01 0.000E+00

     total energy              =   -1638.72730934 Ry
     estimated scf accuracy    <       5.66472415 Ry

[...]

     total energy              =   -1641.90902078 Ry
     estimated scf accuracy    <       0.00000347 Ry

     iteration # 16     ecut=    30.00 Ry     beta= 0.70
     Davidson diagonalization with overlap

     ethr =  1.89E-09,  avg # of iterations =  3.0

[...]

     End of self-consistent calculation

          k = 0.0000 0.0000 0.0000 (  3071 PWs)   bands (ev):

   -72.7182 -72.7173 -72.7169 -72.7154 -32.2093 -32.2080 -32.2073 -32.2055
   -32.0875 -32.0870 -32.0852 -32.0838 -31.9470 -31.9465 -31.9451 -31.9439
   -28.2458 -28.2313 -28.1647 -28.1643 -28.1287 -28.1162 -28.1117 -28.1109
    -8.7549  -8.7114  -8.5057  -8.4946  -8.4457  -8.3850  -8.3740  -8.3707
    -8.3073  -8.2881  -8.2490  -8.2400  -8.2083  -8.2009  -8.1979  -8.1695
    -8.1612  -8.1486  -8.1022  -8.0911  -8.0839  -7.9931  -7.9900  -7.9791
     1.9279   2.3142   3.0008   3.0055   3.6622   3.7078   3.8415   3.8530
     8.1389   8.1612   8.4970   8.5416   8.5674   9.1009   9.6034   9.8625
     9.8871   9.9057   9.9157   9.9924  10.2536  10.4484  10.4544  10.5924
    10.6786  10.8455  11.0940  11.2131  11.2944  11.3165  11.4492  11.4689
    11.7165  11.7538  11.7747  12.0047  12.2350  12.2630  12.4104  12.5779
    12.7638  13.2767  14.0181  14.2545  14.3815  14.6272  14.6630  14.7927
    14.9519  15.0024  15.2599  15.3498  15.7438  15.7940  15.8913  15.9448
    16.1681  16.2512  16.3018  16.8926  16.9959  17.7577

     occupation numbers
     1.0000   1.0000   1.0000   1.0000   1.0000   1.0000   1.0000   1.0000
     1.0000   1.0000   1.0000   1.0000   1.0000   1.0000   1.0000   1.0000
     1.0000   1.0000   1.0000   1.0000   1.0000   1.0000   1.0000   1.0000
     1.0000   1.0000   1.0000   1.0000   1.0000   1.0000   1.0000   1.0000
     1.0000   1.0000   1.0000   1.0000   1.0000   1.0000   1.0000   1.0000
     1.0000   1.0000   1.0000   1.0000   1.0000   1.0000   1.0000   1.0000
     1.0000   1.0000   1.0000   1.0000   1.0000   1.0000   1.0000   1.0000
     1.0000   1.0000   1.0000   1.0000   1.0000   1.0000   1.0000   1.0000
     1.0000   1.0000   1.0000   1.0000   1.0000   1.0000   1.0000   1.0000
     1.0000   1.0000   1.0000   1.0000   1.0000   1.0000   1.0000   1.0000
     1.0000   1.0000   1.0000   1.0000   1.0000   1.0000   1.0000   1.0000
     1.0000   1.0000   1.0000   1.0000  -0.0000  -0.0000  -0.0000  -0.0000
    -0.0000  -0.0000  -0.0000  -0.0000  -0.0000  -0.0000  -0.0000  -0.0000
    -0.0000  -0.0000  -0.0000  -0.0000  -0.0000  -0.0000

     the Fermi energy is    14.3181 ev

!    total energy              =   -1641.90902062 Ry
     estimated scf accuracy    <       0.00000099 Ry
     smearing contrib. (-TS)   =       0.00000000 Ry
     internal energy E=F+TS    =   -1641.90902062 Ry

     The total energy is F=E-TS. E is the sum of the following terms:
     one-electron contribution =    -382.23375651 Ry
     hartree contribution      =     272.23552548 Ry
     xc contribution           =    -362.39459209 Ry
     ewald contribution        =   -1120.14484436 Ry
     one-center paw contrib.   =     -49.37135313 Ry
      -> PAW hartree energy AE =      57.42737185 Ry
      -> PAW hartree energy PS =     -57.35920581 Ry
      -> PAW xc energy AE      =     -80.86019733 Ry
      -> PAW xc energy PS      =      31.42067815 Ry
      -> total E_H with PAW    =     272.30369153 Ry
      -> total E_XC with PAW   =    -411.83411127 Ry

     convergence has been achieved in  16 iterations

     negative rho (up, down):  8.658E-01 0.000E+00

     Forces acting on atoms (cartesian axes, Ry/au):

     atom    1 type  1   force =     0.00000000   -0.02270964    0.05211660
     atom    2 type  1   force =     0.00000000    0.02270964   -0.05211660
     atom    3 type  1   force =     0.00000000    0.02270964    0.05211660
     atom    4 type  1   force =     0.00000000   -0.02270964   -0.05211660
     atom    5 type  1   force =     0.00000000   -0.00320260    0.02575096
     atom    6 type  1   force =    -0.00000000    0.00320260   -0.02575096
     atom    7 type  1   force =     0.00000000    0.00320260    0.02575096
     atom    8 type  1   force =     0.00000000   -0.00320260   -0.02575096
     atom    9 type  2   force =     0.00000000    0.06377727    0.00140846
     atom   10 type  2   force =     0.00000000   -0.06377727   -0.00140846
     atom   11 type  2   force =    -0.00000000   -0.06377727    0.00140846
     atom   12 type  2   force =     0.00000000    0.06377727   -0.00140846
     atom   13 type  3   force =    -0.00000000   -0.00992743    0.00404887
     atom   14 type  3   force =     0.00000000    0.00992743   -0.00404887
     atom   15 type  3   force =     0.00000000    0.00992743    0.00404887
     atom   16 type  3   force =     0.00000000   -0.00992743   -0.00404887
     atom   17 type  3   force =     0.00000000   -0.03704995   -0.03216748
     atom   18 type  3   force =    -0.00000000    0.03704995    0.03216748
     atom   19 type  3   force =     0.00000000    0.03704995   -0.03216748
     atom   20 type  3   force =     0.00000000   -0.03704995    0.03216748
     The non-local contrib.  to forces
     atom    1 type  1   force =     0.00000000    0.02255251    0.02195447
     atom    2 type  1   force =     0.00000000   -0.02255251   -0.02195447
     atom    3 type  1   force =     0.00000000   -0.02255251    0.02195447
     atom    4 type  1   force =     0.00000000    0.02255251   -0.02195447
     atom    5 type  1   force =    -0.00000000   -0.01100767    0.02670874
     atom    6 type  1   force =    -0.00000000    0.01100767   -0.02670874
     atom    7 type  1   force =     0.00000000    0.01100767    0.02670874
     atom    8 type  1   force =     0.00000000   -0.01100767   -0.02670874
     atom    9 type  2   force =     0.00000000    0.03924474   -0.05913904
     atom   10 type  2   force =    -0.00000000   -0.03924474    0.05913904
     atom   11 type  2   force =     0.00000000   -0.03924474   -0.05913904
     atom   12 type  2   force =    -0.00000000    0.03924474    0.05913904
     atom   13 type  3   force =     0.00000000   -0.07819804    0.02899651
     atom   14 type  3   force =     0.00000000    0.07819804   -0.02899651
     atom   15 type  3   force =    -0.00000000    0.07819804    0.02899651
     atom   16 type  3   force =    -0.00000000   -0.07819804   -0.02899651
     atom   17 type  3   force =     0.00000000   -0.11276098   -0.14774765
     atom   18 type  3   force =     0.00000000    0.11276098    0.14774765
     atom   19 type  3   force =     0.00000000    0.11276098   -0.14774765
     atom   20 type  3   force =     0.00000000   -0.11276098    0.14774765
     The ionic contribution  to forces
     atom    1 type  1   force =    -0.00000000    3.63006767   -3.49503179
     atom    2 type  1   force =     0.00000000   -3.63006767    3.49503179
     atom    3 type  1   force =     0.00000000   -3.63006767   -3.49503179
     atom    4 type  1   force =    -0.00000000    3.63006767    3.49503179
     atom    5 type  1   force =     0.00000000    0.12998814   -1.78999607
     atom    6 type  1   force =     0.00000000   -0.12998814    1.78999607
     atom    7 type  1   force =     0.00000000   -0.12998814   -1.78999607
     atom    8 type  1   force =     0.00000000    0.12998814    1.78999607
     atom    9 type  2   force =    -0.00000000   -4.42618021    4.85162586
     atom   10 type  2   force =     0.00000000    4.42618021   -4.85162586
     atom   11 type  2   force =     0.00000000    4.42618021    4.85162586
     atom   12 type  2   force =    -0.00000000   -4.42618021   -4.85162586
     atom   13 type  3   force =     0.00000000   -0.03687796    1.65084809
     atom   14 type  3   force =     0.00000000    0.03687796   -1.65084809
     atom   15 type  3   force =     0.00000000    0.03687796    1.65084809
     atom   16 type  3   force =     0.00000000   -0.03687796   -1.65084809
     atom   17 type  3   force =     0.00000000    0.48393900    4.55500409
     atom   18 type  3   force =     0.00000000   -0.48393900   -4.55500409
     atom   19 type  3   force =     0.00000000   -0.48393900    4.55500409
     atom   20 type  3   force =     0.00000000    0.48393900   -4.55500409
     The local contribution  to forces
     atom    1 type  1   force =     0.00000072   -3.67549094    3.52891423
     atom    2 type  1   force =    -0.00000454    3.67549522   -3.52774225
     atom    3 type  1   force =    -0.00000384    3.67570763    3.52765410
     atom    4 type  1   force =     0.00000096   -3.67617479   -3.52904152
     atom    5 type  1   force =     0.00000341   -0.12210054    1.79109756
     atom    6 type  1   force =    -0.00000019    0.12283208   -1.79095801
     atom    7 type  1   force =    -0.00000371    0.12325394    1.79235714
     atom    8 type  1   force =     0.00000491   -0.12367133   -1.79199040
     atom    9 type  2   force =     0.00000096    4.44395498   -4.78625204
     atom   10 type  2   force =    -0.00000658   -4.44418018    4.78550090
     atom   11 type  2   force =    -0.00000364   -4.44327374   -4.78707174
     atom   12 type  2   force =     0.00000680    4.44347966    4.78802060
     atom   13 type  3   force =     0.00000013    0.10384320   -1.67425542
     atom   14 type  3   force =    -0.00000032   -0.10333766    1.67457907
     atom   15 type  3   force =    -0.00000265   -0.10448356   -1.67441890
     atom   16 type  3   force =    -0.00000072    0.10400796    1.67473943
     atom   17 type  3   force =     0.00000219   -0.40947419   -4.43968793
     atom   18 type  3   force =    -0.00000075    0.40923045    4.43910811
     atom   19 type  3   force =     0.00000134    0.40965375   -4.43972832
     atom   20 type  3   force =     0.00000218   -0.40960895    4.43973500
     The core correction contribution to forces
     atom    1 type  1   force =     0.00000013    0.00034507   -0.00327115
     atom    2 type  1   force =     0.00000002   -0.00034400    0.00327643
     atom    3 type  1   force =    -0.00000001   -0.00034331   -0.00328045
     atom    4 type  1   force =     0.00000006    0.00034111    0.00327476
     atom    5 type  1   force =     0.00000006    0.00077010   -0.00239270
     atom    6 type  1   force =     0.00000003   -0.00076354    0.00239769
     atom    7 type  1   force =    -0.00000005   -0.00076054   -0.00239231
     atom    8 type  1   force =     0.00000014    0.00075808    0.00239233
     atom    9 type  2   force =    -0.00000045    0.00714032   -0.00460424
     atom   10 type  2   force =     0.00000019   -0.00714268    0.00458856
     atom   11 type  2   force =    -0.00000011   -0.00713654   -0.00459339
     atom   12 type  2   force =     0.00000004    0.00714197    0.00461119
     atom   13 type  3   force =     0.00000001    0.00121670   -0.00133126
     atom   14 type  3   force =     0.00000002   -0.00121799    0.00133082
     atom   15 type  3   force =    -0.00000003   -0.00121612   -0.00133179
     atom   16 type  3   force =    -0.00000004    0.00121765    0.00133069
     atom   17 type  3   force =     0.00000002    0.00132222    0.00030609
     atom   18 type  3   force =    -0.00000002   -0.00132304   -0.00030425
     atom   19 type  3   force =     0.00000003   -0.00132334    0.00030467
     atom   20 type  3   force =     0.00000001    0.00132253   -0.00030530
     The Hubbard contrib.    to forces
     atom    1 type  1   force =     0.00000000    0.00000000    0.00000000
     atom    2 type  1   force =     0.00000000    0.00000000    0.00000000
     atom    3 type  1   force =     0.00000000    0.00000000    0.00000000
     atom    4 type  1   force =     0.00000000    0.00000000    0.00000000
     atom    5 type  1   force =     0.00000000    0.00000000    0.00000000
     atom    6 type  1   force =     0.00000000    0.00000000    0.00000000
     atom    7 type  1   force =     0.00000000    0.00000000    0.00000000
     atom    8 type  1   force =     0.00000000    0.00000000    0.00000000
     atom    9 type  2   force =     0.00000000    0.00000000    0.00000000
     atom   10 type  2   force =     0.00000000    0.00000000    0.00000000
     atom   11 type  2   force =     0.00000000    0.00000000    0.00000000
     atom   12 type  2   force =     0.00000000    0.00000000    0.00000000
     atom   13 type  3   force =     0.00000000    0.00000000    0.00000000
     atom   14 type  3   force =     0.00000000    0.00000000    0.00000000
     atom   15 type  3   force =     0.00000000    0.00000000    0.00000000
     atom   16 type  3   force =     0.00000000    0.00000000    0.00000000
     atom   17 type  3   force =     0.00000000    0.00000000    0.00000000
     atom   18 type  3   force =     0.00000000    0.00000000    0.00000000
     atom   19 type  3   force =     0.00000000    0.00000000    0.00000000
     atom   20 type  3   force =     0.00000000    0.00000000    0.00000000
     The SCF correction term to forces
     atom    1 type  1   force =    -0.00000001   -0.00020034   -0.00037710
     atom    2 type  1   force =     0.00000388    0.00016784   -0.00073201
     atom    3 type  1   force =     0.00000311   -0.00006128    0.00075112
     atom    4 type  1   force =    -0.00000114    0.00048271    0.00057966
     atom    5 type  1   force =    -0.00000261   -0.00077631    0.00033756
     atom    6 type  1   force =     0.00000026    0.00009580   -0.00039766
     atom    7 type  1   force =     0.00000282   -0.00025424   -0.00089332
     atom    8 type  1   force =    -0.00000367    0.00069123    0.00051682
     atom    9 type  2   force =     0.00000237   -0.00042394   -0.00017482
     atom   10 type  2   force =     0.00000726    0.00064311    0.00107172
     atom   11 type  2   force =     0.00000366   -0.00036026    0.00052516
     atom   12 type  2   force =    -0.00000885    0.00010764   -0.00165059
     atom   13 type  3   force =    -0.00000003    0.00007219   -0.00021879
     atom   14 type  3   force =     0.00000110   -0.00064495   -0.00013984
     atom   15 type  3   force =     0.00000170    0.00061560   -0.00008828
     atom   16 type  3   force =    -0.00000048   -0.00004810   -0.00030168
     atom   17 type  3   force =    -0.00000126   -0.00008456    0.00003962
     atom   18 type  3   force =     0.00000051    0.00031345    0.00066663
     atom   19 type  3   force =    -0.00000015   -0.00012106   -0.00005460
     atom   20 type  3   force =    -0.00000141    0.00004129   -0.00002499

     Total force =     0.204911     Total SCF correction =     0.003291

     Computing stress (Cartesian axis) and pressure

     negative rho (up, down):  8.658E-01 0.000E+00
          total   stress  (Ry/bohr**3)                   (kbar)     P=      -21.44
   0.00045077   0.00000000   0.00000000           66.31        0.00        0.00
   0.00000000  -0.00074143   0.00000000            0.00     -109.07        0.00
   0.00000000   0.00000000  -0.00014651            0.00        0.00      -21.55

     kinetic stress (kbar)  21631.76      0.00      0.00
                                0.00  21460.21      0.00
                                0.00      0.00  21600.93

     local   stress (kbar)  10704.08     -0.00     -0.00
                               -0.00   1690.14      0.03
                               -0.00      0.03   2393.01

     nonloc. stress (kbar)  -1976.55      0.00      0.00
                                0.00  -2040.65      0.00
                                0.00      0.00  -2019.20

     hartree stress (kbar)   4093.95      0.00      0.00
                                0.00   7277.25     -0.03
                                0.00     -0.03   6792.47

     exc-cor stress (kbar)   6490.94      0.00      0.00
                                0.00   6506.40      0.00
                                0.00      0.00   6510.24

     corecor stress (kbar) -12143.37     -0.00      0.00
                               -0.00 -12150.20     -0.00
                                0.00     -0.00 -12149.17

     ewald   stress (kbar) -28734.49      0.00      0.00
                                0.00 -22852.22      0.00
                                0.00      0.00 -23149.83

     hubbard stress (kbar)      0.00      0.00      0.00
                                0.00      0.00      0.00
                                0.00      0.00      0.00

     DFT-D   stress (kbar)      0.00      0.00      0.00
                                0.00      0.00      0.00
                                0.00      0.00      0.00

     XDM     stress (kbar)      0.00      0.00      0.00
                                0.00      0.00      0.00
                                0.00      0.00      0.00

     dft-nl  stress (kbar)      0.00      0.00      0.00
                                0.00      0.00      0.00
                                0.00      0.00      0.00

     TS-vdW  stress (kbar)      0.00      0.00      0.00
                                0.00      0.00      0.00
                                0.00      0.00      0.00

[...]

                                0.00      0.00      0.00

     Writing all to output data dir new_calculations/myprefix.save/

     General routines

     Parallel routines

     PAW routines

   This run was terminated on:  11:10:38  20May2023

   JOB DONE.