     Program PWSCF v.7.0 starts on 21May2023 at  6: 1:25

     Reading input from espresso_26481.pwi
Warning: card &CELL ignored
Warning: card / ignored

     Current dimensions of program PWSCF are:
     Max number of different atomic species (ntypx) = 10
     Max number of k-points (npk) =  40000
     Max angular momentum in pseudopotentials (lmaxx) =  4
     file O.pbe-n-kjpaw_psl.0.1.UPF: wavefunction(s)  2P renormalized

     gamma-point specific algorithms are used

     Subspace diagonalization in iterative solution of the eigenvalue problem:
     a serial algorithm will be used

     Using Slab Decomposition

     bravais-lattice index     =            0
     lattice parameter (alat)  =       9.8628  a.u.
     unit-cell volume          =    1309.8992 (a.u.)^3
     number of atoms/cell      =           17
     number of atomic types    =            4
     number of electrons       =       129.00
     number of Kohn-Sham states=           78
     kinetic-energy cutoff     =      30.0000  Ry
     charge density cutoff     =     240.0000  Ry
     scf convergence threshold =      1.0E-06
     mixing beta               =       0.7000
     number of iterations used =            8  plain     mixing
     Exchange-correlation= SLA  PW   PBX  PBC
                           (   1   4   3   4   0   0   0)

     celldm(1)=   9.862799  celldm(2)=   0.000000  celldm(3)=   0.000000
     celldm(4)=   0.000000  celldm(5)=   0.000000  celldm(6)=   0.000000

     crystal axes: (cart. coord. in units of alat)
               a(1) = (   1.000000   0.000000   0.000000 )
               a(2) = (  -0.229418   0.962885   0.000000 )
               a(3) = (  -0.364685   0.233109   1.417957 )

     reciprocal axes: (cart. coord. in units 2 pi/alat)
               b(1) = (  1.000000  0.238261  0.218021 )
               b(2) = (  0.000000  1.038546 -0.170734 )
               b(3) = (  0.000000  0.000000  0.705240 )

     PseudoPot. # 1 for Li read from file:
     /home/pragov/projects/rrg-bengioy-ad/pragov/crystal_structure_design/SSSP/li_pbe_v1.4.uspp.F.UPF
     MD5 check sum: e912e257baa3777c20ea3d68f190483c
     Pseudo is Ultrasoft, Zval =  3.0
     Generated by new atomic code, or converted to UPF format
     Using radial grid of  751 points,  5 beta functions with:
                l(1) =   0
                l(2) =   0
                l(3) =   0
                l(4) =   1
                l(5) =   1
     Q(r) pseudized with 10 coefficients,  rinner =    1.150   1.150   1.150

     PseudoPot. # 2 for Ti read from file:
     /home/pragov/projects/rrg-bengioy-ad/pragov/crystal_structure_design/SSSP/ti_pbe_v1.4.uspp.F.UPF
     MD5 check sum: 88a00a6731bd790ddea75d31a80cb452
     Pseudo is Ultrasoft + core correction, Zval = 12.0
     Generated by new atomic code, or converted to UPF format
     Using radial grid of  851 points,  6 beta functions with:
                l(1) =   0
                l(2) =   0
                l(3) =   1
                l(4) =   1
                l(5) =   2
                l(6) =   2
     Q(r) pseudized with  6 coefficients,  rinner =    1.000   1.000   1.000
                                                       1.000   1.000

     PseudoPot. # 3 for V  read from file:
     /home/pragov/projects/rrg-bengioy-ad/pragov/crystal_structure_design/SSSP/v_pbe_v1.4.uspp.F.UPF
     MD5 check sum: 22b79981416ebb76fdaf5b1b8640f6fb
     Pseudo is Ultrasoft + core correction, Zval = 13.0
     Generated by new atomic code, or converted to UPF format
     Using radial grid of  853 points,  6 beta functions with:
                l(1) =   0
                l(2) =   0
                l(3) =   1
                l(4) =   1
                l(5) =   2
                l(6) =   2
     Q(r) pseudized with  8 coefficients,  rinner =    1.100   1.100   1.100
                                                       1.100   1.100

     PseudoPot. # 4 for O  read from file:
     /home/pragov/projects/rrg-bengioy-ad/pragov/crystal_structure_design/SSSP/O.pbe-n-kjpaw_psl.0.1.UPF
     MD5 check sum: 0234752ac141de4415c5fc33072bef88
     Pseudo is Projector augmented-wave + core cor, Zval =  6.0
     Generated using "atomic" code by A. Dal Corso  v.5.0.99 svn rev. 10869
     Shape of augmentation charge: BESSEL
     Using radial grid of 1095 points,  4 beta functions with:
                l(1) =   0
                l(2) =   0
                l(3) =   1
                l(4) =   1
     Q(r) pseudized with 0 coefficients

     atomic species   valence    mass     pseudopotential
        Li             3.00     6.94000     Li( 1.00)
        Ti            12.00    47.86700     Ti( 1.00)
        V             13.00    50.94150     V ( 1.00)
        O              6.00    15.99900     O ( 1.00)

     No symmetry found

                                    s                        frac. trans.

      isym =  1     identity

 cryst.   s( 1) = (     1          0          0      )
                  (     0          1          0      )
                  (     0          0          1      )

 cart.    s( 1) = (  1.0000000 -0.0000000  0.0000000 )
                  (  0.0000000  1.0000000 -0.0000000 )
                  (  0.0000000  0.0000000  1.0000000 )

   Cartesian axes

     site n.     atom                  positions (alat units)
         1           Li  tau(   1) = (  -0.0588290   0.6231062   0.5587361  )
         2           Li  tau(   2) = (   0.4585456   0.5724563   0.8635062  )
         3           Ti  tau(   3) = (  -0.1263367   0.1673465   0.9747251  )
         4           Ti  tau(   4) = (   0.5261641   1.0263562   0.4490373  )
         5           V   tau(   5) = (   0.5195295   0.7164115   1.4108306  )
         6           V   tau(   6) = (   0.1464970   1.1326018   1.2686322  )
         7           V   tau(   7) = (   0.2630991   0.0683117   0.1532783  )
         8           O   tau(   8) = (  -0.3028957   0.4089298   1.2239679  )
         9           O   tau(   9) = (  -0.3104599   0.8616338   0.7189143  )
        10           O   tau(  10) = (  -0.2127299   0.9824655   1.3410402  )
        11           O   tau(  11) = (   0.0654070   0.3152497   0.3020093  )
        12           O   tau(  12) = (   0.1943341   0.3077251   0.9712965  )
        13           O   tau(  13) = (   0.2046101   0.8791794   0.4421503  )
        14           O   tau(  14) = (   0.3578482   0.8692618   1.1063697  )
        15           O   tau(  15) = (   0.6070681   0.2219208   0.0949308  )
        16           O   tau(  16) = (   0.7144634   0.3334315   0.6899426  )
        17           O   tau(  17) = (   0.7214702   0.7961088   0.1922495  )

   Crystallographic axes

     site n.     atom                  positions (cryst. coord.)
         1           Li  tau(   1) = (  0.2114490  0.5517290  0.3940430  )
         2           Li  tau(   2) = (  0.7832020  0.4470920  0.6089790  )
         3           Ti  tau(   3) = (  0.1260460  0.0073780  0.6874150  )
         4           Ti  tau(   4) = (  0.8686040  0.9892520  0.3166790  )
         5           V   tau(   5) = (  0.9978130  0.5031490  0.9949740  )
         6           V   tau(   6) = (  0.6929400  0.9596600  0.8946900  )
         7           V   tau(   7) = (  0.3127930  0.0447750  0.1080980  )
         8           O   tau(   8) = (  0.0613870  0.2157190  0.8631910  )
         9           O   tau(   9) = (  0.0515720  0.7721030  0.5070070  )
        10           O   tau(  10) = (  0.3137280  0.7913740  0.9457550  )
        11           O   tau(  11) = (  0.2063630  0.2758380  0.2129890  )
        12           O   tau(  12) = (  0.4794160  0.1537530  0.6849970  )
        13           O   tau(  13) = (  0.5104820  0.8375780  0.3118220  )
        14           O   tau(  14) = (  0.8061710  0.7138730  0.7802560  )
        15           O   tau(  15) = (  0.6806400  0.2142670  0.0669490  )
        16           O   tau(  16) = (  0.9443290  0.2284870  0.4865750  )
        17           O   tau(  17) = (  0.9530660  0.7939720  0.1355820  )

     number of k points=     1  Methfessel-Paxton smearing, width (Ry)=  0.0010
                       cart. coord. in units 2pi/alat
        k(    1) = (   0.0000000   0.0000000   0.0000000), wk =   2.0000000

                       cryst. coord.
        k(    1) = (   0.0000000   0.0000000   0.0000000), wk =   2.0000000

     Check: negative core charge=   -0.000016

     Initial potential from superposition of free atoms

     starting charge     126.0947, renormalised to     129.0000

     negative rho (up, down):  4.215E-03 0.000E+00
     Starting wfcs are  100 randomized atomic wfcs
     Checking if some PAW data can be deallocated...

     Self-consistent Calculation

     iteration #  1     ecut=    30.00 Ry     beta= 0.70
     Davidson diagonalization with overlap

     ethr =  1.00E-02,  avg # of iterations =  2.0

     negative rho (up, down):  1.123E-02 0.000E+00

     total energy              =   -1102.29367115 Ry
     estimated scf accuracy    <      25.52259374 Ry

[...]

     total energy              =   -1120.22886308 Ry
     estimated scf accuracy    <       0.00000384 Ry

     iteration # 36     ecut=    30.00 Ry     beta= 0.70
     Davidson diagonalization with overlap

     ethr =  1.80E-09,  avg # of iterations =  1.0

[...]

     End of self-consistent calculation

          k = 0.0000 0.0000 0.0000 (  1825 PWs)   bands (ev):

   -56.9296 -56.6699 -56.6537 -49.4460 -49.4150 -36.5513 -36.5065 -31.0479
   -30.7974 -30.7410 -30.6652 -30.5829 -30.5050 -30.4490 -30.3022 -30.2472
   -25.9557 -25.7911 -25.7640 -25.7217 -25.6411 -25.6264 -11.4306 -10.4456
   -10.3174 -10.2801 -10.2013 -10.1891  -9.9086  -9.7246  -9.6651  -9.4575
     1.5942   2.1039   2.1742   2.4399   2.6255   2.7890   2.9105   2.9649
     2.9953   3.2712   3.3227   3.3584   3.4666   3.6168   3.8060   3.9196
     4.0184   4.1587   4.4261   4.6104   4.6639   4.7287   4.7623   5.2518
     5.3845   5.5181   5.6751   5.9097   5.9374   6.0494   8.8446   8.8884
     9.0580   9.0609   9.1121   9.3268   9.3616   9.4680   9.5540  10.0077
    10.3032  10.3501  10.4826  10.6995  10.7552  10.9250

     occupation numbers
     1.0000   1.0000   1.0000   1.0000   1.0000   1.0000   1.0000   1.0000
     1.0000   1.0000   1.0000   1.0000   1.0000   1.0000   1.0000   1.0000
     1.0000   1.0000   1.0000   1.0000   1.0000   1.0000   1.0000   1.0000
     1.0000   1.0000   1.0000   1.0000   1.0000   1.0000   1.0000   1.0000
     1.0000   1.0000   1.0000   1.0000   1.0000   1.0000   1.0000   1.0000
     1.0000   1.0000   1.0000   1.0000   1.0000   1.0000   1.0000   1.0000
     1.0000   1.0000   1.0000   1.0000   1.0000   1.0000   1.0000   1.0000
     1.0000   1.0000   1.0000   1.0000   1.0000   1.0000   1.0000   1.0000
     0.3265   0.1735  -0.0000  -0.0000  -0.0000  -0.0000  -0.0000  -0.0000
    -0.0000  -0.0000  -0.0000  -0.0000  -0.0000  -0.0000

     the Fermi energy is     9.0551 ev

!    total energy              =   -1120.22886304 Ry
     estimated scf accuracy    <       0.00000015 Ry
     smearing contrib. (-TS)   =      -0.00039622 Ry
     internal energy E=F+TS    =   -1120.22846683 Ry

     The total energy is F=E-TS. E is the sum of the following terms:
     one-electron contribution =    -603.42220215 Ry
     hartree contribution      =     353.12142014 Ry
     xc contribution           =    -175.91361117 Ry
     ewald contribution        =    -598.79484369 Ry
     one-center paw contrib.   =     -95.21922995 Ry
      -> PAW hartree energy AE =     296.10367619 Ry
      -> PAW hartree energy PS =    -295.05372999 Ry
      -> PAW xc energy AE      =    -171.66870294 Ry
      -> PAW xc energy PS      =      75.39952678 Ry
      -> total E_H with PAW    =     354.17136635 Ry
      -> total E_XC with PAW   =    -272.18278733 Ry

     convergence has been achieved in  36 iterations

     negative rho (up, down):  5.377E-03 0.000E+00

     Forces acting on atoms (cartesian axes, Ry/au):

     atom    1 type  1   force =    -0.00621755    0.00068634    0.00112590
     atom    2 type  1   force =     0.00705549   -0.00206872   -0.00621011
     atom    3 type  2   force =     0.00237778    0.00004861   -0.01766295
     atom    4 type  2   force =    -0.00907347    0.00210458   -0.00021020
     atom    5 type  3   force =    -0.01351516   -0.02761787    0.01655673
     atom    6 type  3   force =     0.00219970    0.04870571    0.02283290
     atom    7 type  3   force =     0.02205078   -0.01233969   -0.01054162
     atom    8 type  4   force =    -0.03232611    0.01164037   -0.01104994
     atom    9 type  4   force =     0.02000458   -0.00733749   -0.00187453
     atom   10 type  4   force =     0.02815133   -0.02209429   -0.03264402
     atom   11 type  4   force =    -0.01028617    0.01513195   -0.03528997
     atom   12 type  4   force =     0.02969582   -0.01697069    0.03378698
     atom   13 type  4   force =    -0.01545799    0.01410022   -0.01367934
     atom   14 type  4   force =    -0.01510873    0.01084261    0.04437561
     atom   15 type  4   force =    -0.00350152    0.00116139    0.00448693
     atom   16 type  4   force =    -0.01807497    0.00521061    0.01601116
     atom   17 type  4   force =     0.01202620   -0.02120363   -0.01001355
     The non-local contrib.  to forces
     atom    1 type  1   force =     0.02889795   -0.03755534   -0.00245268
     atom    2 type  1   force =    -0.01931385    0.01864005   -0.00783092
     atom    3 type  2   force =     0.00454293   -0.02357916    0.01213219
     atom    4 type  2   force =     0.01116617    0.01867915   -0.01343151
     atom    5 type  3   force =    -0.00611240   -0.01555596    0.01271349
     atom    6 type  3   force =     0.01043999   -0.03296655    0.04112351
     atom    7 type  3   force =    -0.00819000    0.04167405   -0.04673937
     atom    8 type  4   force =    -0.27391426   -0.33711256    0.24897790
     atom    9 type  4   force =    -0.39524225    0.58923515   -0.09578163
     atom   10 type  4   force =    -0.16537381    0.28291469   -0.04393546
     atom   11 type  4   force =    -0.19234612   -0.39069734   -0.49695882
     atom   12 type  4   force =    -0.22621122   -0.34644651    0.47452822
     atom   13 type  4   force =     0.24703305    0.39054545   -0.44835789
     atom   14 type  4   force =     0.24625212    0.35625530    0.57322109
     atom   15 type  4   force =     0.15004529   -0.35335798   -0.05233719
     atom   16 type  4   force =     0.38568122   -0.62093947    0.10597022
     atom   17 type  4   force =     0.15846111    0.28963088   -0.31193723
     The ionic contribution  to forces
     atom    1 type  1   force =     1.86994502   -0.37074720    3.21601085
     atom    2 type  1   force =    -1.83950158    0.05672243   -3.41036366
     atom    3 type  2   force =     2.95912440    1.20405438  -10.61746028
     atom    4 type  2   force =    -2.76230647   -1.22593625    9.59802755
     atom    5 type  3   force =    -0.51403778   -1.09387403    0.46069218
     atom    6 type  3   force =    -4.90289788   -6.02392202   -9.98813730
     atom    7 type  3   force =     4.66829718    5.90904156    9.37402235
     atom    8 type  4   force =     3.16757684    7.46407546   -8.75317968
     atom    9 type  4   force =     5.68545001   -9.79306769    2.01219335
     atom   10 type  4   force =     5.90470418   -7.48145754   -1.96021311
     atom   11 type  4   force =     3.94216386    9.27891007   12.78116340
     atom   12 type  4   force =     3.85354486    7.31054976  -12.28292242
     atom   13 type  4   force =    -3.06601166   -8.02940880   12.70731818
     atom   14 type  4   force =    -6.01580541   -7.73722987  -12.59818764
     atom   15 type  4   force =    -4.17137996    8.04192603    1.80642745
     atom   16 type  4   force =    -5.29659523   10.03077974   -1.08033531
     atom   17 type  4   force =    -3.48227037   -7.54041602    8.73494408
     The local contribution  to forces
     atom    1 type  1   force =    -1.90508498    0.40896205   -3.21240318
     atom    2 type  1   force =     1.86587188   -0.07742275    3.41199395
     atom    3 type  2   force =    -2.95536630   -1.17695813   10.58005310
     atom    4 type  2   force =     2.73804800    1.20628331   -9.57517662
     atom    5 type  3   force =     0.50756901    1.08323128   -0.45950527
     atom    6 type  3   force =     4.89388196    6.10222210    9.96382593
     atom    7 type  3   force =    -4.63872009   -5.95956037   -9.33148827
     atom    8 type  4   force =    -2.92912646   -7.11845131    8.49577252
     atom    9 type  4   force =    -5.27357687    9.20167792   -1.91864110
     atom   10 type  4   force =    -5.71208300    7.17881150    1.97064925
     atom   11 type  4   force =    -3.76281671   -8.87598843  -12.32356515
     atom   12 type  4   force =    -3.59865185   -6.98376796   11.84652784
     atom   13 type  4   force =     2.80523756    7.65597972  -12.27652327
     atom   14 type  4   force =     5.75666733    7.39528565   12.07462702
     atom   15 type  4   force =     4.01938792   -7.69063401   -1.75040469
     atom   16 type  4   force =     4.89628094   -9.41010579    0.99144142
     atom   17 type  4   force =     3.33712666    7.23206222   -8.43642984
     The core correction contribution to forces
     atom    1 type  1   force =     0.00000000    0.00000000    0.00000000
     atom    2 type  1   force =     0.00000000    0.00000000    0.00000000
     atom    3 type  2   force =    -0.00596508   -0.00347068    0.00753747
     atom    4 type  2   force =     0.00412992    0.00312418   -0.00959468
     atom    5 type  3   force =    -0.00109161   -0.00132999    0.00252154
     atom    6 type  3   force =     0.00089662    0.00318206    0.00594762
     atom    7 type  3   force =     0.00058309   -0.00347250   -0.00641680
     atom    8 type  4   force =     0.00311720    0.00311234   -0.00277774
     atom    9 type  4   force =     0.00331181   -0.00511416    0.00035545
     atom   10 type  4   force =     0.00101981   -0.00233793    0.00066089
     atom   11 type  4   force =     0.00255991    0.00292058    0.00421723
     atom   12 type  4   force =     0.00101716    0.00258207   -0.00431938
     atom   13 type  4   force =    -0.00155234   -0.00298356    0.00400816
     atom   14 type  4   force =    -0.00226986   -0.00333890   -0.00537772
     atom   15 type  4   force =    -0.00144142    0.00311161    0.00082945
     atom   16 type  4   force =    -0.00341745    0.00539667   -0.00104713
     atom   17 type  4   force =    -0.00149312   -0.00247265    0.00342330
     The Hubbard contrib.    to forces
     atom    1 type  1   force =     0.00000000    0.00000000    0.00000000
     atom    2 type  1   force =     0.00000000    0.00000000    0.00000000
     atom    3 type  2   force =     0.00000000    0.00000000    0.00000000
     atom    4 type  2   force =     0.00000000    0.00000000    0.00000000
     atom    5 type  3   force =     0.00000000    0.00000000    0.00000000
     atom    6 type  3   force =     0.00000000    0.00000000    0.00000000
     atom    7 type  3   force =     0.00000000    0.00000000    0.00000000
     atom    8 type  4   force =     0.00000000    0.00000000    0.00000000
     atom    9 type  4   force =     0.00000000    0.00000000    0.00000000
     atom   10 type  4   force =     0.00000000    0.00000000    0.00000000
     atom   11 type  4   force =     0.00000000    0.00000000    0.00000000
     atom   12 type  4   force =     0.00000000    0.00000000    0.00000000
     atom   13 type  4   force =     0.00000000    0.00000000    0.00000000
     atom   14 type  4   force =     0.00000000    0.00000000    0.00000000
     atom   15 type  4   force =     0.00000000    0.00000000    0.00000000
     atom   16 type  4   force =     0.00000000    0.00000000    0.00000000
     atom   17 type  4   force =     0.00000000    0.00000000    0.00000000
     The SCF correction term to forces
     atom    1 type  1   force =     0.00002429    0.00002501   -0.00002811
     atom    2 type  1   force =    -0.00000113   -0.00001028   -0.00000849
     atom    3 type  2   force =     0.00004167    0.00000037    0.00007556
     atom    4 type  2   force =    -0.00011124   -0.00004765   -0.00003395
     atom    5 type  3   force =     0.00015746   -0.00009100    0.00013577
     atom    6 type  3   force =    -0.00012116    0.00018828    0.00007414
     atom    7 type  3   force =     0.00008044   -0.00002426    0.00008146
     atom    8 type  4   force =     0.00002040    0.00001460    0.00015803
     atom    9 type  4   force =     0.00006172   -0.00007055    0.00000038
     atom   10 type  4   force =    -0.00011602   -0.00002686    0.00019539
     atom   11 type  4   force =     0.00015273   -0.00001476   -0.00014564
     atom   12 type  4   force =    -0.00000328    0.00011012   -0.00002629
     atom   13 type  4   force =    -0.00016476   -0.00003442   -0.00012354
     atom   14 type  4   force =     0.00004692   -0.00013140    0.00009384
     atom   15 type  4   force =    -0.00011350    0.00011392   -0.00002709
     atom   16 type  4   force =    -0.00002462    0.00007763   -0.00001706
     atom   17 type  4   force =     0.00020177   -0.00000989   -0.00001287

     Total force =     0.132971     Total SCF correction =     0.000661

     Computing stress (Cartesian axis) and pressure

     negative rho (up, down):  5.377E-03 0.000E+00
          total   stress  (Ry/bohr**3)                   (kbar)     P=     -442.80
  -0.00296029   0.00000170  -0.00009921         -435.47        0.25      -14.59
   0.00000170  -0.00300692   0.00003499            0.25     -442.33        5.15
  -0.00009921   0.00003499  -0.00306309          -14.59        5.15     -450.60

     kinetic stress (kbar)  25256.88     32.93    -60.37
                               32.93  25254.56    -62.17
                              -60.37    -62.17  25148.82

     local   stress (kbar) -22031.58   2110.88    198.71
                             2110.88  -9479.96  -2161.71
                              198.71  -2161.71  -9350.49

     nonloc. stress (kbar)   3273.29      7.87     -5.68
                                7.87   3297.72     -3.83
                               -5.68     -3.83   3261.93

     hartree stress (kbar)  17005.02   -869.99   -173.14
                             -869.99  11655.86    936.37
                             -173.14    936.37  10995.58

     exc-cor stress (kbar)  -3950.86     -0.57     -0.10
                               -0.57  -3955.95      0.75
                               -0.10      0.75  -3954.51

     corecor stress (kbar)  -2169.67     -0.33      0.81
                               -0.33  -2170.55      1.02
                                0.81      1.02  -2168.28

     ewald   stress (kbar) -17818.56  -1280.55     25.18
                            -1280.55 -25044.01   1294.72
                               25.18   1294.72 -24383.65

     hubbard stress (kbar)      0.00      0.00      0.00
                                0.00      0.00      0.00
                                0.00      0.00      0.00

     DFT-D   stress (kbar)      0.00      0.00      0.00
                                0.00      0.00      0.00
                                0.00      0.00      0.00

     XDM     stress (kbar)      0.00      0.00      0.00
                                0.00      0.00      0.00
                                0.00      0.00      0.00

     dft-nl  stress (kbar)      0.00      0.00      0.00
                                0.00      0.00      0.00
                                0.00      0.00      0.00

     TS-vdW  stress (kbar)      0.00      0.00      0.00
                                0.00      0.00      0.00
                                0.00      0.00      0.00

[...]

                                0.00      0.00      0.00

     Writing all to output data dir new_calculations/myprefix.save/

     General routines

     Parallel routines

     PAW routines

   This run was terminated on:   6: 2:11  21May2023

   JOB DONE.