     Program PWSCF v.7.0 starts on 21May2023 at  3:16:29

     Reading input from espresso_10963.pwi
Warning: card &CELL ignored
Warning: card / ignored

     Current dimensions of program PWSCF are:
     Max number of different atomic species (ntypx) = 10
     Max number of k-points (npk) =  40000
     Max angular momentum in pseudopotentials (lmaxx) =  4

     gamma-point specific algorithms are used
     Message from routine setup:
     using ibrav=0 with symmetry is DISCOURAGED, use correct ibrav instead

     Subspace diagonalization in iterative solution of the eigenvalue problem:
     a serial algorithm will be used

     Using Slab Decomposition

     bravais-lattice index     =            0
     lattice parameter (alat)  =      14.7878  a.u.
     unit-cell volume          =    2286.6502 (a.u.)^3
     number of atoms/cell      =           10
     number of atomic types    =            4
     number of electrons       =        84.00
     number of Kohn-Sham states=           50
     kinetic-energy cutoff     =      30.0000  Ry
     charge density cutoff     =     240.0000  Ry
     scf convergence threshold =      1.0E-06
     mixing beta               =       0.7000
     number of iterations used =            8  plain     mixing
     Exchange-correlation=  SLA  PW   PBX  PBC
                           (   1   4   3   4   0   0   0)

     celldm(1)=  14.787846  celldm(2)=   0.000000  celldm(3)=   0.000000
     celldm(4)=   0.000000  celldm(5)=   0.000000  celldm(6)=   0.000000

     crystal axes: (cart. coord. in units of alat)
               a(1) = (   1.000000   0.000000   0.000000 )
               a(2) = (   0.500000   0.866025   0.000000 )
               a(3) = (   0.500000   0.288675   0.816497 )

     reciprocal axes: (cart. coord. in units 2 pi/alat)
               b(1) = (  1.000000 -0.577350 -0.408248 )
               b(2) = (  0.000000  1.154701 -0.408248 )
               b(3) = (  0.000000  0.000000  1.224745 )

     PseudoPot. # 1 for Cs read from file:
     /home/pragov/projects/rrg-bengioy-ad/pragov/crystal_structure_design/SSSP/Cs_pbe_v1.uspp.F.UPF
     MD5 check sum: 3476d69cb178dfad3ffaa59df4e07ca4
     Pseudo is Ultrasoft + core correction, Zval =  9.0
     Generated by new atomic code, or converted to UPF format
     Using radial grid of  905 points,  6 beta functions with:
                l(1) =   0
                l(2) =   0
                l(3) =   1
                l(4) =   1
                l(5) =   2
                l(6) =   2
     Q(r) pseudized with  6 coefficients,  rinner =    1.500   1.500   1.500
                                                       1.500   1.500

     PseudoPot. # 2 for As read from file:
     /home/pragov/projects/rrg-bengioy-ad/pragov/crystal_structure_design/SSSP/As.pbe-n-rrkjus_psl.0.2.UPF
     MD5 check sum: 767315de957beeeb34f87d97bf945c8f
     Pseudo is Ultrasoft + core correction, Zval =  5.0
     Generated using "atomic" code by A. Dal Corso  v.5.0.99 svn rev. 10869
     Using radial grid of 1209 points,  4 beta functions with:
                l(1) =   0
                l(2) =   0
                l(3) =   1
                l(4) =   1
     Q(r) pseudized with 0 coefficients

     PseudoPot. # 3 for Au read from file:
     /home/pragov/projects/rrg-bengioy-ad/pragov/crystal_structure_design/SSSP/Au_ONCV_PBE-1.0.oncvpsp.upf
     MD5 check sum: d14007822ba0e19f0206237467fc06c2
     Pseudo is Norm-conserving, Zval = 19.0
     Generated using ONCVPSP code by D. R. Hamann
     Using radial grid of 1278 points,  8 beta functions with:
                l(1) =   0
                l(2) =   0
                l(3) =   1
                l(4) =   1
                l(5) =   2
                l(6) =   2
                l(7) =   3
                l(8) =   3

     PseudoPot. # 4 for Br read from file:
     /home/pragov/projects/rrg-bengioy-ad/pragov/crystal_structure_design/SSSP/br_pbe_v1.4.uspp.F.UPF
     MD5 check sum: d3ffb7b29f6225aa16fe06858fb2a80b
     Pseudo is Ultrasoft + core correction, Zval =  7.0
     Generated by new atomic code, or converted to UPF format
     Using radial grid of  879 points,  6 beta functions with:
                l(1) =   0
                l(2) =   0
                l(3) =   1
                l(4) =   1
                l(5) =   2
                l(6) =   2
     Q(r) pseudized with  8 coefficients,  rinner =    1.100   1.100   1.100
                                                       1.100   1.100

     atomic species   valence    mass     pseudopotential
        Cs             9.00   132.90545     Cs( 1.00)
        As             5.00    74.92159     As( 1.00)
        Au            19.00   196.96657     Au( 1.00)
        Br             7.00    79.90400     Br( 1.00)

     12 Sym. Ops., with inversion, found

                                    s                        frac. trans.

      isym =  1     identity

 cryst.   s( 1) = (     1          0          0      )
                  (     0          1          0      )
                  (     0          0          1      )

 cart.    s( 1) = (  1.0000000  0.0000000  0.0000000 )
                  (  0.0000000  1.0000000  0.0000000 )
                  (  0.0000000  0.0000000  1.0000000 )

      isym =  2     180 deg rotation - cart. axis [1,0,0]

[...]

      isym =  3     120 deg rotation - cryst. axis [0,0,1]

[...]

      isym =  6     180 deg rotation - cryst. axis [1,1,0]

[...]

      isym =  7     inversion

[...]

      isym =  8     inv. 180 deg rotation - cart. axis [1,0,0]

[...]

      isym =  9     inv. 120 deg rotation - cryst. axis [0,0,1]

 cryst.   s( 9) = (     1         -1          0      )
                  (     1          0          0      )
                  (     1          0         -1      )

 cart.    s( 9) = (  0.5000000  0.8660254  0.0000000 )
                  ( -0.8660254  0.5000000  0.0000000 )
                  (  0.0000000  0.0000000 -1.0000000 )

[...]

 cryst.   s(10) = (     0          1          0      )
                  (    -1          1          0      )
                  (     0          1         -1      )

 cart.    s(10) = (  0.5000000 -0.8660254 -0.0000000 )
                  (  0.8660254  0.5000000  0.0000000 )
                  (  0.0000000  0.0000000 -1.0000000 )

[...]

      isym = 12     inv. 180 deg rotation - cryst. axis [1,1,0]

 cryst.   s(12) = (     1         -1          0      )
                  (     0         -1          0      )
                  (     0         -1          1      )

 cart.    s(12) = (  0.5000000 -0.8660254 -0.0000000 )
                  ( -0.8660254 -0.5000000 -0.0000000 )
                  (  0.0000000  0.0000000  1.0000000 )

   Cartesian axes

     site n.     atom                  positions (alat units)
         1           Cs  tau(   1) = (   1.5000000   0.8660254   0.6123724  )
         2           Cs  tau(   2) = (   0.5000000   0.2886751   0.2041241  )
         3           As  tau(   3) = (   0.0000000   0.0000000   0.0000000  )
         4           Au  tau(   4) = (   1.0000000   0.5773503   0.4082483  )
         5           Br  tau(   5) = (   1.0000000   0.2822042   0.1995485  )
         6           Br  tau(   6) = (   0.7443960   0.4297772   0.6169481  )
         7           Br  tau(   7) = (   1.0000000   0.8724963   0.6169481  )
         8           Br  tau(   8) = (   0.7443960   0.7249233   0.1995485  )
         9           Br  tau(   9) = (   1.2556040   0.4297772   0.6169481  )
        10           Br  tau(  10) = (   1.2556040   0.7249233   0.1995485  )

   Crystallographic axes

     site n.     atom                  positions (cryst. coord.)
         1           Cs  tau(   1) = (  0.7500000  0.7500000  0.7500000  )
         2           Cs  tau(   2) = (  0.2500000  0.2500000  0.2500000  )
         3           As  tau(   3) = (  0.0000000  0.0000000  0.0000000  )
         4           Au  tau(   4) = (  0.5000000  0.5000000  0.5000000  )
         5           Br  tau(   5) = (  0.7556040  0.2443960  0.2443960  )
         6           Br  tau(   6) = (  0.2443960  0.2443960  0.7556040  )
         7           Br  tau(   7) = (  0.2443960  0.7556040  0.7556040  )
         8           Br  tau(   8) = (  0.2443960  0.7556040  0.2443960  )
         9           Br  tau(   9) = (  0.7556040  0.2443960  0.7556040  )
        10           Br  tau(  10) = (  0.7556040  0.7556040  0.2443960  )

     number of k points=     1  Methfessel-Paxton smearing, width (Ry)=  0.0010
                       cart. coord. in units 2pi/alat
        k(    1) = (   0.0000000   0.0000000   0.0000000), wk =   2.0000000

                       cryst. coord.
        k(    1) = (   0.0000000   0.0000000   0.0000000), wk =   2.0000000

     Initial potential from superposition of free atoms

     starting charge      83.9208, renormalised to      84.0000
     Starting wfcs are   64 randomized atomic wfcs

     Self-consistent Calculation

     iteration #  1     ecut=    30.00 Ry     beta= 0.70
     Davidson diagonalization with overlap

     ethr =  1.00E-02,  avg # of iterations =  3.0

     Threshold (ethr) on eigenvalues was too large:
     Diagonalizing with lowered threshold

     Davidson diagonalization with overlap

[...]

     total energy              =    -700.07830289 Ry
     estimated scf accuracy    <       0.53408163 Ry

[...]

     total energy              =    -700.32514733 Ry
     estimated scf accuracy    <       0.00000614 Ry

     iteration # 11     ecut=    30.00 Ry     beta= 0.70
     Davidson diagonalization with overlap

     ethr =  5.20E-09,  avg # of iterations =  2.0

     End of self-consistent calculation

          k = 0.0000 0.0000 0.0000 (  3188 PWs)   bands (ev):

   -99.8531 -50.9363 -50.9362 -50.9362 -16.4272 -16.4190 -10.4734  -9.6928
    -9.6926  -9.6925  -9.5000  -9.4999  -6.4392  -3.3625  -3.3624  -3.3624
    -3.2865  -3.2865  -3.2865  -0.1870  -0.1870  -0.1869   0.7793   0.8079
     0.8080   1.2978   1.2978   1.2979   2.6957   2.6957   2.6958   2.7818
     2.7818   2.7819   2.9041   2.9041   2.9042   3.3625   3.3625   3.3626
     4.3346   4.3347   5.8882   5.8882   5.8883   7.6612   8.4756   8.8992
     8.8993   9.8560

     occupation numbers
     1.0000   1.0000   1.0000   1.0000   1.0000   1.0000   1.0000   1.0000
     1.0000   1.0000   1.0000   1.0000   1.0000   1.0000   1.0000   1.0000
     1.0000   1.0000   1.0000   1.0000   1.0000   1.0000   1.0000   1.0000
     1.0000   1.0000   1.0000   1.0000   1.0000   1.0000   1.0000   1.0000
     1.0000   1.0000   1.0000   1.0000   1.0000   1.0000   1.0000   1.0000
     1.0000   1.0000  -0.0000  -0.0000  -0.0000  -0.0000  -0.0000  -0.0000
    -0.0000  -0.0000

     the Fermi energy is     4.8367 ev

!    total energy              =    -700.32514795 Ry
     estimated scf accuracy    <       0.00000020 Ry
     smearing contrib. (-TS)   =       0.00000000 Ry
     internal energy E=F+TS    =    -700.32514795 Ry

     The total energy is F=E-TS. E is the sum of the following terms:
     one-electron contribution =    -274.69667687 Ry
     hartree contribution      =     165.58614599 Ry
     xc contribution           =    -252.16263130 Ry
     ewald contribution        =    -339.05198577 Ry

     convergence has been achieved in  11 iterations

     Forces acting on atoms (cartesian axes, Ry/au):

     atom    1 type  1   force =     0.00000000    0.00000000   -0.00000030
     atom    2 type  1   force =     0.00000000    0.00000000    0.00000030
     atom    3 type  2   force =    -0.00000000   -0.00000000    0.00000000
     atom    4 type  3   force =    -0.00000000   -0.00000000   -0.00000000
     atom    5 type  4   force =     0.00000000   -0.04056342   -0.02868281
     atom    6 type  4   force =    -0.03512895   -0.02028171    0.02868281
     atom    7 type  4   force =     0.00000000    0.04056342    0.02868281
     atom    8 type  4   force =    -0.03512895    0.02028171   -0.02868281
     atom    9 type  4   force =     0.03512895   -0.02028171    0.02868281
     atom   10 type  4   force =     0.03512895    0.02028171   -0.02868281
     The non-local contrib.  to forces
     atom    1 type  1   force =    -0.00000000   -0.00000000   -0.00000276
     atom    2 type  1   force =     0.00000000    0.00000000    0.00000276
     atom    3 type  2   force =    -0.00000000   -0.00000000    0.00000000
     atom    4 type  3   force =     0.00000000    0.00000000    0.00000000
     atom    5 type  4   force =    -0.00000000    0.02066330    0.01461473
     atom    6 type  4   force =     0.01789495    0.01033165   -0.01461473
     atom    7 type  4   force =     0.00000000   -0.02066330   -0.01461473
     atom    8 type  4   force =     0.01789495   -0.01033165    0.01461473
     atom    9 type  4   force =    -0.01789495    0.01033165   -0.01461473
     atom   10 type  4   force =    -0.01789495   -0.01033165    0.01461473
     The ionic contribution  to forces
     atom    1 type  1   force =     0.00000000   -0.00000000   -0.00000000
     atom    2 type  1   force =    -0.00000000   -0.00000000    0.00000000
     atom    3 type  2   force =    -0.00000000    0.00000000   -0.00000000
     atom    4 type  3   force =    -0.00000000    0.00000000   -0.00000000
     atom    5 type  4   force =    -0.00000000   -3.69886226   -2.61549059
     atom    6 type  4   force =    -3.20330868   -1.84943113    2.61549059
     atom    7 type  4   force =    -0.00000000    3.69886226    2.61549058
     atom    8 type  4   force =    -3.20330868    1.84943113   -2.61549059
     atom    9 type  4   force =     3.20330868   -1.84943113    2.61549059
     atom   10 type  4   force =     3.20330868    1.84943113   -2.61549059
     The local contribution  to forces
     atom    1 type  1   force =     0.00002296    0.00006479    0.00002778
     atom    2 type  1   force =    -0.00005235   -0.00004286    0.00004484
     atom    3 type  2   force =     0.00000620   -0.00000369   -0.00002463
     atom    4 type  3   force =     0.00020369   -0.00005338   -0.00034933
     atom    5 type  4   force =     0.00003498    3.62485891    2.56317470
     atom    6 type  4   force =     3.13918194    1.81236603   -2.56311931
     atom    7 type  4   force =    -0.00000595   -3.62476576   -2.56315833
     atom    8 type  4   force =     3.13924037   -1.81238505    2.56312192
     atom    9 type  4   force =    -3.13919053    1.81236273   -2.56317207
     atom   10 type  4   force =    -3.13926497   -1.81244281    2.56314650
     The core correction contribution to forces
     atom    1 type  1   force =     0.00000079    0.00000178    0.00000147
     atom    2 type  1   force =    -0.00000233    0.00000094    0.00000003
     atom    3 type  2   force =     0.00000037   -0.00000019   -0.00000119
     atom    4 type  3   force =     0.00000000    0.00000000    0.00000000
     atom    5 type  4   force =     0.00000127    0.01251134    0.00884713
     atom    6 type  4   force =     0.01083514    0.00625542   -0.00884718
     atom    7 type  4   force =    -0.00000056   -0.01250952   -0.00884712
     atom    8 type  4   force =     0.01083652   -0.00625513    0.00884763
     atom    9 type  4   force =    -0.01083511    0.00625415   -0.00884776
     atom   10 type  4   force =    -0.01083731   -0.00625681    0.00884748
     The Hubbard contrib.    to forces
     atom    1 type  1   force =     0.00000000    0.00000000    0.00000000
     atom    2 type  1   force =     0.00000000    0.00000000    0.00000000
     atom    3 type  2   force =     0.00000000    0.00000000    0.00000000
     atom    4 type  3   force =     0.00000000    0.00000000    0.00000000
     atom    5 type  4   force =     0.00000000    0.00000000    0.00000000
     atom    6 type  4   force =     0.00000000    0.00000000    0.00000000
     atom    7 type  4   force =     0.00000000    0.00000000    0.00000000
     atom    8 type  4   force =     0.00000000    0.00000000    0.00000000
     atom    9 type  4   force =     0.00000000    0.00000000    0.00000000
     atom   10 type  4   force =     0.00000000    0.00000000    0.00000000
     The SCF correction term to forces
     atom    1 type  1   force =    -0.00001722   -0.00005654   -0.00002048
     atom    2 type  1   force =     0.00004069    0.00004521   -0.00004102
     atom    3 type  2   force =    -0.00000406    0.00000354    0.00002169
     atom    4 type  3   force =    -0.00021753    0.00006395    0.00038239
     atom    5 type  4   force =    -0.00004605    0.00026665    0.00017242
     atom    6 type  4   force =     0.00026363    0.00020059   -0.00022769
     atom    7 type  4   force =     0.00001101   -0.00037058   -0.00018437
     atom    8 type  4   force =     0.00019647   -0.00018542    0.00022461
     atom    9 type  4   force =    -0.00025751    0.00021493   -0.00016806
     atom   10 type  4   force =    -0.00017277   -0.00011513    0.00020401

     Total force =     0.121690     Total SCF correction =     0.000996

     Computing stress (Cartesian axis) and pressure

          total   stress  (Ry/bohr**3)                   (kbar)     P=       -7.73
  -0.00005256   0.00000000   0.00000000           -7.73        0.00        0.00
   0.00000000  -0.00005256   0.00000000            0.00       -7.73        0.00
   0.00000000   0.00000000  -0.00005255            0.00        0.00       -7.73

     kinetic stress (kbar)   7097.47     -0.00     -0.00
                               -0.00   7097.47      0.00
                               -0.00      0.00   7097.47

     local   stress (kbar)  -2270.59     -0.00      0.01
                               -0.00  -2270.58      0.02
                                0.01      0.02  -2270.58

     nonloc. stress (kbar)    940.28      0.00     -0.00
                                0.00    940.28      0.00
                               -0.00      0.00    940.28

     hartree stress (kbar)   3550.84      0.00     -0.01
                                0.00   3550.84     -0.02
                               -0.01     -0.02   3550.83

     exc-cor stress (kbar)   9347.44      0.00     -0.00
                                0.00   9347.44     -0.00
                               -0.00     -0.00   9347.44

     corecor stress (kbar) -11402.53     -0.00      0.00
                               -0.00 -11402.53      0.00
                                0.00      0.00 -11402.53

     ewald   stress (kbar)  -7270.65     -0.00     -0.00
                               -0.00  -7270.65     -0.00
                               -0.00     -0.00  -7270.65

     hubbard stress (kbar)      0.00      0.00      0.00
                                0.00      0.00      0.00
                                0.00      0.00      0.00

     DFT-D   stress (kbar)      0.00      0.00      0.00
                                0.00      0.00      0.00
                                0.00      0.00      0.00

     XDM     stress (kbar)      0.00      0.00      0.00
                                0.00      0.00      0.00
                                0.00      0.00      0.00

     dft-nl  stress (kbar)      0.00      0.00      0.00
                                0.00      0.00      0.00
                                0.00      0.00      0.00

     TS-vdW  stress (kbar)      0.00      0.00      0.00
                                0.00      0.00      0.00
                                0.00      0.00      0.00

[...]

                                0.00      0.00      0.00

     Writing all to output data dir new_calculations/myprefix.save/

     General routines

     Parallel routines

   This run was terminated on:   3:16:47  21May2023

   JOB DONE.