     Program PWSCF v.7.0 starts on 21May2023 at  4:57:18

     Reading input from espresso_23396.pwi
Warning: card &CELL ignored
Warning: card / ignored

     Current dimensions of program PWSCF are:
     Max number of different atomic species (ntypx) = 10
     Max number of k-points (npk) =  40000
     Max angular momentum in pseudopotentials (lmaxx) =  4

     gamma-point specific algorithms are used
     Message from routine setup:
     using ibrav=0 with symmetry is DISCOURAGED, use correct ibrav instead

     Subspace diagonalization in iterative solution of the eigenvalue problem:
     a serial algorithm will be used

     Using Slab Decomposition

     bravais-lattice index     =            0
     lattice parameter (alat)  =       7.8020  a.u.
     unit-cell volume          =     474.9093 (a.u.)^3
     number of atoms/cell      =            4
     number of atomic types    =            2
     number of electrons       =        55.00
     number of Kohn-Sham states=           34
     kinetic-energy cutoff     =      30.0000  Ry
     charge density cutoff     =     240.0000  Ry
     scf convergence threshold =      1.0E-06
     mixing beta               =       0.7000
     number of iterations used =            8  plain     mixing
     Exchange-correlation=  SLA  PW   PBX  PBC
                           (   1   4   3   4   0   0   0)

     celldm(1)=   7.801957  celldm(2)=   0.000000  celldm(3)=   0.000000
     celldm(4)=   0.000000  celldm(5)=   0.000000  celldm(6)=   0.000000

     crystal axes: (cart. coord. in units of alat)
               a(1) = (   1.000000   0.000000   0.000000 )
               a(2) = (   0.000000   1.000000   0.000000 )
               a(3) = (   0.000000   0.000000   1.000000 )

     reciprocal axes: (cart. coord. in units 2 pi/alat)
               b(1) = (  1.000000  0.000000  0.000000 )
               b(2) = (  0.000000  1.000000  0.000000 )
               b(3) = (  0.000000  0.000000  1.000000 )

     PseudoPot. # 1 for Ta read from file:
     /home/pragov/projects/rrg-bengioy-ad/pragov/crystal_structure_design/SSSP/Ta_pbe_v1.uspp.F.UPF
     MD5 check sum: f8bbe9446314a3b8ea5d9f3e3836c939
     Pseudo is Ultrasoft + core correction, Zval = 13.0
     Generated by new atomic code, or converted to UPF format
     Using radial grid of  921 points,  7 beta functions with:
                l(1) =   0
                l(2) =   0
                l(3) =   1
                l(4) =   1
                l(5) =   2
                l(6) =   2
                l(7) =   3
     Q(r) pseudized with  6 coefficients,  rinner =    1.300   1.300   1.300
                                                       1.300   1.300   1.300
                                                       1.300

     PseudoPot. # 2 for Pt read from file:
     /home/pragov/projects/rrg-bengioy-ad/pragov/crystal_structure_design/SSSP/pt_pbe_v1.4.uspp.F.UPF
     MD5 check sum: f09d6de1a584b5a045c4fc126da2d0c4
     Pseudo is Ultrasoft + core correction, Zval = 16.0
     Generated by new atomic code, or converted to UPF format
     Using radial grid of  985 points,  6 beta functions with:
                l(1) =   0
                l(2) =   0
                l(3) =   1
                l(4) =   1
                l(5) =   2
                l(6) =   2
     Q(r) pseudized with  8 coefficients,  rinner =    1.300   1.300   1.300
                                                       1.300   1.300

     atomic species   valence    mass     pseudopotential
        Ta            13.00   180.94788     Ta( 1.00)
        Pt            16.00   195.08400     Pt( 1.00)

     48 Sym. Ops., with inversion, found

                                    s                        frac. trans.

      isym =  1     identity

 cryst.   s( 1) = (     1          0          0      )
                  (     0          1          0      )
                  (     0          0          1      )

 cart.    s( 1) = (  1.0000000  0.0000000  0.0000000 )
                  (  0.0000000  1.0000000  0.0000000 )
                  (  0.0000000  0.0000000  1.0000000 )

      isym =  2     180 deg rotation - cart. axis [0,0,1]

[...]

 cryst.   s( 9) = (     0          0          1      )
                  (     0         -1          0      )
                  (     1          0          0      )

 cart.    s( 9) = (  0.0000000  0.0000000  1.0000000 )
                  (  0.0000000 -1.0000000  0.0000000 )
                  (  1.0000000  0.0000000  0.0000000 )

[...]

 cryst.   s(10) = (     0          0         -1      )
                  (     0         -1          0      )
                  (    -1          0          0      )

 cart.    s(10) = (  0.0000000  0.0000000 -1.0000000 )
                  (  0.0000000 -1.0000000  0.0000000 )
                  ( -1.0000000  0.0000000  0.0000000 )

[...]

      isym = 24     120 deg rotation - cart. axis [-1,-1,1]

[...]

      isym = 25     inversion

[...]

      isym = 26     inv. 180 deg rotation - cart. axis [0,0,1]

[...]

      isym = 48     inv. 120 deg rotation - cart. axis [-1,-1,1]

 cryst.   s(48) = (     0         -1          0      )
                  (     0          0          1      )
                  (     1          0          0      )

 cart.    s(48) = (  0.0000000  0.0000000  1.0000000 )
                  ( -1.0000000  0.0000000  0.0000000 )
                  (  0.0000000  1.0000000  0.0000000 )

   Cartesian axes

     site n.     atom                  positions (alat units)
         1           Ta  tau(   1) = (   0.0000000   0.5000000   0.5000000  )
         2           Ta  tau(   2) = (   0.5000000   0.0000000   0.5000000  )
         3           Ta  tau(   3) = (   0.5000000   0.5000000   0.0000000  )
         4           Pt  tau(   4) = (   0.0000000   0.0000000   0.0000000  )

   Crystallographic axes

     site n.     atom                  positions (cryst. coord.)
         1           Ta  tau(   1) = (  0.0000000  0.5000000  0.5000000  )
         2           Ta  tau(   2) = (  0.5000000  0.0000000  0.5000000  )
         3           Ta  tau(   3) = (  0.5000000  0.5000000  0.0000000  )
         4           Pt  tau(   4) = (  0.0000000  0.0000000  0.0000000  )

     number of k points=     1  Methfessel-Paxton smearing, width (Ry)=  0.0010
                       cart. coord. in units 2pi/alat
        k(    1) = (   0.0000000   0.0000000   0.0000000), wk =   2.0000000

                       cryst. coord.
        k(    1) = (   0.0000000   0.0000000   0.0000000), wk =   2.0000000

     Initial potential from superposition of free atoms

     starting charge      54.4967, renormalised to      55.0000

     negative rho (up, down):  4.575E-01 0.000E+00
     Starting wfcs are   51 randomized atomic wfcs

     Self-consistent Calculation

     iteration #  1     ecut=    30.00 Ry     beta= 0.70
     Davidson diagonalization with overlap

     ethr =  1.00E-02,  avg # of iterations =  2.0
     Minimization algorithm failed to find Fermi energy: reverting to bisection
     Possible cause: smearing is larger than the electronic band-gap.

     negative rho (up, down):  4.380E-01 0.000E+00

     total energy              =    -635.53168881 Ry
     estimated scf accuracy    <       1.63994424 Ry

[...]

     ethr =  2.98E-03,  avg # of iterations =  3.0

[...]

     ethr =  4.49E-07,  avg # of iterations =  2.0

[...]

     total energy              =    -636.62458876 Ry
     estimated scf accuracy    <       0.00004814 Ry

     iteration # 25     ecut=    30.00 Ry     beta= 0.70
     Davidson diagonalization with overlap

     ethr =  8.75E-08,  avg # of iterations =  1.0
     Minimization algorithm failed to find Fermi energy: reverting to bisection
     Possible cause: smearing is larger than the electronic band-gap.

[...]

     End of self-consistent calculation

          k = 0.0000 0.0000 0.0000 (   679 PWs)   bands (ev):

   -47.5776 -47.4605 -47.4581 -32.7759 -32.7756 -32.7756 -14.4723 -14.4721
   -14.4717 -13.9773 -13.9763 -13.9757 -13.6144 -13.6137 -13.6128  10.6687
    13.9648  13.9650  14.7615  14.7616  14.7616  14.7685  18.7549  18.7555
    18.7559  20.4908  20.4913  22.0386  22.0386  22.0386  23.8231  23.8237
    23.8249  24.8109

     occupation numbers
     1.0000   1.0000   1.0000   1.0000   1.0000   1.0000   1.0000   1.0000
     1.0000   1.0000   1.0000   1.0000   1.0000   1.0000   1.0000   1.0000
     1.0000   1.0000   1.0000   1.0000   1.0000   1.0000   1.0000   1.0000
     1.0000   1.0000   1.0000   0.1685   0.1662   0.1653  -0.0000  -0.0000
    -0.0000  -0.0000

     the Fermi energy is    22.0327 ev

!    total energy              =    -636.62458894 Ry
     estimated scf accuracy    <       0.00000039 Ry
     smearing contrib. (-TS)   =      -0.00043272 Ry
     internal energy E=F+TS    =    -636.62415622 Ry

     The total energy is F=E-TS. E is the sum of the following terms:
     one-electron contribution =     -79.89245271 Ry
     hartree contribution      =      73.60520155 Ry
     xc contribution           =    -183.97177508 Ry
     ewald contribution        =    -446.36512999 Ry

     convergence has been achieved in  25 iterations

     negative rho (up, down):  4.450E-01 0.000E+00

     Forces acting on atoms (cartesian axes, Ry/au):

     atom    1 type  1   force =     0.00000000    0.00000000    0.00000000
     atom    2 type  1   force =     0.00000000    0.00000000    0.00000000
     atom    3 type  1   force =     0.00000000    0.00000000    0.00000000
     atom    4 type  2   force =     0.00000000    0.00000000    0.00000000
     The non-local contrib.  to forces
     atom    1 type  1   force =     0.00000000    0.00000000    0.00000000
     atom    2 type  1   force =     0.00000000    0.00000000    0.00000000
     atom    3 type  1   force =     0.00000000    0.00000000    0.00000000
     atom    4 type  2   force =     0.00000000    0.00000000    0.00000000
     The ionic contribution  to forces
     atom    1 type  1   force =    -0.00000000    0.00000000    0.00000000
     atom    2 type  1   force =     0.00000000   -0.00000000    0.00000000
     atom    3 type  1   force =     0.00000000    0.00000000   -0.00000000
     atom    4 type  2   force =    -0.00000000   -0.00000000   -0.00000000
     The local contribution  to forces
     atom    1 type  1   force =    -0.00001057   -0.00001681   -0.00000999
     atom    2 type  1   force =     0.00000980    0.00001465   -0.00000577
     atom    3 type  1   force =     0.00001405   -0.00001861    0.00000441
     atom    4 type  2   force =    -0.00001257    0.00002344    0.00000956
     The core correction contribution to forces
     atom    1 type  1   force =     0.00000012    0.00000010    0.00000008
     atom    2 type  1   force =     0.00000017    0.00000004   -0.00000009
     atom    3 type  1   force =    -0.00000048    0.00000062   -0.00000027
     atom    4 type  2   force =     0.00000034   -0.00000029   -0.00000031
     The Hubbard contrib.    to forces
     atom    1 type  1   force =     0.00000000    0.00000000    0.00000000
     atom    2 type  1   force =     0.00000000    0.00000000    0.00000000
     atom    3 type  1   force =     0.00000000    0.00000000    0.00000000
     atom    4 type  2   force =     0.00000000    0.00000000    0.00000000
     The SCF correction term to forces
     atom    1 type  1   force =     0.00001132    0.00001863    0.00000800
     atom    2 type  1   force =    -0.00001165   -0.00001551    0.00000674
     atom    3 type  1   force =    -0.00001098    0.00001742   -0.00000591
     atom    4 type  2   force =     0.00001397   -0.00002692   -0.00001125

     Total force =     0.000000     Total SCF correction =     0.000050

     Computing stress (Cartesian axis) and pressure

     negative rho (up, down):  4.450E-01 0.000E+00
          total   stress  (Ry/bohr**3)                   (kbar)     P=     -295.40
  -0.00200811   0.00000000   0.00000000         -295.40        0.00        0.00
   0.00000000  -0.00200811   0.00000000            0.00     -295.40        0.00
   0.00000000   0.00000000  -0.00200811            0.00        0.00     -295.40

     kinetic stress (kbar)  37025.79      0.00      0.00
                                0.00  37025.79      0.00
                                0.00      0.00  37025.79

     local   stress (kbar)  28966.01      0.31     -0.21
                                0.31  28966.76      0.48
                               -0.21      0.48  28964.37

     nonloc. stress (kbar) -17326.73      0.00      0.00
                                0.00 -17326.73      0.00
                                0.00      0.00 -17326.73

     hartree stress (kbar)   7599.64     -0.17      0.11
                               -0.17   7599.37     -0.27
                                0.11     -0.27   7600.49

     exc-cor stress (kbar)  28308.20     -0.00      0.00
                               -0.00  28308.19     -0.00
                                0.00     -0.00  28308.22

     corecor stress (kbar) -38780.40      0.00     -0.00
                                0.00 -38780.36      0.00
                               -0.00      0.00 -38780.51

     ewald   stress (kbar) -46087.80     -0.00     -0.00
                               -0.00 -46087.80      0.00
                               -0.00      0.00 -46087.80

     hubbard stress (kbar)      0.00      0.00      0.00
                                0.00      0.00      0.00
                                0.00      0.00      0.00

     DFT-D   stress (kbar)      0.00      0.00      0.00
                                0.00      0.00      0.00
                                0.00      0.00      0.00

     XDM     stress (kbar)      0.00      0.00      0.00
                                0.00      0.00      0.00
                                0.00      0.00      0.00

     dft-nl  stress (kbar)      0.00      0.00      0.00
                                0.00      0.00      0.00
                                0.00      0.00      0.00

     TS-vdW  stress (kbar)      0.00      0.00      0.00
                                0.00      0.00      0.00
                                0.00      0.00      0.00

[...]

                                0.00      0.00      0.00

     Writing all to output data dir new_calculations/myprefix.save/

     General routines

     Parallel routines

   This run was terminated on:   4:57:40  21May2023

   JOB DONE.