     Program PWSCF v.7.0 starts on 20May2023 at  3:12:50

     Reading input from espresso_2110.pwi
Warning: card &CELL ignored
Warning: card / ignored

     Current dimensions of program PWSCF are:
     Max number of different atomic species (ntypx) = 10
     Max number of k-points (npk) =  40000
     Max angular momentum in pseudopotentials (lmaxx) =  4
     file Mg.pbe-n-kjpaw_psl.0.3.0.UPF: wavefunction(s)  3S renormalized

     gamma-point specific algorithms are used
     Message from routine setup:
     using ibrav=0 with symmetry is DISCOURAGED, use correct ibrav instead

     Subspace diagonalization in iterative solution of the eigenvalue problem:
     a serial algorithm will be used

     Using Slab Decomposition

     bravais-lattice index     =            0
     lattice parameter (alat)  =       9.6165  a.u.
     unit-cell volume          =     730.5059 (a.u.)^3
     number of atoms/cell      =            6
     number of atomic types    =            2
     number of electrons       =        97.00
     number of Kohn-Sham states=           59
     kinetic-energy cutoff     =      30.0000  Ry
     charge density cutoff     =     240.0000  Ry
     scf convergence threshold =      1.0E-06
     mixing beta               =       0.7000
     number of iterations used =            8  plain     mixing
     Exchange-correlation= PBE
                           (   1   4   3   4   0   0   0)

     celldm(1)=   9.616521  celldm(2)=   0.000000  celldm(3)=   0.000000
     celldm(4)=   0.000000  celldm(5)=   0.000000  celldm(6)=   0.000000

     crystal axes: (cart. coord. in units of alat)
               a(1) = (   1.000000   0.000000   0.000000 )
               a(2) = (  -0.500000   0.866025   0.000000 )
               a(3) = (   0.000000   0.000000   0.948504 )

     reciprocal axes: (cart. coord. in units 2 pi/alat)
               b(1) = (  1.000000  0.577350  0.000000 )
               b(2) = (  0.000000  1.154701  0.000000 )
               b(3) = (  0.000000  0.000000  1.054292 )

     PseudoPot. # 1 for Mg read from file:
     /home/pragov/projects/rrg-bengioy-ad/pragov/crystal_structure_design/SSSP/Mg.pbe-n-kjpaw_psl.0.3.0.UPF
     MD5 check sum: 24ecedc7f3e3cbe212e682f4413594e4
     Pseudo is Projector augmented-wave + core cor, Zval =  2.0
     Generated using "atomic" code by A. Dal Corso  v.5.0.99 svn rev. 10869
     Shape of augmentation charge: PSQ
     Using radial grid of 1129 points,  4 beta functions with:
                l(1) =   0
                l(2) =   0
                l(3) =   1
                l(4) =   1
     Q(r) pseudized with 0 coefficients

     PseudoPot. # 2 for Au read from file:
     /home/pragov/projects/rrg-bengioy-ad/pragov/crystal_structure_design/SSSP/Au_ONCV_PBE-1.0.oncvpsp.upf
     MD5 check sum: d14007822ba0e19f0206237467fc06c2
     Pseudo is Norm-conserving, Zval = 19.0
     Generated using ONCVPSP code by D. R. Hamann
     Using radial grid of 1278 points,  8 beta functions with:
                l(1) =   0
                l(2) =   0
                l(3) =   1
                l(4) =   1
                l(5) =   2
                l(6) =   2
                l(7) =   3
                l(8) =   3

     atomic species   valence    mass     pseudopotential
        Mg             2.00    24.30500     Mg( 1.00)
        Au            19.00   196.96657     Au( 1.00)

     12 Sym. Ops. (no inversion) found

                                    s                        frac. trans.

      isym =  1     identity

 cryst.   s( 1) = (     1          0          0      )
                  (     0          1          0      )
                  (     0          0          1      )

 cart.    s( 1) = (  1.0000000 -0.0000000  0.0000000 )
                  (  0.0000000  1.0000000  0.0000000 )
                  (  0.0000000  0.0000000  1.0000000 )

      isym =  2     180 deg rotation - cart. axis [1,0,0]

[...]

      isym =  3     120 deg rotation - cryst. axis [0,0,1]

[...]

      isym =  6     180 deg rotation - cryst. axis [1,1,0]

[...]

      isym =  7     inv. 180 deg rotation - cart. axis [0,0,1]

[...]

      isym =  8     inv. 180 deg rotation - cart. axis [0,1,0]

[...]

      isym =  9     inv.  60 deg rotation - cryst. axis [0,0,1]

 cryst.   s( 9) = (    -1         -1          0      )
                  (     1          0          0      )
                  (     0          0         -1      )

 cart.    s( 9) = ( -0.5000000  0.8660254  0.0000000 )
                  ( -0.8660254 -0.5000000  0.0000000 )
                  (  0.0000000  0.0000000 -1.0000000 )

[...]

 cryst.   s(10) = (     0          1          0      )
                  (    -1         -1          0      )
                  (     0          0         -1      )

 cart.    s(10) = ( -0.5000000 -0.8660254  0.0000000 )
                  (  0.8660254 -0.5000000  0.0000000 )
                  (  0.0000000  0.0000000 -1.0000000 )

[...]

      isym = 12     inv. 180 deg rotation - cryst. axis [2,1,0]

 cryst.   s(12) = (    -1         -1          0      )
                  (     0          1          0      )
                  (     0          0          1      )

 cart.    s(12) = ( -0.5000000 -0.8660254  0.0000000 )
                  ( -0.8660254  0.5000000  0.0000000 )
                  (  0.0000000  0.0000000  1.0000000 )

   Cartesian axes

     site n.     atom                  positions (alat units)
         1           Mg  tau(   1) = (   0.0000000   0.0000000   0.4742519  )
         2           Au  tau(   2) = (  -0.0000005   0.5773506   0.4742519  )
         3           Au  tau(   3) = (   0.6644030   0.5812711   0.0000000  )
         4           Au  tau(   4) = (   0.6711940   0.0000000   0.0000000  )
         5           Au  tau(   5) = (   0.1644030   0.2847544   0.0000000  )
         6           Au  tau(   6) = (   0.5000005   0.2886749   0.4742519  )

   Crystallographic axes

     site n.     atom                  positions (cryst. coord.)
         1           Mg  tau(   1) = (  0.0000000  0.0000000  0.5000000  )
         2           Au  tau(   2) = (  0.3333330  0.6666670  0.5000000  )
         3           Au  tau(   3) = (  1.0000000  0.6711940  0.0000000  )
         4           Au  tau(   4) = (  0.6711940  0.0000000  0.0000000  )
         5           Au  tau(   5) = (  0.3288060  0.3288060  0.0000000  )
         6           Au  tau(   6) = (  0.6666670  0.3333330  0.5000000  )

     number of k points=     1  Methfessel-Paxton smearing, width (Ry)=  0.0010
                       cart. coord. in units 2pi/alat
        k(    1) = (   0.0000000   0.0000000   0.0000000), wk =   2.0000000

                       cryst. coord.
        k(    1) = (   0.0000000   0.0000000   0.0000000), wk =   2.0000000

     Initial potential from superposition of free atoms

     starting charge      96.9986, renormalised to      97.0000
     Starting wfcs are   54 randomized atomic wfcs +    5 random wfcs
     Checking if some PAW data can be deallocated...

     Self-consistent Calculation

     iteration #  1     ecut=    30.00 Ry     beta= 0.70
     Davidson diagonalization with overlap

     ethr =  1.00E-02,  avg # of iterations =  3.0

     Threshold (ethr) on eigenvalues was too large:
     Diagonalizing with lowered threshold

     Davidson diagonalization with overlap

[...]

     total energy              =   -1405.86577962 Ry
     estimated scf accuracy    <       0.10259314 Ry

[...]

     total energy              =   -1405.88027109 Ry
     estimated scf accuracy    <       0.00000186 Ry

     iteration # 14     ecut=    30.00 Ry     beta= 0.70
     Davidson diagonalization with overlap

     ethr =  1.91E-09,  avg # of iterations =  5.0

     End of self-consistent calculation

          k = 0.0000 0.0000 0.0000 (  1031 PWs)   bands (ev):

   -89.6153 -89.6108 -89.5532 -89.5468 -89.5467 -40.7976 -40.7976 -40.7415
   -40.7415 -40.7342 -40.7068 -40.7067 -40.6571 -40.5853 -40.5852 -40.4692
   -40.3950 -40.3757 -40.3755 -40.3309   7.6633  10.1568  11.2385  11.2385
    11.3810  11.3810  11.3882  11.8341  11.8704  11.8704  12.2802  12.3769
    12.3770  12.4049  12.7861  12.7862  12.8144  12.8144  12.9612  13.8741
    13.8742  14.0169  14.0170  14.3756  14.4724  14.4725  15.9269  18.0735
    18.1311  18.1312  18.6712  19.6892  19.6892  20.1480  24.6211  24.6211
    25.0715  25.0715  25.5316

     occupation numbers
     1.0000   1.0000   1.0000   1.0000   1.0000   1.0000   1.0000   1.0000
     1.0000   1.0000   1.0000   1.0000   1.0000   1.0000   1.0000   1.0000
     1.0000   1.0000   1.0000   1.0000   1.0000   1.0000   1.0000   1.0000
     1.0000   1.0000   1.0000   1.0000   1.0000   1.0000   1.0000   1.0000
     1.0000   1.0000   1.0000   1.0000   1.0000   1.0000   1.0000   1.0000
     1.0000   1.0000   1.0000   1.0000   1.0000   1.0000   1.0000   1.0000
     0.2514   0.2486  -0.0000  -0.0000  -0.0000  -0.0000  -0.0000  -0.0000
    -0.0000  -0.0000  -0.0000

     the Fermi energy is    18.1269 ev

!    total energy              =   -1405.88027088 Ry
     estimated scf accuracy    <       0.00000045 Ry
     smearing contrib. (-TS)   =      -0.00041261 Ry
     internal energy E=F+TS    =   -1405.87985828 Ry

     The total energy is F=E-TS. E is the sum of the following terms:
     one-electron contribution =    -600.45142056 Ry
     hartree contribution      =     332.73271328 Ry
     xc contribution           =    -128.20429041 Ry
     ewald contribution        =    -978.68195828 Ry
     one-center paw contrib.   =     -31.27490231 Ry
      -> PAW hartree energy AE =       0.63311087 Ry
      -> PAW hartree energy PS =      -0.63176581 Ry
      -> PAW xc energy AE      =     -32.50546308 Ry
      -> PAW xc energy PS      =       1.22921571 Ry
      -> total E_H with PAW    =     332.73405834 Ry
      -> total E_XC with PAW   =    -159.48053778 Ry

     convergence has been achieved in  14 iterations

     Forces acting on atoms (cartesian axes, Ry/au):

     atom    1 type  1   force =     0.00000000    0.00000000    0.00000000
     atom    2 type  2   force =     0.00000000    0.00000000   -0.00000000
     atom    3 type  2   force =    -0.04303376    0.07453666    0.00000000
     atom    4 type  2   force =     0.08606752   -0.00000000    0.00000000
     atom    5 type  2   force =    -0.04303376   -0.07453665    0.00000000
     atom    6 type  2   force =     0.00000000    0.00000000   -0.00000000
     The non-local contrib.  to forces
     atom    1 type  1   force =    -0.00000000   -0.00000000    0.00000000
     atom    2 type  2   force =     0.00000000    0.00000000    0.00000000
     atom    3 type  2   force =     0.10499719   -0.18186046   -0.00000000
     atom    4 type  2   force =    -0.20999437    0.00000001    0.00000000
     atom    5 type  2   force =     0.10499719    0.18186045    0.00000000
     atom    6 type  2   force =     0.00000000    0.00000000   -0.00000000
     The ionic contribution  to forces
     atom    1 type  1   force =     0.00000002    0.00000003    0.00000000
     atom    2 type  2   force =     0.00010396   -0.00005965    0.00000000
     atom    3 type  2   force =    -4.12859527    7.15086444   -0.00000000
     atom    4 type  2   force =     8.25712790   -0.00003646   -0.00000000
     atom    5 type  2   force =    -4.12853297   -7.15082856   -0.00000000
     atom    6 type  2   force =    -0.00010364    0.00006021    0.00000000
     The local contribution  to forces
     atom    1 type  1   force =     0.00003859    0.00017920   -0.00000021
     atom    2 type  2   force =     0.00100796   -0.00125316    0.00000483
     atom    3 type  2   force =     3.98070739   -6.89381414   -0.00000010
     atom    4 type  2   force =    -7.96088681    0.00059657   -0.00000317
     atom    5 type  2   force =     3.98086783    6.89549086   -0.00000394
     atom    6 type  2   force =    -0.00140012   -0.00021620   -0.00000318
     The core correction contribution to forces
     atom    1 type  1   force =     0.00000185    0.00000872   -0.00000003
     atom    2 type  2   force =     0.00000000    0.00000000    0.00000000
     atom    3 type  2   force =     0.00000000    0.00000000    0.00000000
     atom    4 type  2   force =     0.00000000    0.00000000    0.00000000
     atom    5 type  2   force =     0.00000000    0.00000000    0.00000000
     atom    6 type  2   force =     0.00000000    0.00000000    0.00000000
     The Hubbard contrib.    to forces
     atom    1 type  1   force =     0.00000000    0.00000000    0.00000000
     atom    2 type  2   force =     0.00000000    0.00000000    0.00000000
     atom    3 type  2   force =     0.00000000    0.00000000    0.00000000
     atom    4 type  2   force =     0.00000000    0.00000000    0.00000000
     atom    5 type  2   force =     0.00000000    0.00000000    0.00000000
     atom    6 type  2   force =     0.00000000    0.00000000    0.00000000
     The SCF correction term to forces
     atom    1 type  1   force =    -0.00001572   -0.00007000   -0.00000001
     atom    2 type  2   force =    -0.00079657    0.00098900   -0.00000572
     atom    3 type  2   force =    -0.00012343   -0.00040833    0.00000145
     atom    4 type  2   force =    -0.00009366   -0.00035906    0.00000362
     atom    5 type  2   force =    -0.00025406   -0.00079164    0.00000486
     atom    6 type  2   force =     0.00110119    0.00009119    0.00000420

     Total force =     0.149073     Total SCF correction =     0.001962

     Computing stress (Cartesian axis) and pressure

          total   stress  (Ry/bohr**3)                   (kbar)     P=     -673.98
  -0.00553541   0.00000000  -0.00000000         -814.29        0.00       -0.00
   0.00000000  -0.00553541   0.00000000            0.00     -814.29        0.00
  -0.00000000   0.00000000  -0.00267396           -0.00        0.00     -393.35

     kinetic stress (kbar)  55583.90     -0.00      0.00
                               -0.00  55583.90      0.00
                                0.00      0.00  57281.06

     local   stress (kbar) -12129.00      1.20      0.00
                                1.20 -12128.49      0.00
                                0.00      0.00 -10867.45

     nonloc. stress (kbar)   6350.40     -0.00      0.00
                               -0.00   6350.40      0.00
                                0.00      0.00   6339.30

     hartree stress (kbar)  22561.17     -0.67     -0.00
                               -0.67  22560.83     -0.00
                               -0.00     -0.00  21881.79

     exc-cor stress (kbar)  -7961.30     -0.01     -0.00
                               -0.01  -7961.31     -0.00
                               -0.00     -0.00  -7948.57

     corecor stress (kbar)   -143.60     -0.00      0.00
                               -0.00   -143.60      0.00
                                0.00      0.00   -150.02

     ewald   stress (kbar) -65075.99      0.08     -0.00
                                0.08 -65075.90     -0.00
                               -0.00     -0.00 -66929.47

     hubbard stress (kbar)      0.00      0.00      0.00
                                0.00      0.00      0.00
                                0.00      0.00      0.00

     DFT-D   stress (kbar)      0.00      0.00      0.00
                                0.00      0.00      0.00
                                0.00      0.00      0.00

     XDM     stress (kbar)      0.00      0.00      0.00
                                0.00      0.00      0.00
                                0.00      0.00      0.00

     dft-nl  stress (kbar)      0.00      0.00      0.00
                                0.00      0.00      0.00
                                0.00      0.00      0.00

     TS-vdW  stress (kbar)      0.00      0.00      0.00
                                0.00      0.00      0.00
                                0.00      0.00      0.00

[...]

                                0.00      0.00      0.00

     Writing all to output data dir new_calculations/myprefix.save/

     General routines

     Parallel routines

     PAW routines

   This run was terminated on:   3:13: 3  20May2023

   JOB DONE.