     Program PWSCF v.7.0 starts on 20May2023 at 19: 1:33

     Reading input from espresso_6500.pwi
Warning: card &CELL ignored
Warning: card / ignored

     Current dimensions of program PWSCF are:
     Max number of different atomic species (ntypx) = 10
     Max number of k-points (npk) =  40000
     Max angular momentum in pseudopotentials (lmaxx) =  4
     file O.pbe-n-kjpaw_psl.0.1.UPF: wavefunction(s)  2P renormalized

     gamma-point specific algorithms are used
     Message from routine setup:
     using ibrav=0 with symmetry is DISCOURAGED, use correct ibrav instead

     Subspace diagonalization in iterative solution of the eigenvalue problem:
     a serial algorithm will be used

     Using Slab Decomposition

     bravais-lattice index     =            0
     lattice parameter (alat)  =      10.7570  a.u.
     unit-cell volume          =    1657.8614 (a.u.)^3
     number of atoms/cell      =           20
     number of atomic types    =            5
     number of electrons       =       174.00
     number of Kohn-Sham states=          104
     kinetic-energy cutoff     =      30.0000  Ry
     charge density cutoff     =     240.0000  Ry
     scf convergence threshold =      1.0E-06
     mixing beta               =       0.7000
     number of iterations used =            8  plain     mixing
     Exchange-correlation= SLA  PW   PBX  PBC
                           (   1   4   3   4   0   0   0)

     celldm(1)=  10.757017  celldm(2)=   0.000000  celldm(3)=   0.000000
     celldm(4)=   0.000000  celldm(5)=   0.000000  celldm(6)=   0.000000

     crystal axes: (cart. coord. in units of alat)
               a(1) = (   1.000000   0.000000   0.000000 )
               a(2) = (   0.000000   0.991369   0.000000 )
               a(3) = (   0.000000   0.014376   1.343499 )

     reciprocal axes: (cart. coord. in units 2 pi/alat)
               b(1) = (  1.000000  0.000000  0.000000 )
               b(2) = (  0.000000  1.008706 -0.010794 )
               b(3) = (  0.000000  0.000000  0.744325 )

     PseudoPot. # 1 for Sr read from file:
     /home/pragov/projects/rrg-bengioy-ad/pragov/crystal_structure_design/SSSP/Sr_pbe_v1.uspp.F.UPF
     MD5 check sum: 6b418c05fbe9db5448babca5e47b7a5b
     Pseudo is Ultrasoft + core correction, Zval = 10.0
     Generated by new atomic code, or converted to UPF format
     Using radial grid of  883 points,  6 beta functions with:
                l(1) =   0
                l(2) =   0
                l(3) =   1
                l(4) =   1
                l(5) =   2
                l(6) =   2
     Q(r) pseudized with  6 coefficients,  rinner =    1.400   1.400   1.400
                                                       1.400   1.400

     PseudoPot. # 2 for Ca read from file:
     /home/pragov/projects/rrg-bengioy-ad/pragov/crystal_structure_design/SSSP/Ca_pbe_v1.uspp.F.UPF
     MD5 check sum: 403a4c14b9e4d4dfdc3024c9a3812218
     Pseudo is Ultrasoft + core correction, Zval = 10.0
     Generated by new atomic code, or converted to UPF format
     Using radial grid of  845 points,  6 beta functions with:
                l(1) =   0
                l(2) =   0
                l(3) =   1
                l(4) =   1
                l(5) =   2
                l(6) =   2
     Q(r) pseudized with  8 coefficients,  rinner =    1.500   1.500   1.500
                                                       1.500   1.500

     PseudoPot. # 3 for Mn read from file:
     /home/pragov/projects/rrg-bengioy-ad/pragov/crystal_structure_design/SSSP/mn_pbe_v1.5.uspp.F.UPF
     MD5 check sum: 82ef2b46521d7a7d9e736dc3972e4928
     Pseudo is Ultrasoft + core correction, Zval = 15.0
     Generated by new atomic code, or converted to UPF format
     Using radial grid of  859 points,  6 beta functions with:
                l(1) =   0
                l(2) =   0
                l(3) =   1
                l(4) =   1
                l(5) =   2
                l(6) =   2
     Q(r) pseudized with  8 coefficients,  rinner =    0.950   0.950   0.950
                                                       0.950   0.950

     PseudoPot. # 4 for Ru read from file:
     /home/pragov/projects/rrg-bengioy-ad/pragov/crystal_structure_design/SSSP/Ru_ONCV_PBE-1.0.oncvpsp.upf
     MD5 check sum: be037bb81c227cfb9b1461a9f099f4bd
     Pseudo is Norm-conserving, Zval = 16.0
     Generated using ONCVPSP code by D. R. Hamann
     Using radial grid of 1458 points,  6 beta functions with:
                l(1) =   0
                l(2) =   0
                l(3) =   1
                l(4) =   1
                l(5) =   2
                l(6) =   2

     PseudoPot. # 5 for O  read from file:
     /home/pragov/projects/rrg-bengioy-ad/pragov/crystal_structure_design/SSSP/O.pbe-n-kjpaw_psl.0.1.UPF
     MD5 check sum: 0234752ac141de4415c5fc33072bef88
     Pseudo is Projector augmented-wave + core cor, Zval =  6.0
     Generated using "atomic" code by A. Dal Corso  v.5.0.99 svn rev. 10869
     Shape of augmentation charge: BESSEL
     Using radial grid of 1095 points,  4 beta functions with:
                l(1) =   0
                l(2) =   0
                l(3) =   1
                l(4) =   1
     Q(r) pseudized with 0 coefficients

     atomic species   valence    mass     pseudopotential
        Sr            10.00    87.62000     Sr( 1.00)
        Ca            10.00    40.07800     Ca( 1.00)
        Mn            15.00    54.93804     Mn( 1.00)
        Ru            16.00   101.07000     Ru( 1.00)
        O              6.00    15.99900     O ( 1.00)

      2 Sym. Ops. (no inversion) found ( 1 have fractional translation)

                                    s                        frac. trans.

      isym =  1     identity

 cryst.   s( 1) = (     1          0          0      )
                  (     0          1          0      )
                  (     0          0          1      )

 cart.    s( 1) = (  1.0000000  0.0000000  0.0000000 )
                  (  0.0000000  1.0000000 -0.0000000 )
                  (  0.0000000  0.0000000  1.0000000 )

      isym =  2     180 deg rotation - cart. axis [1,0,0]

 cryst.   s( 2) = (     1          0          0      )    f =(  0.5000000 )
                  (     0         -1          0      )       ( -0.0000000 )
                  (     0          0         -1      )       (  0.0000000 )

 cart.    s( 2) = (  1.0000000  0.0000000  0.0000000 )    f =(  0.5000000 )
                  (  0.0000000 -1.0000000  0.0000000 )       ( -0.0000000 )
                  (  0.0000000  0.0000000 -1.0000000 )       (  0.0000000 )

   Cartesian axes

     site n.     atom                  positions (alat units)
         1           Sr  tau(   1) = (   0.9665860   0.2590902   0.6719321  )
         2           Sr  tau(   2) = (   0.4665860   0.7466556   0.6715666  )
         3           Ca  tau(   3) = (   0.0448440   0.2572161   1.3426429  )
         4           Ca  tau(   4) = (   0.5448440   0.7485297   0.0008558  )
         5           Mn  tau(   5) = (   0.0015740   0.7527824   1.0124203  )
         6           Mn  tau(   6) = (   0.5015740   0.2529634   0.3310784  )
         7           Ru  tau(   7) = (   0.0009580   0.7458900   0.3283914  )
         8           Ru  tau(   8) = (   0.5009580   0.2598557   1.0151073  )
         9           O   tau(   9) = (   0.4710780   0.3350890   0.0071582  )
        10           O   tau(  10) = (   0.9710780   0.6706567   1.3363405  )
        11           O   tau(  11) = (   0.5118910   0.1874889   0.6680749  )
        12           O   tau(  12) = (   0.0118910   0.8182569   0.6754238  )
        13           O   tau(  13) = (   0.7804480   0.0584387   1.0701840  )
        14           O   tau(  14) = (   0.2804480   0.9473071   0.2733147  )
        15           O   tau(  15) = (   0.2050220   0.4727099   0.3752311  )
        16           O   tau(  16) = (   0.7050220   0.5330359   0.9682676  )
        17           O   tau(  17) = (   0.2194390   0.4586770   0.9669496  )
        18           O   tau(  18) = (   0.7194390   0.5470688   0.3765491  )
        19           O   tau(  19) = (   0.7981620   0.0336646   0.2741087  )
        20           O   tau(  20) = (   0.2981620   0.9720811   1.0693900  )

   Crystallographic axes

     site n.     atom                  positions (cryst. coord.)
         1           Sr  tau(   1) = (  0.9665860  0.2540930  0.5001360  )
         2           Sr  tau(   2) = (  0.4665860  0.7459070  0.4998640  )
         3           Ca  tau(   3) = (  0.0448440  0.2449630  0.9993630  )
         4           Ca  tau(   4) = (  0.5448440  0.7550370  0.0006370  )
         5           Mn  tau(   5) = (  0.0015740  0.7484080  0.7535700  )
         6           Mn  tau(   6) = (  0.5015740  0.2515920  0.2464300  )
         7           Ru  tau(   7) = (  0.0009580  0.7488390  0.2444300  )
         8           Ru  tau(   8) = (  0.5009580  0.2511610  0.7555700  )
         9           O   tau(   9) = (  0.4710780  0.3379290  0.0053280  )
        10           O   tau(  10) = (  0.9710780  0.6620710  0.9946720  )
        11           O   tau(  11) = (  0.5118910  0.1819100  0.4972650  )
        12           O   tau(  12) = (  0.0118910  0.8180900  0.5027350  )
        13           O   tau(  13) = (  0.7804480  0.0473960  0.7965650  )
        14           O   tau(  14) = (  0.2804480  0.9526040  0.2034350  )
        15           O   tau(  15) = (  0.2050220  0.4727750  0.2792940  )
        16           O   tau(  16) = (  0.7050220  0.5272250  0.7207060  )
        17           O   tau(  17) = (  0.2194390  0.4522330  0.7197250  )
        18           O   tau(  18) = (  0.7194390  0.5477670  0.2802750  )
        19           O   tau(  19) = (  0.7981620  0.0309990  0.2040260  )
        20           O   tau(  20) = (  0.2981620  0.9690010  0.7959740  )

     number of k points=     1  Methfessel-Paxton smearing, width (Ry)=  0.0010
                       cart. coord. in units 2pi/alat
        k(    1) = (   0.0000000   0.0000000   0.0000000), wk =   2.0000000

                       cryst. coord.
        k(    1) = (   0.0000000   0.0000000   0.0000000), wk =   2.0000000

     Check: negative core charge=   -0.000019

     Initial potential from superposition of free atoms

     starting charge     172.9205, renormalised to     174.0000

     negative rho (up, down):  1.268E-01 0.000E+00
     Starting wfcs are  140 randomized atomic wfcs
     Checking if some PAW data can be deallocated...

     Self-consistent Calculation

     iteration #  1     ecut=    30.00 Ry     beta= 0.70
     Davidson diagonalization with overlap

     ethr =  1.00E-02,  avg # of iterations =  2.0

     negative rho (up, down):  1.288E-01 0.000E+00

     total energy              =   -1583.92832072 Ry
     estimated scf accuracy    <       8.71279291 Ry

[...]

     total energy              =   -1589.73462503 Ry
     estimated scf accuracy    <       0.00001008 Ry

     iteration # 43     ecut=    30.00 Ry     beta= 0.70
     Davidson diagonalization with overlap

     ethr =  1.22E-09,  avg # of iterations =  1.0

[...]

     End of self-consistent calculation

          k = 0.0000 0.0000 0.0000 (  2307 PWs)   bands (ev):

   -69.4420 -69.4413 -63.6697 -63.6697 -38.4156 -38.4091 -38.1151 -38.1093
   -37.8638 -37.8613 -33.7078 -33.7073 -33.6299 -33.6294 -33.4744 -33.4740
   -29.0458 -29.0361 -22.9383 -22.9046 -10.2881 -10.2847 -10.2621 -10.1166
   -10.0763 -10.0724  -8.2686  -7.8605  -7.7787  -7.6025  -7.4274  -7.3059
    -7.2422  -7.1555  -6.9834  -6.9778  -6.9243  -6.9182  -5.0379  -4.9711
    -4.8825  -4.7746  -4.6272  -4.6127   3.6710   4.0393   4.5897   4.6322
     4.6516   4.7538   4.8090   5.0771   5.0945   5.3569   5.7476   5.7607
     6.1051   6.3109   6.3169   6.3643   6.5549   6.9226   6.9616   7.0232
     7.0600   7.1250   7.5472   7.7572   8.1133   8.1535   8.3237   8.3291
     8.3824   8.5631   8.5632   8.7350   8.7455   8.7724   8.8323   8.8598
     9.2230   9.2346   9.3532   9.4436  10.2532  10.4679  10.4708  10.4779
    10.6927  10.7475  10.9773  11.0613  11.3757  11.4258  11.6547  12.0510
    13.2436  14.9053  15.0557  15.0917  15.1761  15.6401  15.7458  16.0497

     occupation numbers
     1.0000   1.0000   1.0000   1.0000   1.0000   1.0000   1.0000   1.0000
     1.0000   1.0000   1.0000   1.0000   1.0000   1.0000   1.0000   1.0000
     1.0000   1.0000   1.0000   1.0000   1.0000   1.0000   1.0000   1.0000
     1.0000   1.0000   1.0000   1.0000   1.0000   1.0000   1.0000   1.0000
     1.0000   1.0000   1.0000   1.0000   1.0000   1.0000   1.0000   1.0000
     1.0000   1.0000   1.0000   1.0000   1.0000   1.0000   1.0000   1.0000
     1.0000   1.0000   1.0000   1.0000   1.0000   1.0000   1.0000   1.0000
     1.0000   1.0000   1.0000   1.0000   1.0000   1.0000   1.0000   1.0000
     1.0000   1.0000   1.0000   1.0000   1.0000   1.0000   1.0000   1.0000
     1.0000   1.0000   1.0000   1.0000   1.0000   1.0000   1.0000   1.0000
     1.0000   1.0000   1.0000   1.0000   1.0000   0.8941   0.7632   0.3427
    -0.0000  -0.0000  -0.0000  -0.0000  -0.0000  -0.0000  -0.0000  -0.0000
    -0.0000  -0.0000  -0.0000  -0.0000  -0.0000  -0.0000  -0.0000  -0.0000

     the Fermi energy is    10.4753 ev

!    total energy              =   -1589.73462511 Ry
     estimated scf accuracy    <       0.00000023 Ry
     smearing contrib. (-TS)   =      -0.00053515 Ry
     internal energy E=F+TS    =   -1589.73408996 Ry

     The total energy is F=E-TS. E is the sum of the following terms:
     one-electron contribution =    -581.79729019 Ry
     hartree contribution      =     380.42562104 Ry
     xc contribution           =    -241.52288132 Ry
     ewald contribution        =   -1032.55914350 Ry
     one-center paw contrib.   =    -114.28039600 Ry
      -> PAW hartree energy AE =     347.96644479 Ry
      -> PAW hartree energy PS =    -346.73428991 Ry
      -> PAW xc energy AE      =    -204.85677159 Ry
      -> PAW xc energy PS      =      89.34422071 Ry
      -> total E_H with PAW    =     381.65777592 Ry
      -> total E_XC with PAW   =    -357.03543220 Ry

     convergence has been achieved in  43 iterations

     negative rho (up, down):  1.329E-01 0.000E+00

     Forces acting on atoms (cartesian axes, Ry/au):

     atom    1 type  1   force =    -0.00954756    0.01379335    0.00141082
     atom    2 type  1   force =    -0.00954756   -0.01379335   -0.00141082
     atom    3 type  2   force =     0.00765147   -0.01253975   -0.00197686
     atom    4 type  2   force =     0.00765147    0.01253975    0.00197686
     atom    5 type  3   force =    -0.01104622   -0.01637020    0.00641161
     atom    6 type  3   force =    -0.01104622    0.01637020   -0.00641161
     atom    7 type  4   force =    -0.01464267   -0.00668695   -0.00153969
     atom    8 type  4   force =    -0.01464267    0.00668695    0.00153969
     atom    9 type  5   force =     0.01625844   -0.00313956    0.01664736
     atom   10 type  5   force =     0.01625844    0.00313956   -0.01664736
     atom   11 type  5   force =     0.01631681   -0.01739632   -0.02028152
     atom   12 type  5   force =     0.01631681    0.01739632    0.02028152
     atom   13 type  5   force =     0.03430443   -0.01694566    0.01829991
     atom   14 type  5   force =     0.03430443    0.01694566   -0.01829991
     atom   15 type  5   force =     0.03336641   -0.03950643    0.03874754
     atom   16 type  5   force =     0.03336641    0.03950643   -0.03874754
     atom   17 type  5   force =    -0.03512683    0.02441423   -0.03115034
     atom   18 type  5   force =    -0.03512683   -0.02441423    0.03115034
     atom   19 type  5   force =    -0.03753428    0.03745454   -0.02007206
     atom   20 type  5   force =    -0.03753428   -0.03745454    0.02007206
     The non-local contrib.  to forces
     atom    1 type  1   force =     0.00089894   -0.00300780   -0.00097638
     atom    2 type  1   force =     0.00089894    0.00300780    0.00097638
     atom    3 type  2   force =     0.00039047   -0.00422808   -0.00026978
     atom    4 type  2   force =     0.00039047    0.00422808    0.00026978
     atom    5 type  3   force =     0.02556449    0.03370619   -0.01339269
     atom    6 type  3   force =     0.02556449   -0.03370619    0.01339269
     atom    7 type  4   force =     0.01790047    0.01520431    0.01057686
     atom    8 type  4   force =     0.01790047   -0.01520431   -0.01057686
     atom    9 type  5   force =     0.14931834   -0.52464085   -0.12910347
     atom   10 type  5   force =     0.14931834    0.52464085    0.12910347
     atom   11 type  5   force =    -0.04882597    0.39228304    0.11353316
     atom   12 type  5   force =    -0.04882597   -0.39228304   -0.11353316
     atom   13 type  5   force =    -0.34177949   -0.03088955   -0.25471932
     atom   14 type  5   force =    -0.34177949    0.03088955    0.25471932
     atom   15 type  5   force =    -0.01752059    0.33546694   -0.23272170
     atom   16 type  5   force =    -0.01752059   -0.33546694    0.23272170
     atom   17 type  5   force =     0.33817191    0.06554151    0.21877240
     atom   18 type  5   force =     0.33817191   -0.06554151   -0.21877240
     atom   19 type  5   force =    -0.03233099   -0.31316143    0.27489694
     atom   20 type  5   force =    -0.03233099    0.31316143   -0.27489694
     The ionic contribution  to forces
     atom    1 type  1   force =     1.45502377   -0.64597172   -0.09607054
     atom    2 type  1   force =     1.45502377    0.64597172    0.09607054
     atom    3 type  2   force =    -2.41377296   -0.27674691    0.10933727
     atom    4 type  2   force =    -2.41377296    0.27674691   -0.10933727
     atom    5 type  3   force =     0.62261171    1.39304369   -3.43600760
     atom    6 type  3   force =     0.62261171   -1.39304368    3.43600760
     atom    7 type  4   force =     0.50863623    1.21018760    3.34836257
     atom    8 type  4   force =     0.50863623   -1.21018760   -3.34836257
     atom    9 type  5   force =    -0.17228588    3.19594983    0.04478390
     atom   10 type  5   force =    -0.17228588   -3.19594983   -0.04478390
     atom   11 type  5   force =    -0.26131175   -2.75301704   -0.19418559
     atom   12 type  5   force =    -0.26131175    2.75301704    0.19418559
     atom   13 type  5   force =     3.00174109   -0.47966806    0.42442909
     atom   14 type  5   force =     3.00174109    0.47966806   -0.42442909
     atom   15 type  5   force =     0.94351144   -3.27273549    2.64837427
     atom   16 type  5   force =     0.94351144    3.27273549   -2.64837427
     atom   17 type  5   force =    -2.87555884    0.46391776   -2.77502862
     atom   18 type  5   force =    -2.87555884   -0.46391776    2.77502862
     atom   19 type  5   force =    -0.80859479    3.33893121   -0.31367290
     atom   20 type  5   force =    -0.80859479   -3.33893121    0.31367290
     The local contribution  to forces
     atom    1 type  1   force =    -1.46526216    0.66255687    0.09839407
     atom    2 type  1   force =    -1.46527905   -0.66257389   -0.09839314
     atom    3 type  2   force =     2.42119251    0.26826232   -0.11114287
     atom    4 type  2   force =     2.42109335   -0.26829161    0.11109660
     atom    5 type  3   force =    -0.65733147   -1.44204815    3.45620308
     atom    6 type  3   force =    -0.65739552    1.44207529   -3.45647749
     atom    7 type  4   force =    -0.54117493   -1.23197561   -3.36059652
     atom    8 type  4   force =    -0.54123832    1.23202719    3.36086043
     atom    9 type  5   force =     0.04121786   -2.68085795    0.09954404
     atom   10 type  5   force =     0.04125774    2.68074290   -0.09949503
     atom   11 type  5   force =     0.32558124    2.34833753    0.06154526
     atom   12 type  5   force =     0.32556652   -2.34822769   -0.06163107
     atom   13 type  5   force =    -2.62930579    0.49248085   -0.15463207
     atom   14 type  5   force =    -2.62933153   -0.49251887    0.15463281
     atom   15 type  5   force =    -0.89191207    2.90117438   -2.38016414
     atom   16 type  5   force =    -0.89186413   -2.90115482    2.38019482
     atom   17 type  5   force =     2.50594015   -0.50344950    2.52811274
     atom   18 type  5   force =     2.50596377    0.50350600   -2.52810722
     atom   19 type  5   force =     0.80213623   -2.99147407    0.02229600
     atom   20 type  5   force =     0.80209094    2.99146589   -0.02228123
     The core correction contribution to forces
     atom    1 type  1   force =    -0.00019461    0.00009302    0.00005754
     atom    2 type  1   force =    -0.00019423   -0.00009271   -0.00005823
     atom    3 type  2   force =    -0.00010280    0.00024393    0.00008171
     atom    4 type  2   force =    -0.00010337   -0.00024411   -0.00008299
     atom    5 type  3   force =    -0.00184226   -0.00100770   -0.00030129
     atom    6 type  3   force =    -0.00184276    0.00100721    0.00029921
     atom    7 type  4   force =     0.00000000    0.00000000    0.00000000
     atom    8 type  4   force =     0.00000000    0.00000000    0.00000000
     atom    9 type  5   force =    -0.00200649    0.00642571    0.00145866
     atom   10 type  5   force =    -0.00200616   -0.00642700   -0.00145870
     atom   11 type  5   force =     0.00087101   -0.00504093   -0.00123654
     atom   12 type  5   force =     0.00087064    0.00504194    0.00123626
     atom   13 type  5   force =     0.00364764    0.00114729    0.00320701
     atom   14 type  5   force =     0.00364764   -0.00114755   -0.00320699
     atom   15 type  5   force =    -0.00070382   -0.00345513    0.00312448
     atom   16 type  5   force =    -0.00070329    0.00345481   -0.00312394
     atom   17 type  5   force =    -0.00367623   -0.00160348   -0.00287091
     atom   18 type  5   force =    -0.00367628    0.00160381    0.00287090
     atom   19 type  5   force =     0.00124583    0.00320778   -0.00354690
     atom   20 type  5   force =     0.00124537   -0.00320750    0.00354666
     The Hubbard contrib.    to forces
     atom    1 type  1   force =     0.00000000    0.00000000    0.00000000
     atom    2 type  1   force =     0.00000000    0.00000000    0.00000000
     atom    3 type  2   force =     0.00000000    0.00000000    0.00000000
     atom    4 type  2   force =     0.00000000    0.00000000    0.00000000
     atom    5 type  3   force =     0.00000000    0.00000000    0.00000000
     atom    6 type  3   force =     0.00000000    0.00000000    0.00000000
     atom    7 type  4   force =     0.00000000    0.00000000    0.00000000
     atom    8 type  4   force =     0.00000000    0.00000000    0.00000000
     atom    9 type  5   force =     0.00000000    0.00000000    0.00000000
     atom   10 type  5   force =     0.00000000    0.00000000    0.00000000
     atom   11 type  5   force =     0.00000000    0.00000000    0.00000000
     atom   12 type  5   force =     0.00000000    0.00000000    0.00000000
     atom   13 type  5   force =     0.00000000    0.00000000    0.00000000
     atom   14 type  5   force =     0.00000000    0.00000000    0.00000000
     atom   15 type  5   force =     0.00000000    0.00000000    0.00000000
     atom   16 type  5   force =     0.00000000    0.00000000    0.00000000
     atom   17 type  5   force =     0.00000000    0.00000000    0.00000000
     atom   18 type  5   force =     0.00000000    0.00000000    0.00000000
     atom   19 type  5   force =     0.00000000    0.00000000    0.00000000
     atom   20 type  5   force =     0.00000000    0.00000000    0.00000000
     The SCF correction term to forces
     atom    1 type  1   force =    -0.00001550    0.00012633   -0.00000783
     atom    2 type  1   force =     0.00000718   -0.00010291   -0.00002034
     atom    3 type  2   force =    -0.00005322   -0.00007290    0.00001780
     atom    4 type  2   force =     0.00004362    0.00009858    0.00003173
     atom    5 type  3   force =    -0.00004669   -0.00006946   -0.00008983
     atom    6 type  3   force =     0.00001604    0.00003234    0.00036643
     atom    7 type  4   force =    -0.00000573   -0.00010716    0.00011034
     atom    8 type  4   force =     0.00006240    0.00004776   -0.00038837
     atom    9 type  5   force =     0.00000461   -0.00005725   -0.00003553
     atom   10 type  5   force =    -0.00001343    0.00009168   -0.00001298
     atom   11 type  5   force =     0.00001499    0.00008234    0.00005307
     atom   12 type  5   force =     0.00000685   -0.00011067    0.00001476
     atom   13 type  5   force =    -0.00000198   -0.00002579    0.00001738
     atom   14 type  5   force =     0.00003186    0.00004487   -0.00001377
     atom   15 type  5   force =    -0.00002532    0.00003551    0.00015113
     atom   16 type  5   force =    -0.00003805   -0.00006945   -0.00014934
     atom   17 type  5   force =     0.00000157    0.00001920   -0.00013831
     atom   18 type  5   force =    -0.00003060   -0.00005348    0.00012808
     atom   19 type  5   force =     0.00002471   -0.00004427   -0.00005201
     atom   20 type  5   force =     0.00004211    0.00006153    0.00002387

     Total force =     0.171560     Total SCF correction =     0.000724

     Computing stress (Cartesian axis) and pressure

     negative rho (up, down):  1.329E-01 0.000E+00
          total   stress  (Ry/bohr**3)                   (kbar)     P=     -467.25
  -0.00297521   0.00000000   0.00000000         -437.67        0.00        0.00
   0.00000000  -0.00311599  -0.00006308            0.00     -458.38       -9.28
   0.00000000  -0.00006308  -0.00343779            0.00       -9.28     -505.72

     kinetic stress (kbar)  29087.01      0.00      0.00
                                0.00  29186.84    -30.25
                                0.00    -30.25  28845.85

     local   stress (kbar) -11362.75     -0.01      0.05
                               -0.01 -12756.95   1068.13
                                0.05   1068.13 -15152.05

     nonloc. stress (kbar)   9268.89      0.00      0.00
                                0.00   9307.58     48.43
                                0.00     48.43   9224.44

     hartree stress (kbar)  10611.52      0.04     -0.01
                                0.04  11055.18   -369.94
                               -0.01   -369.94  12089.16

     exc-cor stress (kbar)  -3232.11     -0.00     -0.00
                               -0.00  -3229.48     -1.15
                               -0.00     -1.15  -3228.57

     corecor stress (kbar)  -3165.36      0.00      0.00
                                0.00  -3166.87     -1.24
                                0.00     -1.24  -3163.23

     ewald   stress (kbar) -31644.87     -0.00      0.00
                               -0.00 -30854.68   -723.26
                                0.00   -723.26 -29121.31

     hubbard stress (kbar)      0.00      0.00      0.00
                                0.00      0.00      0.00
                                0.00      0.00      0.00

     DFT-D   stress (kbar)      0.00      0.00      0.00
                                0.00      0.00      0.00
                                0.00      0.00      0.00

     XDM     stress (kbar)      0.00      0.00      0.00
                                0.00      0.00      0.00
                                0.00      0.00      0.00

     dft-nl  stress (kbar)      0.00      0.00      0.00
                                0.00      0.00      0.00
                                0.00      0.00      0.00

     TS-vdW  stress (kbar)      0.00      0.00      0.00
                                0.00      0.00      0.00
                                0.00      0.00      0.00

[...]

                                0.00      0.00      0.00

     Writing all to output data dir new_calculations/myprefix.save/

     General routines

     Parallel routines

     PAW routines

   This run was terminated on:  19: 2:44  20May2023

   JOB DONE.