     Program PWSCF v.7.0 starts on 20May2023 at 17:58:32

     Reading input from espresso_4565.pwi
Warning: card &CELL ignored
Warning: card / ignored

     Current dimensions of program PWSCF are:
     Max number of different atomic species (ntypx) = 10
     Max number of k-points (npk) =  40000
     Max angular momentum in pseudopotentials (lmaxx) =  4

     gamma-point specific algorithms are used
     Message from routine setup:
     using ibrav=0 with symmetry is DISCOURAGED, use correct ibrav instead

     Subspace diagonalization in iterative solution of the eigenvalue problem:
     a serial algorithm will be used

     Using Slab Decomposition

     bravais-lattice index     =            0
     lattice parameter (alat)  =       8.8421  a.u.
     unit-cell volume          =     935.1402 (a.u.)^3
     number of atoms/cell      =            6
     number of atomic types    =            3
     number of electrons       =        50.00
     number of Kohn-Sham states=           30
     kinetic-energy cutoff     =      30.0000  Ry
     charge density cutoff     =     240.0000  Ry
     scf convergence threshold =      1.0E-06
     mixing beta               =       0.7000
     number of iterations used =            8  plain     mixing
     Exchange-correlation= SLA  PW   PBE  PBE
                           (   1   4   3   4   0   0   0)

     celldm(1)=   8.842052  celldm(2)=   0.000000  celldm(3)=   0.000000
     celldm(4)=   0.000000  celldm(5)=   0.000000  celldm(6)=   0.000000

     crystal axes: (cart. coord. in units of alat)
               a(1) = (   1.000000   0.000000   0.000000 )
               a(2) = (  -0.500000   0.866025   0.000000 )
               a(3) = (   0.000000   0.000000   1.562021 )

     reciprocal axes: (cart. coord. in units 2 pi/alat)
               b(1) = (  1.000000  0.577350  0.000000 )
               b(2) = (  0.000000  1.154701  0.000000 )
               b(3) = (  0.000000  0.000000  0.640196 )

     PseudoPot. # 1 for Li read from file:
     /home/pragov/projects/rrg-bengioy-ad/pragov/crystal_structure_design/SSSP/li_pbe_v1.4.uspp.F.UPF
     MD5 check sum: e912e257baa3777c20ea3d68f190483c
     Pseudo is Ultrasoft, Zval =  3.0
     Generated by new atomic code, or converted to UPF format
     Using radial grid of  751 points,  5 beta functions with:
                l(1) =   0
                l(2) =   0
                l(3) =   0
                l(4) =   1
                l(5) =   1
     Q(r) pseudized with 10 coefficients,  rinner =    1.150   1.150   1.150

     PseudoPot. # 2 for Y  read from file:
     /home/pragov/projects/rrg-bengioy-ad/pragov/crystal_structure_design/SSSP/Y_pbe_v1.uspp.F.UPF
     MD5 check sum: 2cf71db95cafeb975fc457bd7f14888e
     Pseudo is Ultrasoft + core correction, Zval = 11.0
     Generated by new atomic code, or converted to UPF format
     Using radial grid of  885 points,  6 beta functions with:
                l(1) =   0
                l(2) =   0
                l(3) =   1
                l(4) =   1
                l(5) =   2
                l(6) =   2
     Q(r) pseudized with  6 coefficients,  rinner =    1.200   1.200   1.200
                                                       1.200   1.200

     PseudoPot. # 3 for Bi read from file:
     /home/pragov/projects/rrg-bengioy-ad/pragov/crystal_structure_design/SSSP/Bi_pbe_v1.uspp.F.UPF
     MD5 check sum: cceb9f28ec65b6d7ff33140f5b0b1758
     Pseudo is Ultrasoft + core correction, Zval = 15.0
     Generated by new atomic code, or converted to UPF format
     Using radial grid of  899 points,  6 beta functions with:
                l(1) =   0
                l(2) =   0
                l(3) =   1
                l(4) =   1
                l(5) =   2
                l(6) =   2
     Q(r) pseudized with  6 coefficients,  rinner =    1.000   1.000   1.000
                                                       1.000   1.000

     atomic species   valence    mass     pseudopotential
        Li             3.00     6.94000     Li( 1.00)
        Y             11.00    88.90584     Y ( 1.00)
        Bi            15.00   208.98040     Bi( 1.00)

     12 Sym. Ops., with inversion, found

                                    s                        frac. trans.

      isym =  1     identity

 cryst.   s( 1) = (     1          0          0      )
                  (     0          1          0      )
                  (     0          0          1      )

 cart.    s( 1) = (  1.0000000  0.0000000  0.0000000 )
                  (  0.0000000  1.0000000  0.0000000 )
                  (  0.0000000  0.0000000  1.0000000 )

      isym =  2     180 deg rotation - cart. axis [1,0,0]

[...]

      isym =  3     120 deg rotation - cryst. axis [0,0,1]

[...]

      isym =  6     180 deg rotation - cryst. axis [1,1,0]

[...]

      isym =  7     inversion

[...]

      isym =  8     inv. 180 deg rotation - cart. axis [1,0,0]

[...]

      isym =  9     inv. 120 deg rotation - cryst. axis [0,0,1]

 cryst.   s( 9) = (     0         -1          0      )
                  (     1          1          0      )
                  (     0          0         -1      )

 cart.    s( 9) = (  0.5000001  0.8660255  0.0000000 )
                  ( -0.8660253  0.4999999  0.0000000 )
                  (  0.0000000  0.0000000 -1.0000000 )

[...]

 cryst.   s(10) = (     1          1          0      )
                  (    -1          0          0      )
                  (     0          0         -1      )

 cart.    s(10) = (  0.4999999 -0.8660255  0.0000000 )
                  (  0.8660253  0.5000001  0.0000000 )
                  (  0.0000000  0.0000000 -1.0000000 )

[...]

      isym = 12     inv. 180 deg rotation - cryst. axis [1,1,0]

 cryst.   s(12) = (     0         -1          0      )
                  (    -1          0          0      )
                  (     0          0          1      )

 cart.    s(12) = (  0.5000001 -0.8660253  0.0000000 )
                  ( -0.8660253 -0.5000001  0.0000000 )
                  (  0.0000000  0.0000000  1.0000000 )

   Cartesian axes

     site n.     atom                  positions (alat units)
         1           Li  tau(   1) = (   0.5000005   0.2886748   0.5387942  )
         2           Li  tau(   2) = (  -0.0000006   0.5773505   1.0232268  )
         3           Li  tau(   3) = (   0.0000000   0.0000000   0.7810105  )
         4           Y   tau(   4) = (   0.0000000   0.0000000   0.0000000  )
         5           Bi  tau(   5) = (   0.5000005   0.2886748   1.1760550  )
         6           Bi  tau(   6) = (  -0.0000006   0.5773505   0.3859660  )

   Crystallographic axes

     site n.     atom                  positions (cryst. coord.)
         1           Li  tau(   1) = (  0.6666670  0.3333330  0.3449340  )
         2           Li  tau(   2) = (  0.3333330  0.6666670  0.6550660  )
         3           Li  tau(   3) = (  0.0000000  0.0000000  0.5000000  )
         4           Y   tau(   4) = (  0.0000000  0.0000000  0.0000000  )
         5           Bi  tau(   5) = (  0.6666670  0.3333330  0.7529060  )
         6           Bi  tau(   6) = (  0.3333330  0.6666670  0.2470940  )

     number of k points=     1  Methfessel-Paxton smearing, width (Ry)=  0.0010
                       cart. coord. in units 2pi/alat
        k(    1) = (   0.0000000   0.0000000   0.0000000), wk =   2.0000000

                       cryst. coord.
        k(    1) = (   0.0000000   0.0000000   0.0000000), wk =   2.0000000

     Check: negative core charge=   -0.000005

     Initial potential from superposition of free atoms

     starting charge      46.6432, renormalised to      50.0000

     negative rho (up, down):  1.361E-01 0.000E+00
     Starting wfcs are   46 randomized atomic wfcs

     Self-consistent Calculation

     iteration #  1     ecut=    30.00 Ry     beta= 0.70
     Davidson diagonalization with overlap

     ethr =  1.00E-02,  avg # of iterations =  2.0

     negative rho (up, down):  1.254E-01 0.000E+00

     total energy              =    -497.82576085 Ry
     estimated scf accuracy    <       5.43525964 Ry

[...]

     total energy              =    -500.83029408 Ry
     estimated scf accuracy    <       0.00000138 Ry

     iteration # 41     ecut=    30.00 Ry     beta= 0.70
     Davidson diagonalization with overlap

     ethr =  2.76E-09,  avg # of iterations =  2.0

[...]

     End of self-consistent calculation

          k = 0.0000 0.0000 0.0000 (  1312 PWs)   bands (ev):

   -39.4560 -39.4538 -39.1202 -35.0968 -15.2741 -14.9617 -14.9616 -12.5986
   -12.5926 -12.5748 -12.5748 -12.5479 -12.5478 -12.5377 -12.5377 -12.5337
   -12.5337  -2.1260  -1.2624   4.5198   7.0320   7.0320   8.6745   8.6745
     9.3613   9.3740   9.7775   9.7776  10.2373  10.6710

     occupation numbers
     1.0000   1.0000   1.0000   1.0000   1.0000   1.0000   1.0000   1.0000
     1.0000   1.0000   1.0000   1.0000   1.0000   1.0000   1.0000   1.0000
     1.0000   1.0000   1.0000   1.0000   1.0000   1.0000   1.0000   1.0000
     0.8520   0.1480  -0.0000  -0.0000  -0.0000  -0.0000

     the Fermi energy is     9.3676 ev

!    total energy              =    -500.83029383 Ry
     estimated scf accuracy    <       0.00000076 Ry
     smearing contrib. (-TS)   =      -0.00025473 Ry
     internal energy E=F+TS    =    -500.83003910 Ry

     The total energy is F=E-TS. E is the sum of the following terms:
     one-electron contribution =    -168.77206023 Ry
     hartree contribution      =     103.73502463 Ry
     xc contribution           =    -161.88498585 Ry
     ewald contribution        =    -273.90801764 Ry

     convergence has been achieved in  41 iterations

     negative rho (up, down):  1.374E-01 0.000E+00

     Forces acting on atoms (cartesian axes, Ry/au):

     atom    1 type  1   force =     0.00000000    0.00000000   -0.00687157
     atom    2 type  1   force =    -0.00000000   -0.00000000    0.00687157
     atom    3 type  1   force =     0.00000000    0.00000000    0.00000000
     atom    4 type  2   force =     0.00000000    0.00000000    0.00000000
     atom    5 type  3   force =     0.00000000    0.00000000    0.06996923
     atom    6 type  3   force =    -0.00000000   -0.00000000   -0.06996923
     The non-local contrib.  to forces
     atom    1 type  1   force =     0.00000000    0.00000000   -0.04708790
     atom    2 type  1   force =    -0.00000000    0.00000000    0.04708790
     atom    3 type  1   force =     0.00000000    0.00000000    0.00000000
     atom    4 type  2   force =    -0.00000000    0.00000000    0.00000000
     atom    5 type  3   force =    -0.00000000    0.00000000   -0.34643005
     atom    6 type  3   force =     0.00000000   -0.00000000    0.34643005
     The ionic contribution  to forces
     atom    1 type  1   force =    -0.00001320    0.00000762    0.66647188
     atom    2 type  1   force =     0.00001320   -0.00000762   -0.66647188
     atom    3 type  1   force =    -0.00000000    0.00000000   -0.00000000
     atom    4 type  2   force =    -0.00000000    0.00000000   -0.00000000
     atom    5 type  3   force =    -0.00002233    0.00001289   -4.27629012
     atom    6 type  3   force =     0.00002233   -0.00001289    4.27629012
     The local contribution  to forces
     atom    1 type  1   force =     0.00002446    0.00001721   -0.62620711
     atom    2 type  1   force =    -0.00001581   -0.00000540    0.62616346
     atom    3 type  1   force =    -0.00000272    0.00000679    0.00000556
     atom    4 type  2   force =    -0.00003256    0.00005740    0.00002985
     atom    5 type  3   force =    -0.00001435   -0.00004550    4.66976594
     atom    6 type  3   force =    -0.00004726   -0.00015062   -4.66933728
     The core correction contribution to forces
     atom    1 type  1   force =     0.00000000    0.00000000    0.00000000
     atom    2 type  1   force =     0.00000000    0.00000000    0.00000000
     atom    3 type  1   force =     0.00000000    0.00000000    0.00000000
     atom    4 type  2   force =    -0.00000115    0.00000034   -0.00000011
     atom    5 type  3   force =    -0.00000113   -0.00000191    0.02404788
     atom    6 type  3   force =    -0.00000088   -0.00000355   -0.02402855
     The Hubbard contrib.    to forces
     atom    1 type  1   force =     0.00000000    0.00000000    0.00000000
     atom    2 type  1   force =     0.00000000    0.00000000    0.00000000
     atom    3 type  1   force =     0.00000000    0.00000000    0.00000000
     atom    4 type  2   force =     0.00000000    0.00000000    0.00000000
     atom    5 type  3   force =     0.00000000    0.00000000    0.00000000
     atom    6 type  3   force =     0.00000000    0.00000000    0.00000000
     The SCF correction term to forces
     atom    1 type  1   force =    -0.00000228   -0.00004629   -0.00004554
     atom    2 type  1   force =    -0.00000222    0.00001031    0.00009500
     atom    3 type  1   force =     0.00000085   -0.00001232   -0.00000878
     atom    4 type  2   force =     0.00001979   -0.00004891   -0.00006416
     atom    5 type  3   force =     0.00004565    0.00001786   -0.00108095
     atom    6 type  3   force =     0.00002264    0.00015396    0.00071990

     Total force =     0.099427     Total SCF correction =     0.001317

     Computing stress (Cartesian axis) and pressure

     negative rho (up, down):  1.374E-01 0.000E+00
          total   stress  (Ry/bohr**3)                   (kbar)     P=      116.90
   0.00118348   0.00000000   0.00000000          174.10        0.00        0.00
   0.00000000   0.00118348  -0.00000000            0.00      174.10       -0.00
   0.00000000   0.00000000   0.00001712            0.00        0.00        2.52

     kinetic stress (kbar)   6532.38      0.00      0.00
                                0.00   6532.38     -0.00
                                0.00     -0.00   6273.21

     local   stress (kbar)  -3976.62     -0.02      0.00
                               -0.02  -3976.60     -0.03
                                0.00     -0.03  -1141.60

     nonloc. stress (kbar)  10019.94      0.00      0.00
                                0.00  10019.94      0.00
                                0.00      0.00   9944.70

     hartree stress (kbar)   5791.67      0.01     -0.00
                                0.01   5791.65      0.01
                               -0.00      0.01   4735.04

     exc-cor stress (kbar)  12589.91      0.00     -0.00
                                0.00  12589.91      0.00
                               -0.00      0.00  12588.27

     corecor stress (kbar) -16959.73     -0.00      0.00
                               -0.00 -16959.73     -0.00
                                0.00     -0.00 -16956.05

     ewald   stress (kbar) -13823.45      0.00     -0.00
                                0.00 -13823.44      0.00
                               -0.00      0.00 -15441.05

     hubbard stress (kbar)      0.00      0.00      0.00
                                0.00      0.00      0.00
                                0.00      0.00      0.00

     DFT-D   stress (kbar)      0.00      0.00      0.00
                                0.00      0.00      0.00
                                0.00      0.00      0.00

     XDM     stress (kbar)      0.00      0.00      0.00
                                0.00      0.00      0.00
                                0.00      0.00      0.00

     dft-nl  stress (kbar)      0.00      0.00      0.00
                                0.00      0.00      0.00
                                0.00      0.00      0.00

     TS-vdW  stress (kbar)      0.00      0.00      0.00
                                0.00      0.00      0.00
                                0.00      0.00      0.00

[...]

                                0.00      0.00      0.00

     Writing all to output data dir new_calculations/myprefix.save/

     General routines

     Parallel routines

   This run was terminated on:  17:59: 5  20May2023

   JOB DONE.