     Program PWSCF v.7.0 starts on 21May2023 at 13: 0:35

     Reading input from espresso_24742.pwi
Warning: card &CELL ignored
Warning: card / ignored

     Current dimensions of program PWSCF are:
     Max number of different atomic species (ntypx) = 10
     Max number of k-points (npk) =  40000
     Max angular momentum in pseudopotentials (lmaxx) =  4
     file K.pbe-spn-kjpaw_psl.1.0.0.UPF: wavefunction(s)  3S renormalized
     file O.pbe-n-kjpaw_psl.0.1.UPF: wavefunction(s)  2P renormalized

     gamma-point specific algorithms are used
     Message from routine setup:
     using ibrav=0 with symmetry is DISCOURAGED, use correct ibrav instead

     Subspace diagonalization in iterative solution of the eigenvalue problem:
     a serial algorithm will be used

     Using Slab Decomposition

     bravais-lattice index     =            0
     lattice parameter (alat)  =       9.7406  a.u.
     unit-cell volume          =     962.4267 (a.u.)^3
     number of atoms/cell      =            9
     number of atomic types    =            4
     number of electrons       =        71.00
     number of Kohn-Sham states=           43
     kinetic-energy cutoff     =      30.0000  Ry
     charge density cutoff     =     240.0000  Ry
     scf convergence threshold =      1.0E-06
     mixing beta               =       0.7000
     number of iterations used =            8  plain     mixing
     Exchange-correlation= SLA  PW   PBX  PBC
                           (   1   4   3   4   0   0   0)

     celldm(1)=   9.740596  celldm(2)=   0.000000  celldm(3)=   0.000000
     celldm(4)=   0.000000  celldm(5)=   0.000000  celldm(6)=   0.000000

     crystal axes: (cart. coord. in units of alat)
               a(1) = (   1.000000   0.000000   0.000000 )
               a(2) = (  -0.500000   0.866025   0.000000 )
               a(3) = (   0.000000   0.000000   1.202487 )

     reciprocal axes: (cart. coord. in units 2 pi/alat)
               b(1) = (  1.000000  0.577350  0.000000 )
               b(2) = (  0.000000  1.154700  0.000000 )
               b(3) = (  0.000000  0.000000  0.831610 )

     PseudoPot. # 1 for K  read from file:
     /home/pragov/projects/rrg-bengioy-ad/pragov/crystal_structure_design/SSSP/K.pbe-spn-kjpaw_psl.1.0.0.UPF
     MD5 check sum: 7d58810084cac21f60fbe77ea2b688fd
     Pseudo is Projector augmented-wave + core cor, Zval =  9.0
     Generated using "atomic" code by A. Dal Corso  v.5.1
     Shape of augmentation charge: PSQ
     Using radial grid of 1165 points,  6 beta functions with:
                l(1) =   0
                l(2) =   0
                l(3) =   1
                l(4) =   1
                l(5) =   2
                l(6) =   2
     Q(r) pseudized with 0 coefficients

     PseudoPot. # 2 for Cu read from file:
     /home/pragov/projects/rrg-bengioy-ad/pragov/crystal_structure_design/SSSP/Cu_pbe_v1.2.uspp.F.UPF
     MD5 check sum: 6e991ff952a84172a2a52a1c1e996048
     Pseudo is Ultrasoft + core correction, Zval = 19.0
     Generated by new atomic code, or converted to UPF format
     Using radial grid of  867 points,  6 beta functions with:
                l(1) =   0
                l(2) =   0
                l(3) =   1
                l(4) =   1
                l(5) =   2
                l(6) =   2
     Q(r) pseudized with  8 coefficients,  rinner =    1.150   1.150   1.150
                                                       1.150   1.150

     PseudoPot. # 3 for I  read from file:
     /home/pragov/projects/rrg-bengioy-ad/pragov/crystal_structure_design/SSSP/I.pbe-n-kjpaw_psl.0.2.UPF
     MD5 check sum: d4ef18d9c8f18dc85e5843bca1e50dc0
     Pseudo is Projector augmented-wave + core cor, Zval =  7.0
     Generated using "atomic" code by A. Dal Corso  v.5.0.99 svn rev. 10869
     Shape of augmentation charge: PSQ
     Using radial grid of 1247 points,  4 beta functions with:
                l(1) =   0
                l(2) =   0
                l(3) =   1
                l(4) =   1
     Q(r) pseudized with 0 coefficients

     PseudoPot. # 4 for O  read from file:
     /home/pragov/projects/rrg-bengioy-ad/pragov/crystal_structure_design/SSSP/O.pbe-n-kjpaw_psl.0.1.UPF
     MD5 check sum: 0234752ac141de4415c5fc33072bef88
     Pseudo is Projector augmented-wave + core cor, Zval =  6.0
     Generated using "atomic" code by A. Dal Corso  v.5.0.99 svn rev. 10869
     Shape of augmentation charge: BESSEL
     Using radial grid of 1095 points,  4 beta functions with:
                l(1) =   0
                l(2) =   0
                l(3) =   1
                l(4) =   1
     Q(r) pseudized with 0 coefficients

     atomic species   valence    mass     pseudopotential
        K              9.00    39.09830     K ( 1.00)
        Cu            19.00    63.54600     Cu( 1.00)
        I              7.00   126.90447     I ( 1.00)
        O              6.00    15.99900     O ( 1.00)

      6 Sym. Ops. (no inversion) found

                                    s                        frac. trans.

      isym =  1     identity

 cryst.   s( 1) = (     1          0          0      )
                  (     0          1          0      )
                  (     0          0          1      )

 cart.    s( 1) = (  1.0000000  0.0000000  0.0000000 )
                  (  0.0000000  1.0000000  0.0000000 )
                  (  0.0000000  0.0000000  1.0000000 )

      isym =  2     180 deg rotation - cart. axis [0,1,0]

[...]

      isym =  3     120 deg rotation - cryst. axis [0,0,1]

[...]

      isym =  6     180 deg rotation - cryst. axis [2,1,0]

 cryst.   s( 6) = (     1          1          0      )
                  (     0         -1          0      )
                  (     0          0         -1      )

 cart.    s( 6) = (  0.5000001  0.8660252  0.0000000 )
                  (  0.8660255 -0.5000001  0.0000000 )
                  (  0.0000000  0.0000000 -1.0000000 )

   Cartesian axes

     site n.     atom                  positions (alat units)
         1           K   tau(   1) = (   0.0000000   0.0000000   0.0000000  )
         2           Cu  tau(   2) = (  -0.0000004   0.5773506   0.6012435  )
         3           I   tau(   3) = (   0.5000005   0.2886749   0.6012435  )
         4           O   tau(   4) = (   0.3806100   0.0083554   0.8123798  )
         5           O   tau(   5) = (   0.8024595   0.3254394   0.8123798  )
         6           O   tau(   6) = (   0.3169321   0.5322298   0.8123798  )
         7           O   tau(   7) = (   0.6830691   0.5322298   0.3901072  )
         8           O   tau(   8) = (   0.6193910   0.0083554   0.3901072  )
         9           O   tau(   9) = (   0.1975415   0.3254394   0.3901072  )

   Crystallographic axes

     site n.     atom                  positions (cryst. coord.)
         1           K   tau(   1) = (  0.0000000  0.0000000  0.0000000  )
         2           Cu  tau(   2) = (  0.3333330  0.6666670  0.5000000  )
         3           I   tau(   3) = (  0.6666670  0.3333330  0.5000000  )
         4           O   tau(   4) = (  0.3854340  0.0096480  0.6755830  )
         5           O   tau(   5) = (  0.9903520  0.3757850  0.6755830  )
         6           O   tau(   6) = (  0.6242150  0.6145660  0.6755830  )
         7           O   tau(   7) = (  0.9903520  0.6145660  0.3244170  )
         8           O   tau(   8) = (  0.6242150  0.0096480  0.3244170  )
         9           O   tau(   9) = (  0.3854340  0.3757850  0.3244170  )

     number of k points=     1  Methfessel-Paxton smearing, width (Ry)=  0.0010
                       cart. coord. in units 2pi/alat
        k(    1) = (   0.0000000   0.0000000   0.0000000), wk =   2.0000000

                       cryst. coord.
        k(    1) = (   0.0000000   0.0000000   0.0000000), wk =   2.0000000

     Check: negative core charge=   -0.000011

     Initial potential from superposition of free atoms

     starting charge      69.9811, renormalised to      71.0000
     Starting wfcs are   49 randomized atomic wfcs
     Checking if some PAW data can be deallocated...

     Self-consistent Calculation

     iteration #  1     ecut=    30.00 Ry     beta= 0.70
     Davidson diagonalization with overlap

     ethr =  1.00E-02,  avg # of iterations =  5.0

     total energy              =   -1143.81637719 Ry
     estimated scf accuracy    <       1.71803275 Ry

[...]

     total energy              =   -1144.60292886 Ry
     estimated scf accuracy    <       0.00000425 Ry

     iteration # 23     ecut=    30.00 Ry     beta= 0.70
     Davidson diagonalization with overlap

     ethr =  5.99E-09,  avg # of iterations =  1.0

     End of self-consistent calculation

          k = 0.0000 0.0000 0.0000 (  1340 PWs)   bands (ev):

  -110.0103 -67.3999 -67.3999 -67.1749 -23.7819 -17.7470 -14.5094 -14.5093
   -14.4082 -13.3379 -13.3378  -7.7309  -7.3042  -7.3042  -7.2139  -2.6946
    -2.6946  -2.6253  -1.2357  -0.7745  -0.7745  -0.0216  -0.0216   0.4807
     0.5552   0.5553   1.7655   1.7655   2.1345   2.2909   2.5222   2.7084
     2.7084   2.8386   2.8386   4.2243   4.2243   5.8806  10.1225  10.2212
    10.9518  10.9518  12.4834

     occupation numbers
     1.0000   1.0000   1.0000   1.0000   1.0000   1.0000   1.0000   1.0000
     1.0000   1.0000   1.0000   1.0000   1.0000   1.0000   1.0000   1.0000
     1.0000   1.0000   1.0000   1.0000   1.0000   1.0000   1.0000   1.0000
     1.0000   1.0000   1.0000   1.0000   1.0000   1.0000   1.0000   1.0000
     1.0000   1.0000   1.0000   0.2505   0.2495  -0.0000  -0.0000  -0.0000
    -0.0000  -0.0000  -0.0000

     the Fermi energy is     4.2201 ev

!    total energy              =   -1144.60292882 Ry
     estimated scf accuracy    <       0.00000010 Ry
     smearing contrib. (-TS)   =      -0.00041261 Ry
     internal energy E=F+TS    =   -1144.60251621 Ry

     The total energy is F=E-TS. E is the sum of the following terms:
     one-electron contribution =    -644.56074992 Ry
     hartree contribution      =     353.51327086 Ry
     xc contribution           =    -135.91872687 Ry
     ewald contribution        =    -284.56432073 Ry
     one-center paw contrib.   =    -433.07198955 Ry
      -> PAW hartree energy AE =     216.61133657 Ry
      -> PAW hartree energy PS =    -215.85594424 Ry
      -> PAW xc energy AE      =    -528.32170915 Ry
      -> PAW xc energy PS      =      94.49432726 Ry
      -> total E_H with PAW    =     354.26866320 Ry
      -> total E_XC with PAW   =    -569.74610875 Ry

     convergence has been achieved in  23 iterations

     Forces acting on atoms (cartesian axes, Ry/au):

     atom    1 type  1   force =     0.00000000    0.00000000    0.00000000
     atom    2 type  2   force =     0.00000000    0.00000000    0.00000000
     atom    3 type  3   force =    -0.00000000   -0.00000000    0.00000000
     atom    4 type  4   force =    -0.03561829   -0.04114094    0.03230607
     atom    5 type  4   force =     0.05343825   -0.01027587    0.03230607
     atom    6 type  4   force =    -0.01781997    0.05141681    0.03230607
     atom    7 type  4   force =     0.01781997    0.05141681   -0.03230607
     atom    8 type  4   force =     0.03561829   -0.04114095   -0.03230607
     atom    9 type  4   force =    -0.05343825   -0.01027586   -0.03230607
     The non-local contrib.  to forces
     atom    1 type  1   force =     0.00000000    0.00000000    0.00000000
     atom    2 type  2   force =     0.00000000   -0.00000000    0.00000000
     atom    3 type  3   force =     0.00000000   -0.00000000    0.00000000
     atom    4 type  4   force =     0.72696295    0.62607404   -1.15697175
     atom    5 type  4   force =    -0.90567763    0.31653138   -1.15697175
     atom    6 type  4   force =     0.17871467   -0.94260543   -1.15697175
     atom    7 type  4   force =    -0.17871467   -0.94260538    1.15697175
     atom    8 type  4   force =    -0.72696295    0.62607423    1.15697175
     atom    9 type  4   force =     0.90567763    0.31653115    1.15697175
     The ionic contribution  to forces
     atom    1 type  1   force =     0.00000449   -0.00000259    0.00000000
     atom    2 type  2   force =     0.00012013   -0.00006936   -0.00000000
     atom    3 type  3   force =    -0.00003089    0.00001783    0.00000000
     atom    4 type  4   force =    -5.25433284    4.94276384   15.15563501
     atom    5 type  4   force =    -1.65332024   -7.02175816   15.15558865
     atom    6 type  4   force =     6.90760780    2.07902413   15.15552946
     atom    7 type  4   force =    -6.90772519    2.07900470  -15.15563501
     atom    8 type  4   force =     5.25436148    4.94269572  -15.15558865
     atom    9 type  4   force =     1.65331527   -7.02167611  -15.15552946
     The local contribution  to forces
     atom    1 type  1   force =    -0.00009169   -0.00002786   -0.00001068
     atom    2 type  2   force =    -0.00046717   -0.00014729    0.00005129
     atom    3 type  3   force =     0.00034699    0.00011889    0.00001709
     atom    4 type  4   force =     4.49934341   -5.60399961  -13.97798044
     atom    5 type  4   force =     2.60360203    6.69862037  -13.97822509
     atom    6 type  4   force =    -7.10291152   -1.09455929  -13.97802056
     atom    7 type  4   force =     7.10299164   -1.09447603   13.97824117
     atom    8 type  4   force =    -4.49942700   -5.60408662   13.97812130
     atom    9 type  4   force =    -2.60345146    6.69847146   13.97787354
     The core correction contribution to forces
     atom    1 type  1   force =     0.00000007   -0.00000001    0.00000003
     atom    2 type  2   force =     0.00000001   -0.00000002    0.00000000
     atom    3 type  3   force =     0.00000084    0.00000020   -0.00000051
     atom    4 type  4   force =    -0.00761612   -0.00587426    0.01177153
     atom    5 type  4   force =     0.00889786   -0.00365631    0.01176741
     atom    6 type  4   force =    -0.00128262    0.00953267    0.01176897
     atom    7 type  4   force =     0.00128190    0.00953399   -0.01176809
     atom    8 type  4   force =     0.00761424   -0.00587761   -0.01176846
     atom    9 type  4   force =    -0.00889511   -0.00365837   -0.01177157
     The Hubbard contrib.    to forces
     atom    1 type  1   force =     0.00000000    0.00000000    0.00000000
     atom    2 type  2   force =     0.00000000    0.00000000    0.00000000
     atom    3 type  3   force =     0.00000000    0.00000000    0.00000000
     atom    4 type  4   force =     0.00000000    0.00000000    0.00000000
     atom    5 type  4   force =     0.00000000    0.00000000    0.00000000
     atom    6 type  4   force =     0.00000000    0.00000000    0.00000000
     atom    7 type  4   force =     0.00000000    0.00000000    0.00000000
     atom    8 type  4   force =     0.00000000    0.00000000    0.00000000
     atom    9 type  4   force =     0.00000000    0.00000000    0.00000000
     The SCF correction term to forces
     atom    1 type  1   force =     0.00008291    0.00002867    0.00000977
     atom    2 type  2   force =     0.00034350    0.00022234   -0.00005057
     atom    3 type  3   force =    -0.00026130   -0.00011265   -0.00001632
     atom    4 type  4   force =    -0.00001995   -0.00000559   -0.00003234
     atom    5 type  4   force =     0.00000032   -0.00000676    0.00004396
     atom    6 type  4   force =    -0.00001994   -0.00001670   -0.00001872
     atom    7 type  4   force =    -0.00000704    0.00001595   -0.00004998
     atom    8 type  4   force =    -0.00003255   -0.00000851    0.00000291
     atom    9 type  4   force =    -0.00001125   -0.00000997    0.00003323

     Total force =     0.155015     Total SCF correction =     0.000518

     Computing stress (Cartesian axis) and pressure

          total   stress  (Ry/bohr**3)                   (kbar)     P=     -335.99
  -0.00217957   0.00000000   0.00000000         -320.63        0.00        0.00
   0.00000000  -0.00217957   0.00000000            0.00     -320.63        0.00
   0.00000000  -0.00000000  -0.00249292            0.00       -0.00     -366.72

     kinetic stress (kbar)  17547.68     -0.00      0.00
                               -0.00  17547.67      0.00
                                0.00      0.00  17604.72

     local   stress (kbar) -37875.23     -0.69     -0.29
                               -0.69 -37874.81      0.70
                               -0.29      0.70   9537.42

     nonloc. stress (kbar)   5527.83     -0.00      0.00
                               -0.00   5527.83      0.00
                                0.00      0.00   5543.72

     hartree stress (kbar)  25191.48      0.36      0.15
                                0.36  25191.24     -0.38
                                0.15     -0.38   3651.10

     exc-cor stress (kbar)   1550.96      0.00      0.00
                                0.00   1550.96     -0.00
                                0.00     -0.00   1546.55

     corecor stress (kbar)  -6428.09     -0.00     -0.00
                               -0.00  -6428.09      0.00
                               -0.00      0.00  -6425.82

     ewald   stress (kbar)  -5835.38      0.05      0.00
                                0.05  -5835.32      0.00
                                0.00      0.00 -31824.41

     hubbard stress (kbar)      0.00      0.00      0.00
                                0.00      0.00      0.00
                                0.00      0.00      0.00

     DFT-D   stress (kbar)      0.00      0.00      0.00
                                0.00      0.00      0.00
                                0.00      0.00      0.00

     XDM     stress (kbar)      0.00      0.00      0.00
                                0.00      0.00      0.00
                                0.00      0.00      0.00

     dft-nl  stress (kbar)      0.00      0.00      0.00
                                0.00      0.00      0.00
                                0.00      0.00      0.00

     TS-vdW  stress (kbar)      0.00      0.00      0.00
                                0.00      0.00      0.00
                                0.00      0.00      0.00

[...]

                                0.00      0.00      0.00

     Writing all to output data dir new_calculations/myprefix.save/

     General routines

     Parallel routines

     PAW routines

   This run was terminated on:  13: 0:59  21May2023

   JOB DONE.