     Program PWSCF v.7.0 starts on 21May2023 at 20:10:31

     Reading input from espresso_26016.pwi
Warning: card &CELL ignored
Warning: card / ignored

     Current dimensions of program PWSCF are:
     Max number of different atomic species (ntypx) = 10
     Max number of k-points (npk) =  40000
     Max angular momentum in pseudopotentials (lmaxx) =  4
     file K.pbe-spn-kjpaw_psl.1.0.0.UPF: wavefunction(s)  3S renormalized

     gamma-point specific algorithms are used
     Message from routine setup:
     using ibrav=0 with symmetry is DISCOURAGED, use correct ibrav instead

     Subspace diagonalization in iterative solution of the eigenvalue problem:
     a serial algorithm will be used

     Using Slab Decomposition

     bravais-lattice index     =            0
     lattice parameter (alat)  =      18.9930  a.u.
     unit-cell volume          =    2909.2887 (a.u.)^3
     number of atoms/cell      =           16
     number of atomic types    =            4
     number of electrons       =       168.00
     number of Kohn-Sham states=          101
     kinetic-energy cutoff     =      30.0000  Ry
     charge density cutoff     =     240.0000  Ry
     scf convergence threshold =      1.0E-06
     mixing beta               =       0.7000
     number of iterations used =            8  plain     mixing
     Exchange-correlation= SLA  PW   PBE  PBE
                           (   1   4   3   4   0   0   0)

     celldm(1)=  18.993041  celldm(2)=   0.000000  celldm(3)=   0.000000
     celldm(4)=   0.000000  celldm(5)=   0.000000  celldm(6)=   0.000000

     crystal axes: (cart. coord. in units of alat)
               a(1) = (   1.000000   0.000000   0.000000 )
               a(2) = (  -0.837737   0.546074   0.000000 )
               a(3) = (   0.000000   0.000000   0.777592 )

     reciprocal axes: (cart. coord. in units 2 pi/alat)
               b(1) = (  1.000000  1.534109  0.000000 )
               b(2) = (  0.000000  1.831254  0.000000 )
               b(3) = (  0.000000  0.000000  1.286021 )

     PseudoPot. # 1 for K  read from file:
     /home/pragov/projects/rrg-bengioy-ad/pragov/crystal_structure_design/SSSP/K.pbe-spn-kjpaw_psl.1.0.0.UPF
     MD5 check sum: 7d58810084cac21f60fbe77ea2b688fd
     Pseudo is Projector augmented-wave + core cor, Zval =  9.0
     Generated using "atomic" code by A. Dal Corso  v.5.1
     Shape of augmentation charge: PSQ
     Using radial grid of 1165 points,  6 beta functions with:
                l(1) =   0
                l(2) =   0
                l(3) =   1
                l(4) =   1
                l(5) =   2
                l(6) =   2
     Q(r) pseudized with 0 coefficients

     PseudoPot. # 2 for Ta read from file:
     /home/pragov/projects/rrg-bengioy-ad/pragov/crystal_structure_design/SSSP/Ta_pbe_v1.uspp.F.UPF
     MD5 check sum: f8bbe9446314a3b8ea5d9f3e3836c939
     Pseudo is Ultrasoft + core correction, Zval = 13.0
     Generated by new atomic code, or converted to UPF format
     Using radial grid of  921 points,  7 beta functions with:
                l(1) =   0
                l(2) =   0
                l(3) =   1
                l(4) =   1
                l(5) =   2
                l(6) =   2
                l(7) =   3
     Q(r) pseudized with  6 coefficients,  rinner =    1.300   1.300   1.300
                                                       1.300   1.300   1.300
                                                       1.300

     PseudoPot. # 3 for Cu read from file:
     /home/pragov/projects/rrg-bengioy-ad/pragov/crystal_structure_design/SSSP/Cu_pbe_v1.2.uspp.F.UPF
     MD5 check sum: 6e991ff952a84172a2a52a1c1e996048
     Pseudo is Ultrasoft + core correction, Zval = 19.0
     Generated by new atomic code, or converted to UPF format
     Using radial grid of  867 points,  6 beta functions with:
                l(1) =   0
                l(2) =   0
                l(3) =   1
                l(4) =   1
                l(5) =   2
                l(6) =   2
     Q(r) pseudized with  8 coefficients,  rinner =    1.150   1.150   1.150
                                                       1.150   1.150

     PseudoPot. # 4 for Se read from file:
     /home/pragov/projects/rrg-bengioy-ad/pragov/crystal_structure_design/SSSP/Se_pbe_v1.uspp.F.UPF
     MD5 check sum: 1b3568f3a8ae88f9a2a0ad0698632c85
     Pseudo is Ultrasoft + core correction, Zval =  6.0
     Generated by new atomic code, or converted to UPF format
     Using radial grid of  877 points,  6 beta functions with:
                l(1) =   0
                l(2) =   0
                l(3) =   1
                l(4) =   1
                l(5) =   2
                l(6) =   2
     Q(r) pseudized with  8 coefficients,  rinner =    1.300   1.300   1.300
                                                       1.300   1.300

     atomic species   valence    mass     pseudopotential
        K              9.00    39.09830     K ( 1.00)
        Ta            13.00   180.94788     Ta( 1.00)
        Cu            19.00    63.54600     Cu( 1.00)
        Se             6.00    78.97100     Se( 1.00)

      2 Sym. Ops. (no inversion) found ( 1 have fractional translation)

                                    s                        frac. trans.

      isym =  1     identity

 cryst.   s( 1) = (     1          0          0      )
                  (     0          1          0      )
                  (     0          0          1      )

 cart.    s( 1) = (  1.0000000  0.0000000  0.0000000 )
                  (  0.0000000  1.0000000  0.0000000 )
                  (  0.0000000  0.0000000  1.0000000 )

      isym =  2     inv. 180 deg rotation - cart. axis [0,0,1]

 cryst.   s( 2) = (     1          0          0      )    f =(  0.0000000 )
                  (     0          1          0      )       (  0.0000000 )
                  (     0          0         -1      )       (  0.5000000 )

 cart.    s( 2) = (  1.0000000  0.0000000  0.0000000 )    f =(  0.0000000 )
                  (  0.0000000  1.0000000  0.0000000 )       (  0.0000000 )
                  (  0.0000000  0.0000000 -1.0000000 )       (  0.3887961 )

   Cartesian axes

     site n.     atom                  positions (alat units)
         1           K   tau(   1) = (   0.3810803   0.0432660   0.1943980  )
         2           K   tau(   2) = (  -0.2956186   0.2443435   0.5831941  )
         3           Ta  tau(   3) = (   0.2802339   0.2139660   0.5831941  )
         4           Ta  tau(   4) = (  -0.1179210   0.3322756   0.1943980  )
         5           Cu  tau(   5) = (  -0.6416424   0.4877407   0.5831941  )
         6           Cu  tau(   6) = (   0.8038700   0.0582142   0.1943980  )
         7           Cu  tau(   7) = (   0.0837267   0.2817709   0.3887961  )
         8           Cu  tau(   8) = (   0.0837267   0.2817709   0.0000000  )
         9           Se  tau(   9) = (   0.0467297   0.1368079   0.5831941  )
        10           Se  tau(  10) = (   0.0355600   0.1401269   0.1943980  )
        11           Se  tau(  11) = (   0.4270142   0.0228581   0.5831941  )
        12           Se  tau(  12) = (  -0.3452434   0.2523304   0.1943980  )
        13           Se  tau(  13) = (  -0.0757114   0.4666333   0.7739530  )
        14           Se  tau(  14) = (   0.3182425   0.3495719   0.0036391  )
        15           Se  tau(  15) = (  -0.0757114   0.4666333   0.3924352  )
        16           Se  tau(  16) = (   0.3182425   0.3495719   0.3851569  )

   Crystallographic axes

     site n.     atom                  positions (cryst. coord.)
         1           K   tau(   1) = (  0.4474550  0.0792310  0.2500000  )
         2           K   tau(   2) = (  0.0792310  0.4474550  0.7500000  )
         3           Ta  tau(   3) = (  0.6084810  0.3918260  0.7500000  )
         4           Ta  tau(   4) = (  0.3918260  0.6084810  0.2500000  )
         5           Cu  tau(   5) = (  0.1066050  0.8931770  0.7500000  )
         6           Cu  tau(   6) = (  0.8931770  0.1066050  0.2500000  )
         7           Cu  tau(   7) = (  0.5159940  0.5159940  0.5000000  )
         8           Cu  tau(   8) = (  0.5159940  0.5159940  0.0000000  )
         9           Se  tau(   9) = (  0.2566080  0.2505300  0.7500000  )
        10           Se  tau(  10) = (  0.2505300  0.2566080  0.2500000  )
        11           Se  tau(  11) = (  0.4620810  0.0418590  0.7500000  )
        12           Se  tau(  12) = (  0.0418590  0.4620810  0.2500000  )
        13           Se  tau(  13) = (  0.6401550  0.8545240  0.9953200  )
        14           Se  tau(  14) = (  0.8545240  0.6401550  0.0046800  )
        15           Se  tau(  15) = (  0.6401550  0.8545240  0.5046800  )
        16           Se  tau(  16) = (  0.8545240  0.6401550  0.4953200  )

     number of k points=     1  Methfessel-Paxton smearing, width (Ry)=  0.0010
                       cart. coord. in units 2pi/alat
        k(    1) = (   0.0000000   0.0000000   0.0000000), wk =   2.0000000

                       cryst. coord.
        k(    1) = (   0.0000000   0.0000000   0.0000000), wk =   2.0000000

     Check: negative core charge=   -0.000002

     Initial potential from superposition of free atoms

     starting charge     163.9595, renormalised to     168.0000

     negative rho (up, down):  1.910E-01 0.000E+00
     Starting wfcs are  126 randomized atomic wfcs
     Checking if some PAW data can be deallocated...

     Self-consistent Calculation

     iteration #  1     ecut=    30.00 Ry     beta= 0.70
     Davidson diagonalization with overlap

     ethr =  1.00E-02,  avg # of iterations =  3.0

     negative rho (up, down):  1.869E-01 0.000E+00

     total energy              =   -2472.02654208 Ry
     estimated scf accuracy    <       3.77045528 Ry

[...]

     total energy              =   -2474.17886454 Ry
     estimated scf accuracy    <       0.00000144 Ry

     iteration # 17     ecut=    30.00 Ry     beta= 0.70
     Davidson diagonalization with overlap

     ethr =  8.56E-10,  avg # of iterations =  2.0

[...]

     End of self-consistent calculation

          k = 0.0000 0.0000 0.0000 (  4030 PWs)   bands (ev):

  -106.3621-106.3611-106.2711-106.2700 -63.8464 -63.8439 -63.6939 -63.6916
   -63.6885 -63.6883 -63.6817 -63.6806 -63.6507 -63.6494 -63.6198 -63.6182
   -62.5245 -62.5234 -29.1258 -29.1248 -29.0144 -29.0132 -28.9829 -28.9817
   -24.7317 -24.7313  -8.2416  -8.2377  -8.2097  -8.2021  -8.2001  -8.1983
    -7.5995  -7.1555  -6.8274  -6.8060  -6.6604  -6.5458  -6.3517  -6.3204
     0.4719   0.7516   0.9019   0.9247   1.7377   1.7922   1.9184   2.1397
     2.1970   2.1997   2.2752   2.4486   2.4680   2.4770   2.7353   2.9065
     3.0271   3.0498   3.1051   3.1111   3.1630   3.3932   3.5104   3.5298
     3.6236   3.6406   3.6823   3.7623   3.8643   3.9334   3.9355   4.0497
     4.0718   4.1132   4.1557   4.2843   4.4895   4.6590   4.6846   4.7586
     5.0084   5.0701   5.1305   5.5993   7.6363   7.6403   7.6496   7.7545
     7.8305   7.9589   7.9630   8.1756   8.1782   8.2303   8.4744  10.2582
    10.5942  10.7914  10.8955  10.9695  11.1221

     occupation numbers
     1.0000   1.0000   1.0000   1.0000   1.0000   1.0000   1.0000   1.0000
     1.0000   1.0000   1.0000   1.0000   1.0000   1.0000   1.0000   1.0000
     1.0000   1.0000   1.0000   1.0000   1.0000   1.0000   1.0000   1.0000
     1.0000   1.0000   1.0000   1.0000   1.0000   1.0000   1.0000   1.0000
     1.0000   1.0000   1.0000   1.0000   1.0000   1.0000   1.0000   1.0000
     1.0000   1.0000   1.0000   1.0000   1.0000   1.0000   1.0000   1.0000
     1.0000   1.0000   1.0000   1.0000   1.0000   1.0000   1.0000   1.0000
     1.0000   1.0000   1.0000   1.0000   1.0000   1.0000   1.0000   1.0000
     1.0000   1.0000   1.0000   1.0000   1.0000   1.0000   1.0000   1.0000
     1.0000   1.0000   1.0000   1.0000   1.0000   1.0000   1.0000   1.0000
     1.0000   1.0000   1.0000   1.0000  -0.0000  -0.0000  -0.0000  -0.0000
    -0.0000  -0.0000  -0.0000  -0.0000  -0.0000  -0.0000  -0.0000  -0.0000
    -0.0000  -0.0000  -0.0000  -0.0000  -0.0000

     the Fermi energy is     5.7383 ev

!    total energy              =   -2474.17886466 Ry
     estimated scf accuracy    <       0.00000022 Ry
     smearing contrib. (-TS)   =       0.00000000 Ry
     internal energy E=F+TS    =   -2474.17886466 Ry

     The total energy is F=E-TS. E is the sum of the following terms:
     one-electron contribution =   -2271.55679430 Ry
     hartree contribution      =    1184.83068948 Ry
     xc contribution           =    -499.93428892 Ry
     ewald contribution        =    -776.68698431 Ry
     one-center paw contrib.   =    -110.83148662 Ry
      -> PAW hartree energy AE =      75.12769840 Ry
      -> PAW hartree energy PS =     -74.70833381 Ry
      -> PAW xc energy AE      =    -132.39777217 Ry
      -> PAW xc energy PS      =      21.14692097 Ry
      -> total E_H with PAW    =    1185.25005407 Ry
      -> total E_XC with PAW   =    -611.18514012 Ry

     convergence has been achieved in  17 iterations

     negative rho (up, down):  1.883E-01 0.000E+00

     Forces acting on atoms (cartesian axes, Ry/au):

     atom    1 type  1   force =     0.00028568    0.00180349    0.00000000
     atom    2 type  1   force =     0.00064676    0.00170681    0.00000000
     atom    3 type  2   force =     0.00197598    0.01382651    0.00000000
     atom    4 type  2   force =     0.00575578    0.01268444    0.00000000
     atom    5 type  3   force =    -0.00001410    0.00148045    0.00000000
     atom    6 type  3   force =     0.00079807    0.00111709    0.00000000
     atom    7 type  3   force =     0.00133426    0.00318073    0.00005482
     atom    8 type  3   force =     0.00133426    0.00318073   -0.00005482
     atom    9 type  4   force =     0.00702111    0.00036783    0.00000000
     atom   10 type  4   force =    -0.00584428    0.00421795    0.00000000
     atom   11 type  4   force =    -0.00010395    0.00848630    0.00000000
     atom   12 type  4   force =     0.00465574    0.00709871    0.00000000
     atom   13 type  4   force =    -0.00184186   -0.01557378    0.01285301
     atom   14 type  4   force =    -0.00708079   -0.01400174   -0.01284172
     atom   15 type  4   force =    -0.00184186   -0.01557378   -0.01285301
     atom   16 type  4   force =    -0.00708079   -0.01400174    0.01284172
     The non-local contrib.  to forces
     atom    1 type  1   force =     0.00573895   -0.00885283    0.00000000
     atom    2 type  1   force =    -0.00958998   -0.00428553    0.00000000
     atom    3 type  2   force =    -0.02087304    0.01692660    0.00000000
     atom    4 type  2   force =     0.02668799    0.00279870    0.00000000
     atom    5 type  3   force =    -0.05625557   -0.02594580    0.00000000
     atom    6 type  3   force =     0.03302963   -0.05258561    0.00000000
     atom    7 type  3   force =    -0.03338688   -0.11351549    0.00006284
     atom    8 type  3   force =    -0.03338688   -0.11351549   -0.00006284
     atom    9 type  4   force =     0.19345494    0.11144000    0.00000000
     atom   10 type  4   force =    -0.10122608    0.19898818    0.00000000
     atom   11 type  4   force =    -0.14612046    0.03796764    0.00000000
     atom   12 type  4   force =     0.14315992   -0.04798306    0.00000000
     atom   13 type  4   force =     0.09123449   -0.07986297    0.18451961
     atom   14 type  4   force =    -0.12004423   -0.01707605   -0.18450450
     atom   15 type  4   force =     0.09123449   -0.07986297   -0.18451961
     atom   16 type  4   force =    -0.12004423   -0.01707605    0.18450450
     The ionic contribution  to forces
     atom    1 type  1   force =     6.06174274   -2.92591771   -0.00000000
     atom    2 type  1   force =    -6.67591351    0.85901007    0.00000000
     atom    3 type  2   force =    25.05076306   -8.04912440   -0.00000000
     atom    4 type  2   force =   -25.38136794    6.93651893    0.00000000
     atom    5 type  3   force =    21.76178085   -5.79058669   -0.00000000
     atom    6 type  3   force =   -21.39273733    7.03255215    0.00000000
     atom    7 type  3   force =     0.31599296    1.06343105   -0.00000000
     atom    8 type  3   force =     0.31599296    1.06343105    0.00000000
     atom    9 type  4   force =   -11.56483586   -4.34166809    0.00000000
     atom   10 type  4   force =     7.31741920   -9.95243119   -0.00000000
     atom   11 type  4   force =    13.91803683   -3.18503069    0.00000000
     atom   12 type  4   force =   -13.39891658    4.93205881    0.00000000
     atom   13 type  4   force =   -11.04531857    6.64427974  -11.26735762
     atom   14 type  4   force =    12.88133989   -0.46540139   11.26735762
     atom   15 type  4   force =   -11.04531857    6.64427974   11.26735762
     atom   16 type  4   force =    12.88133989   -0.46540139  -11.26735762
     The local contribution  to forces
     atom    1 type  1   force =    -6.06698022    2.93612520    0.00007772
     atom    2 type  1   force =     6.68619975   -0.85338299   -0.00008156
     atom    3 type  2   force =   -25.02750172    8.04980123   -0.00020072
     atom    4 type  2   force =    25.36211062   -6.92326157    0.00022941
     atom    5 type  3   force =   -21.70597802    5.81763317   -0.00025330
     atom    6 type  3   force =    21.36057279   -6.97923042    0.00029504
     atom    7 type  3   force =    -0.28187896   -0.94608402   -0.00008916
     atom    8 type  3   force =    -0.28183243   -0.94601845    0.00008463
     atom    9 type  4   force =    11.39763749    4.24274306   -0.00015272
     atom   10 type  4   force =    -7.23187226    9.77855340    0.00015317
     atom   11 type  4   force =   -13.78611283    3.15627498   -0.00004362
     atom   12 type  4   force =    13.27320999   -4.88410594    0.00004821
     atom   13 type  4   force =    10.96411325   -6.58716786   11.11402729
     atom   14 type  4   force =   -12.78216309    0.46904713  -11.11387674
     atom   15 type  4   force =    10.96419870   -6.58722113  -11.11403905
     atom   16 type  4   force =   -12.78226196    0.46904294   11.11387718
     The core correction contribution to forces
     atom    1 type  1   force =    -0.00010548    0.00041290    0.00000020
     atom    2 type  1   force =     0.00031292    0.00028782   -0.00000007
     atom    3 type  2   force =    -0.00066485   -0.00345018   -0.00000477
     atom    4 type  2   force =    -0.00132864   -0.00324949    0.00000587
     atom    5 type  3   force =     0.00004265    0.00005017    0.00000005
     atom    6 type  3   force =    -0.00000822    0.00006549   -0.00000008
     atom    7 type  3   force =     0.00000584    0.00001915   -0.00000003
     atom    8 type  3   force =     0.00000581    0.00001912    0.00000005
     atom    9 type  4   force =    -0.01932295   -0.01201816   -0.00000054
     atom   10 type  4   force =     0.00962323   -0.02061657    0.00000027
     atom   11 type  4   force =     0.01427889   -0.00081082   -0.00000004
     atom   12 type  4   force =    -0.01240382    0.00711752    0.00000022
     atom   13 type  4   force =    -0.01179878    0.00700674   -0.01817057
     atom   14 type  4   force =     0.01370991   -0.00057260    0.01816856
     atom   15 type  4   force =    -0.01179770    0.00700664    0.01817031
     atom   16 type  4   force =     0.01370874   -0.00057328   -0.01816817
     The Hubbard contrib.    to forces
     atom    1 type  1   force =     0.00000000    0.00000000    0.00000000
     atom    2 type  1   force =     0.00000000    0.00000000    0.00000000
     atom    3 type  2   force =     0.00000000    0.00000000    0.00000000
     atom    4 type  2   force =     0.00000000    0.00000000    0.00000000
     atom    5 type  3   force =     0.00000000    0.00000000    0.00000000
     atom    6 type  3   force =     0.00000000    0.00000000    0.00000000
     atom    7 type  3   force =     0.00000000    0.00000000    0.00000000
     atom    8 type  3   force =     0.00000000    0.00000000    0.00000000
     atom    9 type  4   force =     0.00000000    0.00000000    0.00000000
     atom   10 type  4   force =     0.00000000    0.00000000    0.00000000
     atom   11 type  4   force =     0.00000000    0.00000000    0.00000000
     atom   12 type  4   force =     0.00000000    0.00000000    0.00000000
     atom   13 type  4   force =     0.00000000    0.00000000    0.00000000
     atom   14 type  4   force =     0.00000000    0.00000000    0.00000000
     atom   15 type  4   force =     0.00000000    0.00000000    0.00000000
     atom   16 type  4   force =     0.00000000    0.00000000    0.00000000
     The SCF correction term to forces
     atom    1 type  1   force =    -0.00005309    0.00001279   -0.00007682
     atom    2 type  1   force =    -0.00030521    0.00005430    0.00008561
     atom    3 type  2   force =     0.00030975   -0.00034988    0.00024327
     atom    4 type  2   force =    -0.00028905   -0.00014527   -0.00027484
     atom    5 type  3   force =     0.00045320    0.00030646    0.00031117
     atom    6 type  3   force =    -0.00000159    0.00029234   -0.00036794
     atom    7 type  3   force =     0.00065401   -0.00070540    0.00007368
     atom    8 type  3   force =     0.00061652   -0.00074635   -0.00008414
     atom    9 type  4   force =     0.00014471   -0.00015212    0.00015115
     atom   10 type  4   force =     0.00026884   -0.00029901   -0.00015237
     atom   11 type  4   force =    -0.00012916    0.00006204    0.00004433
     atom   12 type  4   force =    -0.00033656   -0.00001176   -0.00004911
     atom   13 type  4   force =    -0.00001778    0.00014564   -0.00016503
     atom   14 type  4   force =     0.00013446   -0.00002212    0.00000975
     atom   15 type  4   force =    -0.00009881    0.00020260    0.00017838
     atom   16 type  4   force =     0.00023348   -0.00001696   -0.00001776

     Total force =     0.048100     Total SCF correction =     0.001912

     Computing stress (Cartesian axis) and pressure

     negative rho (up, down):  1.883E-01 0.000E+00
          total   stress  (Ry/bohr**3)                   (kbar)     P=     -122.67
  -0.00092696   0.00005776   0.00000000         -136.36        8.50        0.00
   0.00005776  -0.00074982   0.00000000            8.50     -110.30        0.00
   0.00000000   0.00000000  -0.00082487            0.00        0.00     -121.34

     kinetic stress (kbar)  11585.96     -6.61      0.00
                               -6.61  11565.67      0.00
                                0.00      0.00  11643.29

     local   stress (kbar)   -503.05 -11011.90     -0.07
                           -11011.90 -34289.89      0.02
                               -0.07      0.02 -22781.16

     nonloc. stress (kbar)   5046.29     -1.15      0.00
                               -1.15   5042.71      0.00
                                0.00      0.00   5047.37

     hartree stress (kbar)  10921.43   5227.92      0.06
                             5227.92  26961.76     -0.02
                                0.06     -0.02  22026.51

     exc-cor stress (kbar)   8969.91      0.26      0.00
                                0.26   8970.71     -0.00
                                0.00     -0.00   8969.20

     corecor stress (kbar) -13423.17     -0.25     -0.00
                               -0.25 -13423.94      0.00
                               -0.00      0.00 -13425.26

     ewald   stress (kbar) -22733.73   5800.24      0.00
                             5800.24  -4937.33     -0.00
                                0.00     -0.00 -11601.29

     hubbard stress (kbar)      0.00      0.00      0.00
                                0.00      0.00      0.00
                                0.00      0.00      0.00

     DFT-D   stress (kbar)      0.00      0.00      0.00
                                0.00      0.00      0.00
                                0.00      0.00      0.00

     XDM     stress (kbar)      0.00      0.00      0.00
                                0.00      0.00      0.00
                                0.00      0.00      0.00

     dft-nl  stress (kbar)      0.00      0.00      0.00
                                0.00      0.00      0.00
                                0.00      0.00      0.00

     TS-vdW  stress (kbar)      0.00      0.00      0.00
                                0.00      0.00      0.00
                                0.00      0.00      0.00

[...]

                                0.00      0.00      0.00

     Writing all to output data dir new_calculations/myprefix.save/

     General routines

     Parallel routines

     PAW routines

   This run was terminated on:  20:11:47  21May2023

   JOB DONE.