     Program PWSCF v.7.0 starts on 21May2023 at  2:51:50

     Reading input from espresso_12734.pwi
Warning: card &CELL ignored
Warning: card / ignored

     Current dimensions of program PWSCF are:
     Max number of different atomic species (ntypx) = 10
     Max number of k-points (npk) =  40000
     Max angular momentum in pseudopotentials (lmaxx) =  4
     file Mg.pbe-n-kjpaw_psl.0.3.0.UPF: wavefunction(s)  3S renormalized

     gamma-point specific algorithms are used
     Message from routine setup:
     using ibrav=0 with symmetry is DISCOURAGED, use correct ibrav instead

     Subspace diagonalization in iterative solution of the eigenvalue problem:
     a serial algorithm will be used

     Using Slab Decomposition

     bravais-lattice index     =            0
     lattice parameter (alat)  =      13.4683  a.u.
     unit-cell volume          =    1796.2155 (a.u.)^3
     number of atoms/cell      =            6
     number of atomic types    =            2
     number of electrons       =        44.00
     number of Kohn-Sham states=           26
     kinetic-energy cutoff     =      30.0000  Ry
     charge density cutoff     =     240.0000  Ry
     scf convergence threshold =      1.0E-06
     mixing beta               =       0.7000
     number of iterations used =            8  plain     mixing
     Exchange-correlation= SLA  PW   PBX  PBC
                           (   1   4   3   4   0   0   0)

     celldm(1)=  13.468261  celldm(2)=   0.000000  celldm(3)=   0.000000
     celldm(4)=   0.000000  celldm(5)=   0.000000  celldm(6)=   0.000000

     crystal axes: (cart. coord. in units of alat)
               a(1) = (   1.000000   0.000000   0.000000 )
               a(2) = (  -0.549996   0.835167   0.000000 )
               a(3) = (  -0.225002  -0.417584   0.880340 )

     reciprocal axes: (cart. coord. in units 2 pi/alat)
               b(1) = (  1.000000  0.658545  0.567963 )
               b(2) = (  0.000000  1.197365  0.567963 )
               b(3) = (  0.000000  0.000000  1.135925 )

     PseudoPot. # 1 for Sr read from file:
     /home/pragov/projects/rrg-bengioy-ad/pragov/crystal_structure_design/SSSP/Sr_pbe_v1.uspp.F.UPF
     MD5 check sum: 6b418c05fbe9db5448babca5e47b7a5b
     Pseudo is Ultrasoft + core correction, Zval = 10.0
     Generated by new atomic code, or converted to UPF format
     Using radial grid of  883 points,  6 beta functions with:
                l(1) =   0
                l(2) =   0
                l(3) =   1
                l(4) =   1
                l(5) =   2
                l(6) =   2
     Q(r) pseudized with  6 coefficients,  rinner =    1.400   1.400   1.400
                                                       1.400   1.400

     PseudoPot. # 2 for Mg read from file:
     /home/pragov/projects/rrg-bengioy-ad/pragov/crystal_structure_design/SSSP/Mg.pbe-n-kjpaw_psl.0.3.0.UPF
     MD5 check sum: 24ecedc7f3e3cbe212e682f4413594e4
     Pseudo is Projector augmented-wave + core cor, Zval =  2.0
     Generated using "atomic" code by A. Dal Corso  v.5.0.99 svn rev. 10869
     Shape of augmentation charge: PSQ
     Using radial grid of 1129 points,  4 beta functions with:
                l(1) =   0
                l(2) =   0
                l(3) =   1
                l(4) =   1
     Q(r) pseudized with 0 coefficients

     atomic species   valence    mass     pseudopotential
        Sr            10.00    87.62000     Sr( 1.00)
        Mg             2.00    24.30500     Mg( 1.00)

      4 Sym. Ops., with inversion, found ( 2 have fractional translation)

                                    s                        frac. trans.

      isym =  1     identity

 cryst.   s( 1) = (     1          0          0      )
                  (     0          1          0      )
                  (     0          0          1      )

 cart.    s( 1) = (  1.0000000  0.0000000  0.0000000 )
                  (  0.0000000  1.0000000  0.0000000 )
                  (  0.0000000  0.0000000  1.0000000 )

      isym =  2     180 deg rotation - cart. axis [0,0,1]

 cryst.   s( 2) = (    -1          0          0      )    f =( -0.5000000 )
                  (     0         -1          0      )       ( -0.5000000 )
                  (     1          1          1      )       (  0.0000000 )

 cart.    s( 2) = ( -1.0000000 -0.0000000 -0.0000000 )    f =( -0.2250021 )
                  (  0.0000000 -1.0000000 -0.0000000 )       ( -0.4175837 )
                  (  0.0000000  0.0000000  1.0000000 )       (  0.0000000 )

      isym =  3     inversion

 cryst.   s( 3) = (    -1          0          0      )
                  (     0         -1          0      )
                  (     0          0         -1      )

 cart.    s( 3) = ( -1.0000000 -0.0000000 -0.0000000 )
                  (  0.0000000 -1.0000000 -0.0000000 )
                  (  0.0000000  0.0000000 -1.0000000 )

      isym =  4     inv. 180 deg rotation - cart. axis [0,0,1]

 cryst.   s( 4) = (     1          0          0      )    f =( -0.5000000 )
                  (     0          1          0      )       ( -0.5000000 )
                  (    -1         -1         -1      )       (  0.0000000 )

 cart.    s( 4) = (  1.0000000  0.0000000  0.0000000 )    f =( -0.2250021 )
                  (  0.0000000  1.0000000  0.0000000 )       ( -0.4175837 )
                  (  0.0000000  0.0000000 -1.0000000 )       (  0.0000000 )

   Cartesian axes

     site n.     atom                  positions (alat units)
         1           Sr  tau(   1) = (   0.0937810   0.4882882   0.4401698  )
         2           Sr  tau(   2) = (   0.1312211  -0.0707044   0.4401698  )
         3           Sr  tau(   3) = (  -0.3874989   0.2087919   0.7312823  )
         4           Sr  tau(   4) = (   0.6125011   0.2087919   0.1490573  )
         5           Mg  tau(   5) = (   0.1125011   0.2087919   0.0000000  )
         6           Mg  tau(   6) = (   0.3375032   0.6263756   0.0000000  )

   Crystallographic axes

     site n.     atom                  positions (cryst. coord.)
         1           Sr  tau(   1) = (  0.6653410  0.8346590  0.5000000  )
         2           Sr  tau(   2) = (  0.3346590  0.1653410  0.5000000  )
         3           Sr  tau(   3) = (  0.1653410  0.6653410  0.8306820  )
         4           Sr  tau(   4) = (  0.8346590  0.3346590  0.1693180  )
         5           Mg  tau(   5) = (  0.2500000  0.2500000  0.0000000  )
         6           Mg  tau(   6) = (  0.7500000  0.7500000  0.0000000  )

     number of k points=     1  Methfessel-Paxton smearing, width (Ry)=  0.0010
                       cart. coord. in units 2pi/alat
        k(    1) = (   0.0000000   0.0000000   0.0000000), wk =   2.0000000

                       cryst. coord.
        k(    1) = (   0.0000000   0.0000000   0.0000000), wk =   2.0000000

     Check: negative core charge=   -0.000003

     Initial potential from superposition of free atoms

     starting charge      43.8635, renormalised to      44.0000

     negative rho (up, down):  2.547E-01 0.000E+00
     Starting wfcs are   60 randomized atomic wfcs
     Checking if some PAW data can be deallocated...

     Self-consistent Calculation

     iteration #  1     ecut=    30.00 Ry     beta= 0.70
     Davidson diagonalization with overlap

     ethr =  1.00E-02,  avg # of iterations =  2.0

     negative rho (up, down):  2.519E-01 0.000E+00

     total energy              =    -347.53622642 Ry
     estimated scf accuracy    <       0.50599126 Ry

[...]

     total energy              =    -347.78410322 Ry
     estimated scf accuracy    <       0.00000656 Ry

     iteration # 26     ecut=    30.00 Ry     beta= 0.70
     Davidson diagonalization with overlap

     ethr =  1.49E-08,  avg # of iterations =  1.0

[...]

     End of self-consistent calculation

          k = 0.0000 0.0000 0.0000 (  2516 PWs)   bands (ev):

   -31.6517 -31.6511 -31.6120 -31.6046 -14.0160 -13.9194 -13.7934 -13.7528
   -13.7220 -13.7121 -13.6278 -13.5987 -13.5878 -13.5647 -13.5400 -13.5068
     0.4111   3.4949   3.6160   4.3691   4.3831   4.8422   4.8448   4.9281
     5.1322   5.1467

     occupation numbers
     1.0000   1.0000   1.0000   1.0000   1.0000   1.0000   1.0000   1.0000
     1.0000   1.0000   1.0000   1.0000   1.0000   1.0000   1.0000   1.0000
     1.0000   1.0000   1.0000   1.0000   1.0000   0.5814   0.4186  -0.0000
    -0.0000  -0.0000

     the Fermi energy is     4.8435 ev

!    total energy              =    -347.78410293 Ry
     estimated scf accuracy    <       0.00000054 Ry
     smearing contrib. (-TS)   =      -0.00054848 Ry
     internal energy E=F+TS    =    -347.78355445 Ry

     The total energy is F=E-TS. E is the sum of the following terms:
     one-electron contribution =    -108.70765801 Ry
     hartree contribution      =      59.78655902 Ry
     xc contribution           =     -75.81182120 Ry
     ewald contribution        =    -160.44587388 Ry
     one-center paw contrib.   =     -62.60476040 Ry
      -> PAW hartree energy AE =       1.59948673 Ry
      -> PAW hartree energy PS =      -1.59520008 Ry
      -> PAW xc energy AE      =     -65.24406338 Ry
      -> PAW xc energy PS      =       2.63501634 Ry
      -> total E_H with PAW    =      59.79084567 Ry
      -> total E_XC with PAW   =    -138.42086824 Ry

     convergence has been achieved in  26 iterations

     negative rho (up, down):  2.533E-01 0.000E+00

     Forces acting on atoms (cartesian axes, Ry/au):

     atom    1 type  1   force =    -0.00543228   -0.00142184   -0.00000000
     atom    2 type  1   force =     0.00543228    0.00142184    0.00000000
     atom    3 type  1   force =     0.00000000    0.00000000   -0.01408213
     atom    4 type  1   force =     0.00000000    0.00000000    0.01408213
     atom    5 type  2   force =     0.00000000    0.00000000    0.00000186
     atom    6 type  2   force =     0.00000000    0.00000000   -0.00000186
     The non-local contrib.  to forces
     atom    1 type  1   force =     0.05759890   -0.04171415   -0.00000000
     atom    2 type  1   force =    -0.05759890    0.04171415    0.00000000
     atom    3 type  1   force =     0.00000000    0.00000000    0.08449565
     atom    4 type  1   force =     0.00000000    0.00000000   -0.08449565
     atom    5 type  2   force =     0.00000000    0.00000000   -0.00017500
     atom    6 type  2   force =     0.00000000    0.00000000    0.00017500
     The ionic contribution  to forces
     atom    1 type  1   force =     0.24313994   -0.13100847    0.00000000
     atom    2 type  1   force =    -0.24313994    0.13100847    0.00000000
     atom    3 type  1   force =    -0.00000000   -0.00000000    0.27618879
     atom    4 type  1   force =     0.00000000    0.00000000   -0.27618879
     atom    5 type  2   force =    -0.00000000    0.00000000   -0.00000000
     atom    6 type  2   force =     0.00000000   -0.00000000   -0.00000000
     The local contribution  to forces
     atom    1 type  1   force =    -0.29921180    0.16691696    0.03005610
     atom    2 type  1   force =     0.29930496   -0.16696072   -0.02997103
     atom    3 type  1   force =     0.00180194   -0.00246188   -0.36345637
     atom    4 type  1   force =    -0.00187202    0.00249336    0.36345469
     atom    5 type  2   force =     0.00062296   -0.00021478    0.00014635
     atom    6 type  2   force =    -0.00061027    0.00020865   -0.00015708
     The core correction contribution to forces
     atom    1 type  1   force =    -0.00678007    0.00426684    0.00486290
     atom    2 type  1   force =     0.00678309   -0.00426843   -0.00485931
     atom    3 type  1   force =    -0.00001961    0.00049570   -0.01117818
     atom    4 type  1   force =     0.00001865   -0.00049560    0.01117942
     atom    5 type  2   force =     0.00003195   -0.00002564    0.00002593
     atom    6 type  2   force =    -0.00003157    0.00002552   -0.00002656
     The Hubbard contrib.    to forces
     atom    1 type  1   force =     0.00000000    0.00000000    0.00000000
     atom    2 type  1   force =     0.00000000    0.00000000    0.00000000
     atom    3 type  1   force =     0.00000000    0.00000000    0.00000000
     atom    4 type  1   force =     0.00000000    0.00000000    0.00000000
     atom    5 type  2   force =     0.00000000    0.00000000    0.00000000
     atom    6 type  2   force =     0.00000000    0.00000000    0.00000000
     The SCF correction term to forces
     atom    1 type  1   force =    -0.00015660    0.00010368   -0.00001275
     atom    2 type  1   force =     0.00010573   -0.00008494   -0.00003531
     atom    3 type  1   force =     0.00001962   -0.00003528   -0.00012578
     atom    4 type  1   force =     0.00004987    0.00000679    0.00013872
     atom    5 type  2   force =    -0.00000484    0.00000225    0.00000063
     atom    6 type  2   force =    -0.00000143    0.00000112    0.00000283

     Total force =     0.021440     Total SCF correction =     0.000307

     Computing stress (Cartesian axis) and pressure

     negative rho (up, down):  2.533E-01 0.000E+00
          total   stress  (Ry/bohr**3)                   (kbar)     P=       41.90
   0.00041033  -0.00028844  -0.00000000           60.36      -42.43       -0.00
  -0.00028844  -0.00007457  -0.00000000          -42.43      -10.97       -0.00
  -0.00000000  -0.00000000   0.00051868           -0.00       -0.00       76.30

     kinetic stress (kbar)   4608.41    -39.78      0.00
                              -39.78   4546.28      0.00
                                0.00      0.00   4625.87

     local   stress (kbar)  -4344.98   -412.23      2.87
                             -412.23  -4891.73      8.85
                                2.87      8.85  -4127.51

     nonloc. stress (kbar)   4042.04    -27.44      0.00
                              -27.44   4003.27      0.00
                                0.00      0.00   4058.87

     hartree stress (kbar)   1584.96    181.61      1.06
                              181.61   1824.47     -1.15
                                1.06     -1.15   1486.92

     exc-cor stress (kbar)   2018.84      0.31     -0.03
                                0.31   2019.29     -0.03
                               -0.03     -0.03   2018.69

     corecor stress (kbar)  -3403.15      1.71     -0.20
                                1.71  -3400.54      0.36
                               -0.20      0.36  -3404.23

     ewald   stress (kbar)  -4445.76    253.40      0.00
                              253.40  -4112.01      0.00
                                0.00      0.00  -4582.30

     hubbard stress (kbar)      0.00      0.00      0.00
                                0.00      0.00      0.00
                                0.00      0.00      0.00

     DFT-D   stress (kbar)      0.00      0.00      0.00
                                0.00      0.00      0.00
                                0.00      0.00      0.00

     XDM     stress (kbar)      0.00      0.00      0.00
                                0.00      0.00      0.00
                                0.00      0.00      0.00

     dft-nl  stress (kbar)      0.00      0.00      0.00
                                0.00      0.00      0.00
                                0.00      0.00      0.00

     TS-vdW  stress (kbar)      0.00      0.00      0.00
                                0.00      0.00      0.00
                                0.00      0.00      0.00

[...]

                                0.00      0.00      0.00

     Writing all to output data dir new_calculations/myprefix.save/

     General routines

     Parallel routines

     PAW routines

   This run was terminated on:   2:52:15  21May2023

   JOB DONE.