     Program PWSCF v.7.0 starts on 20May2023 at 23:37:42

     Reading input from espresso_6613.pwi
Warning: card &CELL ignored
Warning: card / ignored

     Current dimensions of program PWSCF are:
     Max number of different atomic species (ntypx) = 10
     Max number of k-points (npk) =  40000
     Max angular momentum in pseudopotentials (lmaxx) =  4
     file Pb.pbe-dn-kjpaw_psl.0.2.2.UPF: wavefunction(s)  6S renormalized

     gamma-point specific algorithms are used
     Message from routine setup:
     using ibrav=0 with symmetry is DISCOURAGED, use correct ibrav instead

     Subspace diagonalization in iterative solution of the eigenvalue problem:
     a serial algorithm will be used

     Using Slab Decomposition

     bravais-lattice index     =            0
     lattice parameter (alat)  =      35.3756  a.u.
     unit-cell volume          =    2272.4134 (a.u.)^3
     number of atoms/cell      =           10
     number of atomic types    =            3
     number of electrons       =       100.00
     number of Kohn-Sham states=           60
     kinetic-energy cutoff     =      30.0000  Ry
     charge density cutoff     =     240.0000  Ry
     scf convergence threshold =      1.0E-06
     mixing beta               =       0.7000
     number of iterations used =            8  plain     mixing
     Exchange-correlation= SLA  PW   PBX  PBC
                           (   1   4   3   4   0   0   0)

     celldm(1)=  35.375575  celldm(2)=   0.000000  celldm(3)=   0.000000
     celldm(4)=   0.000000  celldm(5)=   0.000000  celldm(6)=   0.000000

     crystal axes: (cart. coord. in units of alat)
               a(1) = (   1.000000   0.000000   0.000000 )
               a(2) = (   0.970064   0.242849   0.000000 )
               a(3) = (   0.970064   0.119580   0.211368 )

     reciprocal axes: (cart. coord. in units 2 pi/alat)
               b(1) = (  1.000000 -3.994509 -2.329594 )
               b(2) = (  0.000000  4.117779 -2.329594 )
               b(3) = (  0.000000  0.000000  4.731079 )

     PseudoPot. # 1 for Ge read from file:
     /home/pragov/projects/rrg-bengioy-ad/pragov/crystal_structure_design/SSSP/ge_pbe_v1.4.uspp.F.UPF
     MD5 check sum: 9c9eaa91e581c3f09632fb3098b2c6b2
     Pseudo is Ultrasoft + core correction, Zval = 14.0
     Generated by new atomic code, or converted to UPF format
     Using radial grid of  873 points,  6 beta functions with:
                l(1) =   0
                l(2) =   0
                l(3) =   1
                l(4) =   1
                l(5) =   2
                l(6) =   2
     Q(r) pseudized with  8 coefficients,  rinner =    1.400   1.400   1.400
                                                       1.400   1.400

     PseudoPot. # 2 for Te read from file:
     /home/pragov/projects/rrg-bengioy-ad/pragov/crystal_structure_design/SSSP/Te_pbe_v1.uspp.F.UPF
     MD5 check sum: c319670d6894cc26e93307826a071b75
     Pseudo is Ultrasoft + core correction, Zval =  6.0
     Generated by new atomic code, or converted to UPF format
     Using radial grid of  891 points,  5 beta functions with:
                l(1) =   0
                l(2) =   0
                l(3) =   1
                l(4) =   1
                l(5) =   2
     Q(r) pseudized with  6 coefficients,  rinner =    1.800   1.800   1.800
                                                       1.800   1.800

     PseudoPot. # 3 for Pb read from file:
     /home/pragov/projects/rrg-bengioy-ad/pragov/crystal_structure_design/SSSP/Pb.pbe-dn-kjpaw_psl.0.2.2.UPF
     MD5 check sum: 9d431e6316058b74ade52399a6cf67da
     Pseudo is Projector augmented-wave + core cor, Zval = 14.0
     Generated using "atomic" code by A. Dal Corso  v.5.0.99 svn rev. 10869
     Shape of augmentation charge: PSQ
     Using radial grid of 1281 points,  6 beta functions with:
                l(1) =   0
                l(2) =   0
                l(3) =   1
                l(4) =   1
                l(5) =   2
                l(6) =   2
     Q(r) pseudized with 0 coefficients

     atomic species   valence    mass     pseudopotential
        Ge            14.00    72.63000     Ge( 1.00)
        Te             6.00   127.60000     Te( 1.00)
        Pb            14.00   207.20000     Pb( 1.00)

      2 Sym. Ops., with inversion, found

                                    s                        frac. trans.

      isym =  1     identity

 cryst.   s( 1) = (     1          0          0      )
                  (     0          1          0      )
                  (     0          0          1      )

 cart.    s( 1) = (  1.0000000  0.0000000 -0.0000000 )
                  (  0.0000000  1.0000000 -0.0000000 )
                  (  0.0000000  0.0000000  1.0000000 )

      isym =  2     inversion

 cryst.   s( 2) = (    -1          0          0      )
                  (     0         -1          0      )
                  (     0          0         -1      )

 cart.    s( 2) = ( -1.0000000 -0.0000000  0.0000000 )
                  (  0.0000000 -1.0000000  0.0000000 )
                  (  0.0000000  0.0000000 -1.0000000 )

   Cartesian axes

     site n.     atom                  positions (alat units)
         1           Ge  tau(   1) = (   0.0000000   0.0000000   0.0000000  )
         2           Te  tau(   2) = (   2.0428421   0.2518207   0.1468616  )
         3           Te  tau(   3) = (   1.4700640   0.1812145   0.1056841  )
         4           Te  tau(   4) = (   0.2873622   0.0354231   0.0206587  )
         5           Te  tau(   5) = (   0.8972859   0.1106083   0.0645066  )
         6           Te  tau(   6) = (   2.6527658   0.3270059   0.1907096  )
         7           Pb  tau(   7) = (   1.7745084   0.2187433   0.1275709  )
         8           Pb  tau(   8) = (   0.5912333   0.0728812   0.0425043  )
         9           Pb  tau(   9) = (   2.3488947   0.2895478   0.1688640  )
        10           Pb  tau(  10) = (   1.1656196   0.1436857   0.0837974  )

   Crystallographic axes

     site n.     atom                  positions (cryst. coord.)
         1           Ge  tau(   1) = (  0.0000000  0.0000000  0.0000000  )
         2           Te  tau(   2) = (  0.6948140  0.6948140  0.6948140  )
         3           Te  tau(   3) = (  0.5000000  0.5000000  0.5000000  )
         4           Te  tau(   4) = (  0.0977380  0.0977380  0.0977380  )
         5           Te  tau(   5) = (  0.3051860  0.3051860  0.3051860  )
         6           Te  tau(   6) = (  0.9022620  0.9022620  0.9022620  )
         7           Pb  tau(   7) = (  0.6035480  0.6035480  0.6035480  )
         8           Pb  tau(   8) = (  0.2010910  0.2010910  0.2010910  )
         9           Pb  tau(   9) = (  0.7989090  0.7989090  0.7989090  )
        10           Pb  tau(  10) = (  0.3964520  0.3964520  0.3964520  )

     number of k points=     1  Methfessel-Paxton smearing, width (Ry)=  0.0010
                       cart. coord. in units 2pi/alat
        k(    1) = (   0.0000000   0.0000000   0.0000000), wk =   2.0000000

                       cryst. coord.
        k(    1) = (   0.0000000   0.0000000   0.0000000), wk =   2.0000000

     Initial potential from superposition of free atoms

     starting charge      99.9886, renormalised to     100.0000
     Starting wfcs are   65 randomized atomic wfcs
     Checking if some PAW data can be deallocated...

     Self-consistent Calculation

     iteration #  1     ecut=    30.00 Ry     beta= 0.70
     Davidson diagonalization with overlap

     ethr =  1.00E-02,  avg # of iterations =  2.0

     total energy              =   -3825.82671088 Ry
     estimated scf accuracy    <       1.14507396 Ry

[...]

     total energy              =   -3826.37337109 Ry
     estimated scf accuracy    <       0.00007483 Ry

     iteration # 18     ecut=    30.00 Ry     beta= 0.70
     Davidson diagonalization with overlap

     ethr =  1.29E-08,  avg # of iterations =  2.0

     End of self-consistent calculation

          k = 0.0000 0.0000 0.0000 (  3145 PWs)   bands (ev):

   -16.9475 -16.9406 -16.9406 -16.9205 -16.9205 -10.0681 -10.0681 -10.0672
   -10.0672 -10.0300 -10.0300 -10.0282 -10.0282 -10.0048 -10.0047 -10.0039
   -10.0039 -10.0021 -10.0012  -9.9850  -9.9831  -9.9810  -9.9809  -9.9781
    -9.9780  -4.4712  -4.1172  -4.0696  -3.1522  -3.0467  -1.2158  -0.9500
     0.4951   0.8340   1.9524   6.0148   6.1350   6.1351   6.2307   6.2307
     6.2322   6.2322   6.3816   6.5511   6.5512   6.5628   6.5629   6.8225
     7.0514   7.3377   8.1611   8.2643   8.3594   8.3594   8.4457   8.4458
     9.6377   9.7753   9.9191   9.9202

     occupation numbers
     1.0000   1.0000   1.0000   1.0000   1.0000   1.0000   1.0000   1.0000
     1.0000   1.0000   1.0000   1.0000   1.0000   1.0000   1.0000   1.0000
     1.0000   1.0000   1.0000   1.0000   1.0000   1.0000   1.0000   1.0000
     1.0000   1.0000   1.0000   1.0000   1.0000   1.0000   1.0000   1.0000
     1.0000   1.0000   1.0000   1.0000   1.0000   1.0000   1.0000   1.0000
     1.0000   1.0000   1.0000   1.0000   1.0000   1.0000   1.0000   1.0000
     1.0000   1.0000  -0.0000  -0.0000  -0.0000  -0.0000  -0.0000  -0.0000
    -0.0000  -0.0000  -0.0000  -0.0000

     the Fermi energy is     7.5119 ev

!    total energy              =   -3826.37337495 Ry
     estimated scf accuracy    <       0.00000066 Ry
     smearing contrib. (-TS)   =       0.00000000 Ry
     internal energy E=F+TS    =   -3826.37337495 Ry

     The total energy is F=E-TS. E is the sum of the following terms:
     one-electron contribution =    -337.01632839 Ry
     hartree contribution      =     240.12437962 Ry
     xc contribution           =    -308.73955802 Ry
     ewald contribution        =    -506.80859650 Ry
     one-center paw contrib.   =   -2913.93327165 Ry
      -> PAW hartree energy AE =     392.43878110 Ry
      -> PAW hartree energy PS =    -391.61260973 Ry
      -> PAW xc energy AE      =   -3089.77761668 Ry
      -> PAW xc energy PS      =     175.01817366 Ry
      -> total E_H with PAW    =     240.95055098 Ry
      -> total E_XC with PAW   =   -3223.49900104 Ry

     convergence has been achieved in  18 iterations

     Forces acting on atoms (cartesian axes, Ry/au):

     atom    1 type  1   force =     0.00000000    0.00000000    0.00000000
     atom    2 type  2   force =    -0.05311251   -0.00655044   -0.00382214
     atom    3 type  2   force =     0.00000000    0.00000000    0.00000000
     atom    4 type  2   force =    -0.00291601   -0.00035579   -0.00020809
     atom    5 type  2   force =     0.05311251    0.00655044    0.00382214
     atom    6 type  2   force =     0.00291601    0.00035579    0.00020809
     atom    7 type  3   force =    -0.01326966   -0.00165315   -0.00092505
     atom    8 type  3   force =    -0.00002624   -0.00001731    0.00000680
     atom    9 type  3   force =     0.00002624    0.00001731   -0.00000680
     atom   10 type  3   force =     0.01326966    0.00165315    0.00092505
     The non-local contrib.  to forces
     atom    1 type  1   force =     0.00000000    0.00000000    0.00000000
     atom    2 type  2   force =    -0.01977344   -0.00245267   -0.00143173
     atom    3 type  2   force =     0.00000000    0.00000000    0.00000000
     atom    4 type  2   force =    -0.00729778   -0.00087256   -0.00052529
     atom    5 type  2   force =     0.01977344    0.00245267    0.00143173
     atom    6 type  2   force =     0.00729778    0.00087256    0.00052529
     atom    7 type  3   force =     0.03772490    0.00466830    0.00273181
     atom    8 type  3   force =     0.00287598    0.00033304    0.00020568
     atom    9 type  3   force =    -0.00287598   -0.00033304   -0.00020568
     atom   10 type  3   force =    -0.03772490   -0.00466830   -0.00273181
     The ionic contribution  to forces
     atom    1 type  1   force =    -0.00000000   -0.00000000    0.00000000
     atom    2 type  2   force =     2.23284204    0.27524198    0.16052096
     atom    3 type  2   force =    -0.00000000   -0.00000000   -0.00000000
     atom    4 type  2   force =     1.58785594    0.19573468    0.11415230
     atom    5 type  2   force =    -2.23284204   -0.27524198   -0.16052096
     atom    6 type  2   force =    -1.58785594   -0.19573468   -0.11415230
     atom    7 type  3   force =    -5.61498560   -0.69215813   -0.40366603
     atom    8 type  3   force =    -1.77410979   -0.21869415   -0.12754225
     atom    9 type  3   force =     1.77410979    0.21869415    0.12754225
     atom   10 type  3   force =     5.61498560    0.69215813    0.40366603
     The local contribution  to forces
     atom    1 type  1   force =    -0.00004864   -0.00004189    0.00000424
     atom    2 type  2   force =    -2.26194728   -0.27881009   -0.16262003
     atom    3 type  2   force =     0.00031377    0.00002905    0.00000848
     atom    4 type  2   force =    -1.58325535   -0.19516205   -0.11380122
     atom    5 type  2   force =     2.26177000    0.27881569    0.16259961
     atom    6 type  2   force =     1.58324526    0.19518129    0.11382579
     atom    7 type  3   force =     5.56600513    0.68625281    0.40013961
     atom    8 type  3   force =     1.77223432    0.21847150    0.12747533
     atom    9 type  3   force =    -1.77182442   -0.21846067   -0.12735085
     atom   10 type  3   force =    -5.56576240   -0.68611824   -0.40007077
     The core correction contribution to forces
     atom    1 type  1   force =     0.00000670    0.00000011    0.00000092
     atom    2 type  2   force =    -0.00450489   -0.00055764   -0.00032451
     atom    3 type  2   force =    -0.00000026    0.00000106    0.00000004
     atom    4 type  2   force =    -0.00084970   -0.00010442   -0.00006327
     atom    5 type  2   force =     0.00450111    0.00055525    0.00032436
     atom    6 type  2   force =     0.00083411    0.00009885    0.00005859
     atom    7 type  3   force =    -0.00229814   -0.00027944   -0.00016431
     atom    8 type  3   force =    -0.00016173   -0.00002064   -0.00000956
     atom    9 type  3   force =     0.00016076    0.00001867    0.00001228
     atom   10 type  3   force =     0.00230507    0.00028253    0.00016657
     The Hubbard contrib.    to forces
     atom    1 type  1   force =     0.00000000    0.00000000    0.00000000
     atom    2 type  2   force =     0.00000000    0.00000000    0.00000000
     atom    3 type  2   force =     0.00000000    0.00000000    0.00000000
     atom    4 type  2   force =     0.00000000    0.00000000    0.00000000
     atom    5 type  2   force =     0.00000000    0.00000000    0.00000000
     atom    6 type  2   force =     0.00000000    0.00000000    0.00000000
     atom    7 type  3   force =     0.00000000    0.00000000    0.00000000
     atom    8 type  3   force =     0.00000000    0.00000000    0.00000000
     atom    9 type  3   force =     0.00000000    0.00000000    0.00000000
     atom   10 type  3   force =     0.00000000    0.00000000    0.00000000
     The SCF correction term to forces
     atom    1 type  1   force =     0.00001654    0.00006393   -0.00001626
     atom    2 type  2   force =     0.00031197    0.00004011    0.00003591
     atom    3 type  2   force =    -0.00034765   -0.00004258   -0.00001174
     atom    4 type  2   force =     0.00069489    0.00007358    0.00004978
     atom    5 type  2   force =    -0.00004909   -0.00001905   -0.00000988
     atom    6 type  2   force =    -0.00054118   -0.00003722   -0.00002890
     atom    7 type  3   force =     0.00024700   -0.00014312    0.00002331
     atom    8 type  3   force =    -0.00092649   -0.00010556   -0.00012116
     atom    9 type  3   force =     0.00039463    0.00009969   -0.00000355
     atom   10 type  3   force =    -0.00057077   -0.00000740   -0.00011554

     Total force =     0.078317     Total SCF correction =     0.001577

     Computing stress (Cartesian axis) and pressure

          total   stress  (Ry/bohr**3)                   (kbar)     P=      202.35
   0.00029254  -0.00020226  -0.00011797           43.03      -29.75      -17.35
  -0.00020226   0.00190887  -0.00001454          -29.75      280.80       -2.14
  -0.00011797  -0.00001454   0.00192530          -17.35       -2.14      283.22

     kinetic stress (kbar)   7133.06    -29.38    -17.14
                              -29.38   7367.92     -2.13
                              -17.14     -2.13   7370.30

     local   stress (kbar)   5068.96    141.65     82.61
                              141.65   3937.13     10.16
                               82.61     10.16   3925.62

     nonloc. stress (kbar)  -2164.08      9.11      5.32
                                9.11  -2236.88      0.68
                                5.32      0.68  -2237.62

     hartree stress (kbar)   4783.68    -74.31    -43.34
                              -74.31   5377.39     -5.33
                              -43.34     -5.33   5383.42

     exc-cor stress (kbar)   9543.50      0.12      0.07
                                0.12   9542.50      0.01
                                0.07      0.01   9542.49

     corecor stress (kbar) -12969.40      0.86      0.50
                                0.86 -12976.27      0.06
                                0.50      0.06 -12976.34

     ewald   stress (kbar) -11352.69    -77.82    -45.38
                              -77.82 -10730.99     -5.59
                              -45.38     -5.59 -10724.66

     hubbard stress (kbar)      0.00      0.00      0.00
                                0.00      0.00      0.00
                                0.00      0.00      0.00

     DFT-D   stress (kbar)      0.00      0.00      0.00
                                0.00      0.00      0.00
                                0.00      0.00      0.00

     XDM     stress (kbar)      0.00      0.00      0.00
                                0.00      0.00      0.00
                                0.00      0.00      0.00

     dft-nl  stress (kbar)      0.00      0.00      0.00
                                0.00      0.00      0.00
                                0.00      0.00      0.00

     TS-vdW  stress (kbar)      0.00      0.00      0.00
                                0.00      0.00      0.00
                                0.00      0.00      0.00

[...]

                                0.00      0.00      0.00

     Writing all to output data dir new_calculations/myprefix.save/

     General routines

     Parallel routines

     PAW routines

   This run was terminated on:  23:39:34  20May2023

   JOB DONE.