     Program PWSCF v.7.0 starts on 21May2023 at 18: 9:26

     Reading input from espresso_20764.pwi
Warning: card &CELL ignored
Warning: card / ignored

     Current dimensions of program PWSCF are:
     Max number of different atomic species (ntypx) = 10
     Max number of k-points (npk) =  40000
     Max angular momentum in pseudopotentials (lmaxx) =  4
     file O.pbe-n-kjpaw_psl.0.1.UPF: wavefunction(s)  2P renormalized

     gamma-point specific algorithms are used
     Message from routine setup:
     using ibrav=0 with symmetry is DISCOURAGED, use correct ibrav instead

     Subspace diagonalization in iterative solution of the eigenvalue problem:
     a serial algorithm will be used

     Using Slab Decomposition

     bravais-lattice index     =            0
     lattice parameter (alat)  =      11.1394  a.u.
     unit-cell volume          =     975.9999 (a.u.)^3
     number of atoms/cell      =           16
     number of atomic types    =            4
     number of electrons       =       126.00
     number of Kohn-Sham states=           76
     kinetic-energy cutoff     =      30.0000  Ry
     charge density cutoff     =     240.0000  Ry
     scf convergence threshold =      1.0E-06
     mixing beta               =       0.7000
     number of iterations used =            8  plain     mixing
     Exchange-correlation= SLA  PW   PBX  PBC
                           (   1   4   3   4   0   0   0)

     celldm(1)=  11.139359  celldm(2)=   0.000000  celldm(3)=   0.000000
     celldm(4)=   0.000000  celldm(5)=   0.000000  celldm(6)=   0.000000

     crystal axes: (cart. coord. in units of alat)
               a(1) = (   1.000000   0.000000   0.000000 )
               a(2) = (  -0.002989   0.999995   0.000000 )
               a(3) = (  -0.498158  -0.499649   0.706108 )

     reciprocal axes: (cart. coord. in units 2 pi/alat)
               b(1) = (  1.000000  0.002989  0.707614 )
               b(2) = (  0.000000  1.000005  0.707614 )
               b(3) = (  0.000000  0.000000  1.416214 )

     PseudoPot. # 1 for Li read from file:
     /home/pragov/projects/rrg-bengioy-ad/pragov/crystal_structure_design/SSSP/li_pbe_v1.4.uspp.F.UPF
     MD5 check sum: e912e257baa3777c20ea3d68f190483c
     Pseudo is Ultrasoft, Zval =  3.0
     Generated by new atomic code, or converted to UPF format
     Using radial grid of  751 points,  5 beta functions with:
                l(1) =   0
                l(2) =   0
                l(3) =   0
                l(4) =   1
                l(5) =   1
     Q(r) pseudized with 10 coefficients,  rinner =    1.150   1.150   1.150

     PseudoPot. # 2 for Cr read from file:
     /home/pragov/projects/rrg-bengioy-ad/pragov/crystal_structure_design/SSSP/cr_pbe_v1.5.uspp.F.UPF
     MD5 check sum: 0d52af634a40206e4dee301ad30da4bf
     Pseudo is Ultrasoft + core correction, Zval = 14.0
     Generated by new atomic code, or converted to UPF format
     Using radial grid of  857 points,  6 beta functions with:
                l(1) =   0
                l(2) =   0
                l(3) =   1
                l(4) =   1
                l(5) =   2
                l(6) =   2
     Q(r) pseudized with  8 coefficients,  rinner =    0.950   0.950   0.950
                                                       0.950   0.950

     PseudoPot. # 3 for Cu read from file:
     /home/pragov/projects/rrg-bengioy-ad/pragov/crystal_structure_design/SSSP/Cu_pbe_v1.2.uspp.F.UPF
     MD5 check sum: 6e991ff952a84172a2a52a1c1e996048
     Pseudo is Ultrasoft + core correction, Zval = 19.0
     Generated by new atomic code, or converted to UPF format
     Using radial grid of  867 points,  6 beta functions with:
                l(1) =   0
                l(2) =   0
                l(3) =   1
                l(4) =   1
                l(5) =   2
                l(6) =   2
     Q(r) pseudized with  8 coefficients,  rinner =    1.150   1.150   1.150
                                                       1.150   1.150

     PseudoPot. # 4 for O  read from file:
     /home/pragov/projects/rrg-bengioy-ad/pragov/crystal_structure_design/SSSP/O.pbe-n-kjpaw_psl.0.1.UPF
     MD5 check sum: 0234752ac141de4415c5fc33072bef88
     Pseudo is Projector augmented-wave + core cor, Zval =  6.0
     Generated using "atomic" code by A. Dal Corso  v.5.0.99 svn rev. 10869
     Shape of augmentation charge: BESSEL
     Using radial grid of 1095 points,  4 beta functions with:
                l(1) =   0
                l(2) =   0
                l(3) =   1
                l(4) =   1
     Q(r) pseudized with 0 coefficients

     atomic species   valence    mass     pseudopotential
        Li             3.00     6.94000     Li( 1.00)
        Cr            14.00    51.99610     Cr( 1.00)
        Cu            19.00    63.54600     Cu( 1.00)
        O              6.00    15.99900     O ( 1.00)

      2 Sym. Ops., with inversion, found

                                    s                        frac. trans.

      isym =  1     identity

 cryst.   s( 1) = (     1          0          0      )
                  (     0          1          0      )
                  (     0          0          1      )

 cart.    s( 1) = (  1.0000000  0.0000000 -0.0000000 )
                  (  0.0000000  1.0000000 -0.0000000 )
                  (  0.0000000  0.0000000  1.0000000 )

      isym =  2     inversion

 cryst.   s( 2) = (    -1          0          0      )
                  (     0         -1          0      )
                  (     0          0         -1      )

 cart.    s( 2) = ( -1.0000000 -0.0000000  0.0000000 )
                  (  0.0000000 -1.0000000  0.0000000 )
                  (  0.0000000  0.0000000 -1.0000000 )

   Cartesian axes

     site n.     atom                  positions (alat units)
         1           Li  tau(   1) = (  -0.2505737   0.2501730   0.3530540  )
         2           Li  tau(   2) = (   0.2494263   0.2501730   0.3530540  )
         3           Li  tau(   3) = (   0.5000000   0.0000000   0.0000000  )
         4           Li  tau(   4) = (   0.4985055   0.4999977   0.0000000  )
         5           Cr  tau(   5) = (  -0.0014945   0.4999977   0.0000000  )
         6           Cr  tau(   6) = (   0.2509208  -0.2498247   0.3530540  )
         7           Cu  tau(   7) = (  -0.2490792  -0.2498247   0.3530540  )
         8           Cu  tau(   8) = (   0.0000000   0.0000000   0.0000000  )
         9           O   tau(   9) = (   0.2345656   0.7476500   0.0109998  )
        10           O   tau(  10) = (   0.0043878  -0.0164151   0.3442855  )
        11           O   tau(  11) = (   0.0009861   0.5133714   0.3420542  )
        12           O   tau(  12) = (   0.7643600   0.7458319   0.0087684  )
        13           O   tau(  13) = (  -0.2655074  -0.2454859   0.6973395  )
        14           O   tau(  14) = (   0.4978664  -0.0130254   0.3640537  )
        15           O   tau(  15) = (   0.4944647   0.5167611   0.3618224  )
        16           O   tau(  16) = (   0.2642869  -0.2473040   0.6951082  )

   Crystallographic axes

     site n.     atom                  positions (cryst. coord.)
         1           Li  tau(   1) = (  0.0000000  0.5000000  0.5000000  )
         2           Li  tau(   2) = (  0.5000000  0.5000000  0.5000000  )
         3           Li  tau(   3) = (  0.5000000  0.0000000  0.0000000  )
         4           Li  tau(   4) = (  0.5000000  0.5000000  0.0000000  )
         5           Cr  tau(   5) = ( -0.0000000  0.5000000  0.0000000  )
         6           Cr  tau(   6) = (  0.5000000  0.0000000  0.5000000  )
         7           Cu  tau(   7) = (  0.0000000  0.0000000  0.5000000  )
         8           Cu  tau(   8) = (  0.0000000  0.0000000  0.0000000  )
         9           O   tau(   9) = (  0.2445840  0.7554370  0.0155780  )
        10           O   tau(  10) = (  0.2479600  0.2272060  0.4875820  )
        11           O   tau(  11) = (  0.2445630  0.7554160  0.4844220  )
        12           O   tau(  12) = (  0.7727940  0.7520400  0.0124180  )
        13           O   tau(  13) = (  0.2272060  0.2479600  0.9875820  )
        14           O   tau(  14) = (  0.7554370  0.2445840  0.5155780  )
        15           O   tau(  15) = (  0.7520400  0.7727940  0.5124180  )
        16           O   tau(  16) = (  0.7554160  0.2445630  0.9844220  )

     number of k points=     1  Methfessel-Paxton smearing, width (Ry)=  0.0010
                       cart. coord. in units 2pi/alat
        k(    1) = (   0.0000000   0.0000000   0.0000000), wk =   2.0000000

                       cryst. coord.
        k(    1) = (   0.0000000   0.0000000   0.0000000), wk =   2.0000000

     Check: negative core charge=   -0.000018

     Initial potential from superposition of free atoms

     starting charge     120.1970, renormalised to     126.0000

     negative rho (up, down):  3.030E-03 0.000E+00
     Starting wfcs are   98 randomized atomic wfcs
     Checking if some PAW data can be deallocated...

     Self-consistent Calculation

     iteration #  1     ecut=    30.00 Ry     beta= 0.70
     Davidson diagonalization with overlap

     ethr =  1.00E-02,  avg # of iterations =  3.0

     negative rho (up, down):  2.038E-03 0.000E+00

     total energy              =   -1505.29655268 Ry
     estimated scf accuracy    <      54.89275045 Ry

[...]

     total energy              =   -1549.65273219 Ry
     estimated scf accuracy    <       0.00000462 Ry

     iteration # 28     ecut=    30.00 Ry     beta= 0.70
     Davidson diagonalization with overlap

     ethr =  3.67E-09,  avg # of iterations =  1.0

[...]

     End of self-consistent calculation

          k = 0.0000 0.0000 0.0000 (  1367 PWs)   bands (ev):

  -103.0629-103.0622 -62.6958 -62.6845 -60.6077 -60.5987 -60.4403 -60.4398
   -60.2893 -60.2843 -35.4539 -35.4401 -35.4043 -35.3958 -34.1688 -34.0332
   -34.0288 -34.0148 -33.9125 -33.8891  -9.9371  -8.7936  -8.7899  -8.7344
    -8.6055  -8.5512  -8.5125  -8.4247   2.6437   2.6867   3.0044   3.1194
     3.6539   3.6767   3.7565   4.7257   4.7490   5.0597   5.0779   5.1003
     5.5468   5.5775   5.5777   6.0130   6.2188   6.2453   6.2522   6.2592
     6.4845   6.9251   7.0747   7.4209   7.4508   7.4797   7.4982   7.5281
     7.5537   7.6412   8.9982   9.0934   9.3823   9.4387   9.6286  10.0611
    10.2994  10.3482  10.4227  10.4831  12.3944  12.4439  12.5189  12.6433
    13.8278  16.1435  16.1650  16.2507

     occupation numbers
     1.0000   1.0000   1.0000   1.0000   1.0000   1.0000   1.0000   1.0000
     1.0000   1.0000   1.0000   1.0000   1.0000   1.0000   1.0000   1.0000
     1.0000   1.0000   1.0000   1.0000   1.0000   1.0000   1.0000   1.0000
     1.0000   1.0000   1.0000   1.0000   1.0000   1.0000   1.0000   1.0000
     1.0000   1.0000   1.0000   1.0000   1.0000   1.0000   1.0000   1.0000
     1.0000   1.0000   1.0000   1.0000   1.0000   1.0000   1.0000   1.0000
     1.0000   1.0000   1.0000   1.0000   1.0000   1.0000   1.0000   1.0000
     1.0000   1.0000   1.0000   1.0000   1.0000   1.0000   1.0000  -0.0000
    -0.0000  -0.0000  -0.0000  -0.0000  -0.0000  -0.0000  -0.0000  -0.0000
    -0.0000  -0.0000  -0.0000  -0.0000

     the Fermi energy is     9.8469 ev

!    total energy              =   -1549.65273199 Ry
     estimated scf accuracy    <       0.00000041 Ry
     smearing contrib. (-TS)   =       0.00000000 Ry
     internal energy E=F+TS    =   -1549.65273199 Ry

     The total energy is F=E-TS. E is the sum of the following terms:
     one-electron contribution =   -1062.61680980 Ry
     hartree contribution      =     588.84636254 Ry
     xc contribution           =    -195.56279531 Ry
     ewald contribution        =    -804.17067389 Ry
     one-center paw contrib.   =     -76.14881553 Ry
      -> PAW hartree energy AE =     233.12473572 Ry
      -> PAW hartree energy PS =    -232.27445752 Ry
      -> PAW xc energy AE      =    -136.73552231 Ry
      -> PAW xc energy PS      =      59.73642859 Ry
      -> total E_H with PAW    =     589.69664074 Ry
      -> total E_XC with PAW   =    -272.56188904 Ry

     convergence has been achieved in  28 iterations

     negative rho (up, down):  3.051E-03 0.000E+00

     Forces acting on atoms (cartesian axes, Ry/au):

     atom    1 type  1   force =     0.00000000    0.00000000    0.00000000
     atom    2 type  1   force =     0.00000000    0.00000000    0.00000000
     atom    3 type  1   force =     0.00000000    0.00000000    0.00000000
     atom    4 type  1   force =     0.00000000    0.00000000    0.00000000
     atom    5 type  2   force =     0.00000000    0.00000000    0.00000000
     atom    6 type  2   force =     0.00000000    0.00000000    0.00000000
     atom    7 type  3   force =     0.00000000    0.00000000    0.00000000
     atom    8 type  3   force =     0.00000000    0.00000000    0.00000000
     atom    9 type  4   force =    -0.01505390   -0.04886458    0.04521790
     atom   10 type  4   force =     0.03881974   -0.04466711   -0.00423842
     atom   11 type  4   force =     0.04878792    0.01516984   -0.04527482
     atom   12 type  4   force =     0.04480379   -0.03868181    0.00423847
     atom   13 type  4   force =    -0.04480379    0.03868181   -0.00423847
     atom   14 type  4   force =    -0.04878792   -0.01516984    0.04527482
     atom   15 type  4   force =    -0.03881974    0.04466711    0.00423842
     atom   16 type  4   force =     0.01505390    0.04886458   -0.04521790
     The non-local contrib.  to forces
     atom    1 type  1   force =     0.00000000    0.00000000    0.00000000
     atom    2 type  1   force =     0.00000000    0.00000000    0.00000000
     atom    3 type  1   force =     0.00000000    0.00000000    0.00000000
     atom    4 type  1   force =     0.00000000    0.00000000    0.00000000
     atom    5 type  2   force =     0.00000000    0.00000000    0.00000000
     atom    6 type  2   force =     0.00000000    0.00000000    0.00000000
     atom    7 type  3   force =     0.00000000    0.00000000    0.00000000
     atom    8 type  3   force =     0.00000000    0.00000000    0.00000000
     atom    9 type  4   force =    -0.41250367   -0.17215773    0.41335558
     atom   10 type  4   force =     0.07393022   -0.48800246   -0.29304197
     atom   11 type  4   force =     0.17090381    0.41300402   -0.41339076
     atom   12 type  4   force =     0.48823634   -0.07246432    0.29306391
     atom   13 type  4   force =    -0.48823634    0.07246432   -0.29306391
     atom   14 type  4   force =    -0.17090381   -0.41300402    0.41339076
     atom   15 type  4   force =    -0.07393022    0.48800246    0.29304197
     atom   16 type  4   force =     0.41250367    0.17215773   -0.41335558
     The ionic contribution  to forces
     atom    1 type  1   force =    -0.00000000    0.00000000    0.00000000
     atom    2 type  1   force =    -0.00000000    0.00000000   -0.00000000
     atom    3 type  1   force =    -0.00000000    0.00000000    0.00000000
     atom    4 type  1   force =     0.00000000    0.00000000    0.00000000
     atom    5 type  2   force =    -0.00000000    0.00000000    0.00000000
     atom    6 type  2   force =    -0.00000000    0.00000000   -0.00000000
     atom    7 type  3   force =    -0.00000000   -0.00000000    0.00000000
     atom    8 type  3   force =     0.00000000   -0.00000000   -0.00000000
     atom    9 type  4   force =    13.09265991   -1.93142227   -7.88046535
     atom   10 type  4   force =     2.03448852   13.07181916   10.68343500
     atom   11 type  4   force =     1.97054398  -13.08682598    7.88046572
     atom   12 type  4   force =   -13.06567959   -2.07355706  -10.68343271
     atom   13 type  4   force =    13.06567959    2.07355706   10.68343271
     atom   14 type  4   force =    -1.97054398   13.08682598   -7.88046572
     atom   15 type  4   force =    -2.03448851  -13.07181916  -10.68343500
     atom   16 type  4   force =   -13.09265991    1.93142227    7.88046535
     The local contribution  to forces
     atom    1 type  1   force =     0.00000536    0.00001220   -0.00001111
     atom    2 type  1   force =    -0.00000575    0.00001273   -0.00000364
     atom    3 type  1   force =     0.00000575    0.00000974   -0.00001181
     atom    4 type  1   force =     0.00000651   -0.00000875    0.00000575
     atom    5 type  2   force =    -0.00004148   -0.00005220    0.00007466
     atom    6 type  2   force =    -0.00002022   -0.00007880    0.00006648
     atom    7 type  3   force =     0.00003699   -0.00009338    0.00001092
     atom    8 type  3   force =    -0.00005437    0.00007584   -0.00003013
     atom    9 type  4   force =   -12.69920244    2.05326055    7.51689912
     atom   10 type  4   force =    -2.06890236  -12.63381438  -10.39788874
     atom   11 type  4   force =    -2.09073591   12.69351190   -7.51620612
     atom   12 type  4   force =    12.62708160    2.10713442   10.39789501
     atom   13 type  4   force =   -12.62708793   -2.10714892  -10.39788500
     atom   14 type  4   force =     2.09071859  -12.69351624    7.51620563
     atom   15 type  4   force =     2.06890013   12.63382074   10.39788726
     atom   16 type  4   force =    12.69920834   -2.05326577   -7.51690285
     The core correction contribution to forces
     atom    1 type  1   force =     0.00000000    0.00000000    0.00000000
     atom    2 type  1   force =     0.00000000    0.00000000    0.00000000
     atom    3 type  1   force =     0.00000000    0.00000000    0.00000000
     atom    4 type  1   force =     0.00000000    0.00000000    0.00000000
     atom    5 type  2   force =    -0.00000007   -0.00000030    0.00000021
     atom    6 type  2   force =     0.00000005   -0.00000039    0.00000035
     atom    7 type  3   force =    -0.00000000    0.00000001    0.00000002
     atom    8 type  3   force =    -0.00000000   -0.00000001    0.00000000
     atom    9 type  4   force =     0.00425779    0.00168233   -0.00419987
     atom   10 type  4   force =    -0.00040878    0.00506458    0.00329329
     atom   11 type  4   force =    -0.00166978   -0.00426294    0.00419965
     atom   12 type  4   force =    -0.00506572    0.00039325   -0.00329362
     atom   13 type  4   force =     0.00506560   -0.00039333    0.00329364
     atom   14 type  4   force =     0.00166972    0.00426302   -0.00419967
     atom   15 type  4   force =     0.00040880   -0.00506450   -0.00329341
     atom   16 type  4   force =    -0.00425767   -0.00168229    0.00419972
     The Hubbard contrib.    to forces
     atom    1 type  1   force =     0.00000000    0.00000000    0.00000000
     atom    2 type  1   force =     0.00000000    0.00000000    0.00000000
     atom    3 type  1   force =     0.00000000    0.00000000    0.00000000
     atom    4 type  1   force =     0.00000000    0.00000000    0.00000000
     atom    5 type  2   force =     0.00000000    0.00000000    0.00000000
     atom    6 type  2   force =     0.00000000    0.00000000    0.00000000
     atom    7 type  3   force =     0.00000000    0.00000000    0.00000000
     atom    8 type  3   force =     0.00000000    0.00000000    0.00000000
     atom    9 type  4   force =     0.00000000    0.00000000    0.00000000
     atom   10 type  4   force =     0.00000000    0.00000000    0.00000000
     atom   11 type  4   force =     0.00000000    0.00000000    0.00000000
     atom   12 type  4   force =     0.00000000    0.00000000    0.00000000
     atom   13 type  4   force =     0.00000000    0.00000000    0.00000000
     atom   14 type  4   force =     0.00000000    0.00000000    0.00000000
     atom   15 type  4   force =     0.00000000    0.00000000    0.00000000
     atom   16 type  4   force =     0.00000000    0.00000000    0.00000000
     The SCF correction term to forces
     atom    1 type  1   force =    -0.00000515   -0.00000947    0.00001054
     atom    2 type  1   force =     0.00000552   -0.00000809    0.00000195
     atom    3 type  1   force =    -0.00000542   -0.00000863    0.00000961
     atom    4 type  1   force =    -0.00000415    0.00000640   -0.00000334
     atom    5 type  2   force =     0.00004918    0.00005247   -0.00006959
     atom    6 type  2   force =     0.00001633    0.00007987   -0.00006641
     atom    7 type  3   force =    -0.00002560    0.00009735   -0.00000443
     atom    8 type  3   force =     0.00007744   -0.00011402    0.00001724
     atom    9 type  4   force =    -0.00026460   -0.00022655   -0.00037400
     atom   10 type  4   force =    -0.00028693    0.00026324   -0.00003919
     atom   11 type  4   force =    -0.00025527   -0.00025538   -0.00034717
     atom   12 type  4   force =     0.00023308   -0.00018676    0.00000865
     atom   13 type  4   force =    -0.00022278    0.00020402   -0.00001316
     atom   14 type  4   force =     0.00027046    0.00026319    0.00033994
     atom   15 type  4   force =     0.00029100   -0.00027517    0.00003440
     atom   16 type  4   force =     0.00026036    0.00023355    0.00037305

     Total force =     0.180892     Total SCF correction =     0.001256

     Computing stress (Cartesian axis) and pressure

     negative rho (up, down):  3.051E-03 0.000E+00
          total   stress  (Ry/bohr**3)                   (kbar)     P=     -642.79
  -0.00423549  -0.00039773  -0.00036871         -623.06      -58.51      -54.24
  -0.00039773  -0.00423739  -0.00036952          -58.51     -623.34      -54.36
  -0.00036871  -0.00036952  -0.00463593          -54.24      -54.36     -681.97

     kinetic stress (kbar)  31210.03    -73.94   -123.39
                              -73.94  31209.58   -123.77
                             -123.39   -123.77  31136.34

     local   stress (kbar) -21886.78   -628.95   6405.82
                             -628.95 -21889.34   6425.82
                             6405.82   6425.82 -22523.41

     nonloc. stress (kbar)  10402.90     -9.06     18.43
                               -9.06  10402.84     18.48
                               18.43     18.48  10393.70

     hartree stress (kbar)  29473.22    326.96  -3171.00
                              326.96  29474.07  -3181.26
                            -3171.00  -3181.26  29805.06

     exc-cor stress (kbar)  -7918.39     -0.71     -0.20
                               -0.71  -7918.39     -0.20
                               -0.20     -0.20  -7919.12

     corecor stress (kbar)  -1391.24     -0.39      0.08
                               -0.39  -1391.24      0.08
                                0.08      0.08  -1391.64

     ewald   stress (kbar) -40512.81    327.58  -3183.98
                              327.58 -40510.85  -3193.51
                            -3183.98  -3193.51 -40182.90

     hubbard stress (kbar)      0.00      0.00      0.00
                                0.00      0.00      0.00
                                0.00      0.00      0.00

     DFT-D   stress (kbar)      0.00      0.00      0.00
                                0.00      0.00      0.00
                                0.00      0.00      0.00

     XDM     stress (kbar)      0.00      0.00      0.00
                                0.00      0.00      0.00
                                0.00      0.00      0.00

     dft-nl  stress (kbar)      0.00      0.00      0.00
                                0.00      0.00      0.00
                                0.00      0.00      0.00

     TS-vdW  stress (kbar)      0.00      0.00      0.00
                                0.00      0.00      0.00
                                0.00      0.00      0.00

[...]

                                0.00      0.00      0.00

     Writing all to output data dir new_calculations/myprefix.save/

     General routines

     Parallel routines

     PAW routines

   This run was terminated on:  18:10: 2  21May2023

   JOB DONE.