     Program PWSCF v.7.0 starts on 21May2023 at  2:19:48

     Reading input from espresso_10923.pwi
Warning: card &CELL ignored
Warning: card / ignored

     Current dimensions of program PWSCF are:
     Max number of different atomic species (ntypx) = 10
     Max number of k-points (npk) =  40000
     Max angular momentum in pseudopotentials (lmaxx) =  4

     gamma-point specific algorithms are used
     Message from routine setup:
     using ibrav=0 with symmetry is DISCOURAGED, use correct ibrav instead

     Subspace diagonalization in iterative solution of the eigenvalue problem:
     a serial algorithm will be used

     Using Slab Decomposition

     bravais-lattice index     =            0
     lattice parameter (alat)  =       5.2446  a.u.
     unit-cell volume          =     406.3832 (a.u.)^3
     number of atoms/cell      =            4
     number of atomic types    =            2
     number of electrons       =        58.00
     number of Kohn-Sham states=           35
     kinetic-energy cutoff     =      30.0000  Ry
     charge density cutoff     =     240.0000  Ry
     scf convergence threshold =      1.0E-06
     mixing beta               =       0.7000
     number of iterations used =            8  plain     mixing
     Exchange-correlation= SLA  PW   PBE  PBE
                           (   1   4   3   4   0   0   0)

     celldm(1)=   5.244644  celldm(2)=   0.000000  celldm(3)=   0.000000
     celldm(4)=   0.000000  celldm(5)=   0.000000  celldm(6)=   0.000000

     crystal axes: (cart. coord. in units of alat)
               a(1) = (   1.000000   0.000000   0.000000 )
               a(2) = (   0.000000   1.608109   0.000000 )
               a(3) = (   0.000000   0.000000   1.751751 )

     reciprocal axes: (cart. coord. in units 2 pi/alat)
               b(1) = (  1.000000  0.000000  0.000000 )
               b(2) = (  0.000000  0.621848  0.000000 )
               b(3) = (  0.000000  0.000000  0.570858 )

     PseudoPot. # 1 for Mo read from file:
     /home/pragov/projects/rrg-bengioy-ad/pragov/crystal_structure_design/SSSP/Mo_ONCV_PBE-1.0.oncvpsp.upf
     MD5 check sum: 1b5d28e075c9ccadda658a603575cd1f
     Pseudo is Norm-conserving, Zval = 14.0
     Generated using ONCVPSP code by D. R. Hamann
     Using radial grid of 1526 points,  6 beta functions with:
                l(1) =   0
                l(2) =   0
                l(3) =   1
                l(4) =   1
                l(5) =   2
                l(6) =   2

     PseudoPot. # 2 for Ir read from file:
     /home/pragov/projects/rrg-bengioy-ad/pragov/crystal_structure_design/SSSP/Ir_pbe_v1.2.uspp.F.UPF
     MD5 check sum: 8836f839c3459d2b385c504ce6d91f2c
     Pseudo is Ultrasoft + core correction, Zval = 15.0
     Generated by new atomic code, or converted to UPF format
     Using radial grid of  983 points,  7 beta functions with:
                l(1) =   0
                l(2) =   0
                l(3) =   1
                l(4) =   1
                l(5) =   1
                l(6) =   2
                l(7) =   2
     Q(r) pseudized with  8 coefficients,  rinner =    1.400   1.400   1.400
                                                       1.400   1.400

     atomic species   valence    mass     pseudopotential
        Mo            14.00    95.95000     Mo( 1.00)
        Ir            15.00   192.21700     Ir( 1.00)

      8 Sym. Ops., with inversion, found ( 4 have fractional translation)

                                    s                        frac. trans.

      isym =  1     identity

 cryst.   s( 1) = (     1          0          0      )
                  (     0          1          0      )
                  (     0          0          1      )

 cart.    s( 1) = (  1.0000000  0.0000000  0.0000000 )
                  (  0.0000000  1.0000000  0.0000000 )
                  (  0.0000000  0.0000000  1.0000000 )

      isym =  2     180 deg rotation - cart. axis [0,0,1]

 cryst.   s( 2) = (    -1          0          0      )    f =(  0.0000000 )
                  (     0         -1          0      )       (  0.5000000 )
                  (     0          0          1      )       (  0.0000000 )

 cart.    s( 2) = ( -1.0000000  0.0000000  0.0000000 )    f =(  0.0000000 )
                  (  0.0000000 -1.0000000  0.0000000 )       (  0.8040545 )
                  (  0.0000000  0.0000000  1.0000000 )       (  0.0000000 )

[...]

      isym =  4     180 deg rotation - cart. axis [1,0,0]

[...]

      isym =  5     inversion

[...]

      isym =  6     inv. 180 deg rotation - cart. axis [0,0,1]

[...]

 cryst.   s( 7) = (     1          0          0      )    f =(  0.0000000 )
                  (     0         -1          0      )       (  0.5000000 )
                  (     0          0          1      )       (  0.0000000 )

 cart.    s( 7) = (  1.0000000  0.0000000  0.0000000 )    f =(  0.0000000 )
                  (  0.0000000 -1.0000000  0.0000000 )       (  0.8040545 )
                  (  0.0000000  0.0000000  1.0000000 )       (  0.0000000 )

      isym =  8     inv. 180 deg rotation - cart. axis [1,0,0]

 cryst.   s( 8) = (    -1          0          0      )
                  (     0          1          0      )
                  (     0          0          1      )

 cart.    s( 8) = ( -1.0000000  0.0000000  0.0000000 )
                  (  0.0000000  1.0000000  0.0000000 )
                  (  0.0000000  0.0000000  1.0000000 )

   Cartesian axes

     site n.     atom                  positions (alat units)
         1           Mo  tau(   1) = (   0.0000000   0.4020273   1.4524447  )
         2           Mo  tau(   2) = (   0.0000000   1.2060818   0.2993059  )
         3           Ir  tau(   3) = (   0.5000000   0.4020273   0.5706170  )
         4           Ir  tau(   4) = (   0.5000000   1.2060818   1.1811336  )

   Crystallographic axes

     site n.     atom                  positions (cryst. coord.)
         1           Mo  tau(   1) = (  0.0000000  0.2500000  0.8291390  )
         2           Mo  tau(   2) = (  0.0000000  0.7500000  0.1708610  )
         3           Ir  tau(   3) = (  0.5000000  0.2500000  0.3257410  )
         4           Ir  tau(   4) = (  0.5000000  0.7500000  0.6742590  )

     number of k points=     1  Methfessel-Paxton smearing, width (Ry)=  0.0010
                       cart. coord. in units 2pi/alat
        k(    1) = (   0.0000000   0.0000000   0.0000000), wk =   2.0000000

                       cryst. coord.
        k(    1) = (   0.0000000   0.0000000   0.0000000), wk =   2.0000000

     Check: negative core charge=   -0.000001

     Initial potential from superposition of free atoms

     starting charge      56.9980, renormalised to      58.0000

     negative rho (up, down):  7.396E-01 0.000E+00
     Starting wfcs are   44 randomized atomic wfcs

     Self-consistent Calculation

     iteration #  1     ecut=    30.00 Ry     beta= 0.70
     Davidson diagonalization with overlap

     ethr =  1.00E-02,  avg # of iterations =  2.0

     negative rho (up, down):  5.691E-01 0.000E+00

     total energy              =    -633.78148654 Ry
     estimated scf accuracy    <       5.98771562 Ry

[...]

     total energy              =    -637.91709974 Ry
     estimated scf accuracy    <       0.00000778 Ry

     iteration # 24     ecut=    30.00 Ry     beta= 0.70
     Davidson diagonalization with overlap

     ethr =  9.75E-09,  avg # of iterations =  1.0

[...]

     End of self-consistent calculation

          k = 0.0000 0.0000 0.0000 (   572 PWs)   bands (ev):

   -38.2351 -38.1379 -26.2718 -26.0804 -26.0780 -25.9795 -25.3277 -25.2978
   -12.7997 -12.5883 -12.3338 -12.2958 -11.5453 -11.4694  13.6022  16.2415
    16.8694  17.0929  17.2142  20.0046  20.0693  20.5032  20.5970  20.7058
    21.0226  21.3051  21.6203  21.7494  21.9864  21.9931  23.1347  24.4847
    25.3081  25.5999  26.0011

     occupation numbers
     1.0000   1.0000   1.0000   1.0000   1.0000   1.0000   1.0000   1.0000
     1.0000   1.0000   1.0000   1.0000   1.0000   1.0000   1.0000   1.0000
     1.0000   1.0000   1.0000   1.0000   1.0000   1.0000   1.0000   1.0000
     1.0000   1.0000   1.0000   1.0000   0.7032   0.2968  -0.0000  -0.0000
    -0.0000  -0.0000  -0.0000

     the Fermi energy is    21.9898 ev

!    total energy              =    -637.91709983 Ry
     estimated scf accuracy    <       0.00000001 Ry
     smearing contrib. (-TS)   =      -0.00046498 Ry
     internal energy E=F+TS    =    -637.91663485 Ry

     The total energy is F=E-TS. E is the sum of the following terms:
     one-electron contribution =     -59.64376624 Ry
     hartree contribution      =      75.05266914 Ry
     xc contribution           =    -132.52634922 Ry
     ewald contribution        =    -520.79918853 Ry

     convergence has been achieved in  24 iterations

     negative rho (up, down):  6.442E-01 0.000E+00

     Forces acting on atoms (cartesian axes, Ry/au):

     atom    1 type  1   force =     0.00000000    0.00000000   -0.02741219
     atom    2 type  1   force =     0.00000000    0.00000000    0.02741219
     atom    3 type  2   force =     0.00000000    0.00000000    0.04405383
     atom    4 type  2   force =     0.00000000    0.00000000   -0.04405383
     The non-local contrib.  to forces
     atom    1 type  1   force =     0.00000000    0.00000000   -0.27104773
     atom    2 type  1   force =     0.00000000    0.00000000    0.27104773
     atom    3 type  2   force =     0.00000000    0.00000000    0.04080786
     atom    4 type  2   force =     0.00000000    0.00000000   -0.04080786
     The ionic contribution  to forces
     atom    1 type  1   force =     0.00000000   -0.00000000    0.18123825
     atom    2 type  1   force =     0.00000000   -0.00000000   -0.18123825
     atom    3 type  2   force =    -0.00000000    0.00000000    0.19554947
     atom    4 type  2   force =    -0.00000000    0.00000000   -0.19554947
     The local contribution  to forces
     atom    1 type  1   force =     0.00000168   -0.00016309    0.06233139
     atom    2 type  1   force =    -0.00000077    0.00017592   -0.06234403
     atom    3 type  2   force =     0.00000197   -0.00021057   -0.22607120
     atom    4 type  2   force =    -0.00000057    0.00011582    0.22607202
     The core correction contribution to forces
     atom    1 type  1   force =     0.00000000    0.00000000    0.00000000
     atom    2 type  1   force =     0.00000000    0.00000000    0.00000000
     atom    3 type  2   force =     0.00000025    0.00000138    0.03388928
     atom    4 type  2   force =    -0.00000005    0.00000467   -0.03388699
     The Hubbard contrib.    to forces
     atom    1 type  1   force =     0.00000000    0.00000000    0.00000000
     atom    2 type  1   force =     0.00000000    0.00000000    0.00000000
     atom    3 type  2   force =     0.00000000    0.00000000    0.00000000
     atom    4 type  2   force =     0.00000000    0.00000000    0.00000000
     The SCF correction term to forces
     atom    1 type  1   force =    -0.00000084    0.00014077    0.00006531
     atom    2 type  1   force =     0.00000038   -0.00019521   -0.00005384
     atom    3 type  2   force =    -0.00000296    0.00020347   -0.00012195
     atom    4 type  2   force =     0.00000034   -0.00012023    0.00011811

     Total force =     0.073378     Total SCF correction =     0.000387

     Computing stress (Cartesian axis) and pressure

     negative rho (up, down):  6.442E-01 0.000E+00
          total   stress  (Ry/bohr**3)                   (kbar)     P=      105.27
   0.00183867   0.00000000   0.00000000          270.48        0.00        0.00
   0.00000000   0.00056975   0.00000000            0.00       83.81        0.00
   0.00000000   0.00000000  -0.00026166            0.00        0.00      -38.49

     kinetic stress (kbar)  45026.09      0.00      0.00
                                0.00  42424.02      0.00
                                0.00      0.00  42490.63

     local   stress (kbar)   7525.69      0.00      0.00
                                0.00  10109.23      0.16
                                0.00      0.16  13547.82

     nonloc. stress (kbar)  10948.21      0.00      0.00
                                0.00  10679.51      0.00
                                0.00      0.00  10813.67

     hartree stress (kbar)  10009.07     -0.00     -0.00
                               -0.00   9149.15     -0.04
                               -0.00     -0.04   8009.80

     exc-cor stress (kbar)  14121.70     -0.00     -0.00
                               -0.00  14092.97     -0.00
                               -0.00     -0.00  14084.33

     corecor stress (kbar) -24751.43      0.00     -0.00
                                0.00 -24707.83      0.00
                               -0.00      0.00 -24734.77

     ewald   stress (kbar) -62608.85     -0.00     -0.00
                               -0.00 -61663.24      0.00
                               -0.00      0.00 -64249.98

     hubbard stress (kbar)      0.00      0.00      0.00
                                0.00      0.00      0.00
                                0.00      0.00      0.00

     DFT-D   stress (kbar)      0.00      0.00      0.00
                                0.00      0.00      0.00
                                0.00      0.00      0.00

     XDM     stress (kbar)      0.00      0.00      0.00
                                0.00      0.00      0.00
                                0.00      0.00      0.00

     dft-nl  stress (kbar)      0.00      0.00      0.00
                                0.00      0.00      0.00
                                0.00      0.00      0.00

     TS-vdW  stress (kbar)      0.00      0.00      0.00
                                0.00      0.00      0.00
                                0.00      0.00      0.00

[...]

                                0.00      0.00      0.00

     Writing all to output data dir new_calculations/myprefix.save/

     General routines

     Parallel routines

   This run was terminated on:   2:19:58  21May2023

   JOB DONE.