     Program PWSCF v.7.0 starts on 20May2023 at 18:49:49

     Reading input from espresso_13608.pwi
Warning: card &CELL ignored
Warning: card / ignored

     Current dimensions of program PWSCF are:
     Max number of different atomic species (ntypx) = 10
     Max number of k-points (npk) =  40000
     Max angular momentum in pseudopotentials (lmaxx) =  4

     gamma-point specific algorithms are used
     Message from routine setup:
     using ibrav=0 with symmetry is DISCOURAGED, use correct ibrav instead

     Subspace diagonalization in iterative solution of the eigenvalue problem:
     a serial algorithm will be used

     Using Slab Decomposition

     bravais-lattice index     =            0
     lattice parameter (alat)  =      10.4233  a.u.
     unit-cell volume          =     655.0606 (a.u.)^3
     number of atoms/cell      =            6
     number of atomic types    =            3
     number of electrons       =        80.00
     number of Kohn-Sham states=           48
     kinetic-energy cutoff     =      30.0000  Ry
     charge density cutoff     =     240.0000  Ry
     scf convergence threshold =      1.0E-06
     mixing beta               =       0.7000
     number of iterations used =            8  plain     mixing
     Exchange-correlation= PBE
                           (   1   4   3   4   0   0   0)

     celldm(1)=  10.423291  celldm(2)=   0.000000  celldm(3)=   0.000000
     celldm(4)=   0.000000  celldm(5)=   0.000000  celldm(6)=   0.000000

     crystal axes: (cart. coord. in units of alat)
               a(1) = (   1.000000   0.000000   0.000000 )
               a(2) = (  -0.500000   0.866025   0.000000 )
               a(3) = (   0.000000   0.000000   0.667938 )

     reciprocal axes: (cart. coord. in units 2 pi/alat)
               b(1) = (  1.000000  0.577350  0.000000 )
               b(2) = (  0.000000  1.154701  0.000000 )
               b(3) = (  0.000000  0.000000  1.497145 )

     PseudoPot. # 1 for Ho read from file:
     /home/pragov/projects/rrg-bengioy-ad/pragov/crystal_structure_design/SSSP/Ho.GGA-PBE-paw-v1.0.UPF
     MD5 check sum: 3d93cae5f38e6cc822e0e70538981326
     Pseudo is Projector augmented-wave + core cor, Zval = 21.0
     Generated using ATOMPAW code
     Shape of augmentation charge: BESSEL
     Using radial grid of 1114 points,  8 beta functions with:
                l(1) =   0
                l(2) =   0
                l(3) =   1
                l(4) =   1
                l(5) =   2
                l(6) =   2
                l(7) =   3
                l(8) =   3
     Q(r) pseudized with 0 coefficients

     PseudoPot. # 2 for Si read from file:
     /home/pragov/projects/rrg-bengioy-ad/pragov/crystal_structure_design/SSSP/Si.pbe-n-rrkjus_psl.1.0.0.UPF
     MD5 check sum: 0b0bb1205258b0d07b9f9672cf965d36
     Pseudo is Ultrasoft + core correction, Zval =  4.0
     Generated using "atomic" code by A. Dal Corso  v.5.1
     Using radial grid of 1141 points,  6 beta functions with:
                l(1) =   0
                l(2) =   0
                l(3) =   1
                l(4) =   1
                l(5) =   2
                l(6) =   2
     Q(r) pseudized with 0 coefficients

     PseudoPot. # 3 for Rh read from file:
     /home/pragov/projects/rrg-bengioy-ad/pragov/crystal_structure_design/SSSP/Rh_ONCV_PBE-1.0.oncvpsp.upf
     MD5 check sum: ba07c69523b14cacd10683cd4c4284c1
     Pseudo is Norm-conserving, Zval = 17.0
     Generated using ONCVPSP code by D. R. Hamann
     Using radial grid of 1442 points,  6 beta functions with:
                l(1) =   0
                l(2) =   0
                l(3) =   1
                l(4) =   1
                l(5) =   2
                l(6) =   2

     atomic species   valence    mass     pseudopotential
        Ho            21.00   164.93033     Ho( 1.00)
        Si             4.00    28.08500     Si( 1.00)
        Rh            17.00   102.90550     Rh( 1.00)

     24 Sym. Ops., with inversion, found

                                    s                        frac. trans.

      isym =  1     identity

 cryst.   s( 1) = (     1          0          0      )
                  (     0          1          0      )
                  (     0          0          1      )

 cart.    s( 1) = (  1.0000000  0.0000000  0.0000000 )
                  (  0.0000000  1.0000000  0.0000000 )
                  (  0.0000000  0.0000000  1.0000000 )

      isym =  2     180 deg rotation - cart. axis [0,0,1]

[...]

      isym =  4     180 deg rotation - cart. axis [1,0,0]

[...]

      isym =  5      60 deg rotation - cryst. axis [0,0,1]

[...]

 cryst.   s( 9) = (     0         -1          0      )
                  (    -1          0          0      )
                  (     0          0         -1      )

 cart.    s( 9) = (  0.5000000 -0.8660254  0.0000000 )
                  ( -0.8660254 -0.5000000  0.0000000 )
                  (  0.0000000  0.0000000 -1.0000000 )

[...]

 cryst.   s(10) = (     1          1          0      )
                  (     0         -1          0      )
                  (     0          0         -1      )

 cart.    s(10) = (  0.5000000  0.8660253  0.0000000 )
                  (  0.8660254 -0.5000000  0.0000000 )
                  (  0.0000000  0.0000000 -1.0000000 )

[...]

      isym = 12     180 deg rotation - cryst. axis [1,1,0]

[...]

      isym = 13     inversion

[...]

      isym = 14     inv. 180 deg rotation - cart. axis [0,0,1]

[...]

      isym = 16     inv. 180 deg rotation - cart. axis [1,0,0]

[...]

      isym = 17     inv.  60 deg rotation - cryst. axis [0,0,1]

[...]

      isym = 24     inv. 180 deg rotation - cryst. axis [1,1,0]

 cryst.   s(24) = (     0         -1          0      )
                  (    -1          0          0      )
                  (     0          0          1      )

 cart.    s(24) = (  0.5000000 -0.8660254  0.0000000 )
                  ( -0.8660254 -0.5000000  0.0000000 )
                  (  0.0000000  0.0000000  1.0000000 )

   Cartesian axes

     site n.     atom                  positions (alat units)
         1           Ho  tau(   1) = (   0.0000000   0.0000000   0.0000000  )
         2           Si  tau(   2) = (   0.5000005   0.2886749   0.0000000  )
         3           Si  tau(   3) = (  -0.0000005   0.5773506   0.0000000  )
         4           Rh  tau(   4) = (   0.5000000   0.0000000   0.3339691  )
         5           Rh  tau(   5) = (  -0.2500000   0.4330127   0.3339691  )
         6           Rh  tau(   6) = (   0.2500000   0.4330127   0.3339691  )

   Crystallographic axes

     site n.     atom                  positions (cryst. coord.)
         1           Ho  tau(   1) = (  0.0000000  0.0000000  0.0000000  )
         2           Si  tau(   2) = (  0.6666670  0.3333330  0.0000000  )
         3           Si  tau(   3) = (  0.3333330  0.6666670  0.0000000  )
         4           Rh  tau(   4) = (  0.5000000  0.0000000  0.5000000  )
         5           Rh  tau(   5) = (  0.0000000  0.5000000  0.5000000  )
         6           Rh  tau(   6) = (  0.5000000  0.5000000  0.5000000  )

     number of k points=     1  Methfessel-Paxton smearing, width (Ry)=  0.0010
                       cart. coord. in units 2pi/alat
        k(    1) = (   0.0000000   0.0000000   0.0000000), wk =   2.0000000

                       cryst. coord.
        k(    1) = (   0.0000000   0.0000000   0.0000000), wk =   2.0000000

     Initial potential from superposition of free atoms

     starting charge      79.9933, renormalised to      80.0000
     Starting wfcs are   70 randomized atomic wfcs
     Checking if some PAW data can be deallocated...

     Self-consistent Calculation

     iteration #  1     ecut=    30.00 Ry     beta= 0.70
     Davidson diagonalization with overlap

     ethr =  1.00E-02,  avg # of iterations =  2.0

     total energy              =   -1493.40948959 Ry
     estimated scf accuracy    <       7.84755611 Ry

[...]

     total energy              =   -1503.29716719 Ry
     estimated scf accuracy    <       0.00000318 Ry

     iteration # 66     ecut=    30.00 Ry     beta= 0.70
     Davidson diagonalization with overlap

     ethr =  3.97E-09,  avg # of iterations =  1.0

     End of self-consistent calculation

          k = 0.0000 0.0000 0.0000 (   886 PWs)   bands (ev):

   -62.3242 -62.2823 -62.2819 -30.7069 -30.3683 -30.3679 -30.1228 -30.0731
   -30.0726 -29.9427 -29.9423 -29.8229 -29.7260  -4.9340  -4.9318  -4.8286
     6.0877  10.5201  10.7252  10.9179  11.0301  11.0306  12.4095  12.5178
    12.5180  13.3530  13.3531  15.0424  15.0424  15.2042  15.2047  15.5106
    16.2879  16.2880  16.4758  16.6111  16.6116  16.6393  16.7729  16.7741
    16.7768  16.7833  17.0668  18.4573  18.4580  19.1274  22.6817  22.6823

     occupation numbers
     1.0000   1.0000   1.0000   1.0000   1.0000   1.0000   1.0000   1.0000
     1.0000   1.0000   1.0000   1.0000   1.0000   1.0000   1.0000   1.0000
     1.0000   1.0000   1.0000   1.0000   1.0000   1.0000   1.0000   1.0000
     1.0000   1.0000   1.0000   1.0000   1.0000   1.0000   1.0000   1.0000
     1.0000   1.0000   1.0000   1.0000   1.0000   1.0000   0.7226   0.6536
     0.4894   0.1344  -0.0000  -0.0000  -0.0000  -0.0000  -0.0000  -0.0000

     the Fermi energy is    16.7767 ev

!    total energy              =   -1503.29716601 Ry
     estimated scf accuracy    <       0.00000093 Ry
     smearing contrib. (-TS)   =      -0.00087259 Ry
     internal energy E=F+TS    =   -1503.29629342 Ry

     The total energy is F=E-TS. E is the sum of the following terms:
     one-electron contribution =    -426.58266422 Ry
     hartree contribution      =     250.89929153 Ry
     xc contribution           =    -108.87343564 Ry
     ewald contribution        =    -734.50047181 Ry
     one-center paw contrib.   =    -484.23901327 Ry
      -> PAW hartree energy AE =     295.16127260 Ry
      -> PAW hartree energy PS =    -268.97678945 Ry
      -> PAW xc energy AE      =    -539.50300295 Ry
      -> PAW xc energy PS      =      29.07950652 Ry
      -> total E_H with PAW    =     277.08377468 Ry
      -> total E_XC with PAW   =    -619.29693207 Ry

     convergence has been achieved in  66 iterations

     Forces acting on atoms (cartesian axes, Ry/au):

     atom    1 type  1   force =     0.00000000   -0.00000000    0.00000000
     atom    2 type  2   force =     0.00000000    0.00000000    0.00000000
     atom    3 type  2   force =     0.00000000   -0.00000000   -0.00000000
     atom    4 type  3   force =     0.00000000   -0.00000000    0.00000000
     atom    5 type  3   force =     0.00000000   -0.00000000   -0.00000000
     atom    6 type  3   force =     0.00000000    0.00000000    0.00000000
     The non-local contrib.  to forces
     atom    1 type  1   force =     0.00000000    0.00000000    0.00000000
     atom    2 type  2   force =     0.00000000    0.00000000    0.00000000
     atom    3 type  2   force =    -0.00000000   -0.00000000    0.00000000
     atom    4 type  3   force =     0.00000000   -0.00000000    0.00000000
     atom    5 type  3   force =    -0.00000000   -0.00000000   -0.00000000
     atom    6 type  3   force =     0.00000000    0.00000000    0.00000000
     The ionic contribution  to forces
     atom    1 type  1   force =     0.00000000    0.00000000   -0.00000000
     atom    2 type  2   force =    -0.00001353    0.00000781   -0.00000000
     atom    3 type  2   force =     0.00001353   -0.00000781   -0.00000000
     atom    4 type  3   force =     0.00000000    0.00000000    0.00000000
     atom    5 type  3   force =    -0.00000000   -0.00000000    0.00000000
     atom    6 type  3   force =    -0.00000000   -0.00000000    0.00000000
     The local contribution  to forces
     atom    1 type  1   force =     0.00002171   -0.00001307   -0.00000139
     atom    2 type  2   force =    -0.00001590   -0.00000972    0.00000003
     atom    3 type  2   force =     0.00001383    0.00001157   -0.00000010
     atom    4 type  3   force =    -0.00001692   -0.00001046    0.00000060
     atom    5 type  3   force =     0.00000048    0.00001144    0.00000070
     atom    6 type  3   force =     0.00000029   -0.00000089   -0.00000009
     The core correction contribution to forces
     atom    1 type  1   force =     0.00000000   -0.00000000   -0.00000000
     atom    2 type  2   force =    -0.00000006   -0.00000010    0.00000001
     atom    3 type  2   force =     0.00000004    0.00000014    0.00000000
     atom    4 type  3   force =     0.00000000    0.00000000    0.00000000
     atom    5 type  3   force =     0.00000000    0.00000000    0.00000000
     atom    6 type  3   force =     0.00000000    0.00000000    0.00000000
     The Hubbard contrib.    to forces
     atom    1 type  1   force =     0.00000000    0.00000000    0.00000000
     atom    2 type  2   force =     0.00000000    0.00000000    0.00000000
     atom    3 type  2   force =     0.00000000    0.00000000    0.00000000
     atom    4 type  3   force =     0.00000000    0.00000000    0.00000000
     atom    5 type  3   force =     0.00000000    0.00000000    0.00000000
     atom    6 type  3   force =     0.00000000    0.00000000    0.00000000
     The SCF correction term to forces
     atom    1 type  1   force =    -0.00001830    0.00000967    0.00000104
     atom    2 type  2   force =     0.00004622    0.00000798    0.00000006
     atom    3 type  2   force =    -0.00004450   -0.00000897    0.00000003
     atom    4 type  3   force =     0.00001602    0.00000871   -0.00000063
     atom    5 type  3   force =    -0.00000008   -0.00001188   -0.00000066
     atom    6 type  3   force =    -0.00000050    0.00000090    0.00000000

     Total force =     0.000000     Total SCF correction =     0.000072

     Computing stress (Cartesian axis) and pressure

          total   stress  (Ry/bohr**3)                   (kbar)     P=      -35.47
   0.00027698  -0.00000000   0.00000000           40.74       -0.00        0.00
  -0.00000000   0.00027698  -0.00000000           -0.00       40.74       -0.00
   0.00000000  -0.00000000  -0.00127736            0.00       -0.00     -187.91

     kinetic stress (kbar)  35730.14     -0.00     -0.00
                               -0.00  35730.14      0.00
                               -0.00      0.00  35601.54

     local   stress (kbar)  -9685.30      1.06     -0.56
                                1.06  -9685.54     -1.37
                               -0.56     -1.37  11872.43

     nonloc. stress (kbar)  10227.55     -0.00     -0.00
                               -0.00  10227.55      0.00
                               -0.00      0.00  10221.81

     hartree stress (kbar)  22120.60     -0.53      0.22
                               -0.53  22120.74      0.54
                                0.22      0.54  12102.40

     exc-cor stress (kbar)  -5624.03     -0.01      0.00
                               -0.01  -5624.03      0.00
                                0.00      0.00  -5610.42

     corecor stress (kbar)  -1626.04      0.00     -0.00
                                0.00  -1626.04     -0.00
                               -0.00     -0.00  -1635.25

     ewald   stress (kbar) -51102.13      0.00     -0.00
                                0.00 -51102.13     -0.00
                               -0.00     -0.00 -62740.42

     hubbard stress (kbar)      0.00      0.00      0.00
                                0.00      0.00      0.00
                                0.00      0.00      0.00

     DFT-D   stress (kbar)      0.00      0.00      0.00
                                0.00      0.00      0.00
                                0.00      0.00      0.00

     XDM     stress (kbar)      0.00      0.00      0.00
                                0.00      0.00      0.00
                                0.00      0.00      0.00

     dft-nl  stress (kbar)      0.00      0.00      0.00
                                0.00      0.00      0.00
                                0.00      0.00      0.00

     TS-vdW  stress (kbar)      0.00      0.00      0.00
                                0.00      0.00      0.00
                                0.00      0.00      0.00

[...]

                                0.00      0.00      0.00

     Writing all to output data dir new_calculations/myprefix.save/

     General routines

     Parallel routines

     PAW routines

   This run was terminated on:  18:50:45  20May2023

   JOB DONE.