     Program PWSCF v.7.0 starts on 21May2023 at  7: 5: 1

     Reading input from espresso_21678.pwi
Warning: card &CELL ignored
Warning: card / ignored

     Current dimensions of program PWSCF are:
     Max number of different atomic species (ntypx) = 10
     Max number of k-points (npk) =  40000
     Max angular momentum in pseudopotentials (lmaxx) =  4
     file Fe.pbe-spn-kjpaw_psl.0.2.1.UPF: wavefunction(s)  3D renormalized

     gamma-point specific algorithms are used
     Message from routine setup:
     using ibrav=0 with symmetry is DISCOURAGED, use correct ibrav instead

     Subspace diagonalization in iterative solution of the eigenvalue problem:
     a serial algorithm will be used

     Using Slab Decomposition

     bravais-lattice index     =            0
     lattice parameter (alat)  =       6.5628  a.u.
     unit-cell volume          =     765.7355 (a.u.)^3
     number of atoms/cell      =            8
     number of atomic types    =            3
     number of electrons       =        81.00
     number of Kohn-Sham states=           49
     kinetic-energy cutoff     =      30.0000  Ry
     charge density cutoff     =     240.0000  Ry
     scf convergence threshold =      1.0E-06
     mixing beta               =       0.7000
     number of iterations used =            8  plain     mixing
     Exchange-correlation= PBE
                           (   1   4   3   4   0   0   0)

     celldm(1)=   6.562849  celldm(2)=   0.000000  celldm(3)=   0.000000
     celldm(4)=   0.000000  celldm(5)=   0.000000  celldm(6)=   0.000000

     crystal axes: (cart. coord. in units of alat)
               a(1) = (   1.000000   0.000000   0.000000 )
               a(2) = (   0.000000   1.562573   0.000000 )
               a(3) = (   0.000000   0.005655   1.733649 )

     reciprocal axes: (cart. coord. in units 2 pi/alat)
               b(1) = (  1.000000  0.000000  0.000000 )
               b(2) = (  0.000000  0.639970 -0.002088 )
               b(3) = (  0.000000  0.000000  0.576818 )

     PseudoPot. # 1 for Mn read from file:
     /home/pragov/projects/rrg-bengioy-ad/pragov/crystal_structure_design/SSSP/mn_pbe_v1.5.uspp.F.UPF
     MD5 check sum: 82ef2b46521d7a7d9e736dc3972e4928
     Pseudo is Ultrasoft + core correction, Zval = 15.0
     Generated by new atomic code, or converted to UPF format
     Using radial grid of  859 points,  6 beta functions with:
                l(1) =   0
                l(2) =   0
                l(3) =   1
                l(4) =   1
                l(5) =   2
                l(6) =   2
     Q(r) pseudized with  8 coefficients,  rinner =    0.950   0.950   0.950
                                                       0.950   0.950

     PseudoPot. # 2 for Fe read from file:
     /home/pragov/projects/rrg-bengioy-ad/pragov/crystal_structure_design/SSSP/Fe.pbe-spn-kjpaw_psl.0.2.1.UPF
     MD5 check sum: e86618425769142926afa95317d90200
     Pseudo is Projector augmented-wave + core cor, Zval = 16.0
     Generated using "atomic" code by A. Dal Corso  v.5.0.99 svn rev. 10869
     Shape of augmentation charge: PSQ
     Using radial grid of 1191 points,  6 beta functions with:
                l(1) =   0
                l(2) =   0
                l(3) =   1
                l(4) =   1
                l(5) =   2
                l(6) =   2
     Q(r) pseudized with 0 coefficients

     PseudoPot. # 3 for As read from file:
     /home/pragov/projects/rrg-bengioy-ad/pragov/crystal_structure_design/SSSP/As.pbe-n-rrkjus_psl.0.2.UPF
     MD5 check sum: 767315de957beeeb34f87d97bf945c8f
     Pseudo is Ultrasoft + core correction, Zval =  5.0
     Generated using "atomic" code by A. Dal Corso  v.5.0.99 svn rev. 10869
     Using radial grid of 1209 points,  4 beta functions with:
                l(1) =   0
                l(2) =   0
                l(3) =   1
                l(4) =   1
     Q(r) pseudized with 0 coefficients

     atomic species   valence    mass     pseudopotential
        Mn            15.00    54.93804     Mn( 1.00)
        Fe            16.00    55.84500     Fe( 1.00)
        As             5.00    74.92159     As( 1.00)

      2 Sym. Ops. (no inversion) found

                                    s                        frac. trans.

      isym =  1     identity

 cryst.   s( 1) = (     1          0          0      )
                  (     0          1          0      )
                  (     0          0          1      )

 cart.    s( 1) = (  1.0000000  0.0000000  0.0000000 )
                  (  0.0000000  1.0000000  0.0000000 )
                  (  0.0000000  0.0000000  1.0000000 )

      isym =  2     inv. 180 deg rotation - cart. axis [1,0,0]

 cryst.   s( 2) = (    -1          0          0      )
                  (     0          1          0      )
                  (     0          0          1      )

 cart.    s( 2) = ( -1.0000000  0.0000000  0.0000000 )
                  (  0.0000000  1.0000000  0.0000000 )
                  (  0.0000000  0.0000000  1.0000000 )

   Cartesian axes

     site n.     atom                  positions (alat units)
         1           Mn  tau(   1) = (   0.0000000   0.0167200   1.3968845  )
         2           Mn  tau(   2) = (   0.5000000   0.7796678   0.5249941  )
         3           Mn  tau(   3) = (   0.5000000   1.5613938   0.3353987  )
         4           Fe  tau(   4) = (   0.0000000   0.7884347   1.2054185  )
         5           As  tau(   5) = (   0.0000000   1.0896521   0.1349161  )
         6           As  tau(   6) = (   0.0000000   0.3082011   0.7316520  )
         7           As  tau(   7) = (   0.5000000   0.4883444   1.5805733  )
         8           As  tau(   8) = (   0.5000000   1.2405009   1.0247636  )

   Crystallographic axes

     site n.     atom                  positions (cryst. coord.)
         1           Mn  tau(   1) = (  0.0000000  0.0077840  0.8057480  )
         2           Mn  tau(   2) = (  0.5000000  0.4978680  0.3028260  )
         3           Mn  tau(   3) = (  0.5000000  0.9985450  0.1934640  )
         4           Fe  tau(   4) = (  0.0000000  0.5020580  0.6953070  )
         5           As  tau(   5) = (  0.0000000  0.6970630  0.0778220  )
         6           As  tau(   6) = (  0.0000000  0.1957120  0.4220300  )
         7           As  tau(   7) = (  0.5000000  0.3092260  0.9117030  )
         8           As  tau(   8) = (  0.5000000  0.7917440  0.5911020  )

     number of k points=     1  Methfessel-Paxton smearing, width (Ry)=  0.0010
                       cart. coord. in units 2pi/alat
        k(    1) = (   0.0000000   0.0000000   0.0000000), wk =   2.0000000

                       cryst. coord.
        k(    1) = (   0.0000000   0.0000000   0.0000000), wk =   2.0000000

     Check: negative core charge=   -0.000051

     Initial potential from superposition of free atoms

     starting charge      79.4984, renormalised to      81.0000
     Starting wfcs are   68 randomized atomic wfcs
     Checking if some PAW data can be deallocated...

     Self-consistent Calculation

     iteration #  1     ecut=    30.00 Ry     beta= 0.70
     Davidson diagonalization with overlap

     ethr =  1.00E-02,  avg # of iterations =  2.0

     total energy              =   -1028.48071025 Ry
     estimated scf accuracy    <       8.21094691 Ry

[...]

     negative rho (up, down):  8.246E-04 0.000E+00

[...]

     negative rho (up, down):  2.095E-04 0.000E+00

[...]

     total energy              =   -1035.02015283 Ry
     estimated scf accuracy    <       0.00000742 Ry

     iteration # 40     ecut=    30.00 Ry     beta= 0.70
     Davidson diagonalization with overlap

     ethr =  9.16E-09,  avg # of iterations =  1.0

     End of self-consistent calculation

          k = 0.0000 0.0000 0.0000 (  1079 PWs)   bands (ev):

   -72.6674 -64.8269 -64.7772 -64.7144 -38.6706 -38.2707 -38.1223 -34.0122
   -33.9105 -33.8909 -33.4640 -33.4477 -33.3999 -33.3798 -33.3583 -33.1659
    -0.6142   1.6871   2.7399   2.8860   7.1684   7.2620   9.5007   9.7318
     9.9163  10.4886  10.6306  11.0268  11.5340  11.5775  11.8855  12.5564
    12.5992  13.0154  13.0647  13.3008  13.3523  13.5116  13.5749  13.8023
    14.0326  14.0423  14.1948  14.7386  15.0468  15.6842  16.2045  16.4592
    16.6390

     occupation numbers
     1.0000   1.0000   1.0000   1.0000   1.0000   1.0000   1.0000   1.0000
     1.0000   1.0000   1.0000   1.0000   1.0000   1.0000   1.0000   1.0000
     1.0000   1.0000   1.0000   1.0000   1.0000   1.0000   1.0000   1.0000
     1.0000   1.0000   1.0000   1.0000   1.0000   1.0000   1.0000   1.0000
     1.0000   1.0000   1.0000   1.0000   1.0000   1.0000   1.0000   1.0000
     0.4729   0.0271  -0.0000  -0.0000  -0.0000  -0.0000  -0.0000  -0.0000
    -0.0000

     the Fermi energy is    14.0322 ev

!    total energy              =   -1035.02015301 Ry
     estimated scf accuracy    <       0.00000036 Ry
     smearing contrib. (-TS)   =      -0.00026593 Ry
     internal energy E=F+TS    =   -1035.01988708 Ry

     The total energy is F=E-TS. E is the sum of the following terms:
     one-electron contribution =    -539.37133281 Ry
     hartree contribution      =     311.59853731 Ry
     xc contribution           =    -151.66671575 Ry
     ewald contribution        =    -579.50893783 Ry
     one-center paw contrib.   =     -76.07143800 Ry
      -> PAW hartree energy AE =     217.49838036 Ry
      -> PAW hartree energy PS =    -216.71465470 Ry
      -> PAW xc energy AE      =    -111.53064537 Ry
      -> PAW xc energy PS      =      34.67548172 Ry
      -> total E_H with PAW    =     312.38226297 Ry
      -> total E_XC with PAW   =    -228.52187941 Ry

     convergence has been achieved in  40 iterations

     Forces acting on atoms (cartesian axes, Ry/au):

     atom    1 type  1   force =     0.00000000   -0.01092869    0.00400469
     atom    2 type  1   force =     0.00000000    0.02822710   -0.03382926
     atom    3 type  1   force =     0.00000000    0.02641894    0.00611958
     atom    4 type  2   force =     0.00000000   -0.02900123    0.00261065
     atom    5 type  3   force =     0.00000000    0.00517073    0.05947001
     atom    6 type  3   force =     0.00000000    0.00448536   -0.03976600
     atom    7 type  3   force =     0.00000000   -0.04154411   -0.00616982
     atom    8 type  3   force =     0.00000000    0.01717189    0.00756014
     The non-local contrib.  to forces
     atom    1 type  1   force =     0.00000000    0.06232395   -0.18316105
     atom    2 type  1   force =     0.00000000   -0.08157493   -0.20899811
     atom    3 type  1   force =     0.00000000   -0.08076337    0.17192785
     atom    4 type  2   force =     0.00000000    0.02613659    0.13886357
     atom    5 type  3   force =     0.00000000   -0.00701098   -0.04764592
     atom    6 type  3   force =     0.00000000   -0.00902261    0.04800709
     atom    7 type  3   force =     0.00000000    0.00147243    0.08382298
     atom    8 type  3   force =     0.00000000    0.02710445   -0.07909948
     The ionic contribution  to forces
     atom    1 type  1   force =    -0.00000000   -0.26280180   -3.02201896
     atom    2 type  1   force =    -0.00000000   -0.31161019   -3.85562388
     atom    3 type  1   force =     0.00000000   -0.53604929    3.96608759
     atom    4 type  2   force =     0.00000000    1.13511800    2.67210677
     atom    5 type  3   force =     0.00000000   -2.11724195    0.45366030
     atom    6 type  3   force =     0.00000000   -2.83988764   -0.51809787
     atom    7 type  3   force =     0.00000000    1.79308657    0.97994114
     atom    8 type  3   force =     0.00000000    3.13938628   -0.67605508
     The local contribution  to forces
     atom    1 type  1   force =     0.00000034    0.19233000    3.20133135
     atom    2 type  1   force =    -0.00000043    0.41722132    4.02047552
     atom    3 type  1   force =    -0.00000033    0.63950675   -4.12451274
     atom    4 type  2   force =     0.00000029   -1.19036948   -2.80007466
     atom    5 type  3   force =     0.00000021    2.11810005   -0.35285691
     atom    6 type  3   force =     0.00000026    2.84423504    0.43606541
     atom    7 type  3   force =    -0.00000003   -1.82562527   -1.05866222
     atom    8 type  3   force =    -0.00000016   -3.13553667    0.75314021
     The core correction contribution to forces
     atom    1 type  1   force =     0.00000001   -0.00270355    0.00763431
     atom    2 type  1   force =     0.00000000    0.00417278    0.01049588
     atom    3 type  1   force =    -0.00000004    0.00363629   -0.00725613
     atom    4 type  2   force =    -0.00000001    0.00005818   -0.00871484
     atom    5 type  3   force =     0.00000003    0.01111177    0.00634770
     atom    6 type  3   force =     0.00000003    0.00944545   -0.00571685
     atom    7 type  3   force =    -0.00000001   -0.01034069   -0.01134667
     atom    8 type  3   force =    -0.00000001   -0.01397197    0.00951646
     The Hubbard contrib.    to forces
     atom    1 type  1   force =     0.00000000    0.00000000    0.00000000
     atom    2 type  1   force =     0.00000000    0.00000000    0.00000000
     atom    3 type  1   force =     0.00000000    0.00000000    0.00000000
     atom    4 type  2   force =     0.00000000    0.00000000    0.00000000
     atom    5 type  3   force =     0.00000000    0.00000000    0.00000000
     atom    6 type  3   force =     0.00000000    0.00000000    0.00000000
     atom    7 type  3   force =     0.00000000    0.00000000    0.00000000
     atom    8 type  3   force =     0.00000000    0.00000000    0.00000000
     The SCF correction term to forces
     atom    1 type  1   force =    -0.00000025   -0.00007636    0.00019075
     atom    2 type  1   force =     0.00000020    0.00001907   -0.00020697
     atom    3 type  1   force =    -0.00000026    0.00008950   -0.00015528
     atom    4 type  2   force =    -0.00000046    0.00005642    0.00040151
     atom    5 type  3   force =    -0.00000003    0.00021278   -0.00006345
     atom    6 type  3   force =    -0.00000008   -0.00028394   -0.00005209
     atom    7 type  3   force =     0.00000000   -0.00013621    0.00004666
     atom    8 type  3   force =     0.00000006    0.00019073    0.00002974

     Total force =     0.104598     Total SCF correction =     0.000687

     Computing stress (Cartesian axis) and pressure

          total   stress  (Ry/bohr**3)                   (kbar)     P=     -244.50
  -0.00077646   0.00000000   0.00000000         -114.22        0.00        0.00
   0.00000000  -0.00331110   0.00002504            0.00     -487.08        3.68
   0.00000000   0.00002504  -0.00089868            0.00        3.68     -132.20

     kinetic stress (kbar)  25562.09      0.00      0.00
                                0.00  24623.30     -9.92
                                0.00     -9.92  25654.18

     local   stress (kbar)  -2362.07     -0.00      0.00
                               -0.00 -11755.83    352.98
                                0.00    352.98  -3067.98

     nonloc. stress (kbar)   5404.03      0.00      0.00
                                0.00   5080.68     -3.28
                                0.00     -3.28   5303.16

     hartree stress (kbar)  18737.20      0.00     -0.00
                                0.00  22405.26   -169.11
                               -0.00   -169.11  18718.58

     exc-cor stress (kbar)    496.57      0.00     -0.00
                                0.00    490.71     -0.82
                               -0.00     -0.82    498.93

     corecor stress (kbar)  -8414.23      0.00      0.00
                                0.00  -8378.84      2.15
                                0.00      2.15  -8400.07

     ewald   stress (kbar) -39537.81     -0.00      0.00
                               -0.00 -32952.36   -168.31
                                0.00   -168.31 -38839.00

     hubbard stress (kbar)      0.00      0.00      0.00
                                0.00      0.00      0.00
                                0.00      0.00      0.00

     DFT-D   stress (kbar)      0.00      0.00      0.00
                                0.00      0.00      0.00
                                0.00      0.00      0.00

     XDM     stress (kbar)      0.00      0.00      0.00
                                0.00      0.00      0.00
                                0.00      0.00      0.00

     dft-nl  stress (kbar)      0.00      0.00      0.00
                                0.00      0.00      0.00
                                0.00      0.00      0.00

     TS-vdW  stress (kbar)      0.00      0.00      0.00
                                0.00      0.00      0.00
                                0.00      0.00      0.00

[...]

                                0.00      0.00      0.00

     Writing all to output data dir new_calculations/myprefix.save/

     General routines

     Parallel routines

     PAW routines

   This run was terminated on:   7: 5:27  21May2023

   JOB DONE.