     Program PWSCF v.7.0 starts on 20May2023 at 23:26:51

     Reading input from espresso_9752.pwi
Warning: card &CELL ignored
Warning: card / ignored

     Current dimensions of program PWSCF are:
     Max number of different atomic species (ntypx) = 10
     Max number of k-points (npk) =  40000
     Max angular momentum in pseudopotentials (lmaxx) =  4
     file O.pbe-n-kjpaw_psl.0.1.UPF: wavefunction(s)  2P renormalized

     gamma-point specific algorithms are used

     Subspace diagonalization in iterative solution of the eigenvalue problem:
     a serial algorithm will be used

     Using Slab Decomposition

     bravais-lattice index     =            0
     lattice parameter (alat)  =      10.1195  a.u.
     unit-cell volume          =    1230.3996 (a.u.)^3
     number of atoms/cell      =           18
     number of atomic types    =            5
     number of electrons       =       120.00
     number of Kohn-Sham states=           72
     kinetic-energy cutoff     =      30.0000  Ry
     charge density cutoff     =     240.0000  Ry
     scf convergence threshold =      1.0E-06
     mixing beta               =       0.7000
     number of iterations used =            8  plain     mixing
     Exchange-correlation= SLA  PW   PBX  PBC
                           (   1   4   3   4   0   0   0)

     celldm(1)=  10.119473  celldm(2)=   0.000000  celldm(3)=   0.000000
     celldm(4)=   0.000000  celldm(5)=   0.000000  celldm(6)=   0.000000

     crystal axes: (cart. coord. in units of alat)
               a(1) = (   1.000000   0.000000   0.000000 )
               a(2) = (   0.313985   0.949410   0.000000 )
               a(3) = (   0.479679   0.346577   1.250601 )

     reciprocal axes: (cart. coord. in units 2 pi/alat)
               b(1) = (  1.000000 -0.330716 -0.291908 )
               b(2) = (  0.000000  1.053286 -0.291896 )
               b(3) = (  0.000000  0.000000  0.799616 )

     PseudoPot. # 1 for Na read from file:
     /home/pragov/projects/rrg-bengioy-ad/pragov/crystal_structure_design/SSSP/na_pbe_v1.5.uspp.F.UPF
     MD5 check sum: 44600605ef58000f06b90626533354dc
     Pseudo is Ultrasoft, Zval =  9.0
     Generated by new atomic code, or converted to UPF format
     Using radial grid of  819 points,  5 beta functions with:
                l(1) =   0
                l(2) =   0
                l(3) =   1
                l(4) =   1
                l(5) =   2
     Q(r) pseudized with  8 coefficients,  rinner =    1.250   1.250   1.250
                                                       1.250   1.250

     PseudoPot. # 2 for Ni read from file:
     /home/pragov/projects/rrg-bengioy-ad/pragov/crystal_structure_design/SSSP/ni_pbe_v1.4.uspp.F.UPF
     MD5 check sum: 1ee80287db30b12d2bc1f57a5b5d6409
     Pseudo is Ultrasoft + core correction, Zval = 18.0
     Generated by new atomic code, or converted to UPF format
     Using radial grid of  865 points,  6 beta functions with:
                l(1) =   0
                l(2) =   0
                l(3) =   1
                l(4) =   1
                l(5) =   2
                l(6) =   2
     Q(r) pseudized with 10 coefficients,  rinner =    0.980   0.980   0.980
                                                       0.980   0.980

     PseudoPot. # 3 for H  read from file:
     /home/pragov/projects/rrg-bengioy-ad/pragov/crystal_structure_design/SSSP/H.pbe-rrkjus_psl.1.0.0.UPF
     MD5 check sum: f52b6d4d1c606e5624b1dc7b2218f220
     Pseudo is Ultrasoft, Zval =  1.0
     Generated using "atomic" code by A. Dal Corso  v.5.1
     Using radial grid of  929 points,  2 beta functions with:
                l(1) =   0
                l(2) =   0
     Q(r) pseudized with 0 coefficients

     PseudoPot. # 4 for S  read from file:
     /home/pragov/projects/rrg-bengioy-ad/pragov/crystal_structure_design/SSSP/s_pbe_v1.4.uspp.F.UPF
     MD5 check sum: 88d86576ff6df21479756cfb9bdac1df
     Pseudo is Ultrasoft + core correction, Zval =  6.0
     Generated by new atomic code, or converted to UPF format
     Using radial grid of  907 points,  6 beta functions with:
                l(1) =   0
                l(2) =   0
                l(3) =   1
                l(4) =   1
                l(5) =   2
                l(6) =   2
     Q(r) pseudized with  8 coefficients,  rinner =    1.300   1.300   1.300
                                                       1.300   1.300

     PseudoPot. # 5 for O  read from file:
     /home/pragov/projects/rrg-bengioy-ad/pragov/crystal_structure_design/SSSP/O.pbe-n-kjpaw_psl.0.1.UPF
     MD5 check sum: 0234752ac141de4415c5fc33072bef88
     Pseudo is Projector augmented-wave + core cor, Zval =  6.0
     Generated using "atomic" code by A. Dal Corso  v.5.0.99 svn rev. 10869
     Shape of augmentation charge: BESSEL
     Using radial grid of 1095 points,  4 beta functions with:
                l(1) =   0
                l(2) =   0
                l(3) =   1
                l(4) =   1
     Q(r) pseudized with 0 coefficients

     atomic species   valence    mass     pseudopotential
        Na             9.00    22.98977     Na( 1.00)
        Ni            18.00    58.69340     Ni( 1.00)
        H              1.00     1.00800     H ( 1.00)
        S              6.00    32.06000     S ( 1.00)
        O              6.00    15.99900     O ( 1.00)

     No symmetry found

                                    s                        frac. trans.

      isym =  1     identity

 cryst.   s( 1) = (     1          0          0      )
                  (     0          1          0      )
                  (     0          0          1      )

 cart.    s( 1) = (  1.0000000  0.0000000  0.0000000 )
                  (  0.0000000  1.0000000 -0.0000000 )
                  (  0.0000000  0.0000000  1.0000000 )

   Cartesian axes

     site n.     atom                  positions (alat units)
         1           Na  tau(   1) = (   0.8948360   0.6465593   0.6265785  )
         2           Ni  tau(   2) = (   1.1526909   0.4727622   0.0006703  )
         3           Ni  tau(   3) = (   0.8107810   0.9459906   0.0006866  )
         4           H   tau(   4) = (   0.5089001   0.3677043   0.2947891  )
         5           H   tau(   5) = (   1.2740095   0.9205222   0.9654401  )
         6           H   tau(   6) = (   0.6481427   0.4683169   0.0094058  )
         7           S   tau(   7) = (   1.3299480   0.9609187   0.3674941  )
         8           S   tau(   8) = (   0.4587938   0.3315031   0.8859069  )
         9           O   tau(   9) = (   0.4915952   0.3552096   0.1114035  )
        10           O   tau(  10) = (   1.2926726   0.9340157   1.1479965  )
        11           O   tau(  11) = (   0.5844282   0.8609896   0.3111557  )
        12           O   tau(  12) = (   1.0009855   0.2844943   0.3111582  )
        13           O   tau(  13) = (   1.2039100   0.4300380   0.9420551  )
        14           O   tau(  14) = (   0.7863203   1.0079846   0.9420376  )
        15           O   tau(  15) = (   1.2617347   0.9116294   0.6269712  )
        16           O   tau(  16) = (   0.5279911   0.3814990   0.6267424  )
        17           O   tau(  17) = (   1.1408656   0.8242488   0.2008440  )
        18           O   tau(  18) = (   0.6493194   0.4691601   1.0506923  )

   Crystallographic axes

     site n.     atom                  positions (cryst. coord.)
         1           Na  tau(   1) = (  0.4981050  0.4981160  0.5010220  )
         2           Ni  tau(   2) = (  0.9961450  0.4977580  0.0005360  )
         3           Ni  tau(   3) = (  0.4977260  0.9961980  0.0005490  )
         4           H   tau(   4) = (  0.3012430  0.3012500  0.2357180  )
         5           H   tau(   5) = (  0.6877580  0.6877650  0.7719810  )
         6           H   tau(   6) = (  0.4905170  0.4905260  0.0075210  )
         7           S   tau(   7) = (  0.9048820  0.9048520  0.2938540  )
         8           S   tau(   8) = (  0.0905570  0.0905750  0.7083850  )
         9           O   tau(   9) = (  0.3416020  0.3416190  0.0890800  )
        10           O   tau(  10) = (  0.6486690  0.6486900  0.9179560  )
        11           O   tau(  11) = (  0.2088560  0.8160430  0.2488050  )
        12           O   tau(  12) = (  0.8160690  0.2088280  0.2488070  )
        13           O   tau(  13) = (  0.7866960  0.1779710  0.7532820  )
        14           O   tau(  14) = (  0.1779750  0.7867190  0.7532680  )
        15           O   tau(  15) = (  0.7772260  0.7771960  0.5013360  )
        16           O   tau(  16) = (  0.2188720  0.2188840  0.5011530  )
        17           O   tau(  17) = (  0.8096450  0.8095440  0.1605980  )
        18           O   tau(  18) = (  0.1874550  0.1874670  0.8401500  )

     number of k points=     1  Methfessel-Paxton smearing, width (Ry)=  0.0010
                       cart. coord. in units 2pi/alat
        k(    1) = (   0.0000000   0.0000000   0.0000000), wk =   2.0000000

                       cryst. coord.
        k(    1) = (   0.0000000   0.0000000   0.0000000), wk =   2.0000000

     Check: negative core charge=   -0.000016

     Initial potential from superposition of free atoms

     starting charge     115.9936, renormalised to     120.0000
     Starting wfcs are   82 randomized atomic wfcs
     Checking if some PAW data can be deallocated...

     Self-consistent Calculation

     iteration #  1     ecut=    30.00 Ry     beta= 0.70
     Davidson diagonalization with overlap

     ethr =  1.00E-02,  avg # of iterations =  5.0

     total energy              =   -1245.36545528 Ry
     estimated scf accuracy    <       7.70305235 Ry

[...]

     total energy              =   -1249.21612821 Ry
     estimated scf accuracy    <       0.00000748 Ry

     iteration # 23     ecut=    30.00 Ry     beta= 0.70
     Davidson diagonalization with overlap

     ethr =  6.23E-09,  avg # of iterations =  1.0

     End of self-consistent calculation

          k = 0.0000 0.0000 0.0000 (  1695 PWs)   bands (ev):

   -96.7892 -96.7871 -57.2980 -57.2952 -57.1368 -57.1270 -56.9589 -56.9569
   -44.7847 -18.4561 -18.3061 -16.7095 -16.6854 -16.6817 -15.0468 -14.4553
   -14.3748 -14.3174 -14.3150 -14.1081 -14.0502 -13.9015  -4.7513  -4.3210
    -3.1601  -2.2491  -2.2366  -2.0817  -1.6916  -1.6059  -1.2374  -0.4757
    -0.4548   0.6133   0.8639   0.9954   1.0819   1.5286   1.6143   1.7368
     1.9953   2.0614   2.2665   2.6816   2.7070   3.2179   3.2303   3.5751
     3.8122   3.9040   3.9512   4.0695   5.1096   5.3937   5.3962   5.5145
     5.5207   5.5390   6.3915   6.6682   6.6797   6.9652   9.6635  11.8933
    12.6062  12.9068  13.0162  13.3633  13.3797  13.5147  13.9528  14.2542

     occupation numbers
     1.0000   1.0000   1.0000   1.0000   1.0000   1.0000   1.0000   1.0000
     1.0000   1.0000   1.0000   1.0000   1.0000   1.0000   1.0000   1.0000
     1.0000   1.0000   1.0000   1.0000   1.0000   1.0000   1.0000   1.0000
     1.0000   1.0000   1.0000   1.0000   1.0000   1.0000   1.0000   1.0000
     1.0000   1.0000   1.0000   1.0000   1.0000   1.0000   1.0000   1.0000
     1.0000   1.0000   1.0000   1.0000   1.0000   1.0000   1.0000   1.0000
     1.0000   1.0000   1.0000   1.0000   1.0000   1.0000   1.0000   1.0000
     1.0000   1.0000   1.0000   0.8255   0.1745  -0.0000  -0.0000  -0.0000
    -0.0000  -0.0000  -0.0000  -0.0000  -0.0000  -0.0000  -0.0000  -0.0000

     the Fermi energy is     6.6739 ev

!    total energy              =   -1249.21612892 Ry
     estimated scf accuracy    <       0.00000013 Ry
     smearing contrib. (-TS)   =      -0.00030201 Ry
     internal energy E=F+TS    =   -1249.21582691 Ry

     The total energy is F=E-TS. E is the sum of the following terms:
     one-electron contribution =    -883.57626741 Ry
     hartree contribution      =     498.22008360 Ry
     xc contribution           =    -179.60280746 Ry
     ewald contribution        =    -589.05713217 Ry
     one-center paw contrib.   =     -95.19970346 Ry
      -> PAW hartree energy AE =     312.39785684 Ry
      -> PAW hartree energy PS =    -311.32231993 Ry
      -> PAW xc energy AE      =    -174.16294599 Ry
      -> PAW xc energy PS      =      77.88770562 Ry
      -> total E_H with PAW    =     499.29562050 Ry
      -> total E_XC with PAW   =    -275.87804783 Ry

     convergence has been achieved in  23 iterations

     Forces acting on atoms (cartesian axes, Ry/au):

     atom    1 type  1   force =    -0.00013731   -0.00009932    0.00011346
     atom    2 type  2   force =    -0.00126463   -0.00105860    0.00132691
     atom    3 type  2   force =    -0.00136261   -0.00107378    0.00130798
     atom    4 type  3   force =     0.00106779    0.00078223    0.01504365
     atom    5 type  3   force =    -0.00131826   -0.00094180   -0.01650007
     atom    6 type  3   force =     0.00209408    0.00153021   -0.00192709
     atom    7 type  4   force =     0.01192261    0.00858118   -0.01294247
     atom    8 type  4   force =    -0.01307545   -0.00947413    0.01228737
     atom    9 type  5   force =    -0.01465187   -0.01059488   -0.05234068
     atom   10 type  5   force =     0.01680534    0.01222200    0.05083970
     atom   11 type  5   force =    -0.00855437    0.00673765    0.01814920
     atom   12 type  5   force =     0.00363734   -0.01031301    0.01818748
     atom   13 type  5   force =     0.00890622   -0.00412923   -0.01745916
     atom   14 type  5   force =    -0.00114403    0.00973340   -0.01746578
     atom   15 type  5   force =    -0.00367369   -0.00264457    0.01056256
     atom   16 type  5   force =     0.00257523    0.00188655   -0.01162270
     atom   17 type  5   force =    -0.00485678   -0.00338883   -0.04056399
     atom   18 type  5   force =     0.00303042    0.00224493    0.04300363
     The non-local contrib.  to forces
     atom    1 type  1   force =     0.00127351    0.00086771   -0.00159988
     atom    2 type  2   force =     0.02632568   -0.00652153   -0.00261325
     atom    3 type  2   force =     0.00239031    0.02689217   -0.00249381
     atom    4 type  3   force =    -0.00902938   -0.00651977   -0.10666167
     atom    5 type  3   force =     0.01021870    0.00738873    0.10795485
     atom    6 type  3   force =    -0.00989496   -0.00714826    0.00630264
     atom    7 type  4   force =    -0.03208212   -0.02319748   -0.10340878
     atom    8 type  4   force =     0.03879356    0.02815293    0.10099251
     atom    9 type  5   force =     0.41245475    0.29750267    1.03122233
     atom   10 type  5   force =    -0.25403322   -0.18370276   -1.12668758
     atom   11 type  5   force =    -1.80124737    0.92849639   -0.00636808
     atom   12 type  5   force =     0.31562580   -2.00193071   -0.00636242
     atom   13 type  5   force =     1.81461416   -0.90848394    0.00763602
     atom   14 type  5   force =    -0.29295989    2.00819111    0.00752261
     atom   15 type  5   force =     0.50946333    0.36817270   -2.01110192
     atom   16 type  5   force =    -0.53468862   -0.38620642    1.98532549
     atom   17 type  5   force =     1.20467926    0.87043719    1.09481406
     atom   18 type  5   force =    -1.22072306   -0.88180903   -1.06379827
     The ionic contribution  to forces
     atom    1 type  1   force =     0.03660301    0.02593197    0.02970027
     atom    2 type  2   force =     0.19033922   -0.09121634   -0.17888710
     atom    3 type  2   force =    -0.01981877    0.20619403   -0.17436556
     atom    4 type  3   force =     0.71061712    0.51330060    4.21575738
     atom    5 type  3   force =    -0.77189488   -0.55759621   -4.27922792
     atom    6 type  3   force =     0.27736467    0.20045737   -0.06465521
     atom    7 type  4   force =    -0.03317718   -0.02243775    7.07327199
     atom    8 type  4   force =     0.02708887    0.02039272   -7.02603170
     atom    9 type  5   force =     6.50217066    4.70125930    6.68903007
     atom   10 type  5   force =    -6.97106984   -5.03404111   -6.28989573
     atom   11 type  5   force =     3.72302719   -5.18219125   10.42616158
     atom   12 type  5   force =    -3.75114194    5.16130699   10.42619595
     atom   13 type  5   force =    -3.76466798    5.20588544  -10.38941600
     atom   14 type  5   force =     3.76163159   -5.20996123  -10.38857130
     atom   15 type  5   force =    -1.20963107   -0.87323996    8.87542800
     atom   16 type  5   force =     1.22037307    0.88113859   -8.80401060
     atom   17 type  5   force =    -0.02886544   -0.01723129    7.10295953
     atom   18 type  5   force =     0.10105171    0.07204812   -7.24344365
     The local contribution  to forces
     atom    1 type  1   force =    -0.03801991   -0.02690224   -0.02799966
     atom    2 type  2   force =    -0.21783589    0.09666701    0.18271704
     atom    3 type  2   force =     0.01608497   -0.23406824    0.17806752
     atom    4 type  3   force =    -0.70053678   -0.50599064   -4.09405004
     atom    5 type  3   force =     0.76036238    0.54924842    4.15476755
     atom    6 type  3   force =    -0.26538685   -0.19178512    0.05643077
     atom    7 type  4   force =     0.07474198    0.05243759   -6.99183526
     atom    8 type  4   force =    -0.07595755   -0.05582881    6.94621824
     atom    9 type  5   force =    -6.92583917   -5.00654783   -7.76249011
     atom   10 type  5   force =     7.23998830    5.22824431    7.45644778
     atom   11 type  5   force =    -1.94639484    4.26922849  -10.40279045
     atom   12 type  5   force =     3.44258042   -3.18757520  -10.40298533
     atom   13 type  5   force =     1.97513433   -4.31011366   10.36548880
     atom   14 type  5   force =    -3.47301183    3.22942466   10.36494321
     atom   15 type  5   force =     0.70099662    0.50566073   -6.87077021
     atom   16 type  5   force =    -0.68789856   -0.49648907    6.82378849
     atom   17 type  5   force =    -1.16919738   -0.84852746   -8.22774576
     atom   18 type  5   force =     1.11101453    0.80378767    8.33997950
     The core correction contribution to forces
     atom    1 type  1   force =     0.00000000    0.00000000    0.00000000
     atom    2 type  2   force =    -0.00007804    0.00001654    0.00014723
     atom    3 type  2   force =    -0.00001264   -0.00008091    0.00014418
     atom    4 type  3   force =     0.00000000    0.00000000    0.00000000
     atom    5 type  3   force =     0.00000000    0.00000000    0.00000000
     atom    6 type  3   force =     0.00000000    0.00000000    0.00000000
     atom    7 type  4   force =     0.00243911    0.00176153    0.00911500
     atom    8 type  4   force =    -0.00301707   -0.00219019   -0.00898991
     atom    9 type  5   force =    -0.00362245   -0.00261228   -0.01009339
     atom   10 type  5   force =     0.00209395    0.00151407    0.01098742
     atom   11 type  5   force =     0.01601191   -0.00882932    0.00124931
     atom   12 type  5   force =    -0.00335112    0.01797721    0.00124941
     atom   13 type  5   force =    -0.01614515    0.00861160   -0.00126797
     atom   14 type  5   force =     0.00310838   -0.01803245   -0.00126658
     atom   15 type  5   force =    -0.00450648   -0.00325673    0.01706624
     atom   16 type  5   force =     0.00478383    0.00345483   -0.01681783
     atom   17 type  5   force =    -0.01141224   -0.00824511   -0.01060706
     atom   18 type  5   force =     0.01162046    0.00839377    0.01030038
     The Hubbard contrib.    to forces
     atom    1 type  1   force =     0.00000000    0.00000000    0.00000000
     atom    2 type  2   force =     0.00000000    0.00000000    0.00000000
     atom    3 type  2   force =     0.00000000    0.00000000    0.00000000
     atom    4 type  3   force =     0.00000000    0.00000000    0.00000000
     atom    5 type  3   force =     0.00000000    0.00000000    0.00000000
     atom    6 type  3   force =     0.00000000    0.00000000    0.00000000
     atom    7 type  4   force =     0.00000000    0.00000000    0.00000000
     atom    8 type  4   force =     0.00000000    0.00000000    0.00000000
     atom    9 type  5   force =     0.00000000    0.00000000    0.00000000
     atom   10 type  5   force =     0.00000000    0.00000000    0.00000000
     atom   11 type  5   force =     0.00000000    0.00000000    0.00000000
     atom   12 type  5   force =     0.00000000    0.00000000    0.00000000
     atom   13 type  5   force =     0.00000000    0.00000000    0.00000000
     atom   14 type  5   force =     0.00000000    0.00000000    0.00000000
     atom   15 type  5   force =     0.00000000    0.00000000    0.00000000
     atom   16 type  5   force =     0.00000000    0.00000000    0.00000000
     atom   17 type  5   force =     0.00000000    0.00000000    0.00000000
     atom   18 type  5   force =     0.00000000    0.00000000    0.00000000
     The SCF correction term to forces
     atom    1 type  1   force =     0.00000009   -0.00000108    0.00001382
     atom    2 type  2   force =    -0.00002158   -0.00000859   -0.00003592
     atom    3 type  2   force =    -0.00001247   -0.00001514   -0.00004327
     atom    4 type  3   force =     0.00001083   -0.00001227   -0.00000094
     atom    5 type  3   force =    -0.00001045    0.00001295    0.00000652
     atom    6 type  3   force =     0.00000524    0.00000191   -0.00000421
     atom    7 type  4   force =    -0.00000517    0.00001297   -0.00008434
     atom    8 type  4   force =     0.00001075   -0.00000510    0.00009931
     atom    9 type  5   force =     0.00017835   -0.00020106   -0.00000850
     atom   10 type  5   force =    -0.00017983    0.00020317   -0.00001110
     atom   11 type  5   force =     0.00004277    0.00002903   -0.00010209
     atom   12 type  5   force =    -0.00008180   -0.00009561    0.00009096
     atom   13 type  5   force =    -0.00003513   -0.00003298    0.00010108
     atom   14 type  5   force =     0.00008173    0.00010699   -0.00009264
     atom   15 type  5   force =    -0.00000208    0.00001439   -0.00005847
     atom   16 type  5   force =    -0.00000048   -0.00001570    0.00009283
     atom   17 type  5   force =    -0.00006696    0.00017352    0.00001632
     atom   18 type  5   force =     0.00006079   -0.00017993   -0.00003326

     Total force =     0.113678     Total SCF correction =     0.000574

     Computing stress (Cartesian axis) and pressure

          total   stress  (Ry/bohr**3)                   (kbar)     P=     -664.21
  -0.00453359  -0.00004770  -0.00000402         -666.91       -7.02       -0.59
  -0.00004770  -0.00450141  -0.00000272           -7.02     -662.18       -0.40
  -0.00000402  -0.00000272  -0.00451053           -0.59       -0.40     -663.52

     kinetic stress (kbar)  24389.19     28.15    103.86
                               28.15  24370.35     74.85
                              103.86     74.85  24052.26

     local   stress (kbar) -25218.98   5626.75   3106.84
                             5626.75 -28945.01   2242.87
                             3106.84   2242.87   5326.79

     nonloc. stress (kbar)   1502.07    -14.49    -25.79
                              -14.49   1511.63    -18.67
                              -25.79    -18.67   1503.14

     hartree stress (kbar)  24202.87  -2640.85  -1199.27
                            -2640.85  25951.24   -865.85
                            -1199.27   -865.85   9412.49

     exc-cor stress (kbar)  -4675.10      1.68     -3.74
                                1.68  -4676.21     -2.70
                               -3.74     -2.70  -4668.06

     corecor stress (kbar)  -1867.81      0.10      1.31
                                0.10  -1867.87      0.95
                                1.31      0.95  -1868.64

     ewald   stress (kbar) -18999.16  -3008.35  -1983.80
                            -3008.35 -17006.30  -1431.86
                            -1983.80  -1431.86 -34421.50

     hubbard stress (kbar)      0.00      0.00      0.00
                                0.00      0.00      0.00
                                0.00      0.00      0.00

     DFT-D   stress (kbar)      0.00      0.00      0.00
                                0.00      0.00      0.00
                                0.00      0.00      0.00

     XDM     stress (kbar)      0.00      0.00      0.00
                                0.00      0.00      0.00
                                0.00      0.00      0.00

     dft-nl  stress (kbar)      0.00      0.00      0.00
                                0.00      0.00      0.00
                                0.00      0.00      0.00

     TS-vdW  stress (kbar)      0.00      0.00      0.00
                                0.00      0.00      0.00
                                0.00      0.00      0.00

[...]

                                0.00      0.00      0.00

     Writing all to output data dir new_calculations/myprefix.save/

     General routines

     Parallel routines

     PAW routines

   This run was terminated on:  23:27:28  20May2023

   JOB DONE.