     Program PWSCF v.7.0 starts on 21May2023 at 11:13: 9

     Reading input from espresso_25514.pwi
Warning: card &CELL ignored
Warning: card / ignored

     Current dimensions of program PWSCF are:
     Max number of different atomic species (ntypx) = 10
     Max number of k-points (npk) =  40000
     Max angular momentum in pseudopotentials (lmaxx) =  4
     file In.pbe-dn-rrkjus_psl.0.2.2.UPF: wavefunction(s)  5S renormalized

     gamma-point specific algorithms are used

     Subspace diagonalization in iterative solution of the eigenvalue problem:
     a serial algorithm will be used

     Using Slab Decomposition

     bravais-lattice index     =            0
     lattice parameter (alat)  =      12.6248  a.u.
     unit-cell volume          =    2506.1692 (a.u.)^3
     number of atoms/cell      =           10
     number of atomic types    =            4
     number of electrons       =       130.00
     number of Kohn-Sham states=           78
     kinetic-energy cutoff     =      30.0000  Ry
     charge density cutoff     =     240.0000  Ry
     scf convergence threshold =      1.0E-06
     mixing beta               =       0.7000
     number of iterations used =            8  plain     mixing
     Exchange-correlation= SLA  PW   PBE  PBE
                           (   1   4   3   4   0   0   0)

     celldm(1)=  12.624786  celldm(2)=   0.000000  celldm(3)=   0.000000
     celldm(4)=   0.000000  celldm(5)=   0.000000  celldm(6)=   0.000000

     crystal axes: (cart. coord. in units of alat)
               a(1) = (   1.000000   0.000000   0.000000 )
               a(2) = (   0.499849   1.114867   0.000000 )
               a(3) = (   0.499386   0.003344   1.117160 )

     reciprocal axes: (cart. coord. in units 2 pi/alat)
               b(1) = (  1.000000 -0.448349 -0.445672 )
               b(2) = (  0.000000  0.896968 -0.002685 )
               b(3) = (  0.000000  0.000000  0.895127 )

     PseudoPot. # 1 for In read from file:
     /home/pragov/projects/rrg-bengioy-ad/pragov/crystal_structure_design/SSSP/In.pbe-dn-rrkjus_psl.0.2.2.UPF
     MD5 check sum: 25e7c42c3b55b68f4bf926be2e7201a4
     Pseudo is Ultrasoft + core correction, Zval = 13.0
     Generated using "atomic" code by A. Dal Corso  v.5.0.99 svn rev. 10869
     Using radial grid of 1241 points,  6 beta functions with:
                l(1) =   0
                l(2) =   0
                l(3) =   1
                l(4) =   1
                l(5) =   2
                l(6) =   2
     Q(r) pseudized with 0 coefficients

     PseudoPot. # 2 for Sn read from file:
     /home/pragov/projects/rrg-bengioy-ad/pragov/crystal_structure_design/SSSP/Sn_pbe_v1.uspp.F.UPF
     MD5 check sum: 4cf58ce39ec5d5d420df3dd08604eb00
     Pseudo is Ultrasoft + core correction, Zval = 14.0
     Generated by new atomic code, or converted to UPF format
     Using radial grid of  891 points,  6 beta functions with:
                l(1) =   0
                l(2) =   0
                l(3) =   1
                l(4) =   1
                l(5) =   2
                l(6) =   2
     Q(r) pseudized with  6 coefficients,  rinner =    1.200   1.200   1.200
                                                       1.200   1.200

     PseudoPot. # 3 for Sb read from file:
     /home/pragov/projects/rrg-bengioy-ad/pragov/crystal_structure_design/SSSP/sb_pbe_v1.4.uspp.F.UPF
     MD5 check sum: 9bc50dfb53373b713f5709b9110fe27f
     Pseudo is Ultrasoft + core correction, Zval = 15.0
     Generated by new atomic code, or converted to UPF format
     Using radial grid of  891 points,  6 beta functions with:
                l(1) =   0
                l(2) =   0
                l(3) =   1
                l(4) =   1
                l(5) =   2
                l(6) =   2
     Q(r) pseudized with  8 coefficients,  rinner =    1.350   1.350   1.350
                                                       1.350   1.350

     PseudoPot. # 4 for Te read from file:
     /home/pragov/projects/rrg-bengioy-ad/pragov/crystal_structure_design/SSSP/Te_pbe_v1.uspp.F.UPF
     MD5 check sum: c319670d6894cc26e93307826a071b75
     Pseudo is Ultrasoft + core correction, Zval =  6.0
     Generated by new atomic code, or converted to UPF format
     Using radial grid of  891 points,  5 beta functions with:
                l(1) =   0
                l(2) =   0
                l(3) =   1
                l(4) =   1
                l(5) =   2
     Q(r) pseudized with  6 coefficients,  rinner =    1.800   1.800   1.800
                                                       1.800   1.800

     atomic species   valence    mass     pseudopotential
        In            13.00   114.81800     In( 1.00)
        Sn            14.00   118.71000     Sn( 1.00)
        Sb            15.00   121.76000     Sb( 1.00)
        Te             6.00   127.60000     Te( 1.00)

     No symmetry found

                                    s                        frac. trans.

      isym =  1     identity

 cryst.   s( 1) = (     1          0          0      )
                  (     0          1          0      )
                  (     0          0          1      )

 cart.    s( 1) = (  1.0000000  0.0000000  0.0000000 )
                  (  0.0000000  1.0000000 -0.0000000 )
                  (  0.0000000  0.0000000  1.0000000 )

   Cartesian axes

     site n.     atom                  positions (alat units)
         1           In  tau(   1) = (   1.4976837   0.0074297   1.1150775  )
         2           In  tau(   2) = (   1.0067180   0.9035678   0.4426366  )
         3           In  tau(   3) = (   1.4908166   0.6703544   0.9051799  )
         4           In  tau(   4) = (   0.4963964   0.4403846   0.2092921  )
         5           In  tau(   5) = (   1.0094210   0.2173310   0.6792779  )
         6           Sn  tau(   6) = (   1.2514365   0.3357440   1.0061265  )
         7           Sb  tau(   7) = (   0.2444626   0.1119968   0.3346341  )
         8           Sb  tau(   8) = (   1.2478390   1.0051579   0.7826744  )
         9           Sb  tau(   9) = (   1.2529551   0.7821942   0.1118478  )
        10           Te  tau(  10) = (   0.7482142   0.5611329   0.5576326  )

   Crystallographic axes

     site n.     atom                  positions (cryst. coord.)
         1           In  tau(   1) = (  0.9973940  0.0036700  0.9981360  )
         2           In  tau(   2) = (  0.4043340  0.8092830  0.3962160  )
         3           In  tau(   3) = (  0.7868510  0.5988560  0.8102510  )
         4           In  tau(   4) = (  0.2056750  0.3944490  0.1873430  )
         5           In  tau(   5) = (  0.6092460  0.1931150  0.6080400  )
         6           Sn  tau(   6) = (  0.6525040  0.2984500  0.9006110  )
         7           Sb  tau(   7) = (  0.0451120  0.0995590  0.2995400  )
         8           Sb  tau(   8) = (  0.4483620  0.8994930  0.7005930  )
         9           Sb  tau(   9) = (  0.8524120  0.7013030  0.1001180  )
        10           Te  tau(  10) = (  0.2481100  0.5018210  0.4991520  )

     number of k points=     1  Methfessel-Paxton smearing, width (Ry)=  0.0010
                       cart. coord. in units 2pi/alat
        k(    1) = (   0.0000000   0.0000000   0.0000000), wk =   2.0000000

                       cryst. coord.
        k(    1) = (   0.0000000   0.0000000   0.0000000), wk =   2.0000000

     Check: negative core charge=   -0.000002

     Initial potential from superposition of free atoms

     starting charge     125.9811, renormalised to     130.0000
     Starting wfcs are   85 randomized atomic wfcs

     Self-consistent Calculation

     iteration #  1     ecut=    30.00 Ry     beta= 0.70
     Davidson diagonalization with overlap

     ethr =  1.00E-02,  avg # of iterations =  5.0

     total energy              =   -1468.02423570 Ry
     estimated scf accuracy    <       1.93801210 Ry

[...]

     total energy              =   -1468.70788327 Ry
     estimated scf accuracy    <       0.00002990 Ry

     iteration # 15     ecut=    30.00 Ry     beta= 0.70
     Davidson diagonalization with overlap

     ethr =  2.30E-08,  avg # of iterations =  1.0

     End of self-consistent calculation

          k = 0.0000 0.0000 0.0000 (  3485 PWs)   bands (ev):

   -22.6060 -22.5957 -22.5813 -22.5802 -22.5679 -22.5498 -22.5467 -22.5350
   -22.5198 -22.5121 -22.5102 -22.5030 -22.4848 -22.4631 -22.4534 -14.8772
   -14.8745 -14.8380 -14.8210 -14.7952  -8.4108  -8.3900  -8.3831  -8.3592
    -8.3498  -8.3374  -8.3119  -8.3076  -8.3020  -8.2984  -8.2942  -8.2868
    -8.2846  -8.2764  -8.2659  -8.2591  -8.2502  -8.2430  -8.2355  -8.2236
    -8.2215  -8.2104  -8.2062  -8.2048  -8.2007  -5.0645  -3.6470  -2.7470
    -2.7048  -1.2437   0.7353   0.7638   0.7943   0.8162   3.1652   3.2471
     3.3244   3.5348   3.8962   4.0020   4.1952   4.3198   5.4360   5.9986
     5.9994   6.0057   8.5109   8.6161   8.7287   8.9063   8.9674   9.0429
     9.1037   9.2581   9.3600   9.4575   9.5710  10.1857

     occupation numbers
     1.0000   1.0000   1.0000   1.0000   1.0000   1.0000   1.0000   1.0000
     1.0000   1.0000   1.0000   1.0000   1.0000   1.0000   1.0000   1.0000
     1.0000   1.0000   1.0000   1.0000   1.0000   1.0000   1.0000   1.0000
     1.0000   1.0000   1.0000   1.0000   1.0000   1.0000   1.0000   1.0000
     1.0000   1.0000   1.0000   1.0000   1.0000   1.0000   1.0000   1.0000
     1.0000   1.0000   1.0000   1.0000   1.0000   1.0000   1.0000   1.0000
     1.0000   1.0000   1.0000   1.0000   1.0000   1.0000   1.0000   1.0000
     1.0000   1.0000   1.0000   1.0000   1.0000   1.0000   1.0000   0.8163
     0.7782   0.4055  -0.0000  -0.0000  -0.0000  -0.0000  -0.0000  -0.0000
    -0.0000  -0.0000  -0.0000  -0.0000  -0.0000  -0.0000

     the Fermi energy is     6.0042 ev

!    total energy              =   -1468.70788430 Ry
     estimated scf accuracy    <       0.00000064 Ry
     smearing contrib. (-TS)   =      -0.00061780 Ry
     internal energy E=F+TS    =   -1468.70726650 Ry

     The total energy is F=E-TS. E is the sum of the following terms:
     one-electron contribution =    -776.84385352 Ry
     hartree contribution      =     468.67590379 Ry
     xc contribution           =    -432.18082777 Ry
     ewald contribution        =    -728.35848899 Ry

     convergence has been achieved in  15 iterations

     Forces acting on atoms (cartesian axes, Ry/au):

     atom    1 type  1   force =     0.01438899   -0.00761840   -0.00005834
     atom    2 type  1   force =     0.00193386   -0.00653362    0.00089160
     atom    3 type  1   force =     0.01707852    0.00499112   -0.00471696
     atom    4 type  1   force =     0.01030460   -0.00457906    0.00791610
     atom    5 type  1   force =    -0.00048885    0.00710949   -0.00691814
     atom    6 type  2   force =    -0.01249760    0.00354797    0.00168260
     atom    7 type  3   force =    -0.00528655    0.00364354   -0.00001178
     atom    8 type  3   force =    -0.01084132   -0.00301211    0.00334751
     atom    9 type  3   force =    -0.01161751    0.00257744   -0.00406432
     atom   10 type  4   force =    -0.00297414   -0.00012637    0.00193173
     The non-local contrib.  to forces
     atom    1 type  1   force =    -0.00265238   -0.01675648    0.01673116
     atom    2 type  1   force =    -0.04300186   -0.03190367    0.01695047
     atom    3 type  1   force =     0.02699756    0.01224528   -0.05829470
     atom    4 type  1   force =    -0.02912583    0.05122454    0.09133860
     atom    5 type  1   force =    -0.07269789    0.00658421   -0.06905508
     atom    6 type  2   force =     0.02647785   -0.02584041   -0.00470794
     atom    7 type  3   force =    -0.02158249    0.02544690   -0.00580311
     atom    8 type  3   force =     0.01817609    0.00099826    0.02077008
     atom    9 type  3   force =     0.02939400    0.01503163   -0.00837145
     atom   10 type  4   force =     0.00510951    0.01706588    0.00226640
     The ionic contribution  to forces
     atom    1 type  1   force =    -0.03123167    0.13667682   -0.19301098
     atom    2 type  1   force =    -3.06339495   -5.12209019    2.02500835
     atom    3 type  1   force =     3.03417686   -2.10850193   -5.06102101
     atom    4 type  1   force =     3.13145316    1.95489607    5.07271555
     atom    5 type  1   force =    -3.01406186    5.23751853   -1.99868670
     atom    6 type  2   force =     0.19156620    1.66735245   -0.78159497
     atom    7 type  3   force =    -0.36219429    0.97238599    1.80873184
     atom    8 type  3   force =    -0.12733014   -0.86826981   -1.66950646
     atom    9 type  3   force =     0.28704673   -1.78497669    0.78569595
     atom   10 type  4   force =    -0.04603003   -0.08499124    0.01166843
     The local contribution  to forces
     atom    1 type  1   force =     0.04743370   -0.12853034    0.17731684
     atom    2 type  1   force =     3.10474932    5.14492727   -2.04006551
     atom    3 type  1   force =    -3.04246981    2.10079166    5.11105685
     atom    4 type  1   force =    -3.09324146   -2.00881344   -5.14999554
     atom    5 type  1   force =     3.08133253   -5.23407076    2.05939623
     atom    6 type  2   force =    -0.22927636   -1.63890988    0.78690452
     atom    7 type  3   force =     0.37845537   -0.99408027   -1.80364478
     atom    8 type  3   force =     0.09777285    0.86494144    1.65107352
     atom    9 type  3   force =    -0.32753138    1.77332143   -0.78145954
     atom   10 type  4   force =     0.03739571    0.06630428   -0.01243950
     The core correction contribution to forces
     atom    1 type  1   force =     0.00111648    0.00044090    0.00019054
     atom    2 type  1   force =     0.00372650    0.00287992   -0.00052203
     atom    3 type  1   force =    -0.00151104    0.00010501    0.00402774
     atom    4 type  1   force =    -0.00000770   -0.00199904   -0.00519273
     atom    5 type  1   force =     0.00464083   -0.00319158    0.00195224
     atom    6 type  2   force =    -0.00140298    0.00097863    0.00012477
     atom    7 type  3   force =     0.00058606   -0.00052057    0.00010796
     atom    8 type  3   force =     0.00026312    0.00009324   -0.00051059
     atom    9 type  3   force =    -0.00010895   -0.00027309    0.00034714
     atom   10 type  4   force =     0.00064392    0.00172461    0.00023896
     The Hubbard contrib.    to forces
     atom    1 type  1   force =     0.00000000    0.00000000    0.00000000
     atom    2 type  1   force =     0.00000000    0.00000000    0.00000000
     atom    3 type  1   force =     0.00000000    0.00000000    0.00000000
     atom    4 type  1   force =     0.00000000    0.00000000    0.00000000
     atom    5 type  1   force =     0.00000000    0.00000000    0.00000000
     atom    6 type  2   force =     0.00000000    0.00000000    0.00000000
     atom    7 type  3   force =     0.00000000    0.00000000    0.00000000
     atom    8 type  3   force =     0.00000000    0.00000000    0.00000000
     atom    9 type  3   force =     0.00000000    0.00000000    0.00000000
     atom   10 type  4   force =     0.00000000    0.00000000    0.00000000
     The SCF correction term to forces
     atom    1 type  1   force =    -0.00024435    0.00066492   -0.00141278
     atom    2 type  1   force =    -0.00011236   -0.00023271   -0.00060658
     atom    3 type  1   force =    -0.00008227    0.00046534   -0.00061272
     atom    4 type  1   force =     0.00125922    0.00022705   -0.00107667
     atom    5 type  1   force =     0.00033034    0.00038333   -0.00065170
     atom    6 type  2   force =     0.00017047    0.00008141    0.00082934
     atom    7 type  3   force =    -0.00051841    0.00052573    0.00046942
     atom    8 type  3   force =     0.00030954   -0.00066101    0.00139408
     atom    9 type  3   force =    -0.00038512   -0.00041162   -0.00040331
     atom   10 type  4   force =    -0.00006046   -0.00011566    0.00007057

     Total force =     0.038223     Total SCF correction =     0.003388

     Computing stress (Cartesian axis) and pressure

          total   stress  (Ry/bohr**3)                   (kbar)     P=      -27.00
   0.00001286   0.00000184  -0.00000059            1.89        0.27       -0.09
   0.00000184  -0.00030659  -0.00000504            0.27      -45.10       -0.74
  -0.00000059  -0.00000504  -0.00025693           -0.09       -0.74      -37.80

     kinetic stress (kbar)  10797.67      2.58     -1.84
                                2.58  10728.86      4.49
                               -1.84      4.49  10765.99

     local   stress (kbar)  -3205.27      4.67     -3.56
                                4.67  -2419.25   -115.48
                               -3.56   -115.48  -2645.52

     nonloc. stress (kbar)   1380.59      2.68     -1.52
                                2.68   1363.18      1.83
                               -1.52      1.83   1386.67

     hartree stress (kbar)   9381.97     -1.34      0.45
                               -1.34   9010.01     50.19
                                0.45     50.19   9117.98

     exc-cor stress (kbar)  10637.80      0.10     -0.06
                                0.10  10636.85      0.15
                               -0.06      0.15  10638.07

     corecor stress (kbar) -14968.62     -0.09      0.07
                               -0.09 -14966.71     -0.26
                                0.07     -0.26 -14968.68

     ewald   stress (kbar) -14022.26     -8.32      6.38
                               -8.32 -14398.04     58.34
                                6.38     58.34 -14332.30

     hubbard stress (kbar)      0.00      0.00      0.00
                                0.00      0.00      0.00
                                0.00      0.00      0.00

     DFT-D   stress (kbar)      0.00      0.00      0.00
                                0.00      0.00      0.00
                                0.00      0.00      0.00

     XDM     stress (kbar)      0.00      0.00      0.00
                                0.00      0.00      0.00
                                0.00      0.00      0.00

     dft-nl  stress (kbar)      0.00      0.00      0.00
                                0.00      0.00      0.00
                                0.00      0.00      0.00

     TS-vdW  stress (kbar)      0.00      0.00      0.00
                                0.00      0.00      0.00
                                0.00      0.00      0.00

[...]

                                0.00      0.00      0.00

     Writing all to output data dir new_calculations/myprefix.save/

     General routines

     Parallel routines

   This run was terminated on:  11:14:43  21May2023

   JOB DONE.