     Program PWSCF v.7.0 starts on 20May2023 at 17:25:30

     Reading input from espresso_5571.pwi
Warning: card &CELL ignored
Warning: card / ignored

     Current dimensions of program PWSCF are:
     Max number of different atomic species (ntypx) = 10
     Max number of k-points (npk) =  40000
     Max angular momentum in pseudopotentials (lmaxx) =  4
     file O.pbe-n-kjpaw_psl.0.1.UPF: wavefunction(s)  2P renormalized

     gamma-point specific algorithms are used
     Message from routine setup:
     using ibrav=0 with symmetry is DISCOURAGED, use correct ibrav instead

     Subspace diagonalization in iterative solution of the eigenvalue problem:
     a serial algorithm will be used

     Using Slab Decomposition

     bravais-lattice index     =            0
     lattice parameter (alat)  =       7.7592  a.u.
     unit-cell volume          =     920.4438 (a.u.)^3
     number of atoms/cell      =            8
     number of atomic types    =            4
     number of electrons       =        78.00
     number of Kohn-Sham states=           47
     kinetic-energy cutoff     =      30.0000  Ry
     charge density cutoff     =     240.0000  Ry
     scf convergence threshold =      1.0E-06
     mixing beta               =       0.7000
     number of iterations used =            8  plain     mixing
     Exchange-correlation= SLA  PW   PBX  PBC
                           (   1   4   3   4   0   0   0)

     celldm(1)=   7.759232  celldm(2)=   0.000000  celldm(3)=   0.000000
     celldm(4)=   0.000000  celldm(5)=   0.000000  celldm(6)=   0.000000

     crystal axes: (cart. coord. in units of alat)
               a(1) = (   1.000000   0.000000   0.000000 )
               a(2) = (   0.000000   1.000000   0.000000 )
               a(3) = (   0.000000   0.000000   1.970339 )

     reciprocal axes: (cart. coord. in units 2 pi/alat)
               b(1) = (  1.000000  0.000000  0.000000 )
               b(2) = (  0.000000  1.000000  0.000000 )
               b(3) = (  0.000000  0.000000  0.507527 )

     PseudoPot. # 1 for Ce read from file:
     /home/pragov/projects/rrg-bengioy-ad/pragov/crystal_structure_design/SSSP/Ce.GGA-PBE-paw-v1.0.UPF
     MD5 check sum: f2b950f613061344c13339c8d844425d
     Pseudo is Projector augmented-wave + core cor, Zval = 12.0
     Generated using ATOMPAW code
     Shape of augmentation charge: BESSEL
     Using radial grid of 1102 points,  8 beta functions with:
                l(1) =   0
                l(2) =   0
                l(3) =   1
                l(4) =   1
                l(5) =   2
                l(6) =   2
                l(7) =   3
                l(8) =   3
     Q(r) pseudized with 0 coefficients

     PseudoPot. # 2 for As read from file:
     /home/pragov/projects/rrg-bengioy-ad/pragov/crystal_structure_design/SSSP/As.pbe-n-rrkjus_psl.0.2.UPF
     MD5 check sum: 767315de957beeeb34f87d97bf945c8f
     Pseudo is Ultrasoft + core correction, Zval =  5.0
     Generated using "atomic" code by A. Dal Corso  v.5.0.99 svn rev. 10869
     Using radial grid of 1209 points,  4 beta functions with:
                l(1) =   0
                l(2) =   0
                l(3) =   1
                l(4) =   1
     Q(r) pseudized with 0 coefficients

     PseudoPot. # 3 for Ru read from file:
     /home/pragov/projects/rrg-bengioy-ad/pragov/crystal_structure_design/SSSP/Ru_ONCV_PBE-1.0.oncvpsp.upf
     MD5 check sum: be037bb81c227cfb9b1461a9f099f4bd
     Pseudo is Norm-conserving, Zval = 16.0
     Generated using ONCVPSP code by D. R. Hamann
     Using radial grid of 1458 points,  6 beta functions with:
                l(1) =   0
                l(2) =   0
                l(3) =   1
                l(4) =   1
                l(5) =   2
                l(6) =   2

     PseudoPot. # 4 for O  read from file:
     /home/pragov/projects/rrg-bengioy-ad/pragov/crystal_structure_design/SSSP/O.pbe-n-kjpaw_psl.0.1.UPF
     MD5 check sum: 0234752ac141de4415c5fc33072bef88
     Pseudo is Projector augmented-wave + core cor, Zval =  6.0
     Generated using "atomic" code by A. Dal Corso  v.5.0.99 svn rev. 10869
     Shape of augmentation charge: BESSEL
     Using radial grid of 1095 points,  4 beta functions with:
                l(1) =   0
                l(2) =   0
                l(3) =   1
                l(4) =   1
     Q(r) pseudized with 0 coefficients

     atomic species   valence    mass     pseudopotential
        Ce            12.00   140.11600     Ce( 1.00)
        As             5.00    74.92159     As( 1.00)
        Ru            16.00   101.07000     Ru( 1.00)
        O              6.00    15.99900     O ( 1.00)

     16 Sym. Ops., with inversion, found ( 8 have fractional translation)

                                    s                        frac. trans.

      isym =  1     identity

 cryst.   s( 1) = (     1          0          0      )
                  (     0          1          0      )
                  (     0          0          1      )

 cart.    s( 1) = (  1.0000000  0.0000000  0.0000000 )
                  (  0.0000000  1.0000000  0.0000000 )
                  (  0.0000000  0.0000000  1.0000000 )

      isym =  2     180 deg rotation - cart. axis [0,0,1]

[...]

 cryst.   s( 3) = (    -1          0          0      )    f =(  0.5000000 )
                  (     0          1          0      )       (  0.5000000 )
                  (     0          0         -1      )       ( -0.0000000 )

 cart.    s( 3) = ( -1.0000000  0.0000000  0.0000000 )    f =(  0.5000000 )
                  (  0.0000000  1.0000000  0.0000000 )       (  0.5000000 )
                  (  0.0000000  0.0000000 -1.0000000 )       ( -0.0000000 )

[...]

 cryst.   s( 6) = (     0         -1          0      )
                  (    -1          0          0      )
                  (     0          0         -1      )

 cart.    s( 6) = (  0.0000000 -1.0000000  0.0000000 )
                  ( -1.0000000  0.0000000  0.0000000 )
                  (  0.0000000  0.0000000 -1.0000000 )

[...]

      isym =  8      90 deg rotation - cart. axis [0,0,1]

[...]

      isym =  9     inversion

 cryst.   s( 9) = (    -1          0          0      )    f =(  0.5000000 )
                  (     0         -1          0      )       (  0.5000000 )
                  (     0          0         -1      )       ( -0.0000000 )

 cart.    s( 9) = ( -1.0000000  0.0000000  0.0000000 )    f =(  0.5000000 )
                  (  0.0000000 -1.0000000  0.0000000 )       (  0.5000000 )
                  (  0.0000000  0.0000000 -1.0000000 )       ( -0.0000000 )

      isym = 10     inv. 180 deg rotation - cart. axis [0,0,1]

 cryst.   s(10) = (     1          0          0      )    f =( -0.5000000 )
                  (     0          1          0      )       (  0.5000000 )
                  (     0          0         -1      )       ( -0.0000000 )

 cart.    s(10) = (  1.0000000  0.0000000  0.0000000 )    f =( -0.5000000 )
                  (  0.0000000  1.0000000  0.0000000 )       (  0.5000000 )
                  (  0.0000000  0.0000000 -1.0000000 )       ( -0.0000000 )

[...]

 cryst.   s(11) = (     1          0          0      )
                  (     0         -1          0      )
                  (     0          0          1      )

 cart.    s(11) = (  1.0000000  0.0000000  0.0000000 )
                  (  0.0000000 -1.0000000  0.0000000 )
                  (  0.0000000  0.0000000  1.0000000 )

[...]

 cryst.   s(14) = (     0          1          0      )    f =( -0.5000000 )
                  (     1          0          0      )       (  0.5000000 )
                  (     0          0          1      )       (  0.0000000 )

 cart.    s(14) = (  0.0000000  1.0000000  0.0000000 )    f =( -0.5000000 )
                  (  1.0000000  0.0000000  0.0000000 )       (  0.5000000 )
                  (  0.0000000  0.0000000  1.0000000 )       (  0.0000000 )

[...]

      isym = 16     inv.  90 deg rotation - cart. axis [0,0,1]

 cryst.   s(16) = (     0         -1          0      )
                  (     1          0          0      )
                  (     0          0         -1      )

 cart.    s(16) = (  0.0000000  1.0000000  0.0000000 )
                  ( -1.0000000  0.0000000  0.0000000 )
                  (  0.0000000  0.0000000 -1.0000000 )

   Cartesian axes

     site n.     atom                  positions (alat units)
         1           Ce  tau(   1) = (   0.0000000   0.5000000   1.6844291  )
         2           Ce  tau(   2) = (   0.5000000   0.0000000   0.2859100  )
         3           As  tau(   3) = (   0.0000000   0.5000000   0.6687449  )
         4           As  tau(   4) = (   0.5000000   0.0000000   1.3015942  )
         5           Ru  tau(   5) = (   0.0000000   0.0000000   0.9851695  )
         6           Ru  tau(   6) = (   0.5000000   0.5000000   0.9851695  )
         7           O   tau(   7) = (   0.0000000   0.0000000   0.0000000  )
         8           O   tau(   8) = (   0.5000000   0.5000000   0.0000000  )

   Crystallographic axes

     site n.     atom                  positions (cryst. coord.)
         1           Ce  tau(   1) = (  0.0000000  0.5000000  0.8548930  )
         2           Ce  tau(   2) = (  0.5000000  0.0000000  0.1451070  )
         3           As  tau(   3) = (  0.0000000  0.5000000  0.3394060  )
         4           As  tau(   4) = (  0.5000000  0.0000000  0.6605940  )
         5           Ru  tau(   5) = (  0.0000000  0.0000000  0.5000000  )
         6           Ru  tau(   6) = (  0.5000000  0.5000000  0.5000000  )
         7           O   tau(   7) = (  0.0000000  0.0000000  0.0000000  )
         8           O   tau(   8) = (  0.5000000  0.5000000  0.0000000  )

     number of k points=     1  Methfessel-Paxton smearing, width (Ry)=  0.0010
                       cart. coord. in units 2pi/alat
        k(    1) = (   0.0000000   0.0000000   0.0000000), wk =   2.0000000

                       cryst. coord.
        k(    1) = (   0.0000000   0.0000000   0.0000000), wk =   2.0000000

     Check: negative core charge=   -0.000004

     Initial potential from superposition of free atoms

     starting charge      77.9844, renormalised to      78.0000
     Starting wfcs are  100 randomized atomic wfcs
     Checking if some PAW data can be deallocated...

     Self-consistent Calculation

     iteration #  1     ecut=    30.00 Ry     beta= 0.70
     Davidson diagonalization with overlap

     ethr =  1.00E-02,  avg # of iterations =  2.0

     total energy              =   -1457.49270686 Ry
     estimated scf accuracy    <       4.86520752 Ry

[...]

     c_bands:  1 eigenvalues not converged
     ethr =  4.78E-05,  avg # of iterations = 20.0

[...]

     total energy              =   -1461.25021578 Ry
     estimated scf accuracy    <       0.00000147 Ry

     iteration # 85     ecut=    30.00 Ry     beta= 0.70
     Davidson diagonalization with overlap

     ethr =  1.88E-09,  avg # of iterations =  3.0

     End of self-consistent calculation

          k = 0.0000 0.0000 0.0000 (  1270 PWs)   bands (ev):

   -58.2188 -58.1713 -28.5516 -28.5515 -28.3030 -28.3030 -27.8722 -27.8059
   -20.1380 -19.9540  -5.9387  -4.7245  -3.1799  -3.1799  -2.7219  -2.7219
    -2.6072  -1.4794   1.9414   2.7024   8.0973   8.8794   8.9793   9.2610
     9.2610   9.3725   9.3725   9.8866   9.9654  10.6111  10.6111  11.2565
    11.2565  12.8833  13.8639  13.8884  14.2244  14.2244  14.8942  14.9002
    14.9317  14.9620  14.9620  15.1694  15.2016  15.2122  15.2122

     occupation numbers
     1.0000   1.0000   1.0000   1.0000   1.0000   1.0000   1.0000   1.0000
     1.0000   1.0000   1.0000   1.0000   1.0000   1.0000   1.0000   1.0000
     1.0000   1.0000   1.0000   1.0000   1.0000   1.0000   1.0000   1.0000
     1.0000   1.0000   1.0000   1.0000   1.0000   1.0000   1.0000   1.0000
     1.0000   1.0000   1.0000   1.0000   1.0000   1.0000   0.6823   0.3187
    -0.0010  -0.0000  -0.0000  -0.0000  -0.0000  -0.0000  -0.0000

     the Fermi energy is    14.8972 ev

!    total energy              =   -1461.25021568 Ry
     estimated scf accuracy    <       0.00000018 Ry
     smearing contrib. (-TS)   =      -0.00047960 Ry
     internal energy E=F+TS    =   -1461.24973609 Ry

     The total energy is F=E-TS. E is the sum of the following terms:
     one-electron contribution =    -206.40294727 Ry
     hartree contribution      =     150.71624536 Ry
     xc contribution           =     -94.11129392 Ry
     ewald contribution        =    -475.74312673 Ry
     one-center paw contrib.   =    -835.70861353 Ry
      -> PAW hartree energy AE =     146.61330191 Ry
      -> PAW hartree energy PS =    -145.85737357 Ry
      -> PAW xc energy AE      =    -868.57195457 Ry
      -> PAW xc energy PS      =      32.10741270 Ry
      -> total E_H with PAW    =     151.47217370 Ry
      -> total E_XC with PAW   =    -930.57583578 Ry

     convergence has been achieved in  85 iterations

     Forces acting on atoms (cartesian axes, Ry/au):

     atom    1 type  1   force =     0.00000000    0.00000000   -0.02632535
     atom    2 type  1   force =     0.00000000    0.00000000    0.02632535
     atom    3 type  2   force =     0.00000000    0.00000000   -0.05919005
     atom    4 type  2   force =     0.00000000    0.00000000    0.05919005
     atom    5 type  3   force =     0.00000000    0.00000000    0.00000000
     atom    6 type  3   force =     0.00000000    0.00000000    0.00000000
     atom    7 type  4   force =     0.00000000    0.00000000    0.00000000
     atom    8 type  4   force =     0.00000000    0.00000000    0.00000000
     The non-local contrib.  to forces
     atom    1 type  1   force =     0.00000000    0.00000000    0.36186120
     atom    2 type  1   force =     0.00000000    0.00000000   -0.36186120
     atom    3 type  2   force =     0.00000000    0.00000000    0.21851877
     atom    4 type  2   force =     0.00000000    0.00000000   -0.21851877
     atom    5 type  3   force =     0.00000000    0.00000000    0.00000000
     atom    6 type  3   force =     0.00000000    0.00000000    0.00000000
     atom    7 type  4   force =     0.00000000    0.00000000    0.00000000
     atom    8 type  4   force =     0.00000000    0.00000000    0.00000000
     The ionic contribution  to forces
     atom    1 type  1   force =     0.00000000   -0.00000000    1.78302669
     atom    2 type  1   force =    -0.00000000   -0.00000000   -1.78302669
     atom    3 type  2   force =    -0.00000000   -0.00000000   -9.59126675
     atom    4 type  2   force =     0.00000000   -0.00000000    9.59126675
     atom    5 type  3   force =     0.00000000    0.00000000    0.00000000
     atom    6 type  3   force =    -0.00000000   -0.00000000    0.00000000
     atom    7 type  4   force =    -0.00000000   -0.00000000   -0.00000000
     atom    8 type  4   force =     0.00000000    0.00000000   -0.00000000
     The local contribution  to forces
     atom    1 type  1   force =     0.00000120   -0.00000773   -2.17182614
     atom    2 type  1   force =     0.00000311    0.00000276    2.17145100
     atom    3 type  2   force =     0.00000187   -0.00000800    9.31756203
     atom    4 type  2   force =    -0.00000530    0.00000119   -9.31742771
     atom    5 type  3   force =     0.00001456    0.00001077    0.00046232
     atom    6 type  3   force =    -0.00000011    0.00000370    0.00042540
     atom    7 type  4   force =    -0.00000062   -0.00000352   -0.00019895
     atom    8 type  4   force =    -0.00000991    0.00001389   -0.00017251
     The core correction contribution to forces
     atom    1 type  1   force =     0.00000000   -0.00000001   -0.00040529
     atom    2 type  1   force =     0.00000000    0.00000000    0.00040525
     atom    3 type  2   force =     0.00000068   -0.00000062   -0.00363528
     atom    4 type  2   force =    -0.00000056    0.00000030    0.00363443
     atom    5 type  3   force =     0.00000000    0.00000000    0.00000000
     atom    6 type  3   force =     0.00000000    0.00000000    0.00000000
     atom    7 type  4   force =    -0.00000002   -0.00000008    0.00000072
     atom    8 type  4   force =    -0.00000005    0.00000015    0.00000034
     The Hubbard contrib.    to forces
     atom    1 type  1   force =     0.00000000    0.00000000    0.00000000
     atom    2 type  1   force =     0.00000000    0.00000000    0.00000000
     atom    3 type  2   force =     0.00000000    0.00000000    0.00000000
     atom    4 type  2   force =     0.00000000    0.00000000    0.00000000
     atom    5 type  3   force =     0.00000000    0.00000000    0.00000000
     atom    6 type  3   force =     0.00000000    0.00000000    0.00000000
     atom    7 type  4   force =     0.00000000    0.00000000    0.00000000
     atom    8 type  4   force =     0.00000000    0.00000000    0.00000000
     The SCF correction term to forces
     atom    1 type  1   force =    -0.00000301   -0.00000500    0.00101211
     atom    2 type  1   force =     0.00000346   -0.00000402   -0.00064911
     atom    3 type  2   force =    -0.00000060    0.00000423   -0.00038001
     atom    4 type  2   force =     0.00000400    0.00000226    0.00022416
     atom    5 type  3   force =    -0.00002160   -0.00001931   -0.00053665
     atom    6 type  3   force =     0.00000053    0.00000537   -0.00047085
     atom    7 type  4   force =     0.00000235   -0.00000104    0.00023644
     atom    8 type  4   force =     0.00000206   -0.00000107    0.00021169

     Total force =     0.091613     Total SCF correction =     0.001501

     Computing stress (Cartesian axis) and pressure

          total   stress  (Ry/bohr**3)                   (kbar)     P=     -109.31
  -0.00092381   0.00000000   0.00000000         -135.90        0.00        0.00
   0.00000000  -0.00092381   0.00000000            0.00     -135.90        0.00
   0.00000000   0.00000000  -0.00038159            0.00        0.00      -56.13

     kinetic stress (kbar)  21887.63      0.00      0.00
                                0.00  21887.63      0.00
                                0.00      0.00  22786.73

     local   stress (kbar) -18757.14      0.01     -0.01
                                0.01 -18757.11      0.00
                               -0.01      0.00  11723.89

     nonloc. stress (kbar)   7978.89      0.00      0.00
                                0.00   7978.89      0.00
                                0.00      0.00   7727.34

     hartree stress (kbar)  12420.69     -0.00      0.00
                               -0.00  12420.69     -0.00
                                0.00     -0.00   -753.95

     exc-cor stress (kbar)  -2173.07     -0.00      0.00
                               -0.00  -2173.07     -0.00
                                0.00     -0.00  -2176.36

     corecor stress (kbar)  -2108.01     -0.00      0.00
                               -0.00  -2108.01     -0.00
                                0.00     -0.00  -2100.43

     ewald   stress (kbar) -19384.89      0.00      0.00
                                0.00 -19384.89     -0.00
                                0.00     -0.00 -37263.36

     hubbard stress (kbar)      0.00      0.00      0.00
                                0.00      0.00      0.00
                                0.00      0.00      0.00

     DFT-D   stress (kbar)      0.00      0.00      0.00
                                0.00      0.00      0.00
                                0.00      0.00      0.00

     XDM     stress (kbar)      0.00      0.00      0.00
                                0.00      0.00      0.00
                                0.00      0.00      0.00

     dft-nl  stress (kbar)      0.00      0.00      0.00
                                0.00      0.00      0.00
                                0.00      0.00      0.00

     TS-vdW  stress (kbar)      0.00      0.00      0.00
                                0.00      0.00      0.00
                                0.00      0.00      0.00

[...]

                                0.00      0.00      0.00

     Writing all to output data dir new_calculations/myprefix.save/

     General routines

     Parallel routines

     PAW routines

   This run was terminated on:  17:27:46  20May2023

   JOB DONE.