     Program PWSCF v.7.0 starts on 20May2023 at 17:10:22

     Reading input from espresso_9531.pwi
Warning: card &CELL ignored
Warning: card / ignored

     Current dimensions of program PWSCF are:
     Max number of different atomic species (ntypx) = 10
     Max number of k-points (npk) =  40000
     Max angular momentum in pseudopotentials (lmaxx) =  4

     gamma-point specific algorithms are used

     Subspace diagonalization in iterative solution of the eigenvalue problem:
     a serial algorithm will be used

     Using Slab Decomposition

     bravais-lattice index     =            0
     lattice parameter (alat)  =      12.6450  a.u.
     unit-cell volume          =     913.8850 (a.u.)^3
     number of atoms/cell      =           10
     number of atomic types    =            2
     number of electrons       =        92.00
     number of Kohn-Sham states=           55
     kinetic-energy cutoff     =      30.0000  Ry
     charge density cutoff     =     240.0000  Ry
     scf convergence threshold =      1.0E-06
     mixing beta               =       0.7000
     number of iterations used =            8  plain     mixing
     Exchange-correlation=  SLA  PW   PBX  PBC
                           (   1   4   3   4   0   0   0)

     celldm(1)=  12.644972  celldm(2)=   0.000000  celldm(3)=   0.000000
     celldm(4)=   0.000000  celldm(5)=   0.000000  celldm(6)=   0.000000

     crystal axes: (cart. coord. in units of alat)
               a(1) = (   1.000000   0.000000   0.000000 )
               a(2) = (   0.508447   0.674011   0.000000 )
               a(3) = (   0.491553  -0.067605   0.670612 )

     reciprocal axes: (cart. coord. in units 2 pi/alat)
               b(1) = (  1.000000 -0.754360 -0.809041 )
               b(2) = (  0.000000  1.483656  0.149570 )
               b(3) = (  0.000000  0.000000  1.491176 )

     PseudoPot. # 1 for Pd read from file:
     /home/pragov/projects/rrg-bengioy-ad/pragov/crystal_structure_design/SSSP/Pd_ONCV_PBE-1.0.oncvpsp.upf
     MD5 check sum: eb77f42b51d86fb18e25f68156a31cf1
     Pseudo is Norm-conserving, Zval = 18.0
     Generated using ONCVPSP code by D. R. Hamann
     Using radial grid of 1410 points,  6 beta functions with:
                l(1) =   0
                l(2) =   0
                l(3) =   1
                l(4) =   1
                l(5) =   2
                l(6) =   2

     PseudoPot. # 2 for F  read from file:
     /home/pragov/projects/rrg-bengioy-ad/pragov/crystal_structure_design/SSSP/f_pbe_v1.4.uspp.F.UPF
     MD5 check sum: 4c38b6a325caf53ec0e86aed9459de46
     Pseudo is Ultrasoft, Zval =  7.0
     Generated by new atomic code, or converted to UPF format
     Using radial grid of  799 points,  4 beta functions with:
                l(1) =   0
                l(2) =   0
                l(3) =   1
                l(4) =   1
     Q(r) pseudized with  8 coefficients,  rinner =    0.950   0.950   0.950

     atomic species   valence    mass     pseudopotential
        Pd            18.00   106.42000     Pd( 1.00)
        F              7.00    18.99840     F ( 1.00)

     No symmetry found

                                    s                        frac. trans.

      isym =  1     identity

 cryst.   s( 1) = (     1          0          0      )
                  (     0          1          0      )
                  (     0          0          1      )

 cart.    s( 1) = (  1.0000000  0.0000000 -0.0000000 )
                  (  0.0000000  1.0000000 -0.0000000 )
                  (  0.0000000  0.0000000  1.0000000 )

   Cartesian axes

     site n.     atom                  positions (alat units)
         1           Pd  tau(   1) = (   1.0000000   0.1444494   0.1597437  )
         2           Pd  tau(   2) = (   0.5000000   0.2960507   0.3273966  )
         3           F   tau(   3) = (   0.5119156   0.0153423   0.3214436  )
         4           F   tau(   4) = (   0.4880844   0.3182837   0.0475068  )
         5           F   tau(   5) = (   1.2033231   0.2885202   0.3416491  )
         6           F   tau(   6) = (   0.7966769   0.3109867   0.3213336  )
         7           F   tau(   7) = (   1.4882921   0.6023322   0.3626219  )
         8           F   tau(   8) = (   1.5117079   0.3003772   0.6356668  )
         9           F   tau(   9) = (   0.2039844   0.0038160   0.0271269  )
        10           F   tau(  10) = (   0.7960156   0.0266074   0.0065177  )

   Crystallographic axes

     site n.     atom                  positions (cryst. coord.)
         1           Pd  tau(   1) = (  0.7617940  0.2382060  0.2382060  )
         2           Pd  tau(   2) = (  0.0117940  0.4882060  0.4882060  )
         3           F   tau(   3) = (  0.2402810  0.0708410  0.4793290  )
         4           F   tau(   4) = (  0.2095490  0.4793290  0.0708410  )
         5           F   tau(   5) = (  0.7092670  0.4791650  0.5094590  )
         6           F   tau(   6) = (  0.3021090  0.5094590  0.4791650  )
         7           F   tau(   7) = (  0.7405410  0.9478910  0.5407330  )
         8           F   tau(   8) = (  0.7708350  0.5407330  0.9478910  )
         9           F   tau(   9) = (  0.1791590  0.0097190  0.0404510  )
        10           F   tau(  10) = (  0.7706710  0.0404510  0.0097190  )

     number of k points=     1  Methfessel-Paxton smearing, width (Ry)=  0.0010
                       cart. coord. in units 2pi/alat
        k(    1) = (   0.0000000   0.0000000   0.0000000), wk =   2.0000000

                       cryst. coord.
        k(    1) = (   0.0000000   0.0000000   0.0000000), wk =   2.0000000

     Initial potential from superposition of free atoms

     starting charge      91.9993, renormalised to      92.0000
     Starting wfcs are   52 randomized atomic wfcs +    3 random wfcs

     Self-consistent Calculation

     iteration #  1     ecut=    30.00 Ry     beta= 0.70
     Davidson diagonalization with overlap

     ethr =  1.00E-02,  avg # of iterations =  5.0

     total energy              =    -893.14887823 Ry
     estimated scf accuracy    <       1.72625874 Ry

[...]

     total energy              =    -894.10752084 Ry
     estimated scf accuracy    <       0.00001242 Ry

     iteration # 12     ecut=    30.00 Ry     beta= 0.70
     Davidson diagonalization with overlap

     ethr =  1.35E-08,  avg # of iterations =  2.0

     End of self-consistent calculation

          k = 0.0000 0.0000 0.0000 (  1257 PWs)   bands (ev):

   -84.7857 -84.5391 -49.5489 -49.3923 -49.3785 -49.2216 -49.1452 -49.1114
   -20.1059 -19.6055 -19.4410 -19.3679 -18.4524 -18.2266 -18.1799 -18.0835
    -4.1638  -3.6879  -3.0451  -2.7269  -2.5129  -2.0393  -1.9269  -1.8787
    -1.8149  -1.3467  -0.9485  -0.7264  -0.6393  -0.0930  -0.0541   0.3119
     0.4195   0.6064   0.8312   0.9410   1.0503   1.2093   1.4955   1.7512
     2.1712   2.2012   2.3219   2.4419   2.5697   2.9150   3.7187   4.5306
     5.3109   6.8675   9.3460  14.9255  15.1780  15.3176  15.6926

     occupation numbers
     1.0000   1.0000   1.0000   1.0000   1.0000   1.0000   1.0000   1.0000
     1.0000   1.0000   1.0000   1.0000   1.0000   1.0000   1.0000   1.0000
     1.0000   1.0000   1.0000   1.0000   1.0000   1.0000   1.0000   1.0000
     1.0000   1.0000   1.0000   1.0000   1.0000   1.0000   1.0000   1.0000
     1.0000   1.0000   1.0000   1.0000   1.0000   1.0000   1.0000   1.0000
     1.0000   1.0000   1.0000   1.0000   1.0000   1.0000  -0.0000  -0.0000
    -0.0000  -0.0000  -0.0000  -0.0000  -0.0000  -0.0000  -0.0000

     the Fermi energy is     3.2348 ev

!    total energy              =    -894.10752240 Ry
     estimated scf accuracy    <       0.00000084 Ry
     smearing contrib. (-TS)   =       0.00000000 Ry
     internal energy E=F+TS    =    -894.10752240 Ry

     The total energy is F=E-TS. E is the sum of the following terms:
     one-electron contribution =    -574.76606167 Ry
     hartree contribution      =     321.78989630 Ry
     xc contribution           =    -123.03558545 Ry
     ewald contribution        =    -518.09577159 Ry

     convergence has been achieved in  12 iterations

     Forces acting on atoms (cartesian axes, Ry/au):

     atom    1 type  1   force =     0.00037064    0.05839957   -0.00085086
     atom    2 type  1   force =     0.00957440   -0.00745155   -0.03129147
     atom    3 type  2   force =     0.02081899    0.02465416    0.00461055
     atom    4 type  2   force =     0.04586469   -0.02749011    0.06098780
     atom    5 type  2   force =    -0.06590833   -0.02749496   -0.04539133
     atom    6 type  2   force =     0.02440629    0.00173434   -0.00414654
     atom    7 type  2   force =    -0.00664395   -0.02609498    0.00753481
     atom    8 type  2   force =    -0.03755578   -0.01796899   -0.05884129
     atom    9 type  2   force =    -0.04208127   -0.00020123    0.02187106
     atom   10 type  2   force =     0.05115434    0.02191376    0.04551726
     The non-local contrib.  to forces
     atom    1 type  1   force =    -0.03207475    0.06016836    0.05017685
     atom    2 type  1   force =     0.01202784   -0.00493868   -0.04500827
     atom    3 type  2   force =    -0.09068856    1.35557772    0.01657170
     atom    4 type  2   force =     0.13602221    0.00318315    1.42689590
     atom    5 type  2   force =     0.57969484   -0.52692719   -0.81650224
     atom    6 type  2   force =    -0.56344545   -0.68311808   -0.60843836
     atom    7 type  2   force =     0.16448238   -0.18177832   -1.05893898
     atom    8 type  2   force =    -0.17843326   -1.14943096   -0.26285998
     atom    9 type  2   force =    -1.01864085    0.70924975    0.71702939
     atom   10 type  2   force =     0.95589336    0.58797920    0.82174448
     The ionic contribution  to forces
     atom    1 type  1   force =    -0.00000002    2.69880373    2.98455385
     atom    2 type  1   force =     0.00000002    2.69880372    2.98455382
     atom    3 type  2   force =     0.37298071  -17.05231505   -1.16556571
     atom    4 type  2   force =    -0.37298068    0.55071475  -17.08322878
     atom    5 type  2   force =    -6.37492766    6.02656705    8.42319260
     atom    6 type  2   force =     6.37492767    7.77622950    6.84104802
     atom    7 type  2   force =    -1.28698565    2.18842742   11.89385725
     atom    8 type  2   force =     1.28698562   11.61436915    3.37038339
     atom    9 type  2   force =    11.85833048   -8.67609631   -8.73982016
     atom   10 type  2   force =   -11.85833050   -7.82550396   -9.50897428
     The local contribution  to forces
     atom    1 type  1   force =     0.03977308   -2.70231347   -3.02661061
     atom    2 type  1   force =     0.00250530   -2.70331290   -2.96363418
     atom    3 type  2   force =    -0.25530006   15.71877754    1.16034600
     atom    4 type  2   force =     0.28889863   -0.58385116   15.72377886
     atom    5 type  2   force =     5.73534569   -5.52969267   -7.64546150
     atom    6 type  2   force =    -5.78046244   -7.09398690   -6.22997011
     atom    7 type  2   force =     1.12198556   -2.03495465  -10.82068037
     atom    8 type  2   force =    -1.13991798  -10.48525268   -3.15948311
     atom    9 type  2   force =   -10.87559814    7.96436587    8.05157043
     atom   10 type  2   force =    10.95995909    7.25708245    8.73968065
     The core correction contribution to forces
     atom    1 type  1   force =     0.00000000    0.00000000    0.00000000
     atom    2 type  1   force =     0.00000000    0.00000000    0.00000000
     atom    3 type  2   force =     0.00000000    0.00000000    0.00000000
     atom    4 type  2   force =     0.00000000    0.00000000    0.00000000
     atom    5 type  2   force =     0.00000000    0.00000000    0.00000000
     atom    6 type  2   force =     0.00000000    0.00000000    0.00000000
     atom    7 type  2   force =     0.00000000    0.00000000    0.00000000
     atom    8 type  2   force =     0.00000000    0.00000000    0.00000000
     atom    9 type  2   force =     0.00000000    0.00000000    0.00000000
     atom   10 type  2   force =     0.00000000    0.00000000    0.00000000
     The Hubbard contrib.    to forces
     atom    1 type  1   force =     0.00000000    0.00000000    0.00000000
     atom    2 type  1   force =     0.00000000    0.00000000    0.00000000
     atom    3 type  2   force =     0.00000000    0.00000000    0.00000000
     atom    4 type  2   force =     0.00000000    0.00000000    0.00000000
     atom    5 type  2   force =     0.00000000    0.00000000    0.00000000
     atom    6 type  2   force =     0.00000000    0.00000000    0.00000000
     atom    7 type  2   force =     0.00000000    0.00000000    0.00000000
     atom    8 type  2   force =     0.00000000    0.00000000    0.00000000
     atom    9 type  2   force =     0.00000000    0.00000000    0.00000000
     atom   10 type  2   force =     0.00000000    0.00000000    0.00000000
     The SCF correction term to forces
     atom    1 type  1   force =    -0.00112469   -0.00069820   -0.00220679
     atom    2 type  1   force =     0.00124422   -0.00044283   -0.00043868
     atom    3 type  2   force =     0.00002988    0.00017481    0.00002272
     atom    4 type  2   force =     0.00012751    0.00002400    0.00030598
     atom    5 type  2   force =     0.00018177    0.00011871    0.00014398
     atom    6 type  2   force =    -0.00041052    0.00017068   -0.00002193
     atom    7 type  2   force =     0.00007674   -0.00022857    0.00006107
     atom    8 type  2   force =     0.00001282   -0.00009364   -0.00011742
     atom    9 type  2   force =     0.00003021   -0.00015969   -0.00014444
     atom   10 type  2   force =    -0.00016463   -0.00008307   -0.00016943

     Total force =     0.182622     Total SCF correction =     0.003027

     Computing stress (Cartesian axis) and pressure

          total   stress  (Ry/bohr**3)                   (kbar)     P=     -536.31
  -0.00352508  -0.00020928   0.00021017         -518.56      -30.79       30.92
  -0.00020928  -0.00371876   0.00000303          -30.79     -547.05        0.45
   0.00021017   0.00000303  -0.00369349           30.92        0.45     -543.33

     kinetic stress (kbar)  33256.73     28.05    -48.87
                               28.05  33257.70    -21.69
                              -48.87    -21.69  33272.23

     local   stress (kbar) -24460.03   -253.56    250.39
                             -253.56 -20022.82   4986.75
                              250.39   4986.75 -19007.30

     nonloc. stress (kbar)   4197.87     -8.12     -9.57
                               -8.12   4172.10    -23.83
                               -9.57    -23.83   4144.82

     hartree stress (kbar)  18752.53    117.62    -85.06
                              117.62  16750.24  -2247.38
                              -85.06  -2247.38  16294.69

     exc-cor stress (kbar)  -6274.06      0.84      0.33
                                0.84  -6273.48     -0.20
                                0.33     -0.20  -6273.97

     corecor stress (kbar)      0.00      0.00      0.00
                                0.00      0.00      0.00
                                0.00      0.00      0.00

     ewald   stress (kbar) -25991.60     84.38    -76.30
                               84.38 -28430.78  -2693.20
                              -76.30  -2693.20 -28973.80

     hubbard stress (kbar)      0.00      0.00      0.00
                                0.00      0.00      0.00
                                0.00      0.00      0.00

     DFT-D   stress (kbar)      0.00      0.00      0.00
                                0.00      0.00      0.00
                                0.00      0.00      0.00

     XDM     stress (kbar)      0.00      0.00      0.00
                                0.00      0.00      0.00
                                0.00      0.00      0.00

     dft-nl  stress (kbar)      0.00      0.00      0.00
                                0.00      0.00      0.00
                                0.00      0.00      0.00

     TS-vdW  stress (kbar)      0.00      0.00      0.00
                                0.00      0.00      0.00
                                0.00      0.00      0.00

[...]

                                0.00      0.00      0.00

     Writing all to output data dir new_calculations/myprefix.save/

     General routines

     Parallel routines

   This run was terminated on:  17:10:34  20May2023

   JOB DONE.