     Program PWSCF v.7.0 starts on 20May2023 at 14:57:39

     Reading input from espresso_20028.pwi
Warning: card &CELL ignored
Warning: card / ignored

     Current dimensions of program PWSCF are:
     Max number of different atomic species (ntypx) = 10
     Max number of k-points (npk) =  40000
     Max angular momentum in pseudopotentials (lmaxx) =  4
     file O.pbe-n-kjpaw_psl.0.1.UPF: wavefunction(s)  2P renormalized

     gamma-point specific algorithms are used
     Message from routine setup:
     using ibrav=0 with symmetry is DISCOURAGED, use correct ibrav instead

     Subspace diagonalization in iterative solution of the eigenvalue problem:
     a serial algorithm will be used

     Using Slab Decomposition

     bravais-lattice index     =            0
     lattice parameter (alat)  =      31.8249  a.u.
     unit-cell volume          =    1652.2873 (a.u.)^3
     number of atoms/cell      =           19
     number of atomic types    =            3
     number of electrons       =       168.00
     number of Kohn-Sham states=          101
     kinetic-energy cutoff     =      30.0000  Ry
     charge density cutoff     =     240.0000  Ry
     scf convergence threshold =      1.0E-06
     mixing beta               =       0.7000
     number of iterations used =            8  plain     mixing
     Exchange-correlation= SLA  PW   PBX  PBC
                           (   1   4   3   4   0   0   0)

     celldm(1)=  31.824945  celldm(2)=   0.000000  celldm(3)=   0.000000
     celldm(4)=   0.000000  celldm(5)=   0.000000  celldm(6)=   0.000000

     crystal axes: (cart. coord. in units of alat)
               a(1) = (   1.000000   0.000000   0.000000 )
               a(2) = (   0.948061   0.318090   0.000000 )
               a(3) = (  -0.974030  -0.159045   0.161151 )

     reciprocal axes: (cart. coord. in units 2 pi/alat)
               b(1) = (  1.000000 -2.980483  3.102679 )
               b(2) = (  0.000000  3.143769  3.102679 )
               b(3) = (  0.000000  0.000000  6.205358 )

     PseudoPot. # 1 for Ti read from file:
     /home/pragov/projects/rrg-bengioy-ad/pragov/crystal_structure_design/SSSP/ti_pbe_v1.4.uspp.F.UPF
     MD5 check sum: 88a00a6731bd790ddea75d31a80cb452
     Pseudo is Ultrasoft + core correction, Zval = 12.0
     Generated by new atomic code, or converted to UPF format
     Using radial grid of  851 points,  6 beta functions with:
                l(1) =   0
                l(2) =   0
                l(3) =   1
                l(4) =   1
                l(5) =   2
                l(6) =   2
     Q(r) pseudized with  6 coefficients,  rinner =    1.000   1.000   1.000
                                                       1.000   1.000

     PseudoPot. # 2 for Bi read from file:
     /home/pragov/projects/rrg-bengioy-ad/pragov/crystal_structure_design/SSSP/Bi_pbe_v1.uspp.F.UPF
     MD5 check sum: cceb9f28ec65b6d7ff33140f5b0b1758
     Pseudo is Ultrasoft + core correction, Zval = 15.0
     Generated by new atomic code, or converted to UPF format
     Using radial grid of  899 points,  6 beta functions with:
                l(1) =   0
                l(2) =   0
                l(3) =   1
                l(4) =   1
                l(5) =   2
                l(6) =   2
     Q(r) pseudized with  6 coefficients,  rinner =    1.000   1.000   1.000
                                                       1.000   1.000

     PseudoPot. # 3 for O  read from file:
     /home/pragov/projects/rrg-bengioy-ad/pragov/crystal_structure_design/SSSP/O.pbe-n-kjpaw_psl.0.1.UPF
     MD5 check sum: 0234752ac141de4415c5fc33072bef88
     Pseudo is Projector augmented-wave + core cor, Zval =  6.0
     Generated using "atomic" code by A. Dal Corso  v.5.0.99 svn rev. 10869
     Shape of augmentation charge: BESSEL
     Using radial grid of 1095 points,  4 beta functions with:
                l(1) =   0
                l(2) =   0
                l(3) =   1
                l(4) =   1
     Q(r) pseudized with 0 coefficients

     atomic species   valence    mass     pseudopotential
        Ti            12.00    47.86700     Ti( 1.00)
        Bi            15.00   208.98040     Bi( 1.00)
        O              6.00    15.99900     O ( 1.00)

      4 Sym. Ops., with inversion, found

                                    s                        frac. trans.

      isym =  1     identity

 cryst.   s( 1) = (     1          0          0      )
                  (     0          1          0      )
                  (     0          0          1      )

 cart.    s( 1) = (  1.0000000 -0.0000000  0.0000000 )
                  (  0.0000000  1.0000000  0.0000000 )
                  (  0.0000000  0.0000000  1.0000000 )

      isym =  2     180 deg rotation - cart. axis [0,0,1]

[...]

      isym =  3     inversion

[...]

      isym =  4     inv. 180 deg rotation - cart. axis [0,0,1]

 cryst.   s( 4) = (     1          0          0      )
                  (     0          1          0      )
                  (    -1         -1         -1      )

 cart.    s( 4) = (  1.0000000 -0.0000000 -0.0000000 )
                  (  0.0000000  1.0000000 -0.0000000 )
                  (  0.0000000  0.0000000 -1.0000000 )

   Cartesian axes

     site n.     atom                  positions (alat units)
         1           Ti  tau(   1) = (   0.9740303   0.1590448   0.0000000  )
         2           Ti  tau(   2) = (   0.7251149   0.1184006   0.0000000  )
         3           Ti  tau(   3) = (   1.2229457   0.1996890   0.0000000  )
         4           Bi  tau(   4) = (   1.5363400   0.2508616   0.0000000  )
         5           Bi  tau(   5) = (   0.4117207   0.0672279   0.0000000  )
         6           Bi  tau(   6) = (   1.8182828   0.2968987   0.0000000  )
         7           Bi  tau(   7) = (   0.1297779   0.0211908   0.0000000  )
         8           O   tau(   8) = (   1.0901348   0.1780029   0.0000000  )
         9           O   tau(   9) = (   0.7362724   0.2018650   0.0805755  )
        10           O   tau(  10) = (   0.2117883   0.1162245   0.0805755  )
        11           O   tau(  11) = (   0.2377579  -0.0428203   0.0805755  )
        12           O   tau(  12) = (  -0.0129848   0.0795224   0.0805755  )
        13           O   tau(  13) = (   0.0129848  -0.0795224   0.0805755  )
        14           O   tau(  14) = (   0.4740303   0.1590448   0.0805755  )
        15           O   tau(  15) = (   1.3281663   0.2168700   0.0000000  )
        16           O   tau(  16) = (   0.8579259   0.1400866   0.0000000  )
        17           O   tau(  17) = (   0.5000000   0.0000000   0.0805755  )
        18           O   tau(  18) = (   0.6198943   0.1012196   0.0000000  )
        19           O   tau(  19) = (   0.7622421   0.0428203   0.0805755  )

   Crystallographic axes

     site n.     atom                  positions (cryst. coord.)
         1           Ti  tau(   1) = (  0.5000000  0.5000000  0.0000000  )
         2           Ti  tau(   2) = (  0.3722240  0.3722240  0.0000000  )
         3           Ti  tau(   3) = (  0.6277760  0.6277760  0.0000000  )
         4           Bi  tau(   4) = (  0.7886510  0.7886510  0.0000000  )
         5           Bi  tau(   5) = (  0.2113490  0.2113490  0.0000000  )
         6           Bi  tau(   6) = (  0.9333810  0.9333810  0.0000000  )
         7           Bi  tau(   7) = (  0.0666190  0.0666190  0.0000000  )
         8           O   tau(   8) = (  0.5596000  0.5596000  0.0000000  )
         9           O   tau(   9) = (  0.3846170  0.8846170  0.5000000  )
        10           O   tau(  10) = (  0.1153830  0.6153830  0.5000000  )
        11           O   tau(  11) = (  0.6153830  0.1153830  0.5000000  )
        12           O   tau(  12) = (  0.0000000  0.5000000  0.5000000  )
        13           O   tau(  13) = (  0.5000000  0.0000000  0.5000000  )
        14           O   tau(  14) = (  0.2500000  0.7500000  0.5000000  )
        15           O   tau(  15) = (  0.6817890  0.6817890  0.0000000  )
        16           O   tau(  16) = (  0.4404000  0.4404000  0.0000000  )
        17           O   tau(  17) = (  0.7500000  0.2500000  0.5000000  )
        18           O   tau(  18) = (  0.3182110  0.3182110  0.0000000  )
        19           O   tau(  19) = (  0.8846170  0.3846170  0.5000000  )

     number of k points=     1  Methfessel-Paxton smearing, width (Ry)=  0.0010
                       cart. coord. in units 2pi/alat
        k(    1) = (   0.0000000   0.0000000   0.0000000), wk =   2.0000000

                       cryst. coord.
        k(    1) = (   0.0000000   0.0000000   0.0000000), wk =   2.0000000

     Check: negative core charge=   -0.000014

     Initial potential from superposition of free atoms

     starting charge     160.9997, renormalised to     168.0000

     negative rho (up, down):  1.764E-01 0.000E+00
     Starting wfcs are  114 randomized atomic wfcs
     Checking if some PAW data can be deallocated...

     Self-consistent Calculation

     iteration #  1     ecut=    30.00 Ry     beta= 0.70
     Davidson diagonalization with overlap

     ethr =  1.00E-02,  avg # of iterations =  7.0

     negative rho (up, down):  1.622E-01 0.000E+00

     total energy              =   -1590.42625775 Ry
     estimated scf accuracy    <      10.82616990 Ry

[...]

     total energy              =   -1598.43726909 Ry
     estimated scf accuracy    <       0.00000145 Ry

     iteration # 46     ecut=    30.00 Ry     beta= 0.70
     Davidson diagonalization with overlap

     ethr =  8.66E-10,  avg # of iterations =  1.0

[...]

     End of self-consistent calculation

          k = 0.0000 0.0000 0.0000 (  2274 PWs)   bands (ev):

   -48.7617 -47.1969 -47.1967 -24.8075 -24.6149 -24.4146 -23.3126 -23.3124
   -23.0551 -23.0025 -22.8622 -22.4707 -13.2592 -13.0784 -10.3782 -10.2223
   -10.2023 -10.1241 -10.1037 -10.0340  -9.9824  -9.9765  -9.8471  -9.8379
    -9.7796  -9.7289  -9.6070  -9.5578  -9.4918  -9.4224  -8.9333  -8.8196
    -8.3453  -8.2931  -8.2588  -8.2209  -8.1675  -7.7558  -7.3124  -6.9752
    -6.7072  -6.6754  -6.5397  -6.4013   1.2893   1.9143   2.1446   3.7645
     4.5543   5.0639   5.4662   5.5640   5.7214   5.7894   5.9441   6.2370
     6.7415   7.3394   7.4303   7.5218   7.6173   7.6758   7.7953   7.9890
     8.0683   8.2506   8.2718   8.3046   8.4660   8.5180   8.6717   8.6957
     8.6966   8.9401   8.9575   9.0243   9.2417   9.3579   9.5039   9.5311
     9.9348  10.0649  10.2387  10.2806  10.2951  11.0370  11.0995  11.3434
    11.8632  12.6123  12.7842  13.0235  13.3688  13.3995  13.4565  13.5082
    13.7240  13.8413  13.9575  13.9914  14.1968

     occupation numbers
     1.0000   1.0000   1.0000   1.0000   1.0000   1.0000   1.0000   1.0000
     1.0000   1.0000   1.0000   1.0000   1.0000   1.0000   1.0000   1.0000
     1.0000   1.0000   1.0000   1.0000   1.0000   1.0000   1.0000   1.0000
     1.0000   1.0000   1.0000   1.0000   1.0000   1.0000   1.0000   1.0000
     1.0000   1.0000   1.0000   1.0000   1.0000   1.0000   1.0000   1.0000
     1.0000   1.0000   1.0000   1.0000   1.0000   1.0000   1.0000   1.0000
     1.0000   1.0000   1.0000   1.0000   1.0000   1.0000   1.0000   1.0000
     1.0000   1.0000   1.0000   1.0000   1.0000   1.0000   1.0000   1.0000
     1.0000   1.0000   1.0000   1.0000   1.0000   1.0000   1.0000   1.0000
     1.0000   1.0000   1.0000   1.0000   1.0000   1.0000   1.0000   1.0000
     1.0000   1.0000   1.0000   0.8867   0.1133  -0.0000  -0.0000  -0.0000
    -0.0000  -0.0000  -0.0000  -0.0000  -0.0000  -0.0000  -0.0000  -0.0000
    -0.0000  -0.0000  -0.0000  -0.0000  -0.0000

     the Fermi energy is    10.2879 ev

!    total energy              =   -1598.43726899 Ry
     estimated scf accuracy    <       0.00000013 Ry
     smearing contrib. (-TS)   =      -0.00018546 Ry
     internal energy E=F+TS    =   -1598.43708354 Ry

     The total energy is F=E-TS. E is the sum of the following terms:
     one-electron contribution =    -417.32956588 Ry
     hartree contribution      =     321.54703948 Ry
     xc contribution           =    -402.90071111 Ry
     ewald contribution        =    -985.47064959 Ry
     one-center paw contrib.   =    -114.28319644 Ry
      -> PAW hartree energy AE =     324.59155822 Ry
      -> PAW hartree energy PS =    -323.48531988 Ry
      -> PAW xc energy AE      =    -200.99057371 Ry
      -> PAW xc energy PS      =      85.60113892 Ry
      -> total E_H with PAW    =     322.65327783 Ry
      -> total E_XC with PAW   =    -518.29014590 Ry

     convergence has been achieved in  46 iterations

     negative rho (up, down):  1.690E-01 0.000E+00

     Forces acting on atoms (cartesian axes, Ry/au):

     atom    1 type  1   force =     0.00000000    0.00000000    0.00000000
     atom    2 type  1   force =    -0.57645743   -0.09745052    0.00000000
     atom    3 type  1   force =     0.57645743    0.09745052   -0.00000000
     atom    4 type  2   force =     0.16285747    0.19834690   -0.00000000
     atom    5 type  2   force =    -0.16285747   -0.19834690    0.00000000
     atom    6 type  2   force =     0.06163386    0.00365872   -0.00000000
     atom    7 type  2   force =    -0.06163386   -0.00365872    0.00000000
     atom    8 type  3   force =    -0.01535716    0.01612898    0.00000000
     atom    9 type  3   force =     0.25027257    0.05368900   -0.00126681
     atom   10 type  3   force =    -0.25027257   -0.05368900   -0.00126681
     atom   11 type  3   force =    -0.25027257   -0.05368900    0.00126681
     atom   12 type  3   force =     0.00000000    0.00000000   -0.00000000
     atom   13 type  3   force =     0.00000000   -0.00000000   -0.00000000
     atom   14 type  3   force =     0.00000000    0.00000000    0.05214189
     atom   15 type  3   force =     0.02495689    0.01876687   -0.00000000
     atom   16 type  3   force =     0.01535716   -0.01612898   -0.00000000
     atom   17 type  3   force =     0.00000000    0.00000000   -0.05214189
     atom   18 type  3   force =    -0.02495689   -0.01876687    0.00000000
     atom   19 type  3   force =     0.25027257    0.05368900    0.00126681
     The non-local contrib.  to forces
     atom    1 type  1   force =     0.00000000    0.00000000    0.00000000
     atom    2 type  1   force =     0.22940751    0.04149124   -0.00000000
     atom    3 type  1   force =    -0.22940751   -0.04149124    0.00000000
     atom    4 type  2   force =    -0.50541339   -0.04532005    0.00000000
     atom    5 type  2   force =     0.50541339    0.04532005   -0.00000000
     atom    6 type  2   force =    -0.13769388   -0.02885339    0.00000000
     atom    7 type  2   force =     0.13769388    0.02885339   -0.00000000
     atom    8 type  3   force =    -0.41237123   -0.06458532    0.00000000
     atom    9 type  3   force =    -0.70312875   -0.08656998    0.02619333
     atom   10 type  3   force =     0.70312875    0.08656998    0.02619333
     atom   11 type  3   force =     0.70312875    0.08656998   -0.02619333
     atom   12 type  3   force =     0.00000000    0.00000000   -0.00000000
     atom   13 type  3   force =     0.00000000    0.00000000    0.00000000
     atom   14 type  3   force =     0.00000000    0.00000000    0.06687762
     atom   15 type  3   force =    -0.91371718   -0.15536972    0.00000000
     atom   16 type  3   force =     0.41237123    0.06458532   -0.00000000
     atom   17 type  3   force =     0.00000000    0.00000000   -0.06687762
     atom   18 type  3   force =     0.91371718    0.15536972   -0.00000000
     atom   19 type  3   force =    -0.70312875   -0.08656998   -0.02619333
     The ionic contribution  to forces
     atom    1 type  1   force =    -0.00000000   -0.00000000    0.00000000
     atom    2 type  1   force =   -18.73693766   -3.05946540    0.00000000
     atom    3 type  1   force =    18.73693766    3.05946540    0.00000000
     atom    4 type  2   force =     5.47399773    0.89382304    0.00000000
     atom    5 type  2   force =    -5.47399773   -0.89382304    0.00000000
     atom    6 type  2   force =    -7.58669965   -1.23879609    0.00000000
     atom    7 type  2   force =     7.58669965    1.23879609    0.00000000
     atom    8 type  3   force =     5.22745003    0.85356544    0.00000000
     atom    9 type  3   force =    -9.45855514   -1.54444246   -0.00000000
     atom   10 type  3   force =     9.45855514    1.54444246   -0.00000000
     atom   11 type  3   force =     9.45855514    1.54444246   -0.00000000
     atom   12 type  3   force =     0.00000000    0.00000000   -0.00000000
     atom   13 type  3   force =     0.00000000   -0.00000000   -0.00000000
     atom   14 type  3   force =     0.00000000   -0.00000000   -0.00000000
     atom   15 type  3   force =    10.29969401    1.68178803    0.00000000
     atom   16 type  3   force =    -5.22745003   -0.85356544    0.00000000
     atom   17 type  3   force =     0.00000000    0.00000000   -0.00000000
     atom   18 type  3   force =   -10.29969401   -1.68178803    0.00000000
     atom   19 type  3   force =    -9.45855514   -1.54444246   -0.00000000
     The local contribution  to forces
     atom    1 type  1   force =    -0.00030120    0.00002463    0.00018695
     atom    2 type  1   force =    17.96136233    2.92637226   -0.08046616
     atom    3 type  1   force =   -17.96088651   -2.92630266    0.08046445
     atom    4 type  2   force =    -4.82722041   -0.65651614   -0.00640111
     atom    5 type  2   force =     4.82741513    0.65654847    0.00640707
     atom    6 type  2   force =     7.77772771    1.27193228    0.03467952
     atom    7 type  2   force =    -7.77807738   -1.27200732   -0.03467335
     atom    8 type  3   force =    -4.83455275   -0.77343859   -0.00206823
     atom    9 type  3   force =    10.39885175    1.68713933   -0.00136931
     atom   10 type  3   force =   -10.40365426   -1.67886474   -0.05258677
     atom   11 type  3   force =   -10.39874647   -1.68712668    0.00136157
     atom   12 type  3   force =    -0.00015114   -0.00005631   -0.00005295
     atom   13 type  3   force =    -0.00016560   -0.00007036   -0.00007300
     atom   14 type  3   force =    -0.02940091    0.07979140   -0.01462849
     atom   15 type  3   force =    -9.36881851   -1.50888519   -0.01334013
     atom   16 type  3   force =     4.83438012    0.77341900    0.00207654
     atom   17 type  3   force =     0.02938797   -0.07978673    0.01462598
     atom   18 type  3   force =     9.36901594    1.50892406    0.01333343
     atom   19 type  3   force =    10.40374586    1.67889105    0.05259502
     The core correction contribution to forces
     atom    1 type  1   force =     0.00000283    0.00000004    0.00000698
     atom    2 type  1   force =    -0.03043886   -0.00587329   -0.00234369
     atom    3 type  1   force =     0.03044321    0.00587339    0.00234348
     atom    4 type  2   force =     0.02117223    0.00630401   -0.00185568
     atom    5 type  2   force =    -0.02117227   -0.00630350    0.00185575
     atom    6 type  2   force =     0.00838905   -0.00062359    0.00337158
     atom    7 type  2   force =    -0.00839064    0.00062286   -0.00337122
     atom    8 type  3   force =     0.00399810    0.00058095    0.00001026
     atom    9 type  3   force =     0.01057475    0.00167985   -0.00018382
     atom   10 type  3   force =    -0.01060509   -0.00167307   -0.00077568
     atom   11 type  3   force =    -0.01057478   -0.00167988    0.00018387
     atom   12 type  3   force =     0.00000018    0.00000001   -0.00000068
     atom   13 type  3   force =     0.00000013   -0.00000009    0.00000046
     atom   14 type  3   force =    -0.00009738    0.00035507   -0.00011030
     atom   15 type  3   force =     0.00814217    0.00129313    0.00007261
     atom   16 type  3   force =    -0.00399789   -0.00058091   -0.00001022
     atom   17 type  3   force =     0.00009766   -0.00035495    0.00011026
     atom   18 type  3   force =    -0.00814293   -0.00129325   -0.00007267
     atom   19 type  3   force =     0.01060506    0.00167313    0.00077566
     The Hubbard contrib.    to forces
     atom    1 type  1   force =     0.00000000    0.00000000    0.00000000
     atom    2 type  1   force =     0.00000000    0.00000000    0.00000000
     atom    3 type  1   force =     0.00000000    0.00000000    0.00000000
     atom    4 type  2   force =     0.00000000    0.00000000    0.00000000
     atom    5 type  2   force =     0.00000000    0.00000000    0.00000000
     atom    6 type  2   force =     0.00000000    0.00000000    0.00000000
     atom    7 type  2   force =     0.00000000    0.00000000    0.00000000
     atom    8 type  3   force =     0.00000000    0.00000000    0.00000000
     atom    9 type  3   force =     0.00000000    0.00000000    0.00000000
     atom   10 type  3   force =     0.00000000    0.00000000    0.00000000
     atom   11 type  3   force =     0.00000000    0.00000000    0.00000000
     atom   12 type  3   force =     0.00000000    0.00000000    0.00000000
     atom   13 type  3   force =     0.00000000    0.00000000    0.00000000
     atom   14 type  3   force =     0.00000000    0.00000000    0.00000000
     atom   15 type  3   force =     0.00000000    0.00000000    0.00000000
     atom   16 type  3   force =     0.00000000    0.00000000    0.00000000
     atom   17 type  3   force =     0.00000000    0.00000000    0.00000000
     atom   18 type  3   force =     0.00000000    0.00000000    0.00000000
     atom   19 type  3   force =     0.00000000    0.00000000    0.00000000
     The SCF correction term to forces
     atom    1 type  1   force =     0.00030613   -0.00001196   -0.00010238
     atom    2 type  1   force =     0.00017890    0.00002614    0.00000589
     atom    3 type  1   force =    -0.00059977   -0.00009289   -0.00000136
     atom    4 type  2   force =     0.00032286    0.00005664   -0.00000258
     atom    5 type  2   force =    -0.00051442   -0.00008828   -0.00000292
     atom    6 type  2   force =    -0.00010109   -0.00000444   -0.00000695
     atom    7 type  2   force =     0.00042893    0.00007232    0.00000085
     atom    8 type  3   force =     0.00012717    0.00000798    0.00000378
     atom    9 type  3   force =     0.00006241    0.00001183   -0.00000288
     atom   10 type  3   force =    -0.00016513   -0.00003104   -0.00000405
     atom   11 type  3   force =    -0.00016897   -0.00002835    0.00000570
     atom   12 type  3   force =     0.00015719    0.00004116    0.00001194
     atom   13 type  3   force =     0.00016281    0.00005536    0.00005388
     atom   14 type  3   force =     0.00000857    0.00000260    0.00000260
     atom   15 type  3   force =    -0.00035747   -0.00006062    0.00000156
     atom   16 type  3   force =     0.00006223    0.00001455   -0.00001144
     atom   17 type  3   force =     0.00001191   -0.00000352   -0.00000095
     atom   18 type  3   force =     0.00013307    0.00001936    0.00000227
     atom   19 type  3   force =     0.00007131    0.00000683   -0.00000375

     Total force =     1.045664     Total SCF correction =     0.001175

     Computing stress (Cartesian axis) and pressure

     negative rho (up, down):  1.690E-01 0.000E+00
          total   stress  (Ry/bohr**3)                   (kbar)     P=     -101.64
  -0.00255551   0.00002545   0.00000000         -375.93        3.74        0.00
   0.00002545   0.00002904  -0.00000000            3.74        4.27       -0.00
   0.00000000  -0.00000000   0.00045358            0.00       -0.00       66.72

     kinetic stress (kbar)  20470.36     -8.30     -0.00
                               -8.30  20538.61     -0.00
                               -0.00     -0.00  20554.63

     local   stress (kbar)   4657.17   2787.89      4.18
                             2787.89 -11375.58    -18.03
                                4.18    -18.03 -11821.78

     nonloc. stress (kbar)  12536.82    -59.65     -0.00
                              -59.65  12795.52     -0.00
                               -0.00     -0.00  12843.70

     hartree stress (kbar)   4541.34  -1259.70     -6.58
                            -1259.70  11935.09     14.42
                               -6.58     14.42  12151.28

     exc-cor stress (kbar)  11007.47     -0.22     -0.13
                               -0.22  11006.43      0.78
                               -0.13      0.78  11005.88

     corecor stress (kbar) -18452.19      6.11      0.01
                                6.11 -18476.03     -6.50
                                0.01     -6.50 -18486.02

     ewald   stress (kbar) -35136.89  -1462.37     -0.00
                            -1462.37 -26419.75     -0.00
                               -0.00     -0.00 -26180.97

     hubbard stress (kbar)      0.00      0.00      0.00
                                0.00      0.00      0.00
                                0.00      0.00      0.00

     DFT-D   stress (kbar)      0.00      0.00      0.00
                                0.00      0.00      0.00
                                0.00      0.00      0.00

     XDM     stress (kbar)      0.00      0.00      0.00
                                0.00      0.00      0.00
                                0.00      0.00      0.00

     dft-nl  stress (kbar)      0.00      0.00      0.00
                                0.00      0.00      0.00
                                0.00      0.00      0.00

     TS-vdW  stress (kbar)      0.00      0.00      0.00
                                0.00      0.00      0.00
                                0.00      0.00      0.00

[...]

                                0.00      0.00      0.00

     Writing all to output data dir new_calculations/myprefix.save/

     General routines

     Parallel routines

     PAW routines

   This run was terminated on:  15: 3: 4  20May2023

   JOB DONE.