     Program PWSCF v.7.0 starts on 21May2023 at 19: 7:16

     Reading input from espresso_20799.pwi
Warning: card &CELL ignored
Warning: card / ignored

     Current dimensions of program PWSCF are:
     Max number of different atomic species (ntypx) = 10
     Max number of k-points (npk) =  40000
     Max angular momentum in pseudopotentials (lmaxx) =  4

     gamma-point specific algorithms are used
     Message from routine setup:
     using ibrav=0 with symmetry is DISCOURAGED, use correct ibrav instead

     Subspace diagonalization in iterative solution of the eigenvalue problem:
     a serial algorithm will be used

     Using Slab Decomposition

     bravais-lattice index     =            0
     lattice parameter (alat)  =      12.5357  a.u.
     unit-cell volume          =    2280.4721 (a.u.)^3
     number of atoms/cell      =           20
     number of atomic types    =            4
     number of electrons       =       160.00
     number of Kohn-Sham states=           96
     kinetic-energy cutoff     =      30.0000  Ry
     charge density cutoff     =     240.0000  Ry
     scf convergence threshold =      1.0E-06
     mixing beta               =       0.7000
     number of iterations used =            8  plain     mixing
     Exchange-correlation=  SLA  PW   PBX  PBC
                           (   1   4   3   4   0   0   0)

     celldm(1)=  12.535691  celldm(2)=   0.000000  celldm(3)=   0.000000
     celldm(4)=   0.000000  celldm(5)=   0.000000  celldm(6)=   0.000000

     crystal axes: (cart. coord. in units of alat)
               a(1) = (   1.000000   0.000000   0.000000 )
               a(2) = (  -0.452667   0.891680   0.000000 )
               a(3) = (   0.000000   0.000000   1.298288 )

     reciprocal axes: (cart. coord. in units 2 pi/alat)
               b(1) = (  1.000000  0.507657  0.000000 )
               b(2) = (  0.000000  1.121479  0.000000 )
               b(3) = (  0.000000  0.000000  0.770245 )

     PseudoPot. # 1 for Rb read from file:
     /home/pragov/projects/rrg-bengioy-ad/pragov/crystal_structure_design/SSSP/Rb_ONCV_PBE-1.0.oncvpsp.upf
     MD5 check sum: 55a5172d6bfbce6759a58e35d43f6aa9
     Pseudo is Norm-conserving, Zval =  9.0
     Generated using ONCVPSP code by D. R. Hamann
     Using radial grid of 2308 points,  6 beta functions with:
                l(1) =   0
                l(2) =   0
                l(3) =   1
                l(4) =   1
                l(5) =   2
                l(6) =   2

     PseudoPot. # 2 for Ca read from file:
     /home/pragov/projects/rrg-bengioy-ad/pragov/crystal_structure_design/SSSP/Ca_pbe_v1.uspp.F.UPF
     MD5 check sum: 403a4c14b9e4d4dfdc3024c9a3812218
     Pseudo is Ultrasoft + core correction, Zval = 10.0
     Generated by new atomic code, or converted to UPF format
     Using radial grid of  845 points,  6 beta functions with:
                l(1) =   0
                l(2) =   0
                l(3) =   1
                l(4) =   1
                l(5) =   2
                l(6) =   2
     Q(r) pseudized with  8 coefficients,  rinner =    1.500   1.500   1.500
                                                       1.500   1.500

     PseudoPot. # 3 for Hf read from file:
     /home/pragov/projects/rrg-bengioy-ad/pragov/crystal_structure_design/SSSP/Hf-sp.oncvpsp.upf
     MD5 check sum: 417ed15784afe83d2e06dacf143de3f8
     Pseudo is Norm-conserving + core correction, Zval = 12.0
     Generated using ONCVPSP code by D. R. Hamann
     Using radial grid of 1656 points,  8 beta functions with:
                l(1) =   0
                l(2) =   0
                l(3) =   1
                l(4) =   1
                l(5) =   2
                l(6) =   2
                l(7) =   3
                l(8) =   3

     PseudoPot. # 4 for F  read from file:
     /home/pragov/projects/rrg-bengioy-ad/pragov/crystal_structure_design/SSSP/f_pbe_v1.4.uspp.F.UPF
     MD5 check sum: 4c38b6a325caf53ec0e86aed9459de46
     Pseudo is Ultrasoft, Zval =  7.0
     Generated by new atomic code, or converted to UPF format
     Using radial grid of  799 points,  4 beta functions with:
                l(1) =   0
                l(2) =   0
                l(3) =   1
                l(4) =   1
     Q(r) pseudized with  8 coefficients,  rinner =    0.950   0.950   0.950

     atomic species   valence    mass     pseudopotential
        Rb             9.00    85.46780     Rb( 1.00)
        Ca            10.00    40.07800     Ca( 1.00)
        Hf            12.00   178.49000     Hf( 1.00)
        F              7.00    18.99840     F ( 1.00)

      4 Sym. Ops., with inversion, found ( 2 have fractional translation)

                                    s                        frac. trans.

      isym =  1     identity

 cryst.   s( 1) = (     1          0          0      )
                  (     0          1          0      )
                  (     0          0          1      )

 cart.    s( 1) = (  1.0000000 -0.0000000  0.0000000 )
                  (  0.0000000  1.0000000  0.0000000 )
                  (  0.0000000  0.0000000  1.0000000 )

      isym =  2     180 deg rotation - cart. axis [0,0,1]

 cryst.   s( 2) = (    -1          0          0      )    f =(  0.0000000 )
                  (     0         -1          0      )       (  0.0000000 )
                  (     0          0          1      )       ( -0.5000000 )

 cart.    s( 2) = ( -1.0000000  0.0000000  0.0000000 )    f =(  0.0000000 )
                  (  0.0000000 -1.0000000  0.0000000 )       (  0.0000000 )
                  (  0.0000000  0.0000000  1.0000000 )       ( -0.6491442 )

      isym =  3     inversion

 cryst.   s( 3) = (    -1          0          0      )
                  (     0         -1          0      )
                  (     0          0         -1      )

 cart.    s( 3) = ( -1.0000000  0.0000000  0.0000000 )
                  (  0.0000000 -1.0000000  0.0000000 )
                  (  0.0000000  0.0000000 -1.0000000 )

      isym =  4     inv. 180 deg rotation - cart. axis [0,0,1]

 cryst.   s( 4) = (     1          0          0      )    f =(  0.0000000 )
                  (     0          1          0      )       (  0.0000000 )
                  (     0          0         -1      )       (  0.5000000 )

 cart.    s( 4) = (  1.0000000 -0.0000000  0.0000000 )    f =(  0.0000000 )
                  (  0.0000000  1.0000000  0.0000000 )       (  0.0000000 )
                  (  0.0000000  0.0000000 -1.0000000 )       (  0.6491442 )

   Cartesian axes

     site n.     atom                  positions (alat units)
         1           Rb  tau(   1) = (   0.0000000   0.0000000   0.0000000  )
         2           Rb  tau(   2) = (   0.0000000   0.0000000   0.6491442  )
         3           Ca  tau(   3) = (  -0.0033485   0.6158777   0.9737163  )
         4           Ca  tau(   4) = (   0.5506813   0.2758018   0.3245721  )
         5           Hf  tau(   5) = (   0.5545178   0.2734469   0.9737163  )
         6           Hf  tau(   6) = (  -0.0071850   0.6182326   0.3245721  )
         7           F   tau(   7) = (   0.3211340   0.0591050   0.9737163  )
         8           F   tau(   8) = (   0.2261988   0.8325746   0.3245721  )
         9           F   tau(   9) = (   0.6399969   0.5785761   0.9737163  )
        10           F   tau(  10) = (  -0.0926641   0.3131035   0.3245721  )
        11           F   tau(  11) = (   0.2915182   0.4348819   0.9737163  )
        12           F   tau(  12) = (   0.2558146   0.4567976   0.3245721  )
        13           F   tau(  13) = (   0.5684518   0.2648939   1.2777325  )
        14           F   tau(  14) = (  -0.0211190   0.6267856   0.0205558  )
        15           F   tau(  15) = (  -0.0211190   0.6267856   0.6285884  )
        16           F   tau(  16) = (   0.5684518   0.2648939   0.6697000  )
        17           F   tau(  17) = (   0.2278066   0.8734215   0.9737163  )
        18           F   tau(  18) = (   0.3195262   0.0182580   0.3245721  )
        19           F   tau(  19) = (  -0.1283587   0.2931798   0.9737163  )
        20           F   tau(  20) = (   0.6756915   0.5984998   0.3245721  )

   Crystallographic axes

     site n.     atom                  positions (cryst. coord.)
         1           Rb  tau(   1) = (  0.0000000  0.0000000  0.0000000  )
         2           Rb  tau(   2) = (  0.0000000  0.0000000  0.5000000  )
         3           Ca  tau(   3) = (  0.3093060  0.6906940  0.7500000  )
         4           Ca  tau(   4) = (  0.6906940  0.3093060  0.2500000  )
         5           Hf  tau(   5) = (  0.6933350  0.3066650  0.7500000  )
         6           Hf  tau(   6) = (  0.3066650  0.6933350  0.2500000  )
         7           F   tau(   7) = (  0.3511390  0.0662850  0.7500000  )
         8           F   tau(   8) = (  0.6488610  0.9337150  0.2500000  )
         9           F   tau(   9) = (  0.9337150  0.6488610  0.7500000  )
        10           F   tau(  10) = (  0.0662850  0.3511390  0.2500000  )
        11           F   tau(  11) = (  0.5122890  0.4877110  0.7500000  )
        12           F   tau(  12) = (  0.4877110  0.5122890  0.2500000  )
        13           F   tau(  13) = (  0.7029270  0.2970730  0.9841670  )
        14           F   tau(  14) = (  0.2970730  0.7029270  0.0158330  )
        15           F   tau(  15) = (  0.2970730  0.7029270  0.4841670  )
        16           F   tau(  16) = (  0.7029270  0.2970730  0.5158330  )
        17           F   tau(  17) = (  0.6712050  0.9795240  0.7500000  )
        18           F   tau(  18) = (  0.3287950  0.0204760  0.2500000  )
        19           F   tau(  19) = (  0.0204760  0.3287950  0.7500000  )
        20           F   tau(  20) = (  0.9795240  0.6712050  0.2500000  )

     number of k points=     1  Methfessel-Paxton smearing, width (Ry)=  0.0010
                       cart. coord. in units 2pi/alat
        k(    1) = (   0.0000000   0.0000000   0.0000000), wk =   2.0000000

                       cryst. coord.
        k(    1) = (   0.0000000   0.0000000   0.0000000), wk =   2.0000000

     Initial potential from superposition of free atoms

     starting charge     159.9358, renormalised to     160.0000
     Starting wfcs are  106 randomized atomic wfcs

     Self-consistent Calculation

     iteration #  1     ecut=    30.00 Ry     beta= 0.70
     Davidson diagonalization with overlap

     ethr =  1.00E-02,  avg # of iterations =  2.0

     total energy              =   -1155.37776420 Ry
     estimated scf accuracy    <       2.98831008 Ry

[...]

     total energy              =   -1156.79326475 Ry
     estimated scf accuracy    <       0.00000213 Ry

     iteration #  9     ecut=    30.00 Ry     beta= 0.70
     Davidson diagonalization with overlap

     ethr =  1.33E-09,  avg # of iterations =  2.0

     End of self-consistent calculation

          k = 0.0000 0.0000 0.0000 (  3153 PWs)   bands (ev):

   -57.7348 -57.7291 -34.6264 -34.6263 -26.7804 -26.7801 -26.5916 -26.5903
   -26.5662 -26.5640 -21.0635 -21.0412 -18.9937 -18.9636 -18.5998 -18.5748
   -18.5557 -18.5374 -18.2418 -18.2380 -18.1849 -18.1829 -17.8681 -17.8657
   -17.8623 -17.8584 -15.4955 -15.4926 -15.4251 -15.4249 -15.3179 -15.3175
    -5.2444  -5.2132  -5.1785  -5.1757  -5.1737  -5.0254  -1.9502  -1.9149
    -1.5612  -1.5432  -1.2791  -1.0694  -1.0691  -0.8216  -0.7365  -0.7091
    -0.6892  -0.4020  -0.3748  -0.3062  -0.1967  -0.1816  -0.1616  -0.0790
    -0.0052   0.0571   0.0640   0.1114   0.1899   0.2863   0.3668   0.5029
     0.5304   0.5620   0.5968   0.6905   0.7227   0.8869   0.8921   0.9399
     0.9917   1.0096   1.4150   1.4477   1.4633   1.4700   1.6222   1.6606
     8.3310   8.7739   8.8140   8.8633   8.8634  10.2331  10.4831  10.5327
    10.6428  10.6763  10.7483  10.7733  10.8024  10.8257  11.0875  11.3424

     occupation numbers
     1.0000   1.0000   1.0000   1.0000   1.0000   1.0000   1.0000   1.0000
     1.0000   1.0000   1.0000   1.0000   1.0000   1.0000   1.0000   1.0000
     1.0000   1.0000   1.0000   1.0000   1.0000   1.0000   1.0000   1.0000
     1.0000   1.0000   1.0000   1.0000   1.0000   1.0000   1.0000   1.0000
     1.0000   1.0000   1.0000   1.0000   1.0000   1.0000   1.0000   1.0000
     1.0000   1.0000   1.0000   1.0000   1.0000   1.0000   1.0000   1.0000
     1.0000   1.0000   1.0000   1.0000   1.0000   1.0000   1.0000   1.0000
     1.0000   1.0000   1.0000   1.0000   1.0000   1.0000   1.0000   1.0000
     1.0000   1.0000   1.0000   1.0000   1.0000   1.0000   1.0000   1.0000
     1.0000   1.0000   1.0000   1.0000   1.0000   1.0000   1.0000   1.0000
    -0.0000  -0.0000  -0.0000  -0.0000  -0.0000  -0.0000  -0.0000  -0.0000
    -0.0000  -0.0000  -0.0000  -0.0000  -0.0000  -0.0000  -0.0000  -0.0000

     the Fermi energy is     2.8098 ev

!    total energy              =   -1156.79326503 Ry
     estimated scf accuracy    <       0.00000013 Ry
     smearing contrib. (-TS)   =       0.00000000 Ry
     internal energy E=F+TS    =   -1156.79326503 Ry

     The total energy is F=E-TS. E is the sum of the following terms:
     one-electron contribution =    -657.19474785 Ry
     hartree contribution      =     399.77316756 Ry
     xc contribution           =    -227.63054413 Ry
     ewald contribution        =    -671.74114061 Ry

     convergence has been achieved in   9 iterations

     Forces acting on atoms (cartesian axes, Ry/au):

     atom    1 type  1   force =     0.00000000    0.00000000    0.00000000
     atom    2 type  1   force =     0.00000000    0.00000000    0.00000000
     atom    3 type  2   force =     0.00468890   -0.00288063   -0.00000000
     atom    4 type  2   force =    -0.00468890    0.00288063   -0.00000000
     atom    5 type  3   force =    -0.00438749    0.00269237    0.00000000
     atom    6 type  3   force =     0.00438749   -0.00269237   -0.00000000
     atom    7 type  4   force =    -0.00142580   -0.00011287   -0.00000000
     atom    8 type  4   force =     0.00142580    0.00011287    0.00000000
     atom    9 type  4   force =    -0.00054482    0.00132223   -0.00000000
     atom   10 type  4   force =     0.00054482   -0.00132223   -0.00000000
     atom   11 type  4   force =    -0.00262402    0.00161008    0.00000000
     atom   12 type  4   force =     0.00262402   -0.00161008    0.00000000
     atom   13 type  4   force =     0.00052649   -0.00032211    0.00082347
     atom   14 type  4   force =    -0.00052649    0.00032211   -0.00082347
     atom   15 type  4   force =    -0.00052649    0.00032211    0.00082347
     atom   16 type  4   force =     0.00052649   -0.00032211   -0.00082347
     atom   17 type  4   force =     0.00186290   -0.00424405    0.00000000
     atom   18 type  4   force =    -0.00186290    0.00424405    0.00000000
     atom   19 type  4   force =     0.00462790    0.00026182   -0.00000000
     atom   20 type  4   force =    -0.00462790   -0.00026182    0.00000000
     The non-local contrib.  to forces
     atom    1 type  1   force =     0.00000000    0.00000000    0.00000000
     atom    2 type  1   force =     0.00000000    0.00000000    0.00000000
     atom    3 type  2   force =     0.00827259   -0.00507902    0.00000000
     atom    4 type  2   force =    -0.00827259    0.00507902    0.00000000
     atom    5 type  3   force =    -0.00634788    0.00389635   -0.00000000
     atom    6 type  3   force =     0.00634788   -0.00389635   -0.00000000
     atom    7 type  4   force =     0.67864731    0.23941156   -0.00000000
     atom    8 type  4   force =    -0.67864731   -0.23941156   -0.00000000
     atom    9 type  4   force =     0.09372283   -0.71350880    0.00000000
     atom   10 type  4   force =    -0.09372283    0.71350880    0.00000000
     atom   11 type  4   force =     0.48423334   -0.29723223    0.00000000
     atom   12 type  4   force =    -0.48423334    0.29723223    0.00000000
     atom   13 type  4   force =    -0.05546681    0.03404671   -0.60866526
     atom   14 type  4   force =     0.05546681   -0.03404671    0.60866526
     atom   15 type  4   force =     0.05546681   -0.03404671   -0.60866526
     atom   16 type  4   force =    -0.05546681    0.03404671    0.60866526
     atom   17 type  4   force =    -0.52056868    0.48053185    0.00000000
     atom   18 type  4   force =     0.52056868   -0.48053185    0.00000000
     atom   19 type  4   force =    -0.66412513    0.24665994    0.00000000
     atom   20 type  4   force =     0.66412513   -0.24665994    0.00000000
     The ionic contribution  to forces
     atom    1 type  1   force =     0.00000000    0.00000000    0.00000000
     atom    2 type  1   force =     0.00000000    0.00000000   -0.00000000
     atom    3 type  2   force =     2.05525517   -1.26156146   -0.00000000
     atom    4 type  2   force =    -2.05525517    1.26156146   -0.00000000
     atom    5 type  3   force =    -2.39614119    1.47080490   -0.00000000
     atom    6 type  3   force =     2.39614119   -1.47080490    0.00000000
     atom    7 type  4   force =    -9.89335812   -1.96581981   -0.00000000
     atom    8 type  4   force =     9.89335813    1.96581981    0.00000000
     atom    9 type  4   force =    -2.72551758    9.71156715   -0.00000000
     atom   10 type  4   force =     2.72551758   -9.71156715    0.00000000
     atom   11 type  4   force =    -5.41182087    3.32189635   -0.00000000
     atom   12 type  4   force =     5.41182087   -3.32189635    0.00000000
     atom   13 type  4   force =    -0.82361039    0.50555043    6.18575314
     atom   14 type  4   force =     0.82361039   -0.50555043   -6.18575314
     atom   15 type  4   force =     0.82361039   -0.50555043    6.18575314
     atom   16 type  4   force =    -0.82361039    0.50555043   -6.18575314
     atom   17 type  4   force =     7.64651756   -7.00104151   -0.00000000
     atom   18 type  4   force =    -7.64651756    7.00104151    0.00000000
     atom   19 type  4   force =     9.70401325   -3.64910126   -0.00000000
     atom   20 type  4   force =    -9.70401325    3.64910126   -0.00000000
     The local contribution  to forces
     atom    1 type  1   force =     0.00000327   -0.00000134   -0.00001406
     atom    2 type  1   force =    -0.00000166    0.00000106    0.00000267
     atom    3 type  2   force =    -2.05846074    1.26353408   -0.00000310
     atom    4 type  2   force =     2.05848026   -1.26352377   -0.00000375
     atom    5 type  3   force =     2.39741459   -1.47158170   -0.00000534
     atom    6 type  3   force =    -2.39741247    1.47158829    0.00000130
     atom    7 type  4   force =     9.21348769    1.72641363   -0.00000046
     atom    8 type  4   force =    -9.21350317   -1.72642993   -0.00000122
     atom    9 type  4   force =     2.63123443   -8.99696957   -0.00000485
     atom   10 type  4   force =    -2.63122803    8.99699088   -0.00000153
     atom   11 type  4   force =     4.92512190   -3.02314651   -0.00000297
     atom   12 type  4   force =    -4.92513657    3.02315912    0.00000159
     atom   13 type  4   force =     0.87959343   -0.53991559   -5.57646558
     atom   14 type  4   force =    -0.87959605    0.53991918    5.57647487
     atom   15 type  4   force =    -0.87959556    0.53991862   -5.57647705
     atom   16 type  4   force =     0.87959358   -0.53991560    5.57646461
     atom   17 type  4   force =    -7.12421585    6.51641631    0.00000075
     atom   18 type  4   force =     7.12421849   -6.51643621    0.00000058
     atom   19 type  4   force =    -9.03545749    3.40274614    0.00000098
     atom   20 type  4   force =     9.03547188   -3.40274237    0.00000185
     The core correction contribution to forces
     atom    1 type  1   force =     0.00000000    0.00000000    0.00000000
     atom    2 type  1   force =     0.00000000    0.00000000    0.00000000
     atom    3 type  2   force =    -0.00035833    0.00021993   -0.00000008
     atom    4 type  2   force =     0.00035871   -0.00021986   -0.00000019
     atom    5 type  3   force =     0.00063902   -0.00039191   -0.00000032
     atom    6 type  3   force =    -0.00063886    0.00039239   -0.00000007
     atom    7 type  4   force =     0.00000000    0.00000000    0.00000000
     atom    8 type  4   force =     0.00000000    0.00000000    0.00000000
     atom    9 type  4   force =     0.00000000    0.00000000    0.00000000
     atom   10 type  4   force =     0.00000000    0.00000000    0.00000000
     atom   11 type  4   force =     0.00000000    0.00000000    0.00000000
     atom   12 type  4   force =     0.00000000    0.00000000    0.00000000
     atom   13 type  4   force =     0.00000000    0.00000000    0.00000000
     atom   14 type  4   force =     0.00000000    0.00000000    0.00000000
     atom   15 type  4   force =     0.00000000    0.00000000    0.00000000
     atom   16 type  4   force =     0.00000000    0.00000000    0.00000000
     atom   17 type  4   force =     0.00000000    0.00000000    0.00000000
     atom   18 type  4   force =     0.00000000    0.00000000    0.00000000
     atom   19 type  4   force =     0.00000000    0.00000000    0.00000000
     atom   20 type  4   force =     0.00000000    0.00000000    0.00000000
     The Hubbard contrib.    to forces
     atom    1 type  1   force =     0.00000000    0.00000000    0.00000000
     atom    2 type  1   force =     0.00000000    0.00000000    0.00000000
     atom    3 type  2   force =     0.00000000    0.00000000    0.00000000
     atom    4 type  2   force =     0.00000000    0.00000000    0.00000000
     atom    5 type  3   force =     0.00000000    0.00000000    0.00000000
     atom    6 type  3   force =     0.00000000    0.00000000    0.00000000
     atom    7 type  4   force =     0.00000000    0.00000000    0.00000000
     atom    8 type  4   force =     0.00000000    0.00000000    0.00000000
     atom    9 type  4   force =     0.00000000    0.00000000    0.00000000
     atom   10 type  4   force =     0.00000000    0.00000000    0.00000000
     atom   11 type  4   force =     0.00000000    0.00000000    0.00000000
     atom   12 type  4   force =     0.00000000    0.00000000    0.00000000
     atom   13 type  4   force =     0.00000000    0.00000000    0.00000000
     atom   14 type  4   force =     0.00000000    0.00000000    0.00000000
     atom   15 type  4   force =     0.00000000    0.00000000    0.00000000
     atom   16 type  4   force =     0.00000000    0.00000000    0.00000000
     atom   17 type  4   force =     0.00000000    0.00000000    0.00000000
     atom   18 type  4   force =     0.00000000    0.00000000    0.00000000
     atom   19 type  4   force =     0.00000000    0.00000000    0.00000000
     atom   20 type  4   force =     0.00000000    0.00000000    0.00000000
     The SCF correction term to forces
     atom    1 type  1   force =    -0.00000412    0.00000245    0.00001643
     atom    2 type  1   force =     0.00000113    0.00000044   -0.00000619
     atom    3 type  2   force =    -0.00001716    0.00000691    0.00000290
     atom    4 type  2   force =     0.00000251   -0.00001516    0.00000275
     atom    5 type  3   force =     0.00004922   -0.00003570    0.00000369
     atom    6 type  3   force =    -0.00004901    0.00002778   -0.00000155
     atom    7 type  4   force =    -0.00019937   -0.00011445    0.00000037
     atom    8 type  4   force =     0.00022147    0.00013833    0.00000282
     atom    9 type  4   force =     0.00001479    0.00022872    0.00000779
     atom   10 type  4   force =    -0.00002260   -0.00025948    0.00000249
     atom   11 type  4   force =    -0.00015362    0.00008882    0.00000425
     atom   12 type  4   force =     0.00017782   -0.00010872   -0.00000230
     atom   13 type  4   force =     0.00001185   -0.00000474    0.00020200
     atom   14 type  4   force =    -0.00000626   -0.00000103   -0.00020961
     atom   15 type  4   force =    -0.00000707   -0.00000086    0.00021288
     atom   16 type  4   force =     0.00001100   -0.00000516   -0.00019999
     atom   17 type  4   force =     0.00012999   -0.00014610   -0.00000077
     atom   18 type  4   force =    -0.00013239    0.00017519   -0.00000163
     atom   19 type  4   force =     0.00019462   -0.00004570   -0.00000095
     atom   20 type  4   force =    -0.00021430    0.00003654   -0.00000278

     Total force =     0.015195     Total SCF correction =     0.000818

     Computing stress (Cartesian axis) and pressure

          total   stress  (Ry/bohr**3)                   (kbar)     P=     -132.28
  -0.00092773   0.00005956   0.00000000         -136.47        8.76        0.00
   0.00005956  -0.00086726   0.00000000            8.76     -127.58        0.00
   0.00000000   0.00000000  -0.00090273            0.00        0.00     -132.80

     kinetic stress (kbar)  16277.57      4.82      0.00
                                4.82  16282.47      0.00
                                0.00      0.00  16209.21

     local   stress (kbar)  -9912.72  -3516.10      0.00
                            -3516.10 -13482.66     -0.00
                                0.00     -0.00  -3393.13

     nonloc. stress (kbar)   2643.25      1.91      0.00
                                1.91   2645.18      0.00
                                0.00      0.00   2637.59

     hartree stress (kbar)   8959.06   1656.18     -0.00
                             1656.18  10640.60      0.00
                               -0.00      0.00   6188.28

     exc-cor stress (kbar)  -1966.48     -0.09     -0.00
                               -0.09  -1966.57      0.00
                               -0.00      0.00  -1970.58

     corecor stress (kbar)  -2285.61     -0.03      0.00
                               -0.03  -2285.63     -0.00
                                0.00     -0.00  -2285.07

     ewald   stress (kbar) -13851.55   1862.07     -0.00
                             1862.07 -11960.96      0.00
                               -0.00      0.00 -17519.10

     hubbard stress (kbar)      0.00      0.00      0.00
                                0.00      0.00      0.00
                                0.00      0.00      0.00

     DFT-D   stress (kbar)      0.00      0.00      0.00
                                0.00      0.00      0.00
                                0.00      0.00      0.00

     XDM     stress (kbar)      0.00      0.00      0.00
                                0.00      0.00      0.00
                                0.00      0.00      0.00

     dft-nl  stress (kbar)      0.00      0.00      0.00
                                0.00      0.00      0.00
                                0.00      0.00      0.00

     TS-vdW  stress (kbar)      0.00      0.00      0.00
                                0.00      0.00      0.00
                                0.00      0.00      0.00

[...]

                                0.00      0.00      0.00

     Writing all to output data dir new_calculations/myprefix.save/

     General routines

     Parallel routines

   This run was terminated on:  19: 8: 0  21May2023

   JOB DONE.