     Program PWSCF v.7.0 starts on 21May2023 at  3:28:36

     Reading input from espresso_10969.pwi
Warning: card &CELL ignored
Warning: card / ignored

     Current dimensions of program PWSCF are:
     Max number of different atomic species (ntypx) = 10
     Max number of k-points (npk) =  40000
     Max angular momentum in pseudopotentials (lmaxx) =  4
     file Mg.pbe-n-kjpaw_psl.0.3.0.UPF: wavefunction(s)  3S renormalized

     gamma-point specific algorithms are used
     Message from routine setup:
     using ibrav=0 with symmetry is DISCOURAGED, use correct ibrav instead

     Subspace diagonalization in iterative solution of the eigenvalue problem:
     a serial algorithm will be used

     Using Slab Decomposition

     bravais-lattice index     =            0
     lattice parameter (alat)  =      13.8848  a.u.
     unit-cell volume          =    1891.7121 (a.u.)^3
     number of atoms/cell      =           18
     number of atomic types    =            4
     number of electrons       =       142.00
     number of Kohn-Sham states=           85
     kinetic-energy cutoff     =      30.0000  Ry
     charge density cutoff     =     240.0000  Ry
     scf convergence threshold =      1.0E-06
     mixing beta               =       0.7000
     number of iterations used =            8  plain     mixing
     Exchange-correlation=  SLA  PW   PBX  PBC
                           (   1   4   3   4   0   0   0)

     celldm(1)=  13.884823  celldm(2)=   0.000000  celldm(3)=   0.000000
     celldm(4)=   0.000000  celldm(5)=   0.000000  celldm(6)=   0.000000

     crystal axes: (cart. coord. in units of alat)
               a(1) = (   1.000000   0.000000   0.000000 )
               a(2) = (   0.000943   1.000000   0.000000 )
               a(3) = (  -0.493212  -0.507267   0.706699 )

     reciprocal axes: (cart. coord. in units 2 pi/alat)
               b(1) = (  1.000000 -0.000943  0.697232 )
               b(2) = (  0.000000  1.000000  0.717798 )
               b(3) = (  0.000000  0.000000  1.415030 )

     PseudoPot. # 1 for Cs read from file:
     /home/pragov/projects/rrg-bengioy-ad/pragov/crystal_structure_design/SSSP/Cs_pbe_v1.uspp.F.UPF
     MD5 check sum: 3476d69cb178dfad3ffaa59df4e07ca4
     Pseudo is Ultrasoft + core correction, Zval =  9.0
     Generated by new atomic code, or converted to UPF format
     Using radial grid of  905 points,  6 beta functions with:
                l(1) =   0
                l(2) =   0
                l(3) =   1
                l(4) =   1
                l(5) =   2
                l(6) =   2
     Q(r) pseudized with  6 coefficients,  rinner =    1.500   1.500   1.500
                                                       1.500   1.500

     PseudoPot. # 2 for Mg read from file:
     /home/pragov/projects/rrg-bengioy-ad/pragov/crystal_structure_design/SSSP/Mg.pbe-n-kjpaw_psl.0.3.0.UPF
     MD5 check sum: 24ecedc7f3e3cbe212e682f4413594e4
     Pseudo is Projector augmented-wave + core cor, Zval =  2.0
     Generated using "atomic" code by A. Dal Corso  v.5.0.99 svn rev. 10869
     Shape of augmentation charge: PSQ
     Using radial grid of 1129 points,  4 beta functions with:
                l(1) =   0
                l(2) =   0
                l(3) =   1
                l(4) =   1
     Q(r) pseudized with 0 coefficients

     PseudoPot. # 3 for Ni read from file:
     /home/pragov/projects/rrg-bengioy-ad/pragov/crystal_structure_design/SSSP/ni_pbe_v1.4.uspp.F.UPF
     MD5 check sum: 1ee80287db30b12d2bc1f57a5b5d6409
     Pseudo is Ultrasoft + core correction, Zval = 18.0
     Generated by new atomic code, or converted to UPF format
     Using radial grid of  865 points,  6 beta functions with:
                l(1) =   0
                l(2) =   0
                l(3) =   1
                l(4) =   1
                l(5) =   2
                l(6) =   2
     Q(r) pseudized with 10 coefficients,  rinner =    0.980   0.980   0.980
                                                       0.980   0.980

     PseudoPot. # 4 for F  read from file:
     /home/pragov/projects/rrg-bengioy-ad/pragov/crystal_structure_design/SSSP/f_pbe_v1.4.uspp.F.UPF
     MD5 check sum: 4c38b6a325caf53ec0e86aed9459de46
     Pseudo is Ultrasoft, Zval =  7.0
     Generated by new atomic code, or converted to UPF format
     Using radial grid of  799 points,  4 beta functions with:
                l(1) =   0
                l(2) =   0
                l(3) =   1
                l(4) =   1
     Q(r) pseudized with  8 coefficients,  rinner =    0.950   0.950   0.950

     atomic species   valence    mass     pseudopotential
        Cs             9.00   132.90545     Cs( 1.00)
        Mg             2.00    24.30500     Mg( 1.00)
        Ni            18.00    58.69340     Ni( 1.00)
        F              7.00    18.99840     F ( 1.00)

      2 Sym. Ops., with inversion, found

                                    s                        frac. trans.

      isym =  1     identity

 cryst.   s( 1) = (     1          0          0      )
                  (     0          1          0      )
                  (     0          0          1      )

 cart.    s( 1) = (  1.0000000  0.0000000 -0.0000000 )
                  (  0.0000000  1.0000000 -0.0000000 )
                  (  0.0000000  0.0000000  1.0000000 )

      isym =  2     inversion

 cryst.   s( 2) = (    -1          0          0      )
                  (     0         -1          0      )
                  (     0          0         -1      )

 cart.    s( 2) = ( -1.0000000 -0.0000000  0.0000000 )
                  (  0.0000000 -1.0000000  0.0000000 )
                  (  0.0000000  0.0000000 -1.0000000 )

   Cartesian axes

     site n.     atom                  positions (alat units)
         1           Cs  tau(   1) = (   0.0024528   0.2413247   0.5300239  )
         2           Cs  tau(   2) = (   0.5052788   0.2514082   0.1766746  )
         3           Mg  tau(   3) = (   0.7543374   0.7463662   0.3533493  )
         4           Mg  tau(   4) = (   0.0004716   0.4999998   0.0000000  )
         5           Ni  tau(   5) = (   0.0000000   0.0000000   0.0000000  )
         6           Ni  tau(   6) = (   0.2543374   0.7463662   0.3533493  )
         7           F   tau(   7) = (   0.1947823  -0.0587957   0.1766746  )
         8           F   tau(   8) = (   0.8081322   0.5539760   0.1766746  )
         9           F   tau(   9) = (   0.1975218   0.5598851   0.1849374  )
        10           F   tau(  10) = (   0.8134643  -0.0566407   0.1684119  )
        11           F   tau(  11) = (   0.0136453  -0.2570095   0.4475558  )
        12           F   tau(  12) = (   0.5041293   0.2529872   0.6124921  )
        13           F   tau(  13) = (   0.3129494   0.5515286   0.5300239  )
        14           F   tau(  14) = (  -0.3004006  -0.0612431   0.5300239  )
        15           F   tau(  15) = (   0.3102099  -0.0671522   0.5217612  )
        16           F   tau(  16) = (  -0.3057327   0.5493736   0.5382867  )
        17           F   tau(  17) = (   0.4940864   0.7497424   0.2591428  )
        18           F   tau(  18) = (   0.0036023   0.2397457   0.0942065  )

   Crystallographic axes

     site n.     atom                  positions (cryst. coord.)
         1           Cs  tau(   1) = (  0.3717750  0.6217750  0.7500000  )
         2           Cs  tau(   2) = (  0.6282250  0.3782250  0.2500000  )
         3           Mg  tau(   3) = (  1.0000000  1.0000000  0.5000000  )
         4           Mg  tau(   4) = (  0.0000000  0.5000000  0.0000000  )
         5           Ni  tau(   5) = (  0.0000000  0.0000000  0.0000000  )
         6           Ni  tau(   6) = (  0.5000000  1.0000000  0.5000000  )
         7           F   tau(   7) = (  0.3180210  0.0680210  0.2500000  )
         8           F   tau(   8) = (  0.9307930  0.6807930  0.2500000  )
         9           F   tau(   9) = (  0.3259380  0.6926330  0.2616920  )
        10           F   tau(  10) = (  0.9309400  0.0642450  0.2383080  )
        11           F   tau(  11) = (  0.3259380  0.0642450  0.6333050  )
        12           F   tau(  12) = (  0.9309400  0.6926330  0.8666950  )
        13           F   tau(  13) = (  0.6819790  0.9319790  0.7500000  )
        14           F   tau(  14) = (  0.0692070  0.3192070  0.7500000  )
        15           F   tau(  15) = (  0.6740620  0.3073670  0.7383080  )
        16           F   tau(  16) = (  0.0690600  0.9357550  0.7616920  )
        17           F   tau(  17) = (  0.6740620  0.9357550  0.3666950  )
        18           F   tau(  18) = (  0.0690600  0.3073670  0.1333050  )

     number of k points=     1  Methfessel-Paxton smearing, width (Ry)=  0.0010
                       cart. coord. in units 2pi/alat
        k(    1) = (   0.0000000   0.0000000   0.0000000), wk =   2.0000000

                       cryst. coord.
        k(    1) = (   0.0000000   0.0000000   0.0000000), wk =   2.0000000

     Check: negative core charge=   -0.000002

     Initial potential from superposition of free atoms

     starting charge     137.9194, renormalised to     142.0000
     Starting wfcs are  108 randomized atomic wfcs
     Checking if some PAW data can be deallocated...

     Self-consistent Calculation

     iteration #  1     ecut=    30.00 Ry     beta= 0.70
     Davidson diagonalization with overlap

     ethr =  1.00E-02,  avg # of iterations =  3.0

     total energy              =   -1460.74845874 Ry
     estimated scf accuracy    <       6.23837647 Ry

[...]

     total energy              =   -1464.25907885 Ry
     estimated scf accuracy    <       0.00000264 Ry

     iteration # 13     ecut=    30.00 Ry     beta= 0.70
     Davidson diagonalization with overlap

     ethr =  1.86E-09,  avg # of iterations =  2.0

     End of self-consistent calculation

          k = 0.0000 0.0000 0.0000 (  2593 PWs)   bands (ev):

  -101.0632-101.0621 -61.6539 -61.6495 -61.6470 -61.6468 -60.7007 -60.6901
   -19.2775 -18.9410 -18.7905 -18.7781 -18.7632 -18.7579 -18.7499 -18.6001
   -18.4593 -18.4549 -17.8380 -17.8226 -16.0540 -16.0192  -3.1916  -3.1669
    -3.1521  -2.8793  -2.8710  -2.8434  -2.6166  -2.5857  -2.5496  -1.8944
    -1.7169  -1.4823  -1.4620  -1.4530  -1.2513  -1.0582  -1.0533  -1.0415
    -1.0063  -0.9126  -0.7121  -0.3629  -0.1407  -0.0963   0.1057   0.1519
     0.1990   0.2914   0.3578   0.4111   0.5417   0.5973   0.6805   0.6937
     0.7104   0.8084   0.8663   0.8736   1.0104   1.0365   1.1000   1.2085
     2.0261   2.1010   2.1683   2.2396   2.2554   2.5307   3.2705   3.3654
     3.5959   4.3643   8.3626  10.4654  10.5010  10.5258  11.1706  11.2808
    11.5200  11.5972  11.6582  12.7284  13.0723

     occupation numbers
     1.0000   1.0000   1.0000   1.0000   1.0000   1.0000   1.0000   1.0000
     1.0000   1.0000   1.0000   1.0000   1.0000   1.0000   1.0000   1.0000
     1.0000   1.0000   1.0000   1.0000   1.0000   1.0000   1.0000   1.0000
     1.0000   1.0000   1.0000   1.0000   1.0000   1.0000   1.0000   1.0000
     1.0000   1.0000   1.0000   1.0000   1.0000   1.0000   1.0000   1.0000
     1.0000   1.0000   1.0000   1.0000   1.0000   1.0000   1.0000   1.0000
     1.0000   1.0000   1.0000   1.0000   1.0000   1.0000   1.0000   1.0000
     1.0000   1.0000   1.0000   1.0000   1.0000   1.0000   1.0000   1.0000
     1.0000   1.0000   1.0000   1.0000   1.0000   1.0000   1.0000  -0.0000
    -0.0000  -0.0000  -0.0000  -0.0000  -0.0000  -0.0000  -0.0000  -0.0000
    -0.0000  -0.0000  -0.0000  -0.0000  -0.0000

     the Fermi energy is     3.3179 ev

!    total energy              =   -1464.25907943 Ry
     estimated scf accuracy    <       0.00000040 Ry
     smearing contrib. (-TS)   =       0.00000007 Ry
     internal energy E=F+TS    =   -1464.25907950 Ry

     The total energy is F=E-TS. E is the sum of the following terms:
     one-electron contribution =   -1253.64082746 Ry
     hartree contribution      =     693.39023501 Ry
     xc contribution           =    -247.04215353 Ry
     ewald contribution        =    -594.41906062 Ry
     one-center paw contrib.   =     -62.54727290 Ry
      -> PAW hartree energy AE =       1.61085189 Ry
      -> PAW hartree energy PS =      -1.60887010 Ry
      -> PAW xc energy AE      =     -65.18662460 Ry
      -> PAW xc energy PS      =       2.63736992 Ry
      -> total E_H with PAW    =     693.39221680 Ry
      -> total E_XC with PAW   =    -309.59140821 Ry

     convergence has been achieved in  13 iterations

     Forces acting on atoms (cartesian axes, Ry/au):

     atom    1 type  1   force =    -0.00058407   -0.00058193   -0.00000134
     atom    2 type  1   force =     0.00058407    0.00058193    0.00000134
     atom    3 type  2   force =     0.00000000    0.00000000    0.00000000
     atom    4 type  2   force =     0.00000000    0.00000000    0.00000000
     atom    5 type  3   force =     0.00000000    0.00000000    0.00000000
     atom    6 type  3   force =     0.00000000    0.00000000    0.00000000
     atom    7 type  4   force =    -0.01505501   -0.01506560    0.00001550
     atom    8 type  4   force =    -0.00139833   -0.00139602    0.00000322
     atom    9 type  4   force =     0.00556843    0.01408704    0.01242115
     atom   10 type  4   force =     0.01408881    0.00555090   -0.01241768
     atom   11 type  4   force =     0.01860087    0.00109590   -0.00623882
     atom   12 type  4   force =     0.00111480    0.01857427    0.00622198
     atom   13 type  4   force =     0.01505501    0.01506560   -0.00001550
     atom   14 type  4   force =     0.00139833    0.00139602   -0.00000322
     atom   15 type  4   force =    -0.00556843   -0.01408704   -0.01242115
     atom   16 type  4   force =    -0.01408881   -0.00555090    0.01241768
     atom   17 type  4   force =    -0.01860087   -0.00109590    0.00623882
     atom   18 type  4   force =    -0.00111480   -0.01857427   -0.00622198
     The non-local contrib.  to forces
     atom    1 type  1   force =     0.00107018    0.00106551   -0.00000277
     atom    2 type  1   force =    -0.00107018   -0.00106551    0.00000277
     atom    3 type  2   force =     0.00000000    0.00000000    0.00000000
     atom    4 type  2   force =     0.00000000    0.00000000    0.00000000
     atom    5 type  3   force =     0.00000000    0.00000000    0.00000000
     atom    6 type  3   force =     0.00000000    0.00000000    0.00000000
     atom    7 type  4   force =    -0.20885404   -0.20868584    0.00001731
     atom    8 type  4   force =     0.27104304    0.27078546    0.00000160
     atom    9 type  4   force =    -0.15892893    0.54759424    0.26245128
     atom   10 type  4   force =     0.54746536   -0.15944034   -0.26246063
     atom   11 type  4   force =     0.37470976    0.01356930   -0.50353771
     atom   12 type  4   force =     0.01392592    0.37464922    0.50351421
     atom   13 type  4   force =     0.20885404    0.20868584   -0.00001731
     atom   14 type  4   force =    -0.27104304   -0.27078546   -0.00000160
     atom   15 type  4   force =     0.15892893   -0.54759424   -0.26245128
     atom   16 type  4   force =    -0.54746536    0.15944034    0.26246063
     atom   17 type  4   force =    -0.37470976   -0.01356930    0.50353771
     atom   18 type  4   force =    -0.01392592   -0.37464922   -0.50351421
     The ionic contribution  to forces
     atom    1 type  1   force =    -0.53523881   -0.53473361   -0.00001723
     atom    2 type  1   force =     0.53523881    0.53473361    0.00001723
     atom    3 type  2   force =     0.00000000   -0.00000000    0.00000000
     atom    4 type  2   force =    -0.00000000    0.00000000    0.00000000
     atom    5 type  3   force =    -0.00000000    0.00000000   -0.00000000
     atom    6 type  3   force =     0.00000000    0.00000000   -0.00000000
     atom    7 type  4   force =    10.12522422   10.11571220   -0.00000983
     atom    8 type  4   force =    -4.41189371   -4.40776541   -0.00000824
     atom    9 type  4   force =    -0.58249695  -15.98092877  -11.10287926
     atom   10 type  4   force =   -15.98132528   -0.56739606   11.10268300
     atom   11 type  4   force =   -16.01644930   -0.53245699   11.05404906
     atom   12 type  4   force =    -0.54755724  -16.01593302  -11.05406747
     atom   13 type  4   force =   -10.12522423  -10.11571220    0.00000983
     atom   14 type  4   force =     4.41189371    4.40776541    0.00000824
     atom   15 type  4   force =     0.58249695   15.98092877   11.10287926
     atom   16 type  4   force =    15.98132528    0.56739606  -11.10268300
     atom   17 type  4   force =    16.01644930    0.53245699  -11.05404906
     atom   18 type  4   force =     0.54755724   16.01593302   11.05406747
     The local contribution  to forces
     atom    1 type  1   force =     0.53373395    0.53325368   -0.00004536
     atom    2 type  1   force =    -0.53388380   -0.53337659   -0.00007035
     atom    3 type  2   force =     0.00000350   -0.00001009    0.00001630
     atom    4 type  2   force =    -0.00000409   -0.00003482    0.00001215
     atom    5 type  3   force =     0.00086571    0.00044225    0.00062768
     atom    6 type  3   force =    -0.00009198    0.00078215   -0.00041824
     atom    7 type  4   force =    -9.93155691   -9.92205957   -0.00006509
     atom    8 type  4   force =     4.13951860    4.13556167    0.00000469
     atom    9 type  4   force =     0.74693267   15.44741714   10.85272337
     atom   10 type  4   force =    15.44809085    0.73245482  -10.85259656
     atom   11 type  4   force =    15.66023245    0.52007957  -10.55677004
     atom   12 type  4   force =     0.53485162   15.65981001   10.55682925
     atom   13 type  4   force =     9.93160378    9.92220456    0.00007167
     atom   14 type  4   force =    -4.13948129   -4.13563828    0.00002871
     atom   15 type  4   force =    -0.74698044  -15.44740082  -10.85287054
     atom   16 type  4   force =   -15.44799482   -0.73237562   10.85280406
     atom   17 type  4   force =   -15.66031648   -0.51993793   10.55673396
     atom   18 type  4   force =    -0.53467571  -15.65992531  -10.55680916
     The core correction contribution to forces
     atom    1 type  1   force =    -0.00025227   -0.00025030   -0.00000083
     atom    2 type  1   force =     0.00025029    0.00025145   -0.00000081
     atom    3 type  2   force =     0.00000027    0.00000028    0.00000002
     atom    4 type  2   force =     0.00000014    0.00000084   -0.00000004
     atom    5 type  3   force =     0.00000186    0.00000234    0.00000111
     atom    6 type  3   force =    -0.00000003    0.00000184   -0.00000049
     atom    7 type  4   force =     0.00000000    0.00000000    0.00000000
     atom    8 type  4   force =     0.00000000    0.00000000    0.00000000
     atom    9 type  4   force =     0.00000000    0.00000000    0.00000000
     atom   10 type  4   force =     0.00000000    0.00000000    0.00000000
     atom   11 type  4   force =     0.00000000    0.00000000    0.00000000
     atom   12 type  4   force =     0.00000000    0.00000000    0.00000000
     atom   13 type  4   force =     0.00000000    0.00000000    0.00000000
     atom   14 type  4   force =     0.00000000    0.00000000    0.00000000
     atom   15 type  4   force =     0.00000000    0.00000000    0.00000000
     atom   16 type  4   force =     0.00000000    0.00000000    0.00000000
     atom   17 type  4   force =     0.00000000    0.00000000    0.00000000
     atom   18 type  4   force =     0.00000000    0.00000000    0.00000000
     The Hubbard contrib.    to forces
     atom    1 type  1   force =     0.00000000    0.00000000    0.00000000
     atom    2 type  1   force =     0.00000000    0.00000000    0.00000000
     atom    3 type  2   force =     0.00000000    0.00000000    0.00000000
     atom    4 type  2   force =     0.00000000    0.00000000    0.00000000
     atom    5 type  3   force =     0.00000000    0.00000000    0.00000000
     atom    6 type  3   force =     0.00000000    0.00000000    0.00000000
     atom    7 type  4   force =     0.00000000    0.00000000    0.00000000
     atom    8 type  4   force =     0.00000000    0.00000000    0.00000000
     atom    9 type  4   force =     0.00000000    0.00000000    0.00000000
     atom   10 type  4   force =     0.00000000    0.00000000    0.00000000
     atom   11 type  4   force =     0.00000000    0.00000000    0.00000000
     atom   12 type  4   force =     0.00000000    0.00000000    0.00000000
     atom   13 type  4   force =     0.00000000    0.00000000    0.00000000
     atom   14 type  4   force =     0.00000000    0.00000000    0.00000000
     atom   15 type  4   force =     0.00000000    0.00000000    0.00000000
     atom   16 type  4   force =     0.00000000    0.00000000    0.00000000
     atom   17 type  4   force =     0.00000000    0.00000000    0.00000000
     atom   18 type  4   force =     0.00000000    0.00000000    0.00000000
     The SCF correction term to forces
     atom    1 type  1   force =     0.00009082    0.00007640    0.00005572
     atom    2 type  1   force =     0.00003691    0.00003259    0.00004339
     atom    3 type  2   force =    -0.00000251    0.00000870   -0.00001660
     atom    4 type  2   force =     0.00000253    0.00003739   -0.00000969
     atom    5 type  3   force =    -0.00100403   -0.00050329   -0.00073627
     atom    6 type  3   force =     0.00010914   -0.00091821    0.00048286
     atom    7 type  4   force =     0.00012225   -0.00006230    0.00006917
     atom    8 type  4   force =    -0.00006976    0.00004254   -0.00000282
     atom    9 type  4   force =     0.00007277   -0.00000832    0.00013904
     atom   10 type  4   force =    -0.00017887   -0.00007476   -0.00006869
     atom   11 type  4   force =     0.00011980   -0.00012069    0.00003009
     atom   12 type  4   force =    -0.00013109    0.00002923   -0.00009245
     atom   13 type  4   force =    -0.00018807   -0.00014252   -0.00008363
     atom   14 type  4   force =     0.00002544    0.00007463   -0.00004655
     atom   15 type  4   force =    -0.00000275   -0.00003350    0.00003470
     atom   16 type  4   force =     0.00000935   -0.00001894   -0.00018920
     atom   17 type  4   force =    -0.00001209   -0.00007038    0.00002643
     atom   18 type  4   force =    -0.00009598    0.00004842   -0.00000452

     Total force =     0.063191     Total SCF correction =     0.001788

     Computing stress (Cartesian axis) and pressure

          total   stress  (Ry/bohr**3)                   (kbar)     P=     -311.43
  -0.00213317  -0.00005033   0.00004587         -313.80       -7.40        6.75
  -0.00005033  -0.00213318  -0.00004595           -7.40     -313.80       -6.76
   0.00004587  -0.00004595  -0.00208478            6.75       -6.76     -306.68

     kinetic stress (kbar)  17253.69    -50.38    115.62
                              -50.38  17253.82   -115.69
                              115.62   -115.69  17299.38

     local   stress (kbar) -19532.70   2795.25  -8346.00
                             2795.25 -19538.16   8353.70
                            -8346.00   8353.70 -21987.47

     nonloc. stress (kbar)   5315.86    -34.76     48.27
                              -34.76   5315.97    -48.27
                               48.27    -48.27   5348.67

     hartree stress (kbar)  17562.32  -1401.55   4196.79
                            -1401.55  17565.07  -4200.67
                             4196.79  -4200.67  18792.67

     exc-cor stress (kbar)  -1000.87     -0.25      0.02
                               -0.25  -1000.87     -0.02
                                0.02     -0.02  -1000.62

     corecor stress (kbar)  -4118.81      0.84      0.34
                                0.84  -4118.81     -0.34
                                0.34     -0.34  -4119.66

     ewald   stress (kbar) -15793.29  -1316.56   3991.71
                            -1316.56 -15790.82  -3995.47
                             3991.71  -3995.47 -14639.66

     hubbard stress (kbar)      0.00      0.00      0.00
                                0.00      0.00      0.00
                                0.00      0.00      0.00

     DFT-D   stress (kbar)      0.00      0.00      0.00
                                0.00      0.00      0.00
                                0.00      0.00      0.00

     XDM     stress (kbar)      0.00      0.00      0.00
                                0.00      0.00      0.00
                                0.00      0.00      0.00

     dft-nl  stress (kbar)      0.00      0.00      0.00
                                0.00      0.00      0.00
                                0.00      0.00      0.00

     TS-vdW  stress (kbar)      0.00      0.00      0.00
                                0.00      0.00      0.00
                                0.00      0.00      0.00

[...]

                                0.00      0.00      0.00

     Writing all to output data dir new_calculations/myprefix.save/

     General routines

     Parallel routines

     PAW routines

   This run was terminated on:   3:29:13  21May2023

   JOB DONE.