     Program PWSCF v.7.0 starts on 21May2023 at  9:29:22

     Reading input from espresso_22664.pwi
Warning: card &CELL ignored
Warning: card / ignored

     Current dimensions of program PWSCF are:
     Max number of different atomic species (ntypx) = 10
     Max number of k-points (npk) =  40000
     Max angular momentum in pseudopotentials (lmaxx) =  4
     file O.pbe-n-kjpaw_psl.0.1.UPF: wavefunction(s)  2P renormalized

     gamma-point specific algorithms are used
     Message from routine setup:
     using ibrav=0 with symmetry is DISCOURAGED, use correct ibrav instead

     Subspace diagonalization in iterative solution of the eigenvalue problem:
     a serial algorithm will be used

     Using Slab Decomposition

     bravais-lattice index     =            0
     lattice parameter (alat)  =      11.2072  a.u.
     unit-cell volume          =     980.5784 (a.u.)^3
     number of atoms/cell      =           15
     number of atomic types    =            4
     number of electrons       =       129.00
     number of Kohn-Sham states=           78
     kinetic-energy cutoff     =      30.0000  Ry
     charge density cutoff     =     240.0000  Ry
     scf convergence threshold =      1.0E-06
     mixing beta               =       0.7000
     number of iterations used =            8  plain     mixing
     Exchange-correlation= SLA  PW   PBX  PBC
                           (   1   4   3   4   0   0   0)

     celldm(1)=  11.207232  celldm(2)=   0.000000  celldm(3)=   0.000000
     celldm(4)=   0.000000  celldm(5)=   0.000000  celldm(6)=   0.000000

     crystal axes: (cart. coord. in units of alat)
               a(1) = (   1.000000   0.000000   0.000000 )
               a(2) = (   0.509828   0.860276   0.000000 )
               a(3) = (   0.509828   0.290492   0.809747 )

     reciprocal axes: (cart. coord. in units 2 pi/alat)
               b(1) = (  1.000000 -0.592633 -0.417011 )
               b(2) = (  0.000000  1.162417 -0.417011 )
               b(3) = (  0.000000  0.000000  1.234954 )

     PseudoPot. # 1 for Li read from file:
     /home/pragov/projects/rrg-bengioy-ad/pragov/crystal_structure_design/SSSP/li_pbe_v1.4.uspp.F.UPF
     MD5 check sum: e912e257baa3777c20ea3d68f190483c
     Pseudo is Ultrasoft, Zval =  3.0
     Generated by new atomic code, or converted to UPF format
     Using radial grid of  751 points,  5 beta functions with:
                l(1) =   0
                l(2) =   0
                l(3) =   0
                l(4) =   1
                l(5) =   1
     Q(r) pseudized with 10 coefficients,  rinner =    1.150   1.150   1.150

     PseudoPot. # 2 for Mn read from file:
     /home/pragov/projects/rrg-bengioy-ad/pragov/crystal_structure_design/SSSP/mn_pbe_v1.5.uspp.F.UPF
     MD5 check sum: 82ef2b46521d7a7d9e736dc3972e4928
     Pseudo is Ultrasoft + core correction, Zval = 15.0
     Generated by new atomic code, or converted to UPF format
     Using radial grid of  859 points,  6 beta functions with:
                l(1) =   0
                l(2) =   0
                l(3) =   1
                l(4) =   1
                l(5) =   2
                l(6) =   2
     Q(r) pseudized with  8 coefficients,  rinner =    0.950   0.950   0.950
                                                       0.950   0.950

     PseudoPot. # 3 for Cu read from file:
     /home/pragov/projects/rrg-bengioy-ad/pragov/crystal_structure_design/SSSP/Cu_pbe_v1.2.uspp.F.UPF
     MD5 check sum: 6e991ff952a84172a2a52a1c1e996048
     Pseudo is Ultrasoft + core correction, Zval = 19.0
     Generated by new atomic code, or converted to UPF format
     Using radial grid of  867 points,  6 beta functions with:
                l(1) =   0
                l(2) =   0
                l(3) =   1
                l(4) =   1
                l(5) =   2
                l(6) =   2
     Q(r) pseudized with  8 coefficients,  rinner =    1.150   1.150   1.150
                                                       1.150   1.150

     PseudoPot. # 4 for O  read from file:
     /home/pragov/projects/rrg-bengioy-ad/pragov/crystal_structure_design/SSSP/O.pbe-n-kjpaw_psl.0.1.UPF
     MD5 check sum: 0234752ac141de4415c5fc33072bef88
     Pseudo is Projector augmented-wave + core cor, Zval =  6.0
     Generated using "atomic" code by A. Dal Corso  v.5.0.99 svn rev. 10869
     Shape of augmentation charge: BESSEL
     Using radial grid of 1095 points,  4 beta functions with:
                l(1) =   0
                l(2) =   0
                l(3) =   1
                l(4) =   1
     Q(r) pseudized with 0 coefficients

     atomic species   valence    mass     pseudopotential
        Li             3.00     6.94000     Li( 1.00)
        Mn            15.00    54.93804     Mn( 1.00)
        Cu            19.00    63.54600     Cu( 1.00)
        O              6.00    15.99900     O ( 1.00)

      2 Sym. Ops., with inversion, found

                                    s                        frac. trans.

      isym =  1     identity

 cryst.   s( 1) = (     1          0          0      )
                  (     0          1          0      )
                  (     0          0          1      )

 cart.    s( 1) = (  1.0000000 -0.0000000 -0.0000000 )
                  (  0.0000000  1.0000000 -0.0000000 )
                  (  0.0000000  0.0000000  1.0000000 )

      isym =  2     inversion

 cryst.   s( 2) = (    -1          0          0      )
                  (     0         -1          0      )
                  (     0          0         -1      )

 cart.    s( 2) = ( -1.0000000  0.0000000  0.0000000 )
                  (  0.0000000 -1.0000000  0.0000000 )
                  (  0.0000000  0.0000000 -1.0000000 )

   Cartesian axes

     site n.     atom                  positions (alat units)
         1           Li  tau(   1) = (   0.2549140   0.4301381   0.0000000  )
         2           Li  tau(   2) = (   0.2549140   0.1452460   0.4048734  )
         3           Li  tau(   3) = (   0.5000000   0.0000000   0.0000000  )
         4           Mn  tau(   4) = (   0.0000000   0.0000000   0.0000000  )
         5           Cu  tau(   5) = (   0.7549140   0.1452460   0.4048734  )
         6           Cu  tau(   6) = (   0.7549140   0.4301381   0.0000000  )
         7           Cu  tau(   7) = (   0.5098281   0.5753842   0.4048734  )
         8           O   tau(   8) = (   0.5257407   0.2995588   0.2107868  )
         9           O   tau(   9) = (   1.2851000   0.4312868   0.6232006  )
        10           O   tau(  10) = (   1.2851000   0.7322297   0.1955166  )
        11           O   tau(  11) = (   1.4939154   0.8512095   0.5989600  )
        12           O   tau(  12) = (   1.0262059   0.8856589   0.6232006  )
        13           O   tau(  13) = (   0.7345562   0.7194815   0.1865462  )
        14           O   tau(  14) = (   0.7345562   0.4185386   0.6142302  )
        15           O   tau(  15) = (   0.9934503   0.2651094   0.1865462  )

   Crystallographic axes

     site n.     atom                  positions (cryst. coord.)
         1           Li  tau(   1) = ( -0.0000000  0.5000000  0.0000000  )
         2           Li  tau(   2) = ( -0.0000000 -0.0000000  0.5000000  )
         3           Li  tau(   3) = (  0.5000000  0.0000000  0.0000000  )
         4           Mn  tau(   4) = (  0.0000000  0.0000000  0.0000000  )
         5           Cu  tau(   5) = (  0.5000000 -0.0000000  0.5000000  )
         6           Cu  tau(   6) = (  0.5000000  0.5000000  0.0000000  )
         7           Cu  tau(   7) = ( -0.0000000  0.5000000  0.5000000  )
         8           O   tau(   8) = (  0.2603120  0.2603120  0.2603120  )
         9           O   tau(   9) = (  0.7696240  0.2414540  0.7696240  )
        10           O   tau(  10) = (  0.7696240  0.7696240  0.2414540  )
        11           O   tau(  11) = (  0.7396880  0.7396880  0.7396880  )
        12           O   tau(  12) = (  0.2414540  0.7696240  0.7696240  )
        13           O   tau(  13) = (  0.2303760  0.7585460  0.2303760  )
        14           O   tau(  14) = (  0.2303760  0.2303760  0.7585460  )
        15           O   tau(  15) = (  0.7585460  0.2303760  0.2303760  )

     number of k points=     1  Methfessel-Paxton smearing, width (Ry)=  0.0010
                       cart. coord. in units 2pi/alat
        k(    1) = (   0.0000000   0.0000000   0.0000000), wk =   2.0000000

                       cryst. coord.
        k(    1) = (   0.0000000   0.0000000   0.0000000), wk =   2.0000000

     Check: negative core charge=   -0.000019

     Initial potential from superposition of free atoms

     starting charge     124.1477, renormalised to     129.0000
     Starting wfcs are   99 randomized atomic wfcs
     Checking if some PAW data can be deallocated...

     Self-consistent Calculation

     iteration #  1     ecut=    30.00 Ry     beta= 0.70
     Davidson diagonalization with overlap

     ethr =  1.00E-02,  avg # of iterations =  3.0

     total energy              =   -1785.63992221 Ry
     estimated scf accuracy    <      18.68934017 Ry

[...]

     total energy              =   -1798.59205909 Ry
     estimated scf accuracy    <       0.00000104 Ry

     iteration # 30     ecut=    30.00 Ry     beta= 0.70
     Davidson diagonalization with overlap

     ethr =  8.07E-10,  avg # of iterations =  1.0

     End of self-consistent calculation

          k = 0.0000 0.0000 0.0000 (  1368 PWs)   bands (ev):

  -104.9279-104.9267-104.9266 -71.5320 -62.3154 -62.3121 -62.3121 -62.2858
   -62.2858 -62.2793 -62.2599 -62.2465 -62.2465 -40.2519 -40.2411 -40.2411
   -36.4768 -36.4601 -36.4601 -11.0363  -9.7893  -9.6768  -9.6767  -9.6249
    -9.5726  -9.5725  -9.5656   1.4678   1.4679   1.7788   2.3786   2.7752
     2.7753   2.7969   3.3401   3.3401   3.6036   3.6037   3.7335   3.8660
     4.3235   4.3235   5.0650   5.2127   5.2127   5.3721   5.3721   5.4029
     5.4029   5.5223   5.6013   5.6423   5.6424   5.7199   5.9215   5.9215
     6.1163   6.5640   6.5640   6.5720   7.6535   7.6535   7.7018   8.3645
     8.3645   8.3713   8.9532   9.0727   9.0727  11.4114  11.4114  12.7489
    15.0920  15.8889  15.8889  15.9380  17.0405  17.0405

     occupation numbers
     1.0000   1.0000   1.0000   1.0000   1.0000   1.0000   1.0000   1.0000
     1.0000   1.0000   1.0000   1.0000   1.0000   1.0000   1.0000   1.0000
     1.0000   1.0000   1.0000   1.0000   1.0000   1.0000   1.0000   1.0000
     1.0000   1.0000   1.0000   1.0000   1.0000   1.0000   1.0000   1.0000
     1.0000   1.0000   1.0000   1.0000   1.0000   1.0000   1.0000   1.0000
     1.0000   1.0000   1.0000   1.0000   1.0000   1.0000   1.0000   1.0000
     1.0000   1.0000   1.0000   1.0000   1.0000   1.0000   1.0000   1.0000
     1.0000   1.0000   1.0000   1.0000   1.0000   1.0000   1.0000   0.6337
     0.6330   0.2333  -0.0000  -0.0000  -0.0000  -0.0000  -0.0000  -0.0000
    -0.0000  -0.0000  -0.0000  -0.0000  -0.0000  -0.0000

     the Fermi energy is     8.3667 ev

!    total energy              =   -1798.59205840 Ry
     estimated scf accuracy    <       0.00000082 Ry
     smearing contrib. (-TS)   =      -0.00071741 Ry
     internal energy E=F+TS    =   -1798.59134100 Ry

     The total energy is F=E-TS. E is the sum of the following terms:
     one-electron contribution =   -1433.57112056 Ry
     hartree contribution      =     772.79876941 Ry
     xc contribution           =    -212.01539343 Ry
     ewald contribution        =    -849.61231678 Ry
     one-center paw contrib.   =     -76.19127963 Ry
      -> PAW hartree energy AE =     229.61123788 Ry
      -> PAW hartree energy PS =    -228.79219923 Ry
      -> PAW xc energy AE      =    -136.21367360 Ry
      -> PAW xc energy PS      =      59.20335533 Ry
      -> total E_H with PAW    =     773.61780806 Ry
      -> total E_XC with PAW   =    -289.02571171 Ry

     convergence has been achieved in  30 iterations

     Forces acting on atoms (cartesian axes, Ry/au):

     atom    1 type  1   force =     0.00000000    0.00000000    0.00000000
     atom    2 type  1   force =     0.00000000    0.00000000    0.00000000
     atom    3 type  1   force =     0.00000000    0.00000000    0.00000000
     atom    4 type  2   force =     0.00000000    0.00000000    0.00000000
     atom    5 type  3   force =     0.00000000    0.00000000    0.00000000
     atom    6 type  3   force =     0.00000000    0.00000000    0.00000000
     atom    7 type  3   force =     0.00000000    0.00000000    0.00000000
     atom    8 type  4   force =     0.01816118    0.01037069    0.00728296
     atom    9 type  4   force =     0.05950886   -0.01923575    0.04289735
     atom   10 type  4   force =     0.05947765    0.03377488   -0.03267688
     atom   11 type  4   force =    -0.01816118   -0.01037069   -0.00728296
     atom   12 type  4   force =     0.01365748    0.06093177    0.04296927
     atom   13 type  4   force =    -0.05950886    0.01923575   -0.04289735
     atom   14 type  4   force =    -0.05947765   -0.03377488    0.03267688
     atom   15 type  4   force =    -0.01365748   -0.06093177   -0.04296927
     The non-local contrib.  to forces
     atom    1 type  1   force =     0.00000000    0.00000000    0.00000000
     atom    2 type  1   force =     0.00000000    0.00000000    0.00000000
     atom    3 type  1   force =     0.00000000    0.00000000    0.00000000
     atom    4 type  2   force =     0.00000000    0.00000000    0.00000000
     atom    5 type  3   force =     0.00000000    0.00000000    0.00000000
     atom    6 type  3   force =     0.00000000    0.00000000    0.00000000
     atom    7 type  3   force =     0.00000000    0.00000000    0.00000000
     atom    8 type  4   force =     0.48570489    0.27677322    0.19474054
     atom    9 type  4   force =     0.60440232    0.07393772    0.33927365
     atom   10 type  4   force =     0.60444914    0.34405134   -0.04505920
     atom   11 type  4   force =    -0.48570489   -0.27677322   -0.19474054
     atom   12 type  4   force =     0.37143828    0.48206964    0.33951418
     atom   13 type  4   force =    -0.60440232   -0.07393772   -0.33927365
     atom   14 type  4   force =    -0.60444914   -0.34405134    0.04505920
     atom   15 type  4   force =    -0.37143828   -0.48206964   -0.33951418
     The ionic contribution  to forces
     atom    1 type  1   force =     0.00000000    0.00000000    0.00000000
     atom    2 type  1   force =    -0.00000000   -0.00000000   -0.00000000
     atom    3 type  1   force =     0.00000000   -0.00000000    0.00000000
     atom    4 type  2   force =    -0.00000000    0.00000000    0.00000000
     atom    5 type  3   force =     0.00000000    0.00000000   -0.00000000
     atom    6 type  3   force =    -0.00000000   -0.00000000    0.00000000
     atom    7 type  3   force =     0.00000000   -0.00000000   -0.00000000
     atom    8 type  4   force =   -15.79138106   -8.99768051   -6.33128555
     atom    9 type  4   force =   -16.15196165   -8.31045044   -6.79609952
     atom   10 type  4   force =   -16.15196158   -9.20313363   -5.52746567
     atom   11 type  4   force =    15.79138106    8.99768052    6.33128556
     atom   12 type  4   force =   -15.38400743   -9.65824866   -6.79609952
     atom   13 type  4   force =    16.15196165    8.31045044    6.79609952
     atom   14 type  4   force =    16.15196158    9.20313363    5.52746567
     atom   15 type  4   force =    15.38400743    9.65824866    6.79609952
     The local contribution  to forces
     atom    1 type  1   force =     0.00000342   -0.00000394    0.00000305
     atom    2 type  1   force =     0.00000290    0.00000094   -0.00000512
     atom    3 type  1   force =    -0.00000284    0.00000419    0.00000316
     atom    4 type  2   force =     0.00001632    0.00000577    0.00000543
     atom    5 type  3   force =    -0.00002900    0.00004168   -0.00002691
     atom    6 type  3   force =    -0.00003142   -0.00000981    0.00005482
     atom    7 type  3   force =     0.00002376   -0.00004000   -0.00002951
     atom    8 type  4   force =    15.32937675    8.73386685    6.14610866
     atom    9 type  4   force =    15.61287266    8.21820459    6.50304967
     atom   10 type  4   force =    15.61268649    8.89670781    5.53991318
     atom   11 type  4   force =   -15.32935710   -8.73385531   -6.14610419
     atom   12 type  4   force =    15.03045267    9.24183647    6.50237769
     atom   13 type  4   force =   -15.61286325   -8.21820910   -6.50304473
     atom   14 type  4   force =   -15.61267988   -8.89670711   -5.53991182
     atom   15 type  4   force =   -15.03045779   -9.24183447   -6.50237843
     The core correction contribution to forces
     atom    1 type  1   force =     0.00000000    0.00000000    0.00000000
     atom    2 type  1   force =     0.00000000    0.00000000    0.00000000
     atom    3 type  1   force =     0.00000000    0.00000000    0.00000000
     atom    4 type  2   force =     0.00000023   -0.00000003    0.00000014
     atom    5 type  3   force =    -0.00000000   -0.00000000    0.00000000
     atom    6 type  3   force =    -0.00000000    0.00000001    0.00000000
     atom    7 type  3   force =    -0.00000000   -0.00000000   -0.00000000
     atom    8 type  4   force =    -0.00532421   -0.00303364   -0.00213478
     atom    9 type  4   force =    -0.00595603   -0.00111816   -0.00320345
     atom   10 type  4   force =    -0.00595716   -0.00338967    0.00003001
     atom   11 type  4   force =     0.00532438    0.00303373    0.00213482
     atom   12 type  4   force =    -0.00399480   -0.00455155   -0.00320674
     atom   13 type  4   force =     0.00595622    0.00111824    0.00320346
     atom   14 type  4   force =     0.00595723    0.00338970   -0.00002992
     atom   15 type  4   force =     0.00399476    0.00455153    0.00320670
     The Hubbard contrib.    to forces
     atom    1 type  1   force =     0.00000000    0.00000000    0.00000000
     atom    2 type  1   force =     0.00000000    0.00000000    0.00000000
     atom    3 type  1   force =     0.00000000    0.00000000    0.00000000
     atom    4 type  2   force =     0.00000000    0.00000000    0.00000000
     atom    5 type  3   force =     0.00000000    0.00000000    0.00000000
     atom    6 type  3   force =     0.00000000    0.00000000    0.00000000
     atom    7 type  3   force =     0.00000000    0.00000000    0.00000000
     atom    8 type  4   force =     0.00000000    0.00000000    0.00000000
     atom    9 type  4   force =     0.00000000    0.00000000    0.00000000
     atom   10 type  4   force =     0.00000000    0.00000000    0.00000000
     atom   11 type  4   force =     0.00000000    0.00000000    0.00000000
     atom   12 type  4   force =     0.00000000    0.00000000    0.00000000
     atom   13 type  4   force =     0.00000000    0.00000000    0.00000000
     atom   14 type  4   force =     0.00000000    0.00000000    0.00000000
     atom   15 type  4   force =     0.00000000    0.00000000    0.00000000
     The SCF correction term to forces
     atom    1 type  1   force =    -0.00000226    0.00000322   -0.00000186
     atom    2 type  1   force =    -0.00000188   -0.00000021    0.00000334
     atom    3 type  1   force =     0.00000216   -0.00000241   -0.00000207
     atom    4 type  2   force =    -0.00001602   -0.00000443   -0.00000671
     atom    5 type  3   force =     0.00002535   -0.00004264    0.00002559
     atom    6 type  3   force =     0.00003048    0.00001165   -0.00006295
     atom    7 type  3   force =    -0.00002984    0.00004573    0.00003458
     atom    8 type  4   force =    -0.00020954    0.00044731   -0.00014413
     atom    9 type  4   force =     0.00015554    0.00019226   -0.00012305
     atom   10 type  4   force =     0.00026270   -0.00046042   -0.00009300
     atom   11 type  4   force =     0.00020103   -0.00045388    0.00014316
     atom   12 type  4   force =    -0.00023122   -0.00017462    0.00038267
     atom   13 type  4   force =    -0.00015719   -0.00018439    0.00011800
     atom   14 type  4   force =    -0.00026550    0.00046081    0.00009593
     atom   15 type  4   force =     0.00023642    0.00017166   -0.00038386

     Total force =     0.188327     Total SCF correction =     0.001318

     Computing stress (Cartesian axis) and pressure

          total   stress  (Ry/bohr**3)                   (kbar)     P=     -705.16
  -0.00505865  -0.00029871  -0.00021050         -744.15      -43.94      -30.97
  -0.00029871  -0.00470401  -0.00011967          -43.94     -691.98      -17.60
  -0.00021050  -0.00011967  -0.00461804          -30.97      -17.60     -679.34

     kinetic stress (kbar)  31304.50     94.65     66.29
                               94.65  31192.70     38.08
                               66.29     38.08  31165.34

     local   stress (kbar)  13042.14  50452.28  35501.78
                            50452.28 -46757.95  20227.68
                            35501.78  20227.68 -61271.25

     nonloc. stress (kbar)  13585.39    -48.07    -34.09
                              -48.07  13642.73    -19.18
                              -34.09    -19.18  13656.55

     hartree stress (kbar)  18075.08 -23214.54 -16335.21
                           -23214.54  45590.54  -9307.39
                           -16335.21  -9307.39  52268.64

     exc-cor stress (kbar)  -8847.36     -4.04     -2.85
                               -4.04  -8842.57     -1.62
                               -2.85     -1.62  -8841.41

     corecor stress (kbar)  -1207.15     -0.24     -0.17
                               -0.24  -1206.86     -0.10
                               -0.17     -0.10  -1206.79

     ewald   stress (kbar) -66696.75 -27323.98 -19226.72
                           -27323.98 -34310.56 -10955.08
                           -19226.72 -10955.08 -26450.41

     hubbard stress (kbar)      0.00      0.00      0.00
                                0.00      0.00      0.00
                                0.00      0.00      0.00

     DFT-D   stress (kbar)      0.00      0.00      0.00
                                0.00      0.00      0.00
                                0.00      0.00      0.00

     XDM     stress (kbar)      0.00      0.00      0.00
                                0.00      0.00      0.00
                                0.00      0.00      0.00

     dft-nl  stress (kbar)      0.00      0.00      0.00
                                0.00      0.00      0.00
                                0.00      0.00      0.00

     TS-vdW  stress (kbar)      0.00      0.00      0.00
                                0.00      0.00      0.00
                                0.00      0.00      0.00

[...]

                                0.00      0.00      0.00

     Writing all to output data dir new_calculations/myprefix.save/

     General routines

     Parallel routines

     PAW routines

   This run was terminated on:   9:30: 7  21May2023

   JOB DONE.