     Program PWSCF v.7.0 starts on 21May2023 at  3: 1: 5

     Reading input from espresso_15448.pwi
Warning: card &CELL ignored
Warning: card / ignored

     Current dimensions of program PWSCF are:
     Max number of different atomic species (ntypx) = 10
     Max number of k-points (npk) =  40000
     Max angular momentum in pseudopotentials (lmaxx) =  4
     file In.pbe-dn-rrkjus_psl.0.2.2.UPF: wavefunction(s)  5S renormalized

     gamma-point specific algorithms are used
     Message from routine setup:
     using ibrav=0 with symmetry is DISCOURAGED, use correct ibrav instead

     Subspace diagonalization in iterative solution of the eigenvalue problem:
     a serial algorithm will be used

     Using Slab Decomposition

     bravais-lattice index     =            0
     lattice parameter (alat)  =       9.1793  a.u.
     unit-cell volume          =     546.9032 (a.u.)^3
     number of atoms/cell      =            6
     number of atomic types    =            3
     number of electrons       =        97.00
     number of Kohn-Sham states=           59
     kinetic-energy cutoff     =      30.0000  Ry
     charge density cutoff     =     240.0000  Ry
     scf convergence threshold =      1.0E-06
     mixing beta               =       0.7000
     number of iterations used =            8  plain     mixing
     Exchange-correlation=  SLA  PW   PBX  PBC
                           (   1   4   3   4   0   0   0)

     celldm(1)=   9.179277  celldm(2)=   0.000000  celldm(3)=   0.000000
     celldm(4)=   0.000000  celldm(5)=   0.000000  celldm(6)=   0.000000

     crystal axes: (cart. coord. in units of alat)
               a(1) = (   1.000000   0.000000   0.000000 )
               a(2) = (   0.500000   0.866025   0.000000 )
               a(3) = (   0.500000   0.288675   0.816497 )

     reciprocal axes: (cart. coord. in units 2 pi/alat)
               b(1) = (  1.000000 -0.577350 -0.408248 )
               b(2) = (  0.000000  1.154701 -0.408248 )
               b(3) = (  0.000000  0.000000  1.224745 )

     PseudoPot. # 1 for Zr read from file:
     /home/pragov/projects/rrg-bengioy-ad/pragov/crystal_structure_design/SSSP/Zr_pbe_v1.uspp.F.UPF
     MD5 check sum: 5db81b1e868ab7776c4564c113de050b
     Pseudo is Ultrasoft + core correction, Zval = 12.0
     Generated by new atomic code, or converted to UPF format
     Using radial grid of  887 points,  6 beta functions with:
                l(1) =   0
                l(2) =   0
                l(3) =   1
                l(4) =   1
                l(5) =   2
                l(6) =   2
     Q(r) pseudized with  6 coefficients,  rinner =    1.200   1.200   1.200
                                                       1.200   1.200

     PseudoPot. # 2 for In read from file:
     /home/pragov/projects/rrg-bengioy-ad/pragov/crystal_structure_design/SSSP/In.pbe-dn-rrkjus_psl.0.2.2.UPF
     MD5 check sum: 25e7c42c3b55b68f4bf926be2e7201a4
     Pseudo is Ultrasoft + core correction, Zval = 13.0
     Generated using "atomic" code by A. Dal Corso  v.5.0.99 svn rev. 10869
     Using radial grid of 1241 points,  6 beta functions with:
                l(1) =   0
                l(2) =   0
                l(3) =   1
                l(4) =   1
                l(5) =   2
                l(6) =   2
     Q(r) pseudized with 0 coefficients

     PseudoPot. # 3 for Ni read from file:
     /home/pragov/projects/rrg-bengioy-ad/pragov/crystal_structure_design/SSSP/ni_pbe_v1.4.uspp.F.UPF
     MD5 check sum: 1ee80287db30b12d2bc1f57a5b5d6409
     Pseudo is Ultrasoft + core correction, Zval = 18.0
     Generated by new atomic code, or converted to UPF format
     Using radial grid of  865 points,  6 beta functions with:
                l(1) =   0
                l(2) =   0
                l(3) =   1
                l(4) =   1
                l(5) =   2
                l(6) =   2
     Q(r) pseudized with 10 coefficients,  rinner =    0.980   0.980   0.980
                                                       0.980   0.980

     atomic species   valence    mass     pseudopotential
        Zr            12.00    91.22400     Zr( 1.00)
        In            13.00   114.81800     In( 1.00)
        Ni            18.00    58.69340     Ni( 1.00)

      6 Sym. Ops. (no inversion) found

                                    s                        frac. trans.

      isym =  1     identity

 cryst.   s( 1) = (     1          0          0      )
                  (     0          1          0      )
                  (     0          0          1      )

 cart.    s( 1) = (  1.0000000  0.0000000  0.0000000 )
                  (  0.0000000  1.0000000 -0.0000000 )
                  (  0.0000000  0.0000000  1.0000000 )

      isym =  2     120 deg rotation - cryst. axis [0,0,1]

[...]

      isym =  3     120 deg rotation - cryst. axis [0,0,-1]

[...]

      isym =  4     inv. 180 deg rotation - cart. axis [1,0,0]

[...]

      isym =  5     inv. 180 deg rotation - cryst. axis [0,1,0]

[...]

      isym =  6     inv. 180 deg rotation - cryst. axis [1,1,0]

 cryst.   s( 6) = (     1         -1          0      )
                  (     0         -1          0      )
                  (     0         -1          1      )

 cart.    s( 6) = (  0.5000000 -0.8660254 -0.0000000 )
                  ( -0.8660254 -0.5000000 -0.0000000 )
                  (  0.0000000  0.0000000  1.0000000 )

   Cartesian axes

     site n.     atom                  positions (alat units)
         1           Zr  tau(   1) = (   0.0000000   0.0000000   0.0000000  )
         2           In  tau(   2) = (   0.5000000   0.2886751   0.2041241  )
         3           Ni  tau(   3) = (   0.7500750   0.7216451   0.5102802  )
         4           Ni  tau(   4) = (   1.2499260   0.7216451   0.5102802  )
         5           Ni  tau(   5) = (   1.0000005   0.2887614   0.5102802  )
         6           Ni  tau(   6) = (   1.0000005   0.5773506   0.1021535  )

   Crystallographic axes

     site n.     atom                  positions (cryst. coord.)
         1           Zr  tau(   1) = (  0.0000000  0.0000000  0.0000000  )
         2           In  tau(   2) = (  0.2500000  0.2500000  0.2500000  )
         3           Ni  tau(   3) = (  0.1251120  0.6249630  0.6249630  )
         4           Ni  tau(   4) = (  0.6249630  0.6249630  0.6249630  )
         5           Ni  tau(   5) = (  0.6249630  0.1251120  0.6249630  )
         6           Ni  tau(   6) = (  0.6249630  0.6249630  0.1251120  )

     number of k points=     1  Methfessel-Paxton smearing, width (Ry)=  0.0010
                       cart. coord. in units 2pi/alat
        k(    1) = (   0.0000000   0.0000000   0.0000000), wk =   2.0000000

                       cryst. coord.
        k(    1) = (   0.0000000   0.0000000   0.0000000), wk =   2.0000000

     Check: negative core charge=   -0.000009

     Initial potential from superposition of free atoms

     starting charge      88.9941, renormalised to      97.0000

     negative rho (up, down):  6.687E-02 0.000E+00
     Starting wfcs are   74 randomized atomic wfcs

     Self-consistent Calculation

     iteration #  1     ecut=    30.00 Ry     beta= 0.70
     Davidson diagonalization with overlap

     ethr =  1.00E-02,  avg # of iterations =  3.0

     negative rho (up, down):  5.307E-02 0.000E+00

     total energy              =   -1510.34866415 Ry
     estimated scf accuracy    <     152.92761138 Ry

[...]

     total energy              =   -1615.77125048 Ry
     estimated scf accuracy    <       0.00000121 Ry

     iteration # 45     ecut=    30.00 Ry     beta= 0.70
     Davidson diagonalization with overlap

     ethr =  1.25E-09,  avg # of iterations =  1.0

[...]

     End of self-consistent calculation

          k = 0.0000 0.0000 0.0000 (   736 PWs)   bands (ev):

   -86.0061 -85.9750 -85.9750 -85.9749 -46.5562 -46.3924 -46.3924 -46.3924
   -46.3177 -46.3177 -46.2594 -46.2594 -46.2593 -46.2334 -46.2334 -46.2333
   -30.7983  -8.9355  -8.9355  -8.9355   2.6087   2.6087   2.6124   2.6124
     2.6124   7.8232  12.6862  13.5875  13.5875  13.5875  13.9319  13.9319
    13.9319  14.6832  14.6832  16.1302  16.1302  16.1302  16.3365  16.3365
    16.3970  16.3970  16.3970  16.6896  16.6896  16.6897  17.3827  17.3827
    17.3828  17.3856  17.7174  17.7174  20.0649  21.3309  21.3309  21.3309
    24.2311  24.2311  24.2311

     occupation numbers
     1.0000   1.0000   1.0000   1.0000   1.0000   1.0000   1.0000   1.0000
     1.0000   1.0000   1.0000   1.0000   1.0000   1.0000   1.0000   1.0000
     1.0000   1.0000   1.0000   1.0000   1.0000   1.0000   1.0000   1.0000
     1.0000   1.0000   1.0000   1.0000   1.0000   1.0000   1.0000   1.0000
     1.0000   1.0000   1.0000   1.0000   1.0000   1.0000   1.0000   1.0000
     1.0000   1.0000   1.0000   1.0000   1.0000   1.0000   0.6687   0.6682
     0.6669   0.4962  -0.0000  -0.0000  -0.0000  -0.0000  -0.0000  -0.0000
    -0.0000  -0.0000  -0.0000

     the Fermi energy is    17.3855 ev

!    total energy              =   -1615.77124971 Ry
     estimated scf accuracy    <       0.00000089 Ry
     smearing contrib. (-TS)   =      -0.00102725 Ry
     internal energy E=F+TS    =   -1615.77022246 Ry

     The total energy is F=E-TS. E is the sum of the following terms:
     one-electron contribution =    -963.10353380 Ry
     hartree contribution      =     548.61557720 Ry
     xc contribution           =    -208.01783874 Ry
     ewald contribution        =    -993.26442712 Ry

     convergence has been achieved in  45 iterations

     negative rho (up, down):  6.032E-02 0.000E+00

     Forces acting on atoms (cartesian axes, Ry/au):

     atom    1 type  1   force =     0.00000000    0.00000000   -0.00003365
     atom    2 type  2   force =     0.00000000    0.00000000   -0.00003817
     atom    3 type  3   force =     0.06938873   -0.04006160   -0.02832159
     atom    4 type  3   force =    -0.06938873   -0.04006160   -0.02832159
     atom    5 type  3   force =     0.00000000    0.08012321   -0.02832159
     atom    6 type  3   force =     0.00000000    0.00000000    0.08503659
     The non-local contrib.  to forces
     atom    1 type  1   force =     0.00000000    0.00000000   -0.00002007
     atom    2 type  2   force =     0.00000000    0.00000000   -0.00005674
     atom    3 type  3   force =     0.26642723   -0.15382183   -0.10875846
     atom    4 type  3   force =    -0.26642723   -0.15382183   -0.10875846
     atom    5 type  3   force =     0.00000000    0.30764366   -0.10875846
     atom    6 type  3   force =     0.00000000    0.00000000    0.32633890
     The ionic contribution  to forces
     atom    1 type  1   force =     0.00006074    0.00003507    0.00002480
     atom    2 type  2   force =     0.00006580    0.00003799    0.00002686
     atom    3 type  3   force =    -0.29692840    0.17136574    0.12117387
     atom    4 type  3   force =     0.29691609    0.17142458    0.12121548
     atom    5 type  3   force =    -0.00005712   -0.34283040    0.12117387
     atom    6 type  3   force =    -0.00005712   -0.00003298   -0.36361490
     The local contribution  to forces
     atom    1 type  1   force =     0.00014713   -0.00002192   -0.00020498
     atom    2 type  2   force =    -0.00026696   -0.00004451    0.00015170
     atom    3 type  3   force =     0.10239073   -0.05862374   -0.04166545
     atom    4 type  3   force =    -0.10201130   -0.05939112   -0.04166703
     atom    5 type  3   force =    -0.00037142    0.11796347   -0.04174825
     atom    6 type  3   force =     0.00007898    0.00010362    0.12515697
     The core correction contribution to forces
     atom    1 type  1   force =     0.00000042    0.00000009   -0.00000006
     atom    2 type  2   force =     0.00000005   -0.00000001   -0.00000028
     atom    3 type  3   force =    -0.00195422    0.00114000    0.00080004
     atom    4 type  3   force =     0.00196419    0.00112103    0.00080104
     atom    5 type  3   force =    -0.00001087   -0.00226308    0.00079787
     atom    6 type  3   force =     0.00000090    0.00000204   -0.00239907
     The Hubbard contrib.    to forces
     atom    1 type  1   force =     0.00000000    0.00000000    0.00000000
     atom    2 type  2   force =     0.00000000    0.00000000    0.00000000
     atom    3 type  3   force =     0.00000000    0.00000000    0.00000000
     atom    4 type  3   force =     0.00000000    0.00000000    0.00000000
     atom    5 type  3   force =     0.00000000    0.00000000    0.00000000
     atom    6 type  3   force =     0.00000000    0.00000000    0.00000000
     The SCF correction term to forces
     atom    1 type  1   force =    -0.00018548   -0.00001069    0.00016219
     atom    2 type  2   force =     0.00019024    0.00000499   -0.00016418
     atom    3 type  3   force =    -0.00048835   -0.00001555    0.00013142
     atom    4 type  3   force =     0.00022476    0.00048377    0.00009381
     atom    5 type  3   force =     0.00031611   -0.00040092    0.00019052
     atom    6 type  3   force =    -0.00000290   -0.00004565   -0.00044977

     Total force =     0.169990     Total SCF correction =     0.001084

     Computing stress (Cartesian axis) and pressure

     negative rho (up, down):  6.032E-02 0.000E+00
          total   stress  (Ry/bohr**3)                   (kbar)     P=    -1173.32
  -0.00797637  -0.00000000   0.00000000        -1173.36       -0.00        0.00
   0.00000000  -0.00797637  -0.00000000            0.00    -1173.36       -0.00
   0.00000000  -0.00000000  -0.00797550            0.00       -0.00    -1173.24

     kinetic stress (kbar)  44438.51     -0.00     -0.00
                               -0.00  44438.51     -0.00
                                0.00      0.00  44437.52

     local   stress (kbar)  -9572.31      2.57      1.86
                                2.57  -9572.39      0.08
                                1.86      0.08  -9567.11

     nonloc. stress (kbar)  19351.88      0.00     -0.00
                                0.00  19351.88     -0.00
                                0.00     -0.00  19350.74

     hartree stress (kbar)  49189.52     -1.46     -1.05
                               -1.46  49189.58     -0.05
                               -1.05     -0.05  49186.57

     exc-cor stress (kbar)  -4032.55     -0.01     -0.00
                               -0.01  -4032.55     -0.00
                               -0.00     -0.00  -4032.57

     corecor stress (kbar) -11492.88      0.01      0.00
                                0.01 -11492.88      0.00
                                0.00      0.00 -11492.87

     ewald   stress (kbar) -89055.52     -0.00     -0.00
                               -0.00 -89055.51     -0.00
                               -0.00     -0.00 -89055.51

     hubbard stress (kbar)      0.00      0.00      0.00
                                0.00      0.00      0.00
                                0.00      0.00      0.00

     DFT-D   stress (kbar)      0.00      0.00      0.00
                                0.00      0.00      0.00
                                0.00      0.00      0.00

     XDM     stress (kbar)      0.00      0.00      0.00
                                0.00      0.00      0.00
                                0.00      0.00      0.00

     dft-nl  stress (kbar)      0.00      0.00      0.00
                                0.00      0.00      0.00
                                0.00      0.00      0.00

     TS-vdW  stress (kbar)      0.00      0.00      0.00
                                0.00      0.00      0.00
                                0.00      0.00      0.00

[...]

                                0.00      0.00      0.00

     Writing all to output data dir new_calculations/myprefix.save/

     General routines

     Parallel routines

   This run was terminated on:   3: 1:25  21May2023

   JOB DONE.