     Program PWSCF v.7.0 starts on 21May2023 at  4: 3:53

     Reading input from espresso_14037.pwi
Warning: card &CELL ignored
Warning: card / ignored

     Current dimensions of program PWSCF are:
     Max number of different atomic species (ntypx) = 10
     Max number of k-points (npk) =  40000
     Max angular momentum in pseudopotentials (lmaxx) =  4
     file O.pbe-n-kjpaw_psl.0.1.UPF: wavefunction(s)  2P renormalized

     gamma-point specific algorithms are used
     Message from routine setup:
     using ibrav=0 with symmetry is DISCOURAGED, use correct ibrav instead

     Subspace diagonalization in iterative solution of the eigenvalue problem:
     a serial algorithm will be used

     Using Slab Decomposition

     bravais-lattice index     =            0
     lattice parameter (alat)  =      12.2332  a.u.
     unit-cell volume          =     972.9034 (a.u.)^3
     number of atoms/cell      =           12
     number of atomic types    =            2
     number of electrons       =       100.00
     number of Kohn-Sham states=           60
     kinetic-energy cutoff     =      30.0000  Ry
     charge density cutoff     =     240.0000  Ry
     scf convergence threshold =      1.0E-06
     mixing beta               =       0.7000
     number of iterations used =            8  plain     mixing
     Exchange-correlation= SLA  PW   PBX  PBC
                           (   1   4   3   4   0   0   0)

     celldm(1)=  12.233153  celldm(2)=   0.000000  celldm(3)=   0.000000
     celldm(4)=   0.000000  celldm(5)=   0.000000  celldm(6)=   0.000000

     crystal axes: (cart. coord. in units of alat)
               a(1) = (   1.000000   0.000000   0.000000 )
               a(2) = (   0.832513   0.554005   0.000000 )
               a(3) = (   0.278963   0.084336   0.959270 )

     reciprocal axes: (cart. coord. in units 2 pi/alat)
               b(1) = (  1.000000 -1.502719 -0.158693 )
               b(2) = (  0.000000  1.805038 -0.158693 )
               b(3) = (  0.000000  0.000000  1.042459 )

     PseudoPot. # 1 for V  read from file:
     /home/pragov/projects/rrg-bengioy-ad/pragov/crystal_structure_design/SSSP/v_pbe_v1.4.uspp.F.UPF
     MD5 check sum: 22b79981416ebb76fdaf5b1b8640f6fb
     Pseudo is Ultrasoft + core correction, Zval = 13.0
     Generated by new atomic code, or converted to UPF format
     Using radial grid of  853 points,  6 beta functions with:
                l(1) =   0
                l(2) =   0
                l(3) =   1
                l(4) =   1
                l(5) =   2
                l(6) =   2
     Q(r) pseudized with  8 coefficients,  rinner =    1.100   1.100   1.100
                                                       1.100   1.100

     PseudoPot. # 2 for O  read from file:
     /home/pragov/projects/rrg-bengioy-ad/pragov/crystal_structure_design/SSSP/O.pbe-n-kjpaw_psl.0.1.UPF
     MD5 check sum: 0234752ac141de4415c5fc33072bef88
     Pseudo is Projector augmented-wave + core cor, Zval =  6.0
     Generated using "atomic" code by A. Dal Corso  v.5.0.99 svn rev. 10869
     Shape of augmentation charge: BESSEL
     Using radial grid of 1095 points,  4 beta functions with:
                l(1) =   0
                l(2) =   0
                l(3) =   1
                l(4) =   1
     Q(r) pseudized with 0 coefficients

     atomic species   valence    mass     pseudopotential
        V             13.00    50.94150     V ( 1.00)
        O              6.00    15.99900     O ( 1.00)

      2 Sym. Ops., with inversion, found

                                    s                        frac. trans.

      isym =  1     identity

 cryst.   s( 1) = (     1          0          0      )
                  (     0          1          0      )
                  (     0          0          1      )

 cart.    s( 1) = (  1.0000000  0.0000000  0.0000000 )
                  (  0.0000000  1.0000000  0.0000000 )
                  (  0.0000000  0.0000000  1.0000000 )

      isym =  2     inversion

 cryst.   s( 2) = (    -1          0          0      )
                  (     0         -1          0      )
                  (     0          0         -1      )

 cart.    s( 2) = ( -1.0000000 -0.0000000 -0.0000000 )
                  (  0.0000000 -1.0000000 -0.0000000 )
                  (  0.0000000  0.0000000 -1.0000000 )

   Cartesian axes

     site n.     atom                  positions (alat units)
         1           V   tau(   1) = (   0.6336410   0.1915621   0.2643969  )
         2           V   tau(   2) = (   1.4778354   0.4467787   0.6948732  )
         3           V   tau(   3) = (   0.9219779   0.2787320   0.6573754  )
         4           V   tau(   4) = (   1.1894985   0.3596088   0.3018948  )
         5           O   tau(   5) = (   0.6624716   0.2002782   0.0040193  )
         6           O   tau(   6) = (   1.4490048   0.4380626   0.9552508  )
         7           O   tau(   7) = (   0.6169559   0.1865179   0.6225721  )
         8           O   tau(   8) = (   1.4945205   0.4518229   0.3366981  )
         9           O   tau(   9) = (   0.9137214   0.2762359   0.3534018  )
        10           O   tau(  10) = (   1.1977550   0.3621049   0.6058683  )
        11           O   tau(  11) = (   0.3302746   0.0998485   0.2869964  )
        12           O   tau(  12) = (   1.7812018   0.5384923   0.6722738  )

   Crystallographic axes

     site n.     atom                  positions (cryst. coord.)
         1           V   tau(   1) = (  0.3038190  0.3038190  0.2756230  )
         2           V   tau(   2) = (  0.6961810  0.6961810  0.7243770  )
         3           V   tau(   3) = (  0.3988010  0.3988010  0.6852870  )
         4           V   tau(   4) = (  0.6011990  0.6011990  0.3147130  )
         5           O   tau(   5) = (  0.3608720  0.3608720  0.0041900  )
         6           O   tau(   6) = (  0.6391280  0.6391280  0.9958100  )
         7           O   tau(   7) = (  0.2378740  0.2378740  0.6490060  )
         8           O   tau(   8) = (  0.7621260  0.7621260  0.3509940  )
         9           O   tau(   9) = (  0.4425340  0.4425340  0.3684070  )
        10           O   tau(  10) = (  0.5574660  0.5574660  0.6315930  )
        11           O   tau(  11) = (  0.1346860  0.1346860  0.2991820  )
        12           O   tau(  12) = (  0.8653140  0.8653140  0.7008180  )

     number of k points=     1  Methfessel-Paxton smearing, width (Ry)=  0.0010
                       cart. coord. in units 2pi/alat
        k(    1) = (   0.0000000   0.0000000   0.0000000), wk =   2.0000000

                       cryst. coord.
        k(    1) = (   0.0000000   0.0000000   0.0000000), wk =   2.0000000

     Check: negative core charge=   -0.000017

     Initial potential from superposition of free atoms

     starting charge      99.9951, renormalised to     100.0000

     negative rho (up, down):  3.582E-03 0.000E+00
     Starting wfcs are   72 randomized atomic wfcs
     Checking if some PAW data can be deallocated...

     Self-consistent Calculation

     iteration #  1     ecut=    30.00 Ry     beta= 0.70
     Davidson diagonalization with overlap

     ethr =  1.00E-02,  avg # of iterations =  2.0

     negative rho (up, down):  8.221E-03 0.000E+00

     total energy              =    -910.05920394 Ry
     estimated scf accuracy    <       5.75257811 Ry

[...]

     total energy              =    -913.57361172 Ry
     estimated scf accuracy    <       0.00000157 Ry

     iteration # 31     ecut=    30.00 Ry     beta= 0.70
     Davidson diagonalization with overlap

     ethr =  1.26E-09,  avg # of iterations =  1.0

[...]

     End of self-consistent calculation

          k = 0.0000 0.0000 0.0000 (  1359 PWs)   bands (ev):

   -57.4744 -57.4621 -57.2956 -57.2923 -31.7513 -31.6609 -31.4839 -31.4564
   -31.1090 -31.1014 -31.0579 -31.0507 -30.9780 -30.9630 -30.9364 -30.9269
   -11.6035 -10.7916 -10.6447 -10.5012 -10.1342 -10.0980  -9.8748  -9.8505
     1.4380   1.7802   2.1477   2.2206   2.2939   2.3898   2.9699   3.0294
     3.1370   3.5419   3.8177   3.8370   3.9343   4.4621   4.6515   4.6813
     4.7230   5.0876   5.1415   5.2493   5.4601   5.5832   6.1234   6.1306
     8.2657   8.3622   8.3712   8.5917   8.7260   8.7978   9.4438   9.4529
     9.6792   9.6820  10.2684  10.4759

     occupation numbers
     1.0000   1.0000   1.0000   1.0000   1.0000   1.0000   1.0000   1.0000
     1.0000   1.0000   1.0000   1.0000   1.0000   1.0000   1.0000   1.0000
     1.0000   1.0000   1.0000   1.0000   1.0000   1.0000   1.0000   1.0000
     1.0000   1.0000   1.0000   1.0000   1.0000   1.0000   1.0000   1.0000
     1.0000   1.0000   1.0000   1.0000   1.0000   1.0000   1.0000   1.0000
     1.0000   1.0000   1.0000   1.0000   1.0000   1.0000   1.0000   1.0000
     1.0000   0.7644   0.2356  -0.0000  -0.0000  -0.0000  -0.0000  -0.0000
    -0.0000  -0.0000  -0.0000  -0.0000

     the Fermi energy is     8.3667 ev

!    total energy              =    -913.57361174 Ry
     estimated scf accuracy    <       0.00000003 Ry
     smearing contrib. (-TS)   =      -0.00039402 Ry
     internal energy E=F+TS    =    -913.57321772 Ry

     The total energy is F=E-TS. E is the sum of the following terms:
     one-electron contribution =    -488.70229964 Ry
     hartree contribution      =     284.94026981 Ry
     xc contribution           =    -137.25110965 Ry
     ewald contribution        =    -496.39944430 Ry
     one-center paw contrib.   =     -76.16063394 Ry
      -> PAW hartree energy AE =     236.60150830 Ry
      -> PAW hartree energy PS =    -235.74448468 Ry
      -> PAW xc energy AE      =    -137.30137497 Ry
      -> PAW xc energy PS      =      60.28371741 Ry
      -> total E_H with PAW    =     285.79729342 Ry
      -> total E_XC with PAW   =    -214.26876720 Ry

     convergence has been achieved in  31 iterations

     negative rho (up, down):  6.087E-03 0.000E+00

     Forces acting on atoms (cartesian axes, Ry/au):

     atom    1 type  1   force =     0.11016618    0.03332331   -0.13773155
     atom    2 type  1   force =    -0.11016618   -0.03332331    0.13773155
     atom    3 type  1   force =     0.28865870    0.08726991   -0.02836286
     atom    4 type  1   force =    -0.28865870   -0.08726991    0.02836286
     atom    5 type  2   force =    -0.01810177   -0.00547457    0.01707922
     atom    6 type  2   force =     0.01810177    0.00547457   -0.01707922
     atom    7 type  2   force =     0.10695785    0.03233918   -0.09069244
     atom    8 type  2   force =    -0.10695785   -0.03233918    0.09069244
     atom    9 type  2   force =    -0.02442604   -0.00739064   -0.00394202
     atom   10 type  2   force =     0.02442604    0.00739064    0.00394202
     atom   11 type  2   force =     0.25718750    0.07774640   -0.06350435
     atom   12 type  2   force =    -0.25718750   -0.07774640    0.06350435
     The non-local contrib.  to forces
     atom    1 type  1   force =    -0.01086401   -0.00328158    0.01712360
     atom    2 type  1   force =     0.01086401    0.00328158   -0.01712360
     atom    3 type  1   force =    -0.07836093   -0.02369252   -0.01133189
     atom    4 type  1   force =     0.07836093    0.02369252    0.01133189
     atom    5 type  2   force =    -0.01047129   -0.00316617    0.34223501
     atom    6 type  2   force =     0.01047129    0.00316617   -0.34223501
     atom    7 type  2   force =    -0.11087744   -0.03352282    0.59947402
     atom    8 type  2   force =     0.11087744    0.03352282   -0.59947402
     atom    9 type  2   force =     0.18044275    0.05455290    0.17213652
     atom   10 type  2   force =    -0.18044275   -0.05455290   -0.17213652
     atom   11 type  2   force =    -0.27722269   -0.08383221    0.23544953
     atom   12 type  2   force =     0.27722269    0.08383221   -0.23544953
     The ionic contribution  to forces
     atom    1 type  1   force =     8.14948518    2.46374955  -10.74521288
     atom    2 type  1   force =    -8.14948518   -2.46374955   10.74521288
     atom    3 type  1   force =     8.66710286    2.62023555   10.41459631
     atom    4 type  1   force =    -8.66710286   -2.62023555  -10.41459631
     atom    5 type  2   force =     6.20803560    1.87681118   -4.30914047
     atom    6 type  2   force =    -6.20803560   -1.87681118    4.30914047
     atom    7 type  2   force =    -5.08209702   -1.53641782    4.35155625
     atom    8 type  2   force =     5.08209702    1.53641782   -4.35155625
     atom    9 type  2   force =    -0.07576799   -0.02290615   -9.31289320
     atom   10 type  2   force =     0.07576798    0.02290615    9.31289320
     atom   11 type  2   force =    -6.59752414   -1.99456122   -3.99045847
     atom   12 type  2   force =     6.59752414    1.99456122    3.99045847
     The local contribution  to forces
     atom    1 type  1   force =    -8.03944187   -2.43046254   10.58629621
     atom    2 type  1   force =     8.03917101    2.43037038  -10.58624522
     atom    3 type  1   force =    -8.31983406   -2.51524761  -10.42908811
     atom    4 type  1   force =     8.32003495    2.51529297   10.42888838
     atom    5 type  2   force =    -6.21508820   -1.87895139    3.98562462
     atom    6 type  2   force =     6.21506402    1.87894853   -3.98541186
     atom    7 type  2   force =     5.29733998    1.60150568   -5.03409094
     atom    8 type  2   force =    -5.29747966   -1.60153839    5.03401367
     atom    9 type  2   force =    -0.12751759   -0.03857044    9.13774041
     atom   10 type  2   force =     0.12764518    0.03860899   -9.13795968
     atom   11 type  2   force =     7.12730307    2.15472672    3.69436820
     atom   12 type  2   force =    -7.12741278   -2.15477317   -3.69436358
     The core correction contribution to forces
     atom    1 type  1   force =     0.01086271    0.00328512    0.00406556
     atom    2 type  1   force =    -0.01086438   -0.00328600   -0.00406513
     atom    3 type  1   force =     0.01984026    0.00599879   -0.00262732
     atom    4 type  1   force =    -0.01983645   -0.00599714    0.00262669
     atom    5 type  2   force =    -0.00057752   -0.00017461   -0.00145910
     atom    6 type  2   force =     0.00057737    0.00017453    0.00145903
     atom    7 type  2   force =     0.00250451    0.00075723   -0.00766910
     atom    8 type  2   force =    -0.00250439   -0.00075715    0.00766892
     atom    9 type  2   force =    -0.00156436   -0.00047295   -0.00108175
     atom   10 type  2   force =     0.00156443    0.00047304    0.00108153
     atom   11 type  2   force =     0.00462759    0.00139924   -0.00286644
     atom   12 type  2   force =    -0.00462789   -0.00139952    0.00286672
     The Hubbard contrib.    to forces
     atom    1 type  1   force =     0.00000000    0.00000000    0.00000000
     atom    2 type  1   force =     0.00000000    0.00000000    0.00000000
     atom    3 type  1   force =     0.00000000    0.00000000    0.00000000
     atom    4 type  1   force =     0.00000000    0.00000000    0.00000000
     atom    5 type  2   force =     0.00000000    0.00000000    0.00000000
     atom    6 type  2   force =     0.00000000    0.00000000    0.00000000
     atom    7 type  2   force =     0.00000000    0.00000000    0.00000000
     atom    8 type  2   force =     0.00000000    0.00000000    0.00000000
     atom    9 type  2   force =     0.00000000    0.00000000    0.00000000
     atom   10 type  2   force =     0.00000000    0.00000000    0.00000000
     atom   11 type  2   force =     0.00000000    0.00000000    0.00000000
     atom   12 type  2   force =     0.00000000    0.00000000    0.00000000
     The SCF correction term to forces
     atom    1 type  1   force =     0.00012870    0.00003085   -0.00000572
     atom    2 type  1   force =     0.00015291    0.00005836   -0.00004904
     atom    3 type  1   force =    -0.00007383   -0.00001894    0.00009076
     atom    4 type  1   force =    -0.00009967   -0.00001737    0.00011484
     atom    5 type  2   force =    -0.00000397    0.00000464   -0.00018734
     atom    6 type  2   force =     0.00002108   -0.00000526   -0.00003834
     atom    7 type  2   force =     0.00009881    0.00002330    0.00003227
     atom    8 type  2   force =     0.00006274    0.00002210    0.00003507
     atom    9 type  2   force =    -0.00002143    0.00000847    0.00015495
     atom   10 type  2   force =    -0.00011137   -0.00004218    0.00006244
     atom   11 type  2   force =    -0.00000952    0.00000488    0.00001035
     atom   12 type  2   force =     0.00009316    0.00002386   -0.00000020

     Total force =     0.666650     Total SCF correction =     0.000436

     Computing stress (Cartesian axis) and pressure

     negative rho (up, down):  6.087E-03 0.000E+00
          total   stress  (Ry/bohr**3)                   (kbar)     P=     -483.13
  -0.00332941  -0.00016682   0.00009785         -489.77      -24.54       14.39
  -0.00016682  -0.00282832   0.00002951          -24.54     -416.06        4.34
   0.00009785   0.00002951  -0.00369498           14.39        4.34     -543.55

     kinetic stress (kbar)  28245.34   -100.53    362.47
                             -100.53  28547.64    109.61
                              362.47    109.61  28611.24

     local   stress (kbar) -14631.80    869.65  -1925.09
                              869.65 -17245.82   -582.06
                            -1925.09   -582.06  -9879.96

     nonloc. stress (kbar)   2068.24    -48.21     27.13
                              -48.21   2213.15      8.21
                               27.13      8.21   2025.07

     hartree stress (kbar)  14767.60   -472.04    970.84
                             -472.04  16186.37    293.52
                              970.84    293.52  12129.60

     exc-cor stress (kbar)  -4403.92     -0.24      1.53
                               -0.24  -4403.18      0.46
                                1.53      0.46  -4391.09

     corecor stress (kbar)  -2072.34      2.97     -4.46
                                2.97  -2081.27     -1.35
                               -4.46     -1.35  -2077.60

     ewald   stress (kbar) -24462.89   -276.15    581.97
                             -276.15 -23632.95    175.94
                              581.97    175.94 -26960.81

     hubbard stress (kbar)      0.00      0.00      0.00
                                0.00      0.00      0.00
                                0.00      0.00      0.00

     DFT-D   stress (kbar)      0.00      0.00      0.00
                                0.00      0.00      0.00
                                0.00      0.00      0.00

     XDM     stress (kbar)      0.00      0.00      0.00
                                0.00      0.00      0.00
                                0.00      0.00      0.00

     dft-nl  stress (kbar)      0.00      0.00      0.00
                                0.00      0.00      0.00
                                0.00      0.00      0.00

     TS-vdW  stress (kbar)      0.00      0.00      0.00
                                0.00      0.00      0.00
                                0.00      0.00      0.00

[...]

                                0.00      0.00      0.00

     Writing all to output data dir new_calculations/myprefix.save/

     General routines

     Parallel routines

     PAW routines

   This run was terminated on:   4: 4:16  21May2023

   JOB DONE.