     Program PWSCF v.7.0 starts on 21May2023 at  2:58:10

     Reading input from espresso_6719.pwi
Warning: card &CELL ignored
Warning: card / ignored

     Current dimensions of program PWSCF are:
     Max number of different atomic species (ntypx) = 10
     Max number of k-points (npk) =  40000
     Max angular momentum in pseudopotentials (lmaxx) =  4

     gamma-point specific algorithms are used
     Message from routine setup:
     using ibrav=0 with symmetry is DISCOURAGED, use correct ibrav instead

     Subspace diagonalization in iterative solution of the eigenvalue problem:
     a serial algorithm will be used

     Using Slab Decomposition

     bravais-lattice index     =            0
     lattice parameter (alat)  =       8.9414  a.u.
     unit-cell volume          =     912.0389 (a.u.)^3
     number of atoms/cell      =            6
     number of atomic types    =            2
     number of electrons       =        44.00
     number of Kohn-Sham states=           26
     kinetic-energy cutoff     =      30.0000  Ry
     charge density cutoff     =     240.0000  Ry
     scf convergence threshold =      1.0E-06
     mixing beta               =       0.7000
     number of iterations used =            8  plain     mixing
     Exchange-correlation=  SLA  PW   PBX  PBC
                           (   1   4   3   4   0   0   0)

     celldm(1)=   8.941424  celldm(2)=   0.000000  celldm(3)=   0.000000
     celldm(4)=   0.000000  celldm(5)=   0.000000  celldm(6)=   0.000000

     crystal axes: (cart. coord. in units of alat)
               a(1) = (   1.000000   0.000000   0.000000 )
               a(2) = (   0.000000   1.000000   0.000000 )
               a(3) = (   0.000000   0.000000   1.275831 )

     reciprocal axes: (cart. coord. in units 2 pi/alat)
               b(1) = (  1.000000  0.000000  0.000000 )
               b(2) = (  0.000000  1.000000  0.000000 )
               b(3) = (  0.000000  0.000000  0.783803 )

     PseudoPot. # 1 for Kr read from file:
     /home/pragov/projects/rrg-bengioy-ad/pragov/crystal_structure_design/SSSP/Kr_ONCV_PBE-1.0.oncvpsp.upf
     MD5 check sum: f2280ecf57a6c8a47e066f0532d843fa
     Pseudo is Norm-conserving, Zval =  8.0
     Generated using ONCVPSP code by D. R. Hamann
     Using radial grid of 1006 points,  6 beta functions with:
                l(1) =   0
                l(2) =   0
                l(3) =   1
                l(4) =   1
                l(5) =   2
                l(6) =   2

     PseudoPot. # 2 for F  read from file:
     /home/pragov/projects/rrg-bengioy-ad/pragov/crystal_structure_design/SSSP/f_pbe_v1.4.uspp.F.UPF
     MD5 check sum: 4c38b6a325caf53ec0e86aed9459de46
     Pseudo is Ultrasoft, Zval =  7.0
     Generated by new atomic code, or converted to UPF format
     Using radial grid of  799 points,  4 beta functions with:
                l(1) =   0
                l(2) =   0
                l(3) =   1
                l(4) =   1
     Q(r) pseudized with  8 coefficients,  rinner =    0.950   0.950   0.950

     atomic species   valence    mass     pseudopotential
        Kr             8.00    83.79800     Kr( 1.00)
        F              7.00    18.99840     F ( 1.00)

     16 Sym. Ops., with inversion, found ( 8 have fractional translation)

                                    s                        frac. trans.

      isym =  1     identity

 cryst.   s( 1) = (     1          0          0      )
                  (     0          1          0      )
                  (     0          0          1      )

 cart.    s( 1) = (  1.0000000  0.0000000  0.0000000 )
                  (  0.0000000  1.0000000  0.0000000 )
                  (  0.0000000  0.0000000  1.0000000 )

      isym =  2     180 deg rotation - cart. axis [0,0,1]

[...]

 cryst.   s( 3) = (    -1          0          0      )    f =(  0.5000000 )
                  (     0          1          0      )       ( -0.5000000 )
                  (     0          0         -1      )       (  0.5000000 )

 cart.    s( 3) = ( -1.0000000  0.0000000  0.0000000 )    f =(  0.5000000 )
                  (  0.0000000  1.0000000  0.0000000 )       ( -0.5000000 )
                  (  0.0000000  0.0000000 -1.0000000 )       (  0.6379157 )

[...]

      isym =  8      90 deg rotation - cart. axis [0,0,1]

 cryst.   s( 8) = (     0          1          0      )    f =(  0.5000000 )
                  (    -1          0          0      )       ( -0.5000000 )
                  (     0          0          1      )       ( -0.5000000 )

 cart.    s( 8) = (  0.0000000 -1.0000000  0.0000000 )    f =(  0.5000000 )
                  (  1.0000000  0.0000000  0.0000000 )       ( -0.5000000 )
                  (  0.0000000  0.0000000  1.0000000 )       ( -0.6379157 )

      isym =  9     inversion

 cryst.   s( 9) = (    -1          0          0      )
                  (     0         -1          0      )
                  (     0          0         -1      )

 cart.    s( 9) = ( -1.0000000  0.0000000  0.0000000 )
                  (  0.0000000 -1.0000000  0.0000000 )
                  (  0.0000000  0.0000000 -1.0000000 )

      isym = 10     inv. 180 deg rotation - cart. axis [0,0,1]

 cryst.   s(10) = (     1          0          0      )
                  (     0          1          0      )
                  (     0          0         -1      )

 cart.    s(10) = (  1.0000000  0.0000000  0.0000000 )
                  (  0.0000000  1.0000000  0.0000000 )
                  (  0.0000000  0.0000000 -1.0000000 )

[...]

 cryst.   s(11) = (     1          0          0      )    f =( -0.5000000 )
                  (     0         -1          0      )       (  0.5000000 )
                  (     0          0          1      )       ( -0.5000000 )

 cart.    s(11) = (  1.0000000  0.0000000  0.0000000 )    f =( -0.5000000 )
                  (  0.0000000 -1.0000000  0.0000000 )       (  0.5000000 )
                  (  0.0000000  0.0000000  1.0000000 )       ( -0.6379157 )

[...]

 cryst.   s(14) = (     0          1          0      )
                  (     1          0          0      )
                  (     0          0          1      )

 cart.    s(14) = (  0.0000000  1.0000000  0.0000000 )
                  (  1.0000000  0.0000000  0.0000000 )
                  (  0.0000000  0.0000000  1.0000000 )

[...]

      isym = 16     inv.  90 deg rotation - cart. axis [0,0,1]

 cryst.   s(16) = (     0         -1          0      )    f =( -0.5000000 )
                  (     1          0          0      )       (  0.5000000 )
                  (     0          0         -1      )       (  0.5000000 )

 cart.    s(16) = (  0.0000000  1.0000000  0.0000000 )    f =( -0.5000000 )
                  ( -1.0000000  0.0000000  0.0000000 )       (  0.5000000 )
                  (  0.0000000  0.0000000 -1.0000000 )       (  0.6379157 )

   Cartesian axes

     site n.     atom                  positions (alat units)
         1           Kr  tau(   1) = (   0.0000000   0.0000000   0.0000000  )
         2           Kr  tau(   2) = (   0.5000000   0.5000000   0.6379157  )
         3           F   tau(   3) = (   0.2106170   0.7893830   0.6379157  )
         4           F   tau(   4) = (   0.2893830   0.2893830   0.0000000  )
         5           F   tau(   5) = (   0.7106170   0.7106170   0.0000000  )
         6           F   tau(   6) = (   0.7893830   0.2106170   0.6379157  )

   Crystallographic axes

     site n.     atom                  positions (cryst. coord.)
         1           Kr  tau(   1) = (  0.0000000  0.0000000  0.0000000  )
         2           Kr  tau(   2) = (  0.5000000  0.5000000  0.5000000  )
         3           F   tau(   3) = (  0.2106170  0.7893830  0.5000000  )
         4           F   tau(   4) = (  0.2893830  0.2893830  0.0000000  )
         5           F   tau(   5) = (  0.7106170  0.7106170  0.0000000  )
         6           F   tau(   6) = (  0.7893830  0.2106170  0.5000000  )

     number of k points=     1  Methfessel-Paxton smearing, width (Ry)=  0.0010
                       cart. coord. in units 2pi/alat
        k(    1) = (   0.0000000   0.0000000   0.0000000), wk =   2.0000000

                       cryst. coord.
        k(    1) = (   0.0000000   0.0000000   0.0000000), wk =   2.0000000

     Initial potential from superposition of free atoms

     starting charge      44.0000, renormalised to      44.0000
     Starting wfcs are   24 randomized atomic wfcs +    2 random wfcs

     Self-consistent Calculation

     iteration #  1     ecut=    30.00 Ry     beta= 0.70
     Davidson diagonalization with overlap

     ethr =  1.00E-02,  avg # of iterations =  6.0

     total energy              =    -267.73506444 Ry
     estimated scf accuracy    <       1.09297311 Ry

[...]

     total energy              =    -268.25398580 Ry
     estimated scf accuracy    <       0.00003579 Ry

     iteration #  7     ecut=    30.00 Ry     beta= 0.70
     Davidson diagonalization with overlap

     ethr =  8.13E-08,  avg # of iterations =  2.0

     End of self-consistent calculation

          k = 0.0000 0.0000 0.0000 (  1270 PWs)   bands (ev):

   -22.9810 -22.8702 -22.2474 -22.2470 -18.0815 -17.9474  -7.2594  -7.2593
    -5.6651  -4.7717  -4.7716  -4.5824  -3.8169  -3.6650  -3.3197  -3.1100
    -2.9461  -2.9457  -2.4519  -2.2495  -2.2492  -1.6320   1.7595   1.7596
     6.0056   8.9447

     occupation numbers
     1.0000   1.0000   1.0000   1.0000   1.0000   1.0000   1.0000   1.0000
     1.0000   1.0000   1.0000   1.0000   1.0000   1.0000   1.0000   1.0000
     1.0000   1.0000   1.0000   1.0000   1.0000   1.0000  -0.0000  -0.0000
    -0.0000  -0.0000

     the Fermi energy is     1.0313 ev

!    total energy              =    -268.25399114 Ry
     estimated scf accuracy    <       0.00000043 Ry
     smearing contrib. (-TS)   =       0.00000000 Ry
     internal energy E=F+TS    =    -268.25399114 Ry

     The total energy is F=E-TS. E is the sum of the following terms:
     one-electron contribution =    -153.93827237 Ry
     hartree contribution      =      95.22769757 Ry
     xc contribution           =     -49.52709759 Ry
     ewald contribution        =    -160.01631876 Ry

     convergence has been achieved in   7 iterations

     Forces acting on atoms (cartesian axes, Ry/au):

     atom    1 type  1   force =     0.00000000    0.00000000   -0.00000000
     atom    2 type  1   force =     0.00000000    0.00000000    0.00000000
     atom    3 type  2   force =    -0.00630686    0.00630686    0.00000000
     atom    4 type  2   force =     0.00630686    0.00630686   -0.00000000
     atom    5 type  2   force =    -0.00630686   -0.00630686    0.00000000
     atom    6 type  2   force =     0.00630686   -0.00630686   -0.00000000
     The non-local contrib.  to forces
     atom    1 type  1   force =     0.00000000    0.00000000    0.00000000
     atom    2 type  1   force =     0.00000000    0.00000000   -0.00000000
     atom    3 type  2   force =     0.72642450   -0.72642450   -0.00000000
     atom    4 type  2   force =    -0.72642450   -0.72642450    0.00000000
     atom    5 type  2   force =     0.72642450    0.72642450   -0.00000000
     atom    6 type  2   force =    -0.72642450    0.72642450    0.00000000
     The ionic contribution  to forces
     atom    1 type  1   force =     0.00000000    0.00000000   -0.00000000
     atom    2 type  1   force =    -0.00000000   -0.00000000    0.00000000
     atom    3 type  2   force =    -3.06957027    3.06957027    0.00000000
     atom    4 type  2   force =     3.06957027    3.06957027   -0.00000000
     atom    5 type  2   force =    -3.06957027   -3.06957027   -0.00000000
     atom    6 type  2   force =     3.06957027   -3.06957027    0.00000000
     The local contribution  to forces
     atom    1 type  1   force =    -0.00003129    0.00001212   -0.00000820
     atom    2 type  1   force =    -0.00004932    0.00005670   -0.00001476
     atom    3 type  2   force =     2.33685517   -2.33685690   -0.00000238
     atom    4 type  2   force =    -2.33693153   -2.33693191    0.00000550
     atom    5 type  2   force =     2.33691838    2.33692999    0.00000244
     atom    6 type  2   force =    -2.33684296    2.33685240   -0.00000580
     The core correction contribution to forces
     atom    1 type  1   force =     0.00000000    0.00000000    0.00000000
     atom    2 type  1   force =     0.00000000    0.00000000    0.00000000
     atom    3 type  2   force =     0.00000000    0.00000000    0.00000000
     atom    4 type  2   force =     0.00000000    0.00000000    0.00000000
     atom    5 type  2   force =     0.00000000    0.00000000    0.00000000
     atom    6 type  2   force =     0.00000000    0.00000000    0.00000000
     The Hubbard contrib.    to forces
     atom    1 type  1   force =     0.00000000    0.00000000    0.00000000
     atom    2 type  1   force =     0.00000000    0.00000000    0.00000000
     atom    3 type  2   force =     0.00000000    0.00000000    0.00000000
     atom    4 type  2   force =     0.00000000    0.00000000    0.00000000
     atom    5 type  2   force =     0.00000000    0.00000000    0.00000000
     atom    6 type  2   force =     0.00000000    0.00000000    0.00000000
     The SCF correction term to forces
     atom    1 type  1   force =     0.00000524   -0.00001345    0.00000952
     atom    2 type  1   force =     0.00013886   -0.00014095    0.00002929
     atom    3 type  2   force =     0.00002957   -0.00002193    0.00000726
     atom    4 type  2   force =     0.00009679    0.00009298   -0.00000909
     atom    5 type  2   force =    -0.00008702   -0.00011127   -0.00000345
     atom    6 type  2   force =     0.00002665   -0.00004475    0.00001331

     Total force =     0.017838     Total SCF correction =     0.000288

     Computing stress (Cartesian axis) and pressure

          total   stress  (Ry/bohr**3)                   (kbar)     P=      -99.46
  -0.00076906   0.00000000   0.00000000         -113.13        0.00        0.00
   0.00000000  -0.00076906   0.00000000            0.00     -113.13        0.00
   0.00000000   0.00000000  -0.00049025            0.00        0.00      -72.12

     kinetic stress (kbar)   9707.99      0.00      0.00
                                0.00   9707.99      0.00
                                0.00      0.00  10447.54

     local   stress (kbar)  -7262.69      0.02     -0.00
                                0.02  -7262.69      0.00
                               -0.00      0.00    369.00

     nonloc. stress (kbar)    645.28      0.00      0.00
                                0.00    645.28      0.00
                                0.00      0.00    724.91

     hartree stress (kbar)   5982.27     -0.00      0.00
                               -0.00   5982.27     -0.00
                                0.00     -0.00   3394.99

     exc-cor stress (kbar)  -2518.95     -0.00     -0.00
                               -0.00  -2518.95      0.00
                               -0.00      0.00  -2533.17

     corecor stress (kbar)      0.00      0.00      0.00
                                0.00      0.00      0.00
                                0.00      0.00      0.00

     ewald   stress (kbar)  -6667.03      0.00      0.00
                                0.00  -6667.03      0.00
                                0.00      0.00 -12475.39

     hubbard stress (kbar)      0.00      0.00      0.00
                                0.00      0.00      0.00
                                0.00      0.00      0.00

     DFT-D   stress (kbar)      0.00      0.00      0.00
                                0.00      0.00      0.00
                                0.00      0.00      0.00

     XDM     stress (kbar)      0.00      0.00      0.00
                                0.00      0.00      0.00
                                0.00      0.00      0.00

     dft-nl  stress (kbar)      0.00      0.00      0.00
                                0.00      0.00      0.00
                                0.00      0.00      0.00

     TS-vdW  stress (kbar)      0.00      0.00      0.00
                                0.00      0.00      0.00
                                0.00      0.00      0.00

[...]

                                0.00      0.00      0.00

     Writing all to output data dir new_calculations/myprefix.save/

     General routines

     Parallel routines

   This run was terminated on:   2:58:20  21May2023

   JOB DONE.