     Program PWSCF v.7.0 starts on 20May2023 at 19:47:44

     Reading input from espresso_17596.pwi
Warning: card &CELL ignored
Warning: card / ignored

     Current dimensions of program PWSCF are:
     Max number of different atomic species (ntypx) = 10
     Max number of k-points (npk) =  40000
     Max angular momentum in pseudopotentials (lmaxx) =  4
     file K.pbe-spn-kjpaw_psl.1.0.0.UPF: wavefunction(s)  3S renormalized
     file O.pbe-n-kjpaw_psl.0.1.UPF: wavefunction(s)  2P renormalized

     gamma-point specific algorithms are used
     Message from routine setup:
     using ibrav=0 with symmetry is DISCOURAGED, use correct ibrav instead

     Subspace diagonalization in iterative solution of the eigenvalue problem:
     a serial algorithm will be used

     Using Slab Decomposition

     bravais-lattice index     =            0
     lattice parameter (alat)  =      11.8143  a.u.
     unit-cell volume          =     978.6414 (a.u.)^3
     number of atoms/cell      =            8
     number of atomic types    =            3
     number of electrons       =        80.00
     number of Kohn-Sham states=           48
     kinetic-energy cutoff     =      30.0000  Ry
     charge density cutoff     =     240.0000  Ry
     scf convergence threshold =      1.0E-06
     mixing beta               =       0.7000
     number of iterations used =            8  plain     mixing
     Exchange-correlation= SLA  PW   PBX  PBC
                           (   1   4   3   4   0   0   0)

     celldm(1)=  11.814297  celldm(2)=   0.000000  celldm(3)=   0.000000
     celldm(4)=   0.000000  celldm(5)=   0.000000  celldm(6)=   0.000000

     crystal axes: (cart. coord. in units of alat)
               a(1) = (   1.000000   0.000000   0.000000 )
               a(2) = (  -0.736636   0.676290   0.000000 )
               a(3) = (   0.000000   0.000000   0.877541 )

     reciprocal axes: (cart. coord. in units 2 pi/alat)
               b(1) = (  1.000000  1.089232  0.000000 )
               b(2) = (  0.000000  1.478657  0.000000 )
               b(3) = (  0.000000  0.000000  1.139548 )

     PseudoPot. # 1 for K  read from file:
     /home/pragov/projects/rrg-bengioy-ad/pragov/crystal_structure_design/SSSP/K.pbe-spn-kjpaw_psl.1.0.0.UPF
     MD5 check sum: 7d58810084cac21f60fbe77ea2b688fd
     Pseudo is Projector augmented-wave + core cor, Zval =  9.0
     Generated using "atomic" code by A. Dal Corso  v.5.1
     Shape of augmentation charge: PSQ
     Using radial grid of 1165 points,  6 beta functions with:
                l(1) =   0
                l(2) =   0
                l(3) =   1
                l(4) =   1
                l(5) =   2
                l(6) =   2
     Q(r) pseudized with 0 coefficients

     PseudoPot. # 2 for Cu read from file:
     /home/pragov/projects/rrg-bengioy-ad/pragov/crystal_structure_design/SSSP/Cu_pbe_v1.2.uspp.F.UPF
     MD5 check sum: 6e991ff952a84172a2a52a1c1e996048
     Pseudo is Ultrasoft + core correction, Zval = 19.0
     Generated by new atomic code, or converted to UPF format
     Using radial grid of  867 points,  6 beta functions with:
                l(1) =   0
                l(2) =   0
                l(3) =   1
                l(4) =   1
                l(5) =   2
                l(6) =   2
     Q(r) pseudized with  8 coefficients,  rinner =    1.150   1.150   1.150
                                                       1.150   1.150

     PseudoPot. # 3 for O  read from file:
     /home/pragov/projects/rrg-bengioy-ad/pragov/crystal_structure_design/SSSP/O.pbe-n-kjpaw_psl.0.1.UPF
     MD5 check sum: 0234752ac141de4415c5fc33072bef88
     Pseudo is Projector augmented-wave + core cor, Zval =  6.0
     Generated using "atomic" code by A. Dal Corso  v.5.0.99 svn rev. 10869
     Shape of augmentation charge: BESSEL
     Using radial grid of 1095 points,  4 beta functions with:
                l(1) =   0
                l(2) =   0
                l(3) =   1
                l(4) =   1
     Q(r) pseudized with 0 coefficients

     atomic species   valence    mass     pseudopotential
        K              9.00    39.09830     K ( 1.00)
        Cu            19.00    63.54600     Cu( 1.00)
        O              6.00    15.99900     O ( 1.00)

      4 Sym. Ops., with inversion, found ( 2 have fractional translation)

                                    s                        frac. trans.

      isym =  1     identity

 cryst.   s( 1) = (     1          0          0      )
                  (     0          1          0      )
                  (     0          0          1      )

 cart.    s( 1) = (  1.0000000 -0.0000000  0.0000000 )
                  (  0.0000000  1.0000000  0.0000000 )
                  (  0.0000000  0.0000000  1.0000000 )

      isym =  2     180 deg rotation - cart. axis [0,0,1]

 cryst.   s( 2) = (    -1          0          0      )    f =(  0.0000000 )
                  (     0         -1          0      )       (  0.0000000 )
                  (     0          0          1      )       ( -0.5000000 )

 cart.    s( 2) = ( -1.0000000  0.0000000  0.0000000 )    f =(  0.0000000 )
                  (  0.0000000 -1.0000000  0.0000000 )       (  0.0000000 )
                  (  0.0000000  0.0000000  1.0000000 )       ( -0.4387704 )

      isym =  3     inversion

 cryst.   s( 3) = (    -1          0          0      )
                  (     0         -1          0      )
                  (     0          0         -1      )

 cart.    s( 3) = ( -1.0000000  0.0000000  0.0000000 )
                  (  0.0000000 -1.0000000  0.0000000 )
                  (  0.0000000  0.0000000 -1.0000000 )

      isym =  4     inv. 180 deg rotation - cart. axis [0,0,1]

 cryst.   s( 4) = (     1          0          0      )    f =(  0.0000000 )
                  (     0          1          0      )       (  0.0000000 )
                  (     0          0         -1      )       (  0.5000000 )

 cart.    s( 4) = (  1.0000000 -0.0000000  0.0000000 )    f =(  0.0000000 )
                  (  0.0000000  1.0000000  0.0000000 )       (  0.0000000 )
                  (  0.0000000  0.0000000 -1.0000000 )       (  0.4387704 )

   Cartesian axes

     site n.     atom                  positions (alat units)
         1           K   tau(   1) = (   0.4733565   0.2050882   0.2193852  )
         2           K   tau(   2) = (  -0.2099924   0.4712013   0.6581556  )
         3           Cu  tau(   3) = (  -0.7322127   0.6745670   0.6581556  )
         4           Cu  tau(   4) = (   0.9955768   0.0017225   0.2193852  )
         5           O   tau(   5) = (  -0.5526984   0.6046596   0.4345564  )
         6           O   tau(   6) = (   0.8160625   0.0716299   0.4429843  )
         7           O   tau(   7) = (  -0.5526984   0.6046596   0.0042140  )
         8           O   tau(   8) = (   0.8160625   0.0716299   0.8733268  )

   Crystallographic axes

     site n.     atom                  positions (cryst. coord.)
         1           K   tau(   1) = (  0.6967450  0.3032550  0.2500000  )
         2           K   tau(   2) = (  0.3032550  0.6967450  0.7500000  )
         3           Cu  tau(   3) = (  0.0025470  0.9974530  0.7500000  )
         4           Cu  tau(   4) = (  0.9974530  0.0025470  0.2500000  )
         5           O   tau(   5) = (  0.1059160  0.8940840  0.4951980  )
         6           O   tau(   6) = (  0.8940840  0.1059160  0.5048020  )
         7           O   tau(   7) = (  0.1059160  0.8940840  0.0048020  )
         8           O   tau(   8) = (  0.8940840  0.1059160  0.9951980  )

     number of k points=     1  Methfessel-Paxton smearing, width (Ry)=  0.0010
                       cart. coord. in units 2pi/alat
        k(    1) = (   0.0000000   0.0000000   0.0000000), wk =   2.0000000

                       cryst. coord.
        k(    1) = (   0.0000000   0.0000000   0.0000000), wk =   2.0000000

     Check: negative core charge=   -0.000011

     Initial potential from superposition of free atoms

     starting charge      77.9623, renormalised to      80.0000
     Starting wfcs are   58 randomized atomic wfcs
     Checking if some PAW data can be deallocated...

     Self-consistent Calculation

     iteration #  1     ecut=    30.00 Ry     beta= 0.70
     Davidson diagonalization with overlap

     ethr =  1.00E-02,  avg # of iterations =  5.0

     total energy              =   -1198.72205208 Ry
     estimated scf accuracy    <       2.04826633 Ry

[...]

     total energy              =   -1199.90177270 Ry
     estimated scf accuracy    <       0.00000362 Ry

     iteration # 10     ecut=    30.00 Ry     beta= 0.70
     Davidson diagonalization with overlap

     ethr =  4.53E-09,  avg # of iterations =  4.0

     End of self-consistent calculation

          k = 0.0000 0.0000 0.0000 (  1366 PWs)   bands (ev):

  -108.8270-108.8242 -66.4336 -66.4102 -66.3729 -66.3698 -65.6754 -65.6719
   -24.2993 -24.2493 -13.6679 -12.7837 -12.6310 -12.4250  -7.8943  -7.8572
    -7.8503  -7.6939  -7.6892  -7.6789  -1.3818  -1.2736  -0.7878   0.2918
     0.4331   0.6811   0.7222   1.1387   1.6291   1.6684   1.8039   1.8092
     1.8952   2.4719   2.6494   2.9952   3.0202   3.2358   4.1928   4.2704
     5.7409   6.2854   7.4615  10.4146  11.0776  11.7507  12.0289  12.8746

     occupation numbers
     1.0000   1.0000   1.0000   1.0000   1.0000   1.0000   1.0000   1.0000
     1.0000   1.0000   1.0000   1.0000   1.0000   1.0000   1.0000   1.0000
     1.0000   1.0000   1.0000   1.0000   1.0000   1.0000   1.0000   1.0000
     1.0000   1.0000   1.0000   1.0000   1.0000   1.0000   1.0000   1.0000
     1.0000   1.0000   1.0000   1.0000   1.0000   1.0000   1.0000   1.0000
    -0.0000  -0.0000  -0.0000  -0.0000  -0.0000  -0.0000  -0.0000  -0.0000

     the Fermi energy is     5.3873 ev

!    total energy              =   -1199.90177333 Ry
     estimated scf accuracy    <       0.00000064 Ry
     smearing contrib. (-TS)   =       0.00000000 Ry
     internal energy E=F+TS    =   -1199.90177333 Ry

     The total energy is F=E-TS. E is the sum of the following terms:
     one-electron contribution =   -1079.63960326 Ry
     hartree contribution      =     567.96753335 Ry
     xc contribution           =    -129.50856711 Ry
     ewald contribution        =    -409.77978239 Ry
     one-center paw contrib.   =    -148.94135391 Ry
      -> PAW hartree energy AE =     190.21558963 Ry
      -> PAW hartree energy PS =    -189.39579810 Ry
      -> PAW xc energy AE      =    -200.54075517 Ry
      -> PAW xc energy PS      =      50.77960973 Ry
      -> total E_H with PAW    =     568.78732488 Ry
      -> total E_XC with PAW   =    -279.26971255 Ry

     convergence has been achieved in  10 iterations

     Forces acting on atoms (cartesian axes, Ry/au):

     atom    1 type  1   force =    -0.01620098    0.00631109    0.00000000
     atom    2 type  1   force =     0.01620098   -0.00631109    0.00000000
     atom    3 type  2   force =    -0.00014803    0.00004180    0.00000000
     atom    4 type  2   force =     0.00014803   -0.00004180    0.00000000
     atom    5 type  3   force =     0.00834790   -0.00324840   -0.00928221
     atom    6 type  3   force =    -0.00834790    0.00324840    0.00928221
     atom    7 type  3   force =     0.00834790   -0.00324840    0.00928221
     atom    8 type  3   force =    -0.00834790    0.00324840   -0.00928221
     The non-local contrib.  to forces
     atom    1 type  1   force =    -0.03719525    0.01448475   -0.00000000
     atom    2 type  1   force =     0.03719525   -0.01448475    0.00000000
     atom    3 type  2   force =     0.06500632   -0.02531645    0.00000000
     atom    4 type  2   force =    -0.06500632    0.02531645    0.00000000
     atom    5 type  3   force =    -0.97022486    0.37783297    0.03076348
     atom    6 type  3   force =     0.97022486   -0.37783297   -0.03076348
     atom    7 type  3   force =    -0.97022486    0.37783297   -0.03076348
     atom    8 type  3   force =     0.97022486   -0.37783297    0.03076348
     The ionic contribution  to forces
     atom    1 type  1   force =     3.11113128   -1.21155242    0.00000000
     atom    2 type  1   force =    -3.11113128    1.21155242   -0.00000000
     atom    3 type  2   force =     3.25860318   -1.26898167   -0.00000000
     atom    4 type  2   force =    -3.25860318    1.26898166   -0.00000000
     atom    5 type  3   force =    20.11764376   -7.83431418    0.25188965
     atom    6 type  3   force =   -20.11764376    7.83431418   -0.25188965
     atom    7 type  3   force =    20.11764376   -7.83431418   -0.25188965
     atom    8 type  3   force =   -20.11764376    7.83431418    0.25188965
     The local contribution  to forces
     atom    1 type  1   force =    -3.09194902    1.20408160    0.00015448
     atom    2 type  1   force =     3.09156927   -1.20394490   -0.00021524
     atom    3 type  2   force =    -3.32287964    1.29400737   -0.00062662
     atom    4 type  2   force =     3.32404704   -1.29447042    0.00081066
     atom    5 type  3   force =   -19.15020717    7.45757228   -0.29139132
     atom    6 type  3   force =    19.15000388   -7.45749481    0.29165765
     atom    7 type  3   force =   -19.14989199    7.45744174    0.29136497
     atom    8 type  3   force =    19.15012940   -7.45754255   -0.29169689
     The core correction contribution to forces
     atom    1 type  1   force =     0.00141256   -0.00055020    0.00000163
     atom    2 type  1   force =    -0.00141656    0.00055137   -0.00000160
     atom    3 type  2   force =    -0.00015037    0.00005859   -0.00000003
     atom    4 type  2   force =     0.00015077   -0.00005873    0.00000015
     atom    5 type  3   force =     0.01062044   -0.00413587   -0.00037060
     atom    6 type  3   force =    -0.01062176    0.00413640    0.00037002
     atom    7 type  3   force =     0.01062212   -0.00413661    0.00037033
     atom    8 type  3   force =    -0.01062307    0.00413691   -0.00036995
     The Hubbard contrib.    to forces
     atom    1 type  1   force =     0.00000000    0.00000000    0.00000000
     atom    2 type  1   force =     0.00000000    0.00000000    0.00000000
     atom    3 type  2   force =     0.00000000    0.00000000    0.00000000
     atom    4 type  2   force =     0.00000000    0.00000000    0.00000000
     atom    5 type  3   force =     0.00000000    0.00000000    0.00000000
     atom    6 type  3   force =     0.00000000    0.00000000    0.00000000
     atom    7 type  3   force =     0.00000000    0.00000000    0.00000000
     atom    8 type  3   force =     0.00000000    0.00000000    0.00000000
     The SCF correction term to forces
     atom    1 type  1   force =     0.00038350   -0.00014970   -0.00010263
     atom    2 type  1   force =    -0.00003165    0.00001773    0.00016839
     atom    3 type  2   force =    -0.00075073    0.00030032    0.00062457
     atom    4 type  2   force =    -0.00046349    0.00021559   -0.00092570
     atom    5 type  3   force =     0.00043480   -0.00016721   -0.00018582
     atom    6 type  3   force =    -0.00032669    0.00013158   -0.00010181
     atom    7 type  3   force =     0.00023110   -0.00008679    0.00019881
     atom    8 type  3   force =    -0.00046849    0.00018878    0.00013316

     Total force =     0.035641     Total SCF correction =     0.001769

     Computing stress (Cartesian axis) and pressure

          total   stress  (Ry/bohr**3)                   (kbar)     P=     -386.05
  -0.00254994  -0.00000310   0.00000000         -375.11       -0.46        0.00
  -0.00000310  -0.00255671   0.00000000           -0.46     -376.11        0.00
   0.00000000   0.00000000  -0.00276637            0.00        0.00     -406.95

     kinetic stress (kbar)  19466.94    367.49      0.00
                              367.49  20267.49      0.00
                                0.00      0.00  19147.91

     local   stress (kbar) -20636.42  15317.63     -0.01
                            15317.63  12732.49      0.00
                               -0.01      0.00 -84238.12

     nonloc. stress (kbar)   8809.82     81.40      0.00
                               81.40   8987.13      0.00
                                0.00      0.00   8764.75

     hartree stress (kbar)  23203.08  -6281.23      0.01
                            -6281.23   9519.65     -0.00
                                0.01     -0.00  52651.65

     exc-cor stress (kbar)  -4904.49     -6.91     -0.00
                               -6.91  -4919.55      0.00
                               -0.00      0.00  -4896.55

     corecor stress (kbar)  -1171.95     -1.20     -0.00
                               -1.20  -1174.57      0.00
                               -0.00      0.00  -1171.14

     ewald   stress (kbar) -25142.09  -9477.63      0.00
                            -9477.63 -45788.75     -0.00
                                0.00     -0.00   9334.55

     hubbard stress (kbar)      0.00      0.00      0.00
                                0.00      0.00      0.00
                                0.00      0.00      0.00

     DFT-D   stress (kbar)      0.00      0.00      0.00
                                0.00      0.00      0.00
                                0.00      0.00      0.00

     XDM     stress (kbar)      0.00      0.00      0.00
                                0.00      0.00      0.00
                                0.00      0.00      0.00

     dft-nl  stress (kbar)      0.00      0.00      0.00
                                0.00      0.00      0.00
                                0.00      0.00      0.00

     TS-vdW  stress (kbar)      0.00      0.00      0.00
                                0.00      0.00      0.00
                                0.00      0.00      0.00

[...]

                                0.00      0.00      0.00

     Writing all to output data dir new_calculations/myprefix.save/

     General routines

     Parallel routines

     PAW routines

   This run was terminated on:  19:48:24  20May2023

   JOB DONE.