     Program PWSCF v.7.0 starts on 21May2023 at 12:14: 2

     Reading input from espresso_23638.pwi
Warning: card &CELL ignored
Warning: card / ignored

     Current dimensions of program PWSCF are:
     Max number of different atomic species (ntypx) = 10
     Max number of k-points (npk) =  40000
     Max angular momentum in pseudopotentials (lmaxx) =  4
     file Ba.pbe-spn-kjpaw_psl.1.0.0.UPF: wavefunction(s)  5S 6S renormalized

     gamma-point specific algorithms are used
     Message from routine setup:
     using ibrav=0 with symmetry is DISCOURAGED, use correct ibrav instead

     Subspace diagonalization in iterative solution of the eigenvalue problem:
     a serial algorithm will be used

     Using Slab Decomposition

     bravais-lattice index     =            0
     lattice parameter (alat)  =      11.5551  a.u.
     unit-cell volume          =    1360.1932 (a.u.)^3
     number of atoms/cell      =           19
     number of atomic types    =            3
     number of electrons       =       244.00
     number of Kohn-Sham states=          146
     kinetic-energy cutoff     =      30.0000  Ry
     charge density cutoff     =     240.0000  Ry
     scf convergence threshold =      1.0E-06
     mixing beta               =       0.7000
     number of iterations used =            8  plain     mixing
     Exchange-correlation=  SLA  PW   PBX  PBC
                           (   1   4   3   4   0   0   0)

     celldm(1)=  11.555141  celldm(2)=   0.000000  celldm(3)=   0.000000
     celldm(4)=   0.000000  celldm(5)=   0.000000  celldm(6)=   0.000000

     crystal axes: (cart. coord. in units of alat)
               a(1) = (   1.000000   0.000000   0.000000 )
               a(2) = (  -0.252133   0.967693   0.000000 )
               a(3) = (  -0.252133  -0.326244   0.911040 )

     reciprocal axes: (cart. coord. in units 2 pi/alat)
               b(1) = (  1.000000  0.260551  0.370056 )
               b(2) = (  0.000000  1.033386  0.370056 )
               b(3) = (  0.000000  0.000000  1.097647 )

     PseudoPot. # 1 for Ba read from file:
     /home/pragov/projects/rrg-bengioy-ad/pragov/crystal_structure_design/SSSP/Ba.pbe-spn-kjpaw_psl.1.0.0.UPF
     MD5 check sum: c432291d3e53af55f19d5e8866385beb
     Pseudo is Projector augmented-wave + core cor, Zval = 10.0
     Generated using "atomic" code by A. Dal Corso  v.5.1
     Shape of augmentation charge: PSQ
     Using radial grid of 1251 points,  7 beta functions with:
                l(1) =   0
                l(2) =   0
                l(3) =   0
                l(4) =   1
                l(5) =   1
                l(6) =   2
                l(7) =   2
     Q(r) pseudized with 0 coefficients

     PseudoPot. # 2 for Ni read from file:
     /home/pragov/projects/rrg-bengioy-ad/pragov/crystal_structure_design/SSSP/ni_pbe_v1.4.uspp.F.UPF
     MD5 check sum: 1ee80287db30b12d2bc1f57a5b5d6409
     Pseudo is Ultrasoft + core correction, Zval = 18.0
     Generated by new atomic code, or converted to UPF format
     Using radial grid of  865 points,  6 beta functions with:
                l(1) =   0
                l(2) =   0
                l(3) =   1
                l(4) =   1
                l(5) =   2
                l(6) =   2
     Q(r) pseudized with 10 coefficients,  rinner =    0.980   0.980   0.980
                                                       0.980   0.980

     PseudoPot. # 3 for B  read from file:
     /home/pragov/projects/rrg-bengioy-ad/pragov/crystal_structure_design/SSSP/b_pbe_v1.4.uspp.F.UPF
     MD5 check sum: cc6de2960df11db49a60e589f9ebb39b
     Pseudo is Ultrasoft + core correction, Zval =  3.0
     Generated by new atomic code, or converted to UPF format
     Using radial grid of  781 points,  4 beta functions with:
                l(1) =   0
                l(2) =   0
                l(3) =   1
                l(4) =   1
     Q(r) pseudized with  8 coefficients,  rinner =    1.100   1.100   1.100

     atomic species   valence    mass     pseudopotential
        Ba            10.00   137.32700     Ba( 1.00)
        Ni            18.00    58.69340     Ni( 1.00)
        B              3.00    10.81000     B ( 1.00)

      2 Sym. Ops., with inversion, found

                                    s                        frac. trans.

      isym =  1     identity

 cryst.   s( 1) = (     1          0          0      )
                  (     0          1          0      )
                  (     0          0          1      )

 cart.    s( 1) = (  1.0000000  0.0000000 -0.0000000 )
                  (  0.0000000  1.0000000  0.0000000 )
                  (  0.0000000  0.0000000  1.0000000 )

      isym =  2     inversion

 cryst.   s( 2) = (    -1          0          0      )
                  (     0         -1          0      )
                  (     0          0         -1      )

 cart.    s( 2) = ( -1.0000000 -0.0000000  0.0000000 )
                  (  0.0000000 -1.0000000 -0.0000000 )
                  (  0.0000000  0.0000000 -1.0000000 )

   Cartesian axes

     site n.     atom                  positions (alat units)
         1           Ba  tau(   1) = (   0.0000000   0.0000000   0.0000000  )
         2           Ni  tau(   2) = (  -0.2125008   0.2007753   0.7904793  )
         3           Ni  tau(   3) = (  -0.0468432   0.2983686   0.4237684  )
         4           Ni  tau(   4) = (   0.2478671   0.7964621   0.1205607  )
         5           Ni  tau(   5) = (   0.3005398   0.0298987   0.4237684  )
         6           Ni  tau(   6) = (   0.1951945   0.6115500   0.4872716  )
         7           Ni  tau(   7) = (   0.5425775   0.3430801   0.4872716  )
         8           Ni  tau(   8) = (   0.1951945   0.2525693   0.7400241  )
         9           Ni  tau(   9) = (   0.2478672  -0.1550134   0.7904793  )
        10           Ni  tau(  10) = (   0.7082350   0.4406735   0.1205607  )
        11           Ni  tau(  11) = (  -0.2125008   0.6765130   0.4555200  )
        12           Ni  tau(  12) = (   0.3005398   0.3888794   0.1710159  )
        13           Ni  tau(  13) = (   0.7082351  -0.0350643   0.4555200  )
        14           B   tau(  14) = (   0.4862398   0.6291635   0.3192011  )
        15           B   tau(  15) = (   0.0094944   0.5530485   0.2110962  )
        16           B   tau(  16) = (   0.0094945   0.0122853   0.5918389  )
        17           B   tau(  17) = (   0.5327871   0.1486294   0.2110962  )
        18           B   tau(  18) = (  -0.0370528   0.4928193   0.6999438  )
        19           B   tau(  19) = (   0.4862398   0.0884002   0.6999438  )

   Crystallographic axes

     site n.     atom                  positions (cryst. coord.)
         1           Ba  tau(   1) = (  0.0000000  0.0000000  0.0000000  )
         2           Ni  tau(   2) = (  0.1323330  0.5000000  0.8676670  )
         3           Ni  tau(   3) = (  0.1877150  0.4651480  0.4651480  )
         4           Ni  tau(   4) = (  0.5000000  0.8676670  0.1323330  )
         5           Ni  tau(   5) = (  0.4651480  0.1877150  0.4651480  )
         6           Ni  tau(   6) = (  0.5348520  0.8122850  0.5348520  )
         7           Ni  tau(   7) = (  0.8122850  0.5348520  0.5348520  )
         8           Ni  tau(   8) = (  0.5348520  0.5348520  0.8122850  )
         9           Ni  tau(   9) = (  0.5000000  0.1323330  0.8676670  )
        10           Ni  tau(  10) = (  0.8676670  0.5000000  0.1323330  )
        11           Ni  tau(  11) = (  0.1323330  0.8676670  0.5000000  )
        12           Ni  tau(  12) = (  0.4651480  0.4651480  0.1877150  )
        13           Ni  tau(  13) = (  0.8676670  0.1323330  0.5000000  )
        14           B   tau(  14) = (  0.7682910  0.7682910  0.3503700  )
        15           B   tau(  15) = (  0.2317090  0.6496300  0.2317090  )
        16           B   tau(  16) = (  0.2317090  0.2317090  0.6496300  )
        17           B   tau(  17) = (  0.6496300  0.2317090  0.2317090  )
        18           B   tau(  18) = (  0.3503700  0.7682910  0.7682910  )
        19           B   tau(  19) = (  0.7682910  0.3503700  0.7682910  )

     number of k points=     1  Methfessel-Paxton smearing, width (Ry)=  0.0010
                       cart. coord. in units 2pi/alat
        k(    1) = (   0.0000000   0.0000000   0.0000000), wk =   2.0000000

                       cryst. coord.
        k(    1) = (   0.0000000   0.0000000   0.0000000), wk =   2.0000000

     Check: negative core charge=   -0.000010

     Initial potential from superposition of free atoms

     starting charge     219.9813, renormalised to     244.0000
     Starting wfcs are  185 randomized atomic wfcs
     Checking if some PAW data can be deallocated...

     Self-consistent Calculation

     iteration #  1     ecut=    30.00 Ry     beta= 0.70
     Davidson diagonalization with overlap

     ethr =  1.00E-02,  avg # of iterations =  7.0

     total energy              =   -4199.59122314 Ry
     estimated scf accuracy    <     596.45441638 Ry

[...]

     total energy              =   -4592.47664481 Ry
     estimated scf accuracy    <       0.00000373 Ry

     iteration # 80     ecut=    30.00 Ry     beta= 0.70
     Davidson diagonalization with overlap

     ethr =  5.79E-10,  avg # of iterations =  2.0

     End of self-consistent calculation

          k = 0.0000 0.0000 0.0000 (  1880 PWs)   bands (ev):

   -88.2656 -88.2627 -88.2605 -88.2605 -88.2584 -88.2583 -88.1475 -88.1421
   -88.1419 -88.1375 -88.1373 -88.1321 -48.7543 -48.7542 -48.7396 -48.7396
   -48.7234 -48.7159 -48.7158 -48.6806 -48.6695 -48.6670 -48.6668 -48.6532
   -48.6400 -48.6398 -48.6398 -48.6241 -48.6240 -48.5867 -48.5464 -48.5432
   -48.5407 -48.5406 -48.5182 -48.5181 -48.4153 -48.4136 -48.4136 -48.3977
   -48.3977 -48.3895 -48.2248 -48.1669 -48.1667 -48.1488 -48.1486 -48.0919
   -11.0047   3.3905   3.3905   3.4523   4.4036   7.1058   7.1059   7.7963
     7.7963   7.8659   9.1717   9.1717   9.2453   9.8499  10.6899  10.6899
    11.3244  11.5329  11.5330  11.7137  11.7137  11.7784  11.8149  11.8149
    11.8893  11.8894  12.0767  12.1693  12.2245  12.4024  12.4604  12.4605
    12.5899  12.5899  12.5969  12.7351  12.9116  12.9116  13.0521  13.1592
    13.1593  13.3004  13.3840  13.7300  13.7300  13.7691  13.7691  13.8523
    13.8912  13.8912  13.9140  13.9293  13.9296  13.9297  14.1089  14.1090
    14.1186  14.1186  14.2011  14.2750  14.2750  14.2841  14.3422  14.3422
    14.3948  14.3949  14.5744  14.6577  14.6931  14.7228  14.7229  14.7415
    14.8036  14.8038  14.9458  16.0101  16.0101  16.3111  16.3111  17.4284
    17.4284  18.0935  18.7925  18.7925  19.3230  19.3711  19.6793  19.6793
    20.2078  21.1569  21.1569  21.4436  21.5770  21.5770  22.2842  22.2842
    22.3580  22.3580

     occupation numbers
     1.0000   1.0000   1.0000   1.0000   1.0000   1.0000   1.0000   1.0000
     1.0000   1.0000   1.0000   1.0000   1.0000   1.0000   1.0000   1.0000
     1.0000   1.0000   1.0000   1.0000   1.0000   1.0000   1.0000   1.0000
     1.0000   1.0000   1.0000   1.0000   1.0000   1.0000   1.0000   1.0000
     1.0000   1.0000   1.0000   1.0000   1.0000   1.0000   1.0000   1.0000
     1.0000   1.0000   1.0000   1.0000   1.0000   1.0000   1.0000   1.0000
     1.0000   1.0000   1.0000   1.0000   1.0000   1.0000   1.0000   1.0000
     1.0000   1.0000   1.0000   1.0000   1.0000   1.0000   1.0000   1.0000
     1.0000   1.0000   1.0000   1.0000   1.0000   1.0000   1.0000   1.0000
     1.0000   1.0000   1.0000   1.0000   1.0000   1.0000   1.0000   1.0000
     1.0000   1.0000   1.0000   1.0000   1.0000   1.0000   1.0000   1.0000
     1.0000   1.0000   1.0000   1.0000   1.0000   1.0000   1.0000   1.0000
     1.0000   1.0000   1.0000   1.0000   1.0000   1.0000   1.0000   1.0000
     1.0000   1.0000   1.0000   1.0000   1.0000   1.0000   1.0000   1.0000
     1.0000   1.0000   1.0000   1.0000   1.0000   1.0000   1.0000   1.0000
     1.0000   1.0000  -0.0000  -0.0000  -0.0000  -0.0000  -0.0000  -0.0000
    -0.0000  -0.0000  -0.0000  -0.0000  -0.0000  -0.0000  -0.0000  -0.0000
    -0.0000  -0.0000  -0.0000  -0.0000  -0.0000  -0.0000  -0.0000  -0.0000
    -0.0000  -0.0000

     the Fermi energy is    14.8727 ev

!    total energy              =   -4592.47664469 Ry
     estimated scf accuracy    <       0.00000036 Ry
     smearing contrib. (-TS)   =       0.00000000 Ry
     internal energy E=F+TS    =   -4592.47664469 Ry

     The total energy is F=E-TS. E is the sum of the following terms:
     one-electron contribution =   -3007.19208296 Ry
     hartree contribution      =    1643.78068121 Ry
     xc contribution           =    -464.39991936 Ry
     ewald contribution        =   -2389.70003812 Ry
     one-center paw contrib.   =    -374.96528546 Ry
      -> PAW hartree energy AE =      29.19773974 Ry
      -> PAW hartree energy PS =     -29.08589765 Ry
      -> PAW xc energy AE      =    -394.30918823 Ry
      -> PAW xc energy PS      =      19.23206068 Ry
      -> total E_H with PAW    =    1643.89252330 Ry
      -> total E_XC with PAW   =    -839.47704691 Ry

     convergence has been achieved in  80 iterations

     Forces acting on atoms (cartesian axes, Ry/au):

     atom    1 type  1   force =     0.00000000    0.00000000    0.00000000
     atom    2 type  2   force =    -0.02007314   -0.00525201    0.01475684
     atom    3 type  2   force =     0.04047987   -0.00668878   -0.00951094
     atom    4 type  2   force =    -0.00000958    0.02078794   -0.01465177
     atom    5 type  2   force =    -0.01664860    0.03731362   -0.00951363
     atom    6 type  2   force =     0.01664860   -0.03731362    0.00951363
     atom    7 type  2   force =    -0.04047987    0.00668878    0.00951094
     atom    8 type  2   force =     0.01665542    0.02153386   -0.03191185
     atom    9 type  2   force =     0.00000958   -0.02078794    0.01465177
     atom   10 type  2   force =     0.02007314    0.00525201   -0.01475684
     atom   11 type  2   force =    -0.02005183    0.01564001    0.00001625
     atom   12 type  2   force =    -0.01665542   -0.02153386    0.03191185
     atom   13 type  2   force =     0.02005183   -0.01564001   -0.00001625
     atom   14 type  3   force =    -0.00426954   -0.00552695    0.01780920
     atom   15 type  3   force =     0.00426932   -0.01862873   -0.00079896
     atom   16 type  3   force =     0.00426954    0.00552695   -0.01780920
     atom   17 type  3   force =    -0.01910117   -0.00056550   -0.00080161
     atom   18 type  3   force =     0.01910117    0.00056550    0.00080161
     atom   19 type  3   force =    -0.00426932    0.01862873    0.00079896
     The non-local contrib.  to forces
     atom    1 type  1   force =     0.00000000    0.00000000    0.00000000
     atom    2 type  2   force =    -0.00911691   -0.00240182    0.00681599
     atom    3 type  2   force =    -0.09547322   -0.01659798   -0.02358467
     atom    4 type  2   force =    -0.00000990    0.00947260   -0.00669200
     atom    5 type  2   force =     0.00805048   -0.09677881   -0.02358189
     atom    6 type  2   force =    -0.00805048    0.09677881    0.02358189
     atom    7 type  2   force =     0.09547322    0.01659798    0.02358467
     atom    8 type  2   force =    -0.00804664   -0.01043079    0.09907871
     atom    9 type  2   force =     0.00000990   -0.00947260    0.00669200
     atom   10 type  2   force =     0.00911691    0.00240182   -0.00681599
     atom   11 type  2   force =    -0.00909995    0.00719973    0.00001939
     atom   12 type  2   force =     0.00804664    0.01043079   -0.09907871
     atom   13 type  2   force =     0.00909995   -0.00719973   -0.00001939
     atom   14 type  3   force =    -0.00688853   -0.00890847   -0.07354468
     atom   15 type  3   force =     0.00688881    0.06623616    0.03318339
     atom   16 type  3   force =     0.00688853    0.00890847    0.07354468
     atom   17 type  3   force =     0.06235954    0.02336335    0.03318379
     atom   18 type  3   force =    -0.06235954   -0.02336335   -0.03318379
     atom   19 type  3   force =    -0.00688881   -0.06623616   -0.03318339
     The ionic contribution  to forces
     atom    1 type  1   force =    -0.00000000    0.00000000    0.00000000
     atom    2 type  2   force =   -17.18330274   -4.47712252   12.50240995
     atom    3 type  2   force =    -2.02464107  -15.18300383  -21.56419148
     atom    4 type  2   force =     0.00000183   17.75698507  -12.50240995
     atom    5 type  2   force =   -14.18200188   -5.78736551  -21.56419148
     atom    6 type  2   force =    14.18200188    5.78736550   21.56419148
     atom    7 type  2   force =     2.02464107   15.18300384   21.56419148
     atom    8 type  2   force =    14.18199988   18.35060947   12.71861075
     atom    9 type  2   force =    -0.00000183  -17.75698508   12.50240995
     atom   10 type  2   force =    17.18330274    4.47712252  -12.50240994
     atom   11 type  2   force =   -17.18330658   13.27986694   -0.00000000
     atom   12 type  2   force =   -14.18199989  -18.35060946  -12.71861075
     atom   13 type  2   force =    17.18330658  -13.27986694   -0.00000000
     atom   14 type  3   force =     3.27908112    4.24292325   -1.10243886
     atom   15 type  3   force =    -3.27908070    2.46833834   -3.62285298
     atom   16 type  3   force =    -3.27908112   -4.24292325    1.10243886
     atom   17 type  3   force =     3.21535700   -2.55079277   -3.62285298
     atom   18 type  3   force =    -3.21535700    2.55079277    3.62285298
     atom   19 type  3   force =     3.27908070   -2.46833834    3.62285298
     The local contribution  to forces
     atom    1 type  1   force =    -0.00004753   -0.00013248   -0.00021550
     atom    2 type  2   force =    17.17105125    4.47381925  -12.49399231
     atom    3 type  2   force =     2.15865708   15.19228788   21.57711258
     atom    4 type  2   force =     0.00014180  -17.74426781   12.49343661
     atom    5 type  2   force =    14.15661761    5.91961393   21.57761104
     atom    6 type  2   force =   -14.15736223   -5.91987850  -21.57681036
     atom    7 type  2   force =    -2.15844297  -15.19196797  -21.57727191
     atom    8 type  2   force =   -14.15697009  -18.31836219  -12.84780228
     atom    9 type  2   force =     0.00009297   17.74455024  -12.49379530
     atom   10 type  2   force =   -17.17098278   -4.47415742   12.49385313
     atom   11 type  2   force =    17.17124260  -13.27079818    0.00004729
     atom   12 type  2   force =    14.15704165   18.31808245   12.84755288
     atom   13 type  2   force =   -17.17070893   13.27069138    0.00013249
     atom   14 type  3   force =    -3.27606042   -4.23916634    1.19001094
     atom   15 type  3   force =     3.27602692   -2.54957233    3.58991549
     atom   16 type  3   force =     3.27615021    4.23917887   -1.19000392
     atom   17 type  3   force =    -3.29301235    2.52760145    3.58975869
     atom   18 type  3   force =     3.29314331   -2.52749276   -3.58995025
     atom   19 type  3   force =    -3.27619105    2.54943616   -3.58973631
     The core correction contribution to forces
     atom    1 type  1   force =    -0.00000040   -0.00000392   -0.00000442
     atom    2 type  2   force =     0.00126423    0.00032932   -0.00091951
     atom    3 type  2   force =     0.00171838    0.00079453    0.00112793
     atom    4 type  2   force =    -0.00000003   -0.00130648    0.00091960
     atom    5 type  2   force =     0.00033419    0.00186349    0.00112702
     atom    6 type  2   force =    -0.00033483   -0.00186338   -0.00112710
     atom    7 type  2   force =    -0.00171902   -0.00079367   -0.00112759
     atom    8 type  2   force =    -0.00033466   -0.00043302   -0.00213404
     atom    9 type  2   force =    -0.00000003    0.00130630   -0.00092002
     atom   10 type  2   force =    -0.00126412   -0.00032917    0.00091983
     atom   11 type  2   force =     0.00126409   -0.00097675   -0.00000006
     atom   12 type  2   force =     0.00033422    0.00043266    0.00213453
     atom   13 type  2   force =    -0.00126428    0.00097691    0.00000012
     atom   14 type  3   force =    -0.00030885   -0.00039963    0.00383284
     atom   15 type  3   force =     0.00030900   -0.00374314   -0.00091629
     atom   16 type  3   force =     0.00030877    0.00039969   -0.00383298
     atom   17 type  3   force =    -0.00370028   -0.00064526   -0.00091585
     atom   18 type  3   force =     0.00370018    0.00064473    0.00091638
     atom   19 type  3   force =    -0.00030856    0.00374340    0.00091577
     The Hubbard contrib.    to forces
     atom    1 type  1   force =     0.00000000    0.00000000    0.00000000
     atom    2 type  2   force =     0.00000000    0.00000000    0.00000000
     atom    3 type  2   force =     0.00000000    0.00000000    0.00000000
     atom    4 type  2   force =     0.00000000    0.00000000    0.00000000
     atom    5 type  2   force =     0.00000000    0.00000000    0.00000000
     atom    6 type  2   force =     0.00000000    0.00000000    0.00000000
     atom    7 type  2   force =     0.00000000    0.00000000    0.00000000
     atom    8 type  2   force =     0.00000000    0.00000000    0.00000000
     atom    9 type  2   force =     0.00000000    0.00000000    0.00000000
     atom   10 type  2   force =     0.00000000    0.00000000    0.00000000
     atom   11 type  2   force =     0.00000000    0.00000000    0.00000000
     atom   12 type  2   force =     0.00000000    0.00000000    0.00000000
     atom   13 type  2   force =     0.00000000    0.00000000    0.00000000
     atom   14 type  3   force =     0.00000000    0.00000000    0.00000000
     atom   15 type  3   force =     0.00000000    0.00000000    0.00000000
     atom   16 type  3   force =     0.00000000    0.00000000    0.00000000
     atom   17 type  3   force =     0.00000000    0.00000000    0.00000000
     atom   18 type  3   force =     0.00000000    0.00000000    0.00000000
     atom   19 type  3   force =     0.00000000    0.00000000    0.00000000
     The SCF correction term to forces
     atom    1 type  1   force =     0.00007020   -0.00003341    0.00002769
     atom    2 type  2   force =     0.00003553    0.00011767    0.00043751
     atom    3 type  2   force =     0.00022238   -0.00015261    0.00003025
     atom    4 type  2   force =    -0.00013316   -0.00009425    0.00007442
     atom    5 type  2   force =     0.00032700   -0.00002893   -0.00045247
     atom    6 type  2   force =     0.00037025    0.00027450   -0.00029642
     atom    7 type  2   force =    -0.00042849   -0.00013463    0.00013986
     atom    8 type  2   force =     0.00000088    0.00014976    0.00033164
     atom    9 type  2   force =    -0.00008131   -0.00018561    0.00024560
     atom   10 type  2   force =    -0.00009512    0.00020817   -0.00030908
     atom   11 type  2   force =    -0.00013729    0.00034234   -0.00004177
     atom   12 type  2   force =    -0.00008407    0.00012906   -0.00008946
     atom   13 type  2   force =    -0.00036679   -0.00024757   -0.00012087
     atom   14 type  3   force =    -0.00009531    0.00002837   -0.00005282
     atom   15 type  3   force =     0.00012964    0.00011361   -0.00013282
     atom   16 type  3   force =     0.00000071   -0.00003269    0.00004236
     atom   17 type  3   force =    -0.00010258   -0.00009933    0.00002930
     atom   18 type  3   force =    -0.00002328   -0.00002296    0.00017086
     atom   19 type  3   force =     0.00004275    0.00002503   -0.00005433

     Total force =     0.129095     Total SCF correction =     0.001426

     Computing stress (Cartesian axis) and pressure

          total   stress  (Ry/bohr**3)                   (kbar)     P=    -1441.97
  -0.00981403   0.00001500   0.00002126        -1443.69        2.21        3.13
   0.00001500  -0.00980634   0.00002757            2.21    -1442.56        4.06
   0.00002126   0.00002757  -0.00978653            3.13        4.06    -1439.65

     kinetic stress (kbar)  43835.05     28.38     40.32
                               28.38  43849.86     52.17
                               40.32     52.17  43887.22

     local   stress (kbar) -23320.77   2197.84   3121.54
                             2197.84 -22175.18   4039.32
                             3121.54   4039.32 -19282.06

     nonloc. stress (kbar)  18647.02     14.15     20.10
                               14.15  18654.39     25.99
                               20.10     25.99  18673.01

     hartree stress (kbar)  60237.05  -1244.53  -1767.57
                            -1244.53  59588.19  -2287.34
                            -1767.57  -2287.34  57949.86

     exc-cor stress (kbar) -11249.04      1.38      1.96
                                1.38 -11248.32      2.54
                                1.96      2.54 -11246.50

     corecor stress (kbar)  -4226.08     -0.46     -0.66
                               -0.46  -4226.32     -0.85
                               -0.66     -0.85  -4226.93

     ewald   stress (kbar) -85366.93   -994.56  -1412.57
                             -994.56 -85885.20  -1827.78
                            -1412.57  -1827.78 -87194.25

     hubbard stress (kbar)      0.00      0.00      0.00
                                0.00      0.00      0.00
                                0.00      0.00      0.00

     DFT-D   stress (kbar)      0.00      0.00      0.00
                                0.00      0.00      0.00
                                0.00      0.00      0.00

     XDM     stress (kbar)      0.00      0.00      0.00
                                0.00      0.00      0.00
                                0.00      0.00      0.00

     dft-nl  stress (kbar)      0.00      0.00      0.00
                                0.00      0.00      0.00
                                0.00      0.00      0.00

     TS-vdW  stress (kbar)      0.00      0.00      0.00
                                0.00      0.00      0.00
                                0.00      0.00      0.00

[...]

                                0.00      0.00      0.00

     Writing all to output data dir new_calculations/myprefix.save/

     General routines

     Parallel routines

     PAW routines

   This run was terminated on:  12:16:33  21May2023

   JOB DONE.