     Program PWSCF v.7.0 starts on 20May2023 at  0:29:39

     Reading input from espresso_2022.pwi
Warning: card &CELL ignored
Warning: card / ignored

     Current dimensions of program PWSCF are:
     Max number of different atomic species (ntypx) = 10
     Max number of k-points (npk) =  40000
     Max angular momentum in pseudopotentials (lmaxx) =  4
     file O.pbe-n-kjpaw_psl.0.1.UPF: wavefunction(s)  2P renormalized

     gamma-point specific algorithms are used
     Message from routine setup:
     using ibrav=0 with symmetry is DISCOURAGED, use correct ibrav instead

     Subspace diagonalization in iterative solution of the eigenvalue problem:
     a serial algorithm will be used

     Using Slab Decomposition

     bravais-lattice index     =            0
     lattice parameter (alat)  =      11.7237  a.u.
     unit-cell volume          =    1224.1468 (a.u.)^3
     number of atoms/cell      =           12
     number of atomic types    =            3
     number of electrons       =       102.00
     number of Kohn-Sham states=           61
     kinetic-energy cutoff     =      30.0000  Ry
     charge density cutoff     =     240.0000  Ry
     scf convergence threshold =      1.0E-06
     mixing beta               =       0.7000
     number of iterations used =            8  plain     mixing
     Exchange-correlation= SLA  PW   PBX  PBC
                           (   1   4   3   4   0   0   0)

     celldm(1)=  11.723732  celldm(2)=   0.000000  celldm(3)=   0.000000
     celldm(4)=   0.000000  celldm(5)=   0.000000  celldm(6)=   0.000000

     crystal axes: (cart. coord. in units of alat)
               a(1) = (   1.000000   0.000000   0.000000 )
               a(2) = (  -0.454099   0.890951   0.000000 )
               a(3) = (  -0.272950  -0.445476   0.852672 )

     reciprocal axes: (cart. coord. in units 2 pi/alat)
               b(1) = (  1.000000  0.509679  0.586392 )
               b(2) = (  0.000000  1.122396  0.586392 )
               b(3) = (  0.000000  0.000000  1.172784 )

     PseudoPot. # 1 for Pr read from file:
     /home/pragov/projects/rrg-bengioy-ad/pragov/crystal_structure_design/SSSP/Pr.GGA-PBE-paw-v1.0.UPF
     MD5 check sum: b5e1e58e76df433569641143f671cc27
     Pseudo is Projector augmented-wave + core cor, Zval = 13.0
     Generated using ATOMPAW code
     Shape of augmentation charge: BESSEL
     Using radial grid of 1103 points,  8 beta functions with:
                l(1) =   0
                l(2) =   0
                l(3) =   1
                l(4) =   1
                l(5) =   2
                l(6) =   2
                l(7) =   3
                l(8) =   3
     Q(r) pseudized with 0 coefficients

     PseudoPot. # 2 for Cr read from file:
     /home/pragov/projects/rrg-bengioy-ad/pragov/crystal_structure_design/SSSP/cr_pbe_v1.5.uspp.F.UPF
     MD5 check sum: 0d52af634a40206e4dee301ad30da4bf
     Pseudo is Ultrasoft + core correction, Zval = 14.0
     Generated by new atomic code, or converted to UPF format
     Using radial grid of  857 points,  6 beta functions with:
                l(1) =   0
                l(2) =   0
                l(3) =   1
                l(4) =   1
                l(5) =   2
                l(6) =   2
     Q(r) pseudized with  8 coefficients,  rinner =    0.950   0.950   0.950
                                                       0.950   0.950

     PseudoPot. # 3 for O  read from file:
     /home/pragov/projects/rrg-bengioy-ad/pragov/crystal_structure_design/SSSP/O.pbe-n-kjpaw_psl.0.1.UPF
     MD5 check sum: 0234752ac141de4415c5fc33072bef88
     Pseudo is Projector augmented-wave + core cor, Zval =  6.0
     Generated using "atomic" code by A. Dal Corso  v.5.0.99 svn rev. 10869
     Shape of augmentation charge: BESSEL
     Using radial grid of 1095 points,  4 beta functions with:
                l(1) =   0
                l(2) =   0
                l(3) =   1
                l(4) =   1
     Q(r) pseudized with 0 coefficients

     atomic species   valence    mass     pseudopotential
        Pr            13.00   140.90766     Pr( 1.00)
        Cr            14.00    51.99610     Cr( 1.00)
        O              6.00    15.99900     O ( 1.00)

      4 Sym. Ops., with inversion, found ( 2 have fractional translation)

                                    s                        frac. trans.

      isym =  1     identity

 cryst.   s( 1) = (     1          0          0      )
                  (     0          1          0      )
                  (     0          0          1      )

 cart.    s( 1) = (  1.0000000  0.0000000  0.0000000 )
                  (  0.0000000  1.0000000  0.0000000 )
                  (  0.0000000  0.0000000  1.0000000 )

      isym =  2     180 deg rotation - cart. axis [0,0,1]

 cryst.   s( 2) = (    -1          0          0      )
                  (     0         -1          0      )
                  (     1          1          1      )

 cart.    s( 2) = ( -1.0000000 -0.0000000 -0.0000000 )
                  (  0.0000000 -1.0000000 -0.0000000 )
                  (  0.0000000  0.0000000  1.0000000 )

      isym =  3     inversion

 cryst.   s( 3) = (    -1          0          0      )    f =( -0.2500000 )
                  (     0         -1          0      )       (  0.2500000 )
                  (     0          0         -1      )       ( -0.5000000 )

 cart.    s( 3) = ( -1.0000000 -0.0000000 -0.0000000 )    f =( -0.2270497 )
                  (  0.0000000 -1.0000000 -0.0000000 )       (  0.4454755 )
                  (  0.0000000  0.0000000 -1.0000000 )       ( -0.4263361 )

      isym =  4     inv. 180 deg rotation - cart. axis [0,0,1]

 cryst.   s( 4) = (     1          0          0      )    f =( -0.2500000 )
                  (     0          1          0      )       (  0.2500000 )
                  (    -1         -1         -1      )       ( -0.5000000 )

 cart.    s( 4) = (  1.0000000  0.0000000  0.0000000 )    f =( -0.2270497 )
                  (  0.0000000  1.0000000  0.0000000 )       (  0.4454755 )
                  (  0.0000000  0.0000000 -1.0000000 )       ( -0.4263361 )

   Cartesian axes

     site n.     atom                  positions (alat units)
         1           Pr  tau(   1) = (   0.0000000   0.0000000   0.0000000  )
         2           Pr  tau(   2) = (  -0.2270497   0.4454755   0.4263361  )
         3           Cr  tau(   3) = (   0.5000000   0.0000000   0.4263361  )
         4           Cr  tau(   4) = (   0.2729503   0.4454755   0.0000000  )
         5           O   tau(   5) = (   0.0510125   0.3762629   0.1530802  )
         6           O   tau(   6) = (   0.2780613  -0.0692126   0.2732558  )
         7           O   tau(   7) = (   0.5391167  -0.2291651   0.5794163  )
         8           O   tau(   8) = (   0.0391172  -0.2291660   0.6995919  )
         9           O   tau(   9) = (   0.4948890   0.5146881   0.1530802  )
        10           O   tau(  10) = (   0.7219377   0.0692126   0.2732558  )
        11           O   tau(  11) = (   0.4608828   0.2291660   0.5794163  )
        12           O   tau(  12) = (  -0.0391167   0.2291651   0.6995919  )

   Crystallographic axes

     site n.     atom                  positions (cryst. coord.)
         1           Pr  tau(   1) = (  0.0000000  0.0000000  0.0000000  )
         2           Pr  tau(   2) = (  0.2500000  0.7500000  0.5000000  )
         3           Cr  tau(   3) = (  0.7500000  0.2500000  0.5000000  )
         4           Cr  tau(   4) = (  0.5000000  0.5000000  0.0000000  )
         5           O   tau(   5) = (  0.3325510  0.5120810  0.1795300  )
         6           O   tau(   6) = (  0.4030200  0.0825510  0.3204700  )
         7           O   tau(   7) = (  0.7620810  0.0825510  0.6795300  )
         8           O   tau(   8) = (  0.3325510  0.1530200  0.8204700  )
         9           O   tau(   9) = (  0.8469800  0.6674490  0.1795300  )
        10           O   tau(  10) = (  0.9174490  0.2379190  0.3204700  )
        11           O   tau(  11) = (  0.9174490  0.5969800  0.6795300  )
        12           O   tau(  12) = (  0.4879190  0.6674490  0.8204700  )

     number of k points=     1  Methfessel-Paxton smearing, width (Ry)=  0.0010
                       cart. coord. in units 2pi/alat
        k(    1) = (   0.0000000   0.0000000   0.0000000), wk =   2.0000000

                       cryst. coord.
        k(    1) = (   0.0000000   0.0000000   0.0000000), wk =   2.0000000

     Check: negative core charge=   -0.000014

     Initial potential from superposition of free atoms

     starting charge      99.9851, renormalised to     102.0000

     negative rho (up, down):  3.671E-03 0.000E+00
     Starting wfcs are  116 randomized atomic wfcs
     Checking if some PAW data can be deallocated...

     Self-consistent Calculation

     iteration #  1     ecut=    30.00 Ry     beta= 0.70
     Davidson diagonalization with overlap

     ethr =  1.00E-02,  avg # of iterations =  2.0

     negative rho (up, down):  3.540E-03 0.000E+00

     total energy              =   -1694.42251306 Ry
     estimated scf accuracy    <       9.00142575 Ry

[...]

     WARNING: integrated charge=   102.00020639, expected=   102.00000000

[...]

     WARNING: integrated charge=   102.00002285, expected=   102.00000000

[...]

     total energy              =   -1701.46156030 Ry
     estimated scf accuracy    <       0.00000244 Ry

     iteration # 85     ecut=    30.00 Ry     beta= 0.70
     Davidson diagonalization with overlap

     ethr =  1.19E-09,  avg # of iterations =  1.0

[...]

     End of self-consistent calculation

          k = 0.0000 0.0000 0.0000 (  1710 PWs)   bands (ev):

   -65.1145 -65.1142 -36.7766 -36.7763 -36.3566 -36.3553 -36.3490 -36.3477
   -27.5657 -27.5199 -11.3715 -11.3687 -11.2647 -10.8436 -10.7571 -10.5134
   -10.4841 -10.4821  -9.1623  -9.1554  -9.0452  -8.2922  -8.2860  -8.2541
     2.1674   2.2386   2.4558   2.7287   2.7629   2.7640   3.0061   3.1287
     3.1288   3.3149   3.3579   3.3586   3.7100   3.8593   4.0354   4.2815
     4.8093   4.8099   5.2742   5.2742   5.3564   5.3583   5.4249   5.8485
     8.0255   8.2489   8.2508   8.2532   8.2701   8.3391   8.3515   8.3802
     8.4498   8.4759   8.5529   8.5784   8.6064

     occupation numbers
     1.0000   1.0000   1.0000   1.0000   1.0000   1.0000   1.0000   1.0000
     1.0000   1.0000   1.0000   1.0000   1.0000   1.0000   1.0000   1.0000
     1.0000   1.0000   1.0000   1.0000   1.0000   1.0000   1.0000   1.0000
     1.0000   1.0000   1.0000   1.0000   1.0000   1.0000   1.0000   1.0000
     1.0000   1.0000   1.0000   1.0000   1.0000   1.0000   1.0000   1.0000
     1.0000   1.0000   1.0000   1.0000   1.0000   1.0000   1.0000   1.0000
     1.0000   0.7940   0.6924   0.5488  -0.0352  -0.0000  -0.0000  -0.0000
    -0.0000  -0.0000  -0.0000  -0.0000  -0.0000

     the Fermi energy is     8.2540 ev

!    total energy              =   -1701.46155921 Ry
     estimated scf accuracy    <       0.00000088 Ry
     smearing contrib. (-TS)   =      -0.00056793 Ry
     internal energy E=F+TS    =   -1701.46099129 Ry

     The total energy is F=E-TS. E is the sum of the following terms:
     one-electron contribution =    -407.34246756 Ry
     hartree contribution      =     257.67395085 Ry
     xc contribution           =    -127.55662685 Ry
     ewald contribution        =    -508.97818935 Ry
     one-center paw contrib.   =    -915.25765838 Ry
      -> PAW hartree energy AE =     355.90947811 Ry
      -> PAW hartree energy PS =    -355.21052425 Ry
      -> PAW xc energy AE      =    -996.62336987 Ry
      -> PAW xc energy PS      =      80.66675763 Ry
      -> total E_H with PAW    =     258.37290471 Ry
      -> total E_XC with PAW   =   -1043.51323909 Ry

     convergence has been achieved in  85 iterations

     negative rho (up, down):  4.426E-03 0.000E+00

     Forces acting on atoms (cartesian axes, Ry/au):

     atom    1 type  1   force =     0.00000000    0.00000000   -0.00000769
     atom    2 type  1   force =     0.00000000    0.00000000    0.00000769
     atom    3 type  2   force =     0.00000000    0.00000000    0.00000330
     atom    4 type  2   force =     0.00000000    0.00000000   -0.00000330
     atom    5 type  3   force =     0.01243111   -0.00701618   -0.01587812
     atom    6 type  3   force =     0.01243111   -0.00701618    0.01587812
     atom    7 type  3   force =    -0.01189208    0.00789769   -0.01587780
     atom    8 type  3   force =    -0.01189208    0.00789769    0.01587780
     atom    9 type  3   force =    -0.01243111    0.00701618   -0.01587812
     atom   10 type  3   force =    -0.01243111    0.00701618    0.01587812
     atom   11 type  3   force =     0.01189208   -0.00789769   -0.01587780
     atom   12 type  3   force =     0.01189208   -0.00789769    0.01587780
     The non-local contrib.  to forces
     atom    1 type  1   force =     0.00000000    0.00000000   -0.00002192
     atom    2 type  1   force =     0.00000000    0.00000000    0.00002192
     atom    3 type  2   force =     0.00000000    0.00000000    0.00000598
     atom    4 type  2   force =     0.00000000    0.00000000   -0.00000598
     atom    5 type  3   force =     0.48912199    0.04808026   -0.39135518
     atom    6 type  3   force =     0.48912199    0.04808026    0.39135518
     atom    7 type  3   force =    -0.17927336    0.45762197   -0.39133378
     atom    8 type  3   force =    -0.17927336    0.45762197    0.39133378
     atom    9 type  3   force =    -0.48912199   -0.04808026   -0.39135518
     atom   10 type  3   force =    -0.48912199   -0.04808026    0.39135518
     atom   11 type  3   force =     0.17927336   -0.45762197   -0.39133378
     atom   12 type  3   force =     0.17927336   -0.45762197    0.39133378
     The ionic contribution  to forces
     atom    1 type  1   force =    -0.00004504    0.00002760   -0.00000000
     atom    2 type  1   force =     0.00004504   -0.00002760    0.00000000
     atom    3 type  2   force =    -0.00004768    0.00002921    0.00000000
     atom    4 type  2   force =     0.00004768   -0.00002921    0.00000000
     atom    5 type  3   force =    -8.01675431   -1.25193602    6.18159094
     atom    6 type  3   force =    -8.01667263   -1.25190573   -6.18149390
     atom    7 type  3   force =     2.52499009   -7.71103874    6.18159094
     atom    8 type  3   force =     2.52497999   -7.71095221   -6.18149390
     atom    9 type  3   force =     8.01667263    1.25190573    6.18149390
     atom   10 type  3   force =     8.01675431    1.25193602   -6.18159094
     atom   11 type  3   force =    -2.52497999    7.71095221    6.18149390
     atom   12 type  3   force =    -2.52499009    7.71103874   -6.18159094
     The local contribution  to forces
     atom    1 type  1   force =     0.00059190   -0.00035731   -0.00009232
     atom    2 type  1   force =    -0.00040421    0.00023985   -0.00010038
     atom    3 type  2   force =     0.00008159   -0.00003835    0.00003481
     atom    4 type  2   force =    -0.00004999    0.00002680    0.00016081
     atom    5 type  3   force =     7.54397652    1.19688077   -5.80938550
     atom    6 type  3   force =     7.54389235    1.19725818    5.80898923
     atom    7 type  3   force =    -2.35895258    7.26496819   -5.80927392
     atom    8 type  3   force =    -2.35945821    7.26454170    5.80937161
     atom    9 type  3   force =    -7.54383010   -1.19681601   -5.80924547
     atom   10 type  3   force =    -7.54399930   -1.19731681    5.80916755
     atom   11 type  3   force =     2.35896218   -7.26484443   -5.80910588
     atom   12 type  3   force =     2.35945472   -7.26468643    5.80950754
     The core correction contribution to forces
     atom    1 type  1   force =     0.00000011   -0.00000007   -0.00000002
     atom    2 type  1   force =    -0.00000007    0.00000004   -0.00000004
     atom    3 type  2   force =     0.00000310   -0.00000145    0.00000777
     atom    4 type  2   force =    -0.00000214    0.00000122    0.00000838
     atom    5 type  3   force =    -0.00390648   -0.00027823    0.00317305
     atom    6 type  3   force =    -0.00390669   -0.00027949   -0.00317326
     atom    7 type  3   force =     0.00152617   -0.00360715    0.00317280
     atom    8 type  3   force =     0.00152523   -0.00360743   -0.00317291
     atom    9 type  3   force =     0.00390663    0.00027827    0.00317320
     atom   10 type  3   force =     0.00390680    0.00027937   -0.00317304
     atom   11 type  3   force =    -0.00152599    0.00360707    0.00317296
     atom   12 type  3   force =    -0.00152530    0.00360746   -0.00317278
     The Hubbard contrib.    to forces
     atom    1 type  1   force =     0.00000000    0.00000000    0.00000000
     atom    2 type  1   force =     0.00000000    0.00000000    0.00000000
     atom    3 type  2   force =     0.00000000    0.00000000    0.00000000
     atom    4 type  2   force =     0.00000000    0.00000000    0.00000000
     atom    5 type  3   force =     0.00000000    0.00000000    0.00000000
     atom    6 type  3   force =     0.00000000    0.00000000    0.00000000
     atom    7 type  3   force =     0.00000000    0.00000000    0.00000000
     atom    8 type  3   force =     0.00000000    0.00000000    0.00000000
     atom    9 type  3   force =     0.00000000    0.00000000    0.00000000
     atom   10 type  3   force =     0.00000000    0.00000000    0.00000000
     atom   11 type  3   force =     0.00000000    0.00000000    0.00000000
     atom   12 type  3   force =     0.00000000    0.00000000    0.00000000
     The SCF correction term to forces
     atom    1 type  1   force =    -0.00030499    0.00018034   -0.00000925
     atom    2 type  1   force =     0.00020201   -0.00011842   -0.00002965
     atom    3 type  2   force =    -0.00000829   -0.00000070    0.00007986
     atom    4 type  2   force =    -0.00002095    0.00001581   -0.00004140
     atom    5 type  3   force =    -0.00000981    0.00027495    0.00010261
     atom    6 type  3   force =     0.00001244   -0.00020826    0.00020325
     atom    7 type  3   force =    -0.00014512   -0.00003834   -0.00003695
     atom    8 type  3   force =     0.00030177    0.00028048   -0.00016432
     atom    9 type  3   force =    -0.00004366   -0.00030943    0.00006394
     atom   10 type  3   force =     0.00002758    0.00023477    0.00012952
     atom   11 type  3   force =     0.00013392   -0.00001332   -0.00010471
     atom   12 type  3   force =    -0.00028725   -0.00021768   -0.00019907

     Total force =     0.060391     Total SCF correction =     0.000977

     Computing stress (Cartesian axis) and pressure

     negative rho (up, down):  4.426E-03 0.000E+00
          total   stress  (Ry/bohr**3)                   (kbar)     P=     -413.07
  -0.00279718  -0.00006504  -0.00000000         -411.48       -9.57       -0.00
  -0.00006504  -0.00286260  -0.00000000           -9.57     -421.10       -0.00
  -0.00000000  -0.00000000  -0.00276428           -0.00       -0.00     -406.64

     kinetic stress (kbar)  20387.68   -168.14      0.00
                             -168.14  20216.04      0.00
                                0.00      0.00  20487.19

     local   stress (kbar) -11455.72  -9122.91     -0.01
                            -9122.91 -20754.10     -0.01
                               -0.01     -0.01  -5865.91

     nonloc. stress (kbar)   6780.53    -29.11      0.00
                              -29.11   6750.21      0.00
                                0.00      0.00   6801.65

     hartree stress (kbar)   9844.52   3521.08      0.01
                             3521.08  13433.65      0.01
                                0.01      0.01   7686.37

     exc-cor stress (kbar)  -3767.47      4.60      0.00
                                4.60  -3762.78      0.00
                                0.00      0.00  -3770.30

     corecor stress (kbar)  -1029.21      1.33     -0.00
                                1.33  -1027.86     -0.00
                               -0.00     -0.00  -1030.09

     ewald   stress (kbar) -21171.81   5783.58     -0.03
                             5783.58 -15276.27     -0.04
                               -0.03     -0.04 -24715.56

     hubbard stress (kbar)      0.00      0.00      0.00
                                0.00      0.00      0.00
                                0.00      0.00      0.00

     DFT-D   stress (kbar)      0.00      0.00      0.00
                                0.00      0.00      0.00
                                0.00      0.00      0.00

     XDM     stress (kbar)      0.00      0.00      0.00
                                0.00      0.00      0.00
                                0.00      0.00      0.00

     dft-nl  stress (kbar)      0.00      0.00      0.00
                                0.00      0.00      0.00
                                0.00      0.00      0.00

     TS-vdW  stress (kbar)      0.00      0.00      0.00
                                0.00      0.00      0.00
                                0.00      0.00      0.00

[...]

                                0.00      0.00      0.00

     Writing all to output data dir new_calculations/myprefix.save/

     General routines

     Parallel routines

     PAW routines

   This run was terminated on:   0:32:38  20May2023

   JOB DONE.