     Program PWSCF v.7.0 starts on 21May2023 at 18:32:27

     Reading input from espresso_24969.pwi
Warning: card &CELL ignored
Warning: card / ignored

     Current dimensions of program PWSCF are:
     Max number of different atomic species (ntypx) = 10
     Max number of k-points (npk) =  40000
     Max angular momentum in pseudopotentials (lmaxx) =  4

     gamma-point specific algorithms are used
     Message from routine setup:
     using ibrav=0 with symmetry is DISCOURAGED, use correct ibrav instead

     Subspace diagonalization in iterative solution of the eigenvalue problem:
     a serial algorithm will be used

     Using Slab Decomposition

     bravais-lattice index     =            0
     lattice parameter (alat)  =       6.9764  a.u.
     unit-cell volume          =    1274.5994 (a.u.)^3
     number of atoms/cell      =            8
     number of atomic types    =            3
     number of electrons       =        60.00
     number of Kohn-Sham states=           36
     kinetic-energy cutoff     =      30.0000  Ry
     charge density cutoff     =     240.0000  Ry
     scf convergence threshold =      1.0E-06
     mixing beta               =       0.7000
     number of iterations used =            8  plain     mixing
     Exchange-correlation=  SLA  PW   PBX  PBC
                           (   1   4   3   4   0   0   0)

     celldm(1)=   6.976421  celldm(2)=   0.000000  celldm(3)=   0.000000
     celldm(4)=   0.000000  celldm(5)=   0.000000  celldm(6)=   0.000000

     crystal axes: (cart. coord. in units of alat)
               a(1) = (   1.000000   0.000000   0.000000 )
               a(2) = (   0.000000   1.459057   0.000000 )
               a(3) = (   0.000000   0.302707   2.572784 )

     reciprocal axes: (cart. coord. in units 2 pi/alat)
               b(1) = (  1.000000  0.000000  0.000000 )
               b(2) = (  0.000000  0.685374 -0.080639 )
               b(3) = (  0.000000  0.000000  0.388684 )

     PseudoPot. # 1 for Hf read from file:
     /home/pragov/projects/rrg-bengioy-ad/pragov/crystal_structure_design/SSSP/Hf-sp.oncvpsp.upf
     MD5 check sum: 417ed15784afe83d2e06dacf143de3f8
     Pseudo is Norm-conserving + core correction, Zval = 12.0
     Generated using ONCVPSP code by D. R. Hamann
     Using radial grid of 1656 points,  8 beta functions with:
                l(1) =   0
                l(2) =   0
                l(3) =   1
                l(4) =   1
                l(5) =   2
                l(6) =   2
                l(7) =   3
                l(8) =   3

     PseudoPot. # 2 for Se read from file:
     /home/pragov/projects/rrg-bengioy-ad/pragov/crystal_structure_design/SSSP/Se_pbe_v1.uspp.F.UPF
     MD5 check sum: 1b3568f3a8ae88f9a2a0ad0698632c85
     Pseudo is Ultrasoft + core correction, Zval =  6.0
     Generated by new atomic code, or converted to UPF format
     Using radial grid of  877 points,  6 beta functions with:
                l(1) =   0
                l(2) =   0
                l(3) =   1
                l(4) =   1
                l(5) =   2
                l(6) =   2
     Q(r) pseudized with  8 coefficients,  rinner =    1.300   1.300   1.300
                                                       1.300   1.300

     PseudoPot. # 3 for S  read from file:
     /home/pragov/projects/rrg-bengioy-ad/pragov/crystal_structure_design/SSSP/s_pbe_v1.4.uspp.F.UPF
     MD5 check sum: 88d86576ff6df21479756cfb9bdac1df
     Pseudo is Ultrasoft + core correction, Zval =  6.0
     Generated by new atomic code, or converted to UPF format
     Using radial grid of  907 points,  6 beta functions with:
                l(1) =   0
                l(2) =   0
                l(3) =   1
                l(4) =   1
                l(5) =   2
                l(6) =   2
     Q(r) pseudized with  8 coefficients,  rinner =    1.300   1.300   1.300
                                                       1.300   1.300

     atomic species   valence    mass     pseudopotential
        Hf            12.00   178.49000     Hf( 1.00)
        Se             6.00    78.97100     Se( 1.00)
        S              6.00    32.06000     S ( 1.00)

      2 Sym. Ops. (no inversion) found

                                    s                        frac. trans.

      isym =  1     identity

 cryst.   s( 1) = (     1          0          0      )
                  (     0          1          0      )
                  (     0          0          1      )

 cart.    s( 1) = (  1.0000000  0.0000000  0.0000000 )
                  (  0.0000000  1.0000000 -0.0000000 )
                  (  0.0000000  0.0000000  1.0000000 )

      isym =  2     inv. 180 deg rotation - cart. axis [1,0,0]

 cryst.   s( 2) = (    -1          0          0      )
                  (     0          1          0      )
                  (     0          0          1      )

 cart.    s( 2) = ( -1.0000000  0.0000000  0.0000000 )
                  (  0.0000000  1.0000000 -0.0000000 )
                  (  0.0000000  0.0000000  1.0000000 )

   Cartesian axes

     site n.     atom                  positions (alat units)
         1           Hf  tau(   1) = (   0.5000000   1.2496022   1.6858787  )
         2           Hf  tau(   2) = (   0.0000000   0.5133589   0.8799797  )
         3           Se  tau(   3) = (   0.0000000   0.9418648   2.1425145  )
         4           Se  tau(   4) = (   0.5000000   0.5182101   1.4237454  )
         5           Se  tau(   5) = (   0.0000000   1.2447679   1.1405951  )
         6           S   tau(   6) = (   0.5000000   0.2320670   0.4657743  )
         7           S   tau(   7) = (   0.0000000   1.5479310   2.0796305  )
         8           S   tau(   8) = (   0.5000000   0.7992553   0.4730193  )

   Crystallographic axes

     site n.     atom                  positions (cryst. coord.)
         1           Hf  tau(   1) = (  0.5000000  0.7204970  0.6552740  )
         2           Hf  tau(   2) = (  0.0000000  0.2808820  0.3420340  )
         3           Se  tau(   3) = (  0.0000000  0.4727590  0.8327610  )
         4           Se  tau(   4) = (  0.5000000  0.2403580  0.5533870  )
         5           Se  tau(   5) = (  0.0000000  0.7611550  0.4433310  )
         6           S   tau(   6) = (  0.5000000  0.1214930  0.1810390  )
         7           S   tau(   7) = (  0.0000000  0.8932120  0.8083190  )
         8           S   tau(   8) = (  0.5000000  0.5096450  0.1838550  )

     number of k points=     1  Methfessel-Paxton smearing, width (Ry)=  0.0010
                       cart. coord. in units 2pi/alat
        k(    1) = (   0.0000000   0.0000000   0.0000000), wk =   2.0000000

                       cryst. coord.
        k(    1) = (   0.0000000   0.0000000   0.0000000), wk =   2.0000000

     Initial potential from superposition of free atoms

     starting charge      59.9960, renormalised to      60.0000
     Starting wfcs are   44 randomized atomic wfcs

     Self-consistent Calculation

     iteration #  1     ecut=    30.00 Ry     beta= 0.70
     Davidson diagonalization with overlap

     ethr =  1.00E-02,  avg # of iterations =  2.0

     Threshold (ethr) on eigenvalues was too large:
     Diagonalizing with lowered threshold

     Davidson diagonalization with overlap

[...]

     total energy              =    -428.37323302 Ry
     estimated scf accuracy    <       0.53237282 Ry

[...]

     total energy              =    -428.54977417 Ry
     estimated scf accuracy    <       0.00000346 Ry

     iteration # 12     ecut=    30.00 Ry     beta= 0.70
     Davidson diagonalization with overlap

     ethr =  5.77E-09,  avg # of iterations =  5.0

     End of self-consistent calculation

          k = 0.0000 0.0000 0.0000 (  1749 PWs)   bands (ev):

   -54.9169 -54.7852 -23.8124 -23.6947 -23.5795 -23.4684 -23.4508 -23.3350
    -8.0555  -7.5996  -5.4537  -4.2167  -3.6958  -3.4798   1.2964   1.5920
     2.2087   2.7616   2.9047   3.2813   3.8083   5.0037   5.6006   5.9249
     6.0894   6.1593   6.4422   6.5287   7.3664   7.6222   8.2155   8.7113
    10.2980  10.5200  10.6475  10.7457

     occupation numbers
     1.0000   1.0000   1.0000   1.0000   1.0000   1.0000   1.0000   1.0000
     1.0000   1.0000   1.0000   1.0000   1.0000   1.0000   1.0000   1.0000
     1.0000   1.0000   1.0000   1.0000   1.0000   1.0000   1.0000   1.0000
     1.0000   1.0000   1.0000   1.0000   1.0000   1.0000  -0.0000  -0.0000
    -0.0000  -0.0000  -0.0000  -0.0000

     the Fermi energy is     7.7911 ev

!    total energy              =    -428.54977489 Ry
     estimated scf accuracy    <       0.00000023 Ry
     smearing contrib. (-TS)   =       0.00000000 Ry
     internal energy E=F+TS    =    -428.54977489 Ry

     The total energy is F=E-TS. E is the sum of the following terms:
     one-electron contribution =    -134.11024634 Ry
     hartree contribution      =      88.85186879 Ry
     xc contribution           =    -171.92039144 Ry
     ewald contribution        =    -211.37100590 Ry

     convergence has been achieved in  12 iterations

     Forces acting on atoms (cartesian axes, Ry/au):

     atom    1 type  1   force =     0.00000000    0.01811102    0.11978236
     atom    2 type  1   force =     0.00000000   -0.00297041   -0.13519075
     atom    3 type  2   force =     0.00000000   -0.03237916   -0.02067928
     atom    4 type  2   force =     0.00000000   -0.00551207   -0.01172560
     atom    5 type  2   force =     0.00000000    0.00408181    0.01640198
     atom    6 type  3   force =     0.00000000   -0.02547898    0.03871690
     atom    7 type  3   force =     0.00000000    0.01893498   -0.05466890
     atom    8 type  3   force =     0.00000000    0.02521281    0.04736329
     The non-local contrib.  to forces
     atom    1 type  1   force =     0.00000000   -0.00022240    0.04547283
     atom    2 type  1   force =     0.00000000    0.01053806   -0.05165087
     atom    3 type  2   force =     0.00000000    0.13459099   -0.13610838
     atom    4 type  2   force =     0.00000000   -0.01287444    0.05053834
     atom    5 type  2   force =     0.00000000    0.01097145   -0.05720232
     atom    6 type  3   force =     0.00000000    0.16463412    0.05374886
     atom    7 type  3   force =     0.00000000   -0.10466069   -0.01697547
     atom    8 type  3   force =     0.00000000   -0.16367526    0.05157359
     The ionic contribution  to forces
     atom    1 type  1   force =    -0.00000000   -0.58162352    7.07361177
     atom    2 type  1   force =    -0.00000000   -0.08196822   -6.32598973
     atom    3 type  2   force =     0.00000000   -4.33806964    8.17846831
     atom    4 type  2   force =     0.00000000    0.17828485    4.32407514
     atom    5 type  2   force =    -0.00000000   -0.09590437   -4.08926034
     atom    6 type  3   force =     0.00000000   -5.70709241   -9.31417593
     atom    7 type  3   force =    -0.00000000    4.96775539    9.09613662
     atom    8 type  3   force =    -0.00000000    5.65861791   -8.94286584
     The local contribution  to forces
     atom    1 type  1   force =    -0.00001144    0.60127471   -7.01741357
     atom    2 type  1   force =    -0.00000279    0.06939550    6.26094556
     atom    3 type  2   force =     0.00000007    4.18422587   -8.07694382
     atom    4 type  2   force =     0.00000284   -0.17233570   -4.37829496
     atom    5 type  2   force =     0.00001837    0.09030483    4.15330558
     atom    6 type  3   force =     0.00000088    5.52540694    9.30207289
     atom    7 type  3   force =     0.00001220   -4.84939965   -9.13422247
     atom    8 type  3   force =    -0.00000334   -5.47808509    8.94132314
     The core correction contribution to forces
     atom    1 type  1   force =    -0.00000083   -0.00161538    0.01761127
     atom    2 type  1   force =    -0.00000005   -0.00105749   -0.01883200
     atom    3 type  2   force =    -0.00000003   -0.01315299    0.01380974
     atom    4 type  2   force =     0.00000016    0.00147463   -0.00846998
     atom    5 type  2   force =     0.00000259   -0.00126850    0.00916900
     atom    6 type  3   force =    -0.00000025   -0.00824310   -0.00238577
     atom    7 type  3   force =    -0.00000009    0.00510422    0.00024661
     atom    8 type  3   force =    -0.00000002    0.00814804   -0.00215578
     The Hubbard contrib.    to forces
     atom    1 type  1   force =     0.00000000    0.00000000    0.00000000
     atom    2 type  1   force =     0.00000000    0.00000000    0.00000000
     atom    3 type  2   force =     0.00000000    0.00000000    0.00000000
     atom    4 type  2   force =     0.00000000    0.00000000    0.00000000
     atom    5 type  2   force =     0.00000000    0.00000000    0.00000000
     atom    6 type  3   force =     0.00000000    0.00000000    0.00000000
     atom    7 type  3   force =     0.00000000    0.00000000    0.00000000
     atom    8 type  3   force =     0.00000000    0.00000000    0.00000000
     The SCF correction term to forces
     atom    1 type  1   force =     0.00000562    0.00030175    0.00049431
     atom    2 type  1   force =    -0.00000101    0.00012587    0.00033054
     atom    3 type  2   force =     0.00000075    0.00003075    0.00008912
     atom    4 type  2   force =    -0.00000010   -0.00005728    0.00042011
     atom    5 type  2   force =    -0.00000499   -0.00001747    0.00038430
     atom    6 type  3   force =    -0.00000154   -0.00018041   -0.00054890
     atom    7 type  3   force =    -0.00000619    0.00013984    0.00014006
     atom    8 type  3   force =     0.00000194    0.00021136   -0.00051757

     Total force =     0.208003     Total SCF correction =     0.001218

     Computing stress (Cartesian axis) and pressure

          total   stress  (Ry/bohr**3)                   (kbar)     P=       30.89
   0.00184086   0.00000000   0.00000000          270.80        0.00        0.00
   0.00000000  -0.00078874  -0.00002846            0.00     -116.03       -4.19
   0.00000000  -0.00002846  -0.00042213            0.00       -4.19      -62.10

     kinetic stress (kbar)   8205.65      0.00      0.00
                                0.00   7353.49      5.22
                                0.00      5.22   7742.82

     local   stress (kbar) -14573.55      0.00      0.00
                                0.00  -7641.80    408.42
                                0.00    408.42   4541.09

     nonloc. stress (kbar)   5723.25      0.00      0.00
                                0.00   5501.10      0.15
                                0.00      0.15   5601.42

     hartree stress (kbar)   7149.29     -0.00     -0.00
                               -0.00   4344.22   -161.21
                               -0.00   -161.21  -1238.87

     exc-cor stress (kbar)  11010.79     -0.00     -0.00
                               -0.00  11012.23     -0.36
                               -0.00     -0.36  11008.55

     corecor stress (kbar) -13765.56      0.00      0.00
                                0.00 -13736.37      0.56
                                0.00      0.56 -13750.15

     ewald   stress (kbar)  -3479.06     -0.00     -0.00
                               -0.00  -6948.91   -256.96
                               -0.00   -256.96 -13966.95

     hubbard stress (kbar)      0.00      0.00      0.00
                                0.00      0.00      0.00
                                0.00      0.00      0.00

     DFT-D   stress (kbar)      0.00      0.00      0.00
                                0.00      0.00      0.00
                                0.00      0.00      0.00

     XDM     stress (kbar)      0.00      0.00      0.00
                                0.00      0.00      0.00
                                0.00      0.00      0.00

     dft-nl  stress (kbar)      0.00      0.00      0.00
                                0.00      0.00      0.00
                                0.00      0.00      0.00

     TS-vdW  stress (kbar)      0.00      0.00      0.00
                                0.00      0.00      0.00
                                0.00      0.00      0.00

[...]

                                0.00      0.00      0.00

     Writing all to output data dir new_calculations/myprefix.save/

     General routines

     Parallel routines

   This run was terminated on:  18:32:37  21May2023

   JOB DONE.