     Program PWSCF v.7.0 starts on 21May2023 at  4:24: 0

     Reading input from espresso_19731.pwi
Warning: card &CELL ignored
Warning: card / ignored

     Current dimensions of program PWSCF are:
     Max number of different atomic species (ntypx) = 10
     Max number of k-points (npk) =  40000
     Max angular momentum in pseudopotentials (lmaxx) =  4
     file O.pbe-n-kjpaw_psl.0.1.UPF: wavefunction(s)  2P renormalized

     gamma-point specific algorithms are used
     Message from routine setup:
     using ibrav=0 with symmetry is DISCOURAGED, use correct ibrav instead

     Subspace diagonalization in iterative solution of the eigenvalue problem:
     a serial algorithm will be used

     Using Slab Decomposition

     bravais-lattice index     =            0
     lattice parameter (alat)  =       7.4424  a.u.
     unit-cell volume          =     560.2257 (a.u.)^3
     number of atoms/cell      =            5
     number of atomic types    =            2
     number of electrons       =        40.00
     number of Kohn-Sham states=           24
     kinetic-energy cutoff     =      30.0000  Ry
     charge density cutoff     =     240.0000  Ry
     scf convergence threshold =      1.0E-06
     mixing beta               =       0.7000
     number of iterations used =            8  plain     mixing
     Exchange-correlation= SLA  PW   PBX  PBC
                           (   1   4   3   4   0   0   0)

     celldm(1)=   7.442386  celldm(2)=   0.000000  celldm(3)=   0.000000
     celldm(4)=   0.000000  celldm(5)=   0.000000  celldm(6)=   0.000000

     crystal axes: (cart. coord. in units of alat)
               a(1) = (   1.000000   0.000000   0.000000 )
               a(2) = (  -0.500000   0.866026   0.000000 )
               a(3) = (   0.000000   0.000000   1.569263 )

     reciprocal axes: (cart. coord. in units 2 pi/alat)
               b(1) = (  1.000000  0.577350  0.000000 )
               b(2) = (  0.000000  1.154700  0.000000 )
               b(3) = (  0.000000  0.000000  0.637242 )

     PseudoPot. # 1 for La read from file:
     /home/pragov/projects/rrg-bengioy-ad/pragov/crystal_structure_design/SSSP/La.GGA-PBE-paw-v1.0.UPF
     MD5 check sum: 436541e95c1ad8901025bd0b0ed42ae2
     Pseudo is Projector augmented-wave + core cor, Zval = 11.0
     Generated using ATOMPAW code
     Shape of augmentation charge: BESSEL
     Using radial grid of 1101 points,  8 beta functions with:
                l(1) =   0
                l(2) =   0
                l(3) =   1
                l(4) =   1
                l(5) =   2
                l(6) =   2
                l(7) =   3
                l(8) =   3
     Q(r) pseudized with 0 coefficients

     PseudoPot. # 2 for O  read from file:
     /home/pragov/projects/rrg-bengioy-ad/pragov/crystal_structure_design/SSSP/O.pbe-n-kjpaw_psl.0.1.UPF
     MD5 check sum: 0234752ac141de4415c5fc33072bef88
     Pseudo is Projector augmented-wave + core cor, Zval =  6.0
     Generated using "atomic" code by A. Dal Corso  v.5.0.99 svn rev. 10869
     Shape of augmentation charge: BESSEL
     Using radial grid of 1095 points,  4 beta functions with:
                l(1) =   0
                l(2) =   0
                l(3) =   1
                l(4) =   1
     Q(r) pseudized with 0 coefficients

     atomic species   valence    mass     pseudopotential
        La            11.00   138.90547     La( 1.00)
        O              6.00    15.99900     O ( 1.00)

     12 Sym. Ops., with inversion, found

                                    s                        frac. trans.

      isym =  1     identity

 cryst.   s( 1) = (     1          0          0      )
                  (     0          1          0      )
                  (     0          0          1      )

 cart.    s( 1) = (  1.0000000  0.0000000  0.0000000 )
                  (  0.0000000  1.0000000  0.0000000 )
                  (  0.0000000  0.0000000  1.0000000 )

      isym =  2     180 deg rotation - cart. axis [1,0,0]

[...]

      isym =  3     120 deg rotation - cryst. axis [0,0,1]

[...]

      isym =  6     180 deg rotation - cryst. axis [1,1,0]

[...]

      isym =  7     inversion

[...]

      isym =  8     inv. 180 deg rotation - cart. axis [1,0,0]

[...]

      isym =  9     inv. 120 deg rotation - cryst. axis [0,0,1]

 cryst.   s( 9) = (     0         -1          0      )
                  (     1          1          0      )
                  (     0          0         -1      )

 cart.    s( 9) = (  0.4999997  0.8660252  0.0000000 )
                  ( -0.8660256  0.5000003  0.0000000 )
                  (  0.0000000  0.0000000 -1.0000000 )

[...]

 cryst.   s(10) = (     1          1          0      )
                  (    -1          0          0      )
                  (     0          0         -1      )

 cart.    s(10) = (  0.5000003 -0.8660252  0.0000000 )
                  (  0.8660256  0.4999997  0.0000000 )
                  (  0.0000000  0.0000000 -1.0000000 )

[...]

      isym = 12     inv. 180 deg rotation - cryst. axis [1,1,0]

 cryst.   s(12) = (     0         -1          0      )
                  (    -1          0          0      )
                  (     0          0          1      )

 cart.    s(12) = (  0.4999997 -0.8660256  0.0000000 )
                  ( -0.8660256 -0.4999997  0.0000000 )
                  (  0.0000000  0.0000000  1.0000000 )

   Cartesian axes

     site n.     atom                  positions (alat units)
         1           La  tau(   1) = (   0.5000006   0.2886749   1.1814244  )
         2           La  tau(   2) = (  -0.0000003   0.5773507   0.3878387  )
         3           O   tau(   3) = (   0.5000006   0.2886749   0.5564167  )
         4           O   tau(   4) = (  -0.0000003   0.5773507   1.0128463  )
         5           O   tau(   5) = (   0.0000000   0.0000000   0.0000000  )

   Crystallographic axes

     site n.     atom                  positions (cryst. coord.)
         1           La  tau(   1) = (  0.6666670  0.3333330  0.7528530  )
         2           La  tau(   2) = (  0.3333330  0.6666670  0.2471470  )
         3           O   tau(   3) = (  0.6666670  0.3333330  0.3545720  )
         4           O   tau(   4) = (  0.3333330  0.6666670  0.6454280  )
         5           O   tau(   5) = (  0.0000000  0.0000000  0.0000000  )

     number of k points=     1  Methfessel-Paxton smearing, width (Ry)=  0.0010
                       cart. coord. in units 2pi/alat
        k(    1) = (   0.0000000   0.0000000   0.0000000), wk =   2.0000000

                       cryst. coord.
        k(    1) = (   0.0000000   0.0000000   0.0000000), wk =   2.0000000

     Check: negative core charge=   -0.000009

     Initial potential from superposition of free atoms

     starting charge      39.9829, renormalised to      40.0000
     Starting wfcs are   76 randomized atomic wfcs
     Checking if some PAW data can be deallocated...

     Self-consistent Calculation

     iteration #  1     ecut=    30.00 Ry     beta= 0.70
     Davidson diagonalization with overlap

     ethr =  1.00E-02,  avg # of iterations =  2.0

     total energy              =   -1041.63801140 Ry
     estimated scf accuracy    <       1.26613509 Ry

[...]

     total energy              =   -1042.28040862 Ry
     estimated scf accuracy    <       0.00000847 Ry

     iteration # 15     ecut=    30.00 Ry     beta= 0.70
     Davidson diagonalization with overlap

     ethr =  2.12E-08,  avg # of iterations =  5.0

     End of self-consistent calculation

          k = 0.0000 0.0000 0.0000 (   779 PWs)   bands (ev):

   -20.1386 -19.9115  -7.4792  -6.3680  -5.6146  -3.5442  -3.5442  -3.4504
    -3.3224  -3.3224  -2.7257   7.2436   7.2436   7.3183   7.3183   7.4243
     8.0666   9.3431   9.3431   9.5705  14.0987  14.3347  14.3348  14.8286

     occupation numbers
     1.0000   1.0000   1.0000   1.0000   1.0000   1.0000   1.0000   1.0000
     1.0000   1.0000   1.0000   1.0000   1.0000   1.0000   1.0000   1.0000
     1.0000   1.0000   1.0000   1.0000  -0.0000  -0.0000  -0.0000  -0.0000

     the Fermi energy is    10.5597 ev

!    total energy              =   -1042.28041052 Ry

     total all-electron energy =     -1368.821088 Ry
     estimated scf accuracy    <       0.00000025 Ry
     smearing contrib. (-TS)   =       0.00000000 Ry
     internal energy E=F+TS    =   -1042.28041052 Ry

     The total energy is F=E-TS. E is the sum of the following terms:
     one-electron contribution =     -22.60729493 Ry
     hartree contribution      =      39.97432331 Ry
     xc contribution           =     -40.12914313 Ry
     ewald contribution        =    -194.77826043 Ry
     one-center paw contrib.   =    -824.74003535 Ry
      -> PAW hartree energy AE =     158.20888097 Ry
      -> PAW hartree energy PS =    -157.99164083 Ry
      -> PAW xc energy AE      =    -862.06120993 Ry
      -> PAW xc energy PS      =      37.10393444 Ry
      -> total E_H with PAW    =      40.19156345 Ry
      -> total E_XC with PAW   =    -865.08641861 Ry

     convergence has been achieved in  15 iterations

     Forces acting on atoms (cartesian axes, Ry/au):

     atom    1 type  1   force =     0.00000000    0.00000000    0.01827247
     atom    2 type  1   force =    -0.00000000   -0.00000000   -0.01827247
     atom    3 type  2   force =     0.00000000   -0.00000000   -0.05028878
     atom    4 type  2   force =     0.00000000    0.00000000    0.05028878
     atom    5 type  2   force =     0.00000000    0.00000000    0.00000000
     The non-local contrib.  to forces
     atom    1 type  1   force =     0.00000000    0.00000000    0.05366836
     atom    2 type  1   force =     0.00000000    0.00000000   -0.05366836
     atom    3 type  2   force =     0.00000000    0.00000000   -0.19168821
     atom    4 type  2   force =     0.00000000    0.00000000    0.19168821
     atom    5 type  2   force =     0.00000000    0.00000000    0.00000000
     The ionic contribution  to forces
     atom    1 type  1   force =    -0.00002493    0.00001439    2.86104808
     atom    2 type  1   force =     0.00002493   -0.00001439   -2.86104808
     atom    3 type  2   force =    -0.00002133    0.00001232   -0.50957129
     atom    4 type  2   force =     0.00002133   -0.00001232    0.50957129
     atom    5 type  2   force =    -0.00000000    0.00000000   -0.00000000
     The local contribution  to forces
     atom    1 type  1   force =    -0.00004539   -0.00005309   -2.89626573
     atom    2 type  1   force =    -0.00002627    0.00009009    2.89631241
     atom    3 type  2   force =    -0.00022429    0.00022644    0.64828892
     atom    4 type  2   force =     0.00017932   -0.00003705   -0.64803118
     atom    5 type  2   force =     0.00013504   -0.00011373   -0.00009490
     The core correction contribution to forces
     atom    1 type  1   force =    -0.00000004   -0.00000003    0.00009345
     atom    2 type  1   force =     0.00000000    0.00000004   -0.00009346
     atom    3 type  2   force =    -0.00000489    0.00000528    0.00258429
     atom    4 type  2   force =     0.00000268   -0.00000196   -0.00257852
     atom    5 type  2   force =     0.00000100   -0.00000128   -0.00000349
     The Hubbard contrib.    to forces
     atom    1 type  1   force =     0.00000000    0.00000000    0.00000000
     atom    2 type  1   force =     0.00000000    0.00000000    0.00000000
     atom    3 type  2   force =     0.00000000    0.00000000    0.00000000
     atom    4 type  2   force =     0.00000000    0.00000000    0.00000000
     atom    5 type  2   force =     0.00000000    0.00000000    0.00000000
     The SCF correction term to forces
     atom    1 type  1   force =    -0.00000409    0.00002487   -0.00026270
     atom    2 type  1   force =    -0.00003462   -0.00004138    0.00023401
     atom    3 type  2   force =     0.00003101    0.00002557    0.00024062
     atom    4 type  2   force =    -0.00008584   -0.00000661   -0.00021792
     atom    5 type  2   force =    -0.00000174    0.00003983   -0.00004237

     Total force =     0.075668     Total SCF correction =     0.000495

     Computing stress (Cartesian axis) and pressure

          total   stress  (Ry/bohr**3)                   (kbar)     P=     -384.25
  -0.00260184   0.00000000   0.00000000         -382.74        0.00        0.00
   0.00000000  -0.00260184   0.00000000            0.00     -382.74        0.00
   0.00000000   0.00000000  -0.00263248            0.00        0.00     -387.25

     kinetic stress (kbar)  15353.08     -0.00      0.00
                               -0.00  15353.07      0.00
                                0.00      0.00  15148.41

     local   stress (kbar)  -6468.83     -0.05      0.07
                               -0.05  -6469.05     -0.03
                                0.07     -0.03  -5383.81

     nonloc. stress (kbar)   7256.62     -0.00      0.00
                               -0.00   7256.62      0.00
                               -0.00     -0.00   7277.97

     hartree stress (kbar)   3551.30      0.02     -0.01
                                0.02   3551.36      0.00
                               -0.01      0.00   3393.87

     exc-cor stress (kbar)  -2907.08      0.00     -0.00
                                0.00  -2907.08      0.00
                               -0.00      0.00  -2918.04

     corecor stress (kbar)   -365.20     -0.00      0.00
                               -0.00   -365.20     -0.00
                                0.00     -0.00   -365.52

     ewald   stress (kbar) -16802.57      0.04     -0.00
                                0.04 -16802.53      0.00
                               -0.00      0.00 -17540.14

     hubbard stress (kbar)      0.00      0.00      0.00
                                0.00      0.00      0.00
                                0.00      0.00      0.00

     DFT-D   stress (kbar)      0.00      0.00      0.00
                                0.00      0.00      0.00
                                0.00      0.00      0.00

     XDM     stress (kbar)      0.00      0.00      0.00
                                0.00      0.00      0.00
                                0.00      0.00      0.00

     dft-nl  stress (kbar)      0.00      0.00      0.00
                                0.00      0.00      0.00
                                0.00      0.00      0.00

     TS-vdW  stress (kbar)      0.00      0.00      0.00
                                0.00      0.00      0.00
                                0.00      0.00      0.00

[...]

                                0.00      0.00      0.00

     Writing all to output data dir new_calculations/myprefix.save/

     General routines

     Parallel routines

     PAW routines

   This run was terminated on:   4:24:18  21May2023

   JOB DONE.