     Program PWSCF v.7.0 starts on 20May2023 at  6:22:23

     Reading input from espresso_5199.pwi
Warning: card &CELL ignored
Warning: card / ignored

     Current dimensions of program PWSCF are:
     Max number of different atomic species (ntypx) = 10
     Max number of k-points (npk) =  40000
     Max angular momentum in pseudopotentials (lmaxx) =  4

     gamma-point specific algorithms are used
     Message from routine setup:
     using ibrav=0 with symmetry is DISCOURAGED, use correct ibrav instead

     Subspace diagonalization in iterative solution of the eigenvalue problem:
     a serial algorithm will be used

     Using Slab Decomposition

     bravais-lattice index     =            0
     lattice parameter (alat)  =      15.4534  a.u.
     unit-cell volume          =    2609.4973 (a.u.)^3
     number of atoms/cell      =           10
     number of atomic types    =            3
     number of electrons       =        80.00
     number of Kohn-Sham states=           48
     kinetic-energy cutoff     =      30.0000  Ry
     charge density cutoff     =     240.0000  Ry
     scf convergence threshold =      1.0E-06
     mixing beta               =       0.7000
     number of iterations used =            8  plain     mixing
     Exchange-correlation=  SLA  PW   PBX  PBC
                           (   1   4   3   4   0   0   0)

     celldm(1)=  15.453397  celldm(2)=   0.000000  celldm(3)=   0.000000
     celldm(4)=   0.000000  celldm(5)=   0.000000  celldm(6)=   0.000000

     crystal axes: (cart. coord. in units of alat)
               a(1) = (   1.000000   0.000000   0.000000 )
               a(2) = (   0.500000   0.866025   0.000000 )
               a(3) = (   0.500000   0.288675   0.816497 )

     reciprocal axes: (cart. coord. in units 2 pi/alat)
               b(1) = (  1.000000 -0.577350 -0.408248 )
               b(2) = (  0.000000  1.154701 -0.408248 )
               b(3) = (  0.000000  0.000000  1.224745 )

     PseudoPot. # 1 for Cs read from file:
     /home/pragov/projects/rrg-bengioy-ad/pragov/crystal_structure_design/SSSP/Cs_pbe_v1.uspp.F.UPF
     MD5 check sum: 3476d69cb178dfad3ffaa59df4e07ca4
     Pseudo is Ultrasoft + core correction, Zval =  9.0
     Generated by new atomic code, or converted to UPF format
     Using radial grid of  905 points,  6 beta functions with:
                l(1) =   0
                l(2) =   0
                l(3) =   1
                l(4) =   1
                l(5) =   2
                l(6) =   2
     Q(r) pseudized with  6 coefficients,  rinner =    1.500   1.500   1.500
                                                       1.500   1.500

     PseudoPot. # 2 for Sc read from file:
     /home/pragov/projects/rrg-bengioy-ad/pragov/crystal_structure_design/SSSP/Sc_ONCV_PBE-1.0.oncvpsp.upf
     MD5 check sum: e21af8023abb52e52cb7cd3133e4a229
     Pseudo is Norm-conserving, Zval = 11.0
     Generated using ONCVPSP code by D. R. Hamann
     Using radial grid of 1662 points,  6 beta functions with:
                l(1) =   0
                l(2) =   0
                l(3) =   1
                l(4) =   1
                l(5) =   2
                l(6) =   2

     PseudoPot. # 3 for Cl read from file:
     /home/pragov/projects/rrg-bengioy-ad/pragov/crystal_structure_design/SSSP/cl_pbe_v1.4.uspp.F.UPF
     MD5 check sum: fc6f6913ecf08c9257cb748ef0700058
     Pseudo is Ultrasoft + core correction, Zval =  7.0
     Generated by new atomic code, or converted to UPF format
     Using radial grid of  909 points,  6 beta functions with:
                l(1) =   0
                l(2) =   0
                l(3) =   1
                l(4) =   1
                l(5) =   2
                l(6) =   2
     Q(r) pseudized with  8 coefficients,  rinner =    1.300   1.300   1.300
                                                       1.300   1.300

     atomic species   valence    mass     pseudopotential
        Cs             9.00   132.90545     Cs( 1.00)
        Sc            11.00    44.95591     Sc( 1.00)
        Cl             7.00    35.45000     Cl( 1.00)

     12 Sym. Ops., with inversion, found

                                    s                        frac. trans.

      isym =  1     identity

 cryst.   s( 1) = (     1          0          0      )
                  (     0          1          0      )
                  (     0          0          1      )

 cart.    s( 1) = (  1.0000000  0.0000000 -0.0000000 )
                  (  0.0000000  1.0000000 -0.0000000 )
                  (  0.0000000  0.0000000  1.0000000 )

      isym =  2     180 deg rotation - cart. axis [1,0,0]

[...]

      isym =  3     120 deg rotation - cryst. axis [0,0,1]

[...]

      isym =  6     180 deg rotation - cryst. axis [1,1,0]

[...]

      isym =  7     inversion

[...]

      isym =  8     inv. 180 deg rotation - cart. axis [1,0,0]

[...]

      isym =  9     inv. 120 deg rotation - cryst. axis [0,0,1]

 cryst.   s( 9) = (     1         -1          0      )
                  (     1          0          0      )
                  (     1          0         -1      )

 cart.    s( 9) = (  0.5000000  0.8660254 -0.0000000 )
                  ( -0.8660254  0.5000000  0.0000000 )
                  (  0.0000000  0.0000000 -1.0000000 )

[...]

 cryst.   s(10) = (     0          1          0      )
                  (    -1          1          0      )
                  (     0          1         -1      )

 cart.    s(10) = (  0.5000000 -0.8660254  0.0000000 )
                  (  0.8660254  0.5000000 -0.0000000 )
                  (  0.0000000  0.0000000 -1.0000000 )

[...]

      isym = 12     inv. 180 deg rotation - cryst. axis [1,1,0]

 cryst.   s(12) = (     1         -1          0      )
                  (     0         -1          0      )
                  (     0         -1          1      )

 cart.    s(12) = (  0.5000000 -0.8660254  0.0000000 )
                  ( -0.8660254 -0.5000000  0.0000000 )
                  (  0.0000000  0.0000000  1.0000000 )

   Cartesian axes

     site n.     atom                  positions (alat units)
         1           Cs  tau(   1) = (   1.5000000   0.8660254   0.6123724  )
         2           Cs  tau(   2) = (   0.5000000   0.2886751   0.2041241  )
         3           Cs  tau(   3) = (   1.0000000   0.5773503   0.4082483  )
         4           Sc  tau(   4) = (   0.0000000   0.0000000   0.0000000  )
         5           Cl  tau(   5) = (   1.0000000   0.2499880   0.1767682  )
         6           Cl  tau(   6) = (   0.7164960   0.4136692   0.6397283  )
         7           Cl  tau(   7) = (   1.0000000   0.9047125   0.6397283  )
         8           Cl  tau(   8) = (   0.7164960   0.7410314   0.1767682  )
         9           Cl  tau(   9) = (   1.2835040   0.4136692   0.6397283  )
        10           Cl  tau(  10) = (   1.2835040   0.7410314   0.1767682  )

   Crystallographic axes

     site n.     atom                  positions (cryst. coord.)
         1           Cs  tau(   1) = (  0.7500000  0.7500000  0.7500000  )
         2           Cs  tau(   2) = (  0.2500000  0.2500000  0.2500000  )
         3           Cs  tau(   3) = (  0.5000000  0.5000000  0.5000000  )
         4           Sc  tau(   4) = (  0.0000000  0.0000000  0.0000000  )
         5           Cl  tau(   5) = (  0.7835040  0.2164960  0.2164960  )
         6           Cl  tau(   6) = (  0.2164960  0.2164960  0.7835040  )
         7           Cl  tau(   7) = (  0.2164960  0.7835040  0.7835040  )
         8           Cl  tau(   8) = (  0.2164960  0.7835040  0.2164960  )
         9           Cl  tau(   9) = (  0.7835040  0.2164960  0.7835040  )
        10           Cl  tau(  10) = (  0.7835040  0.7835040  0.2164960  )

     number of k points=     1  Methfessel-Paxton smearing, width (Ry)=  0.0010
                       cart. coord. in units 2pi/alat
        k(    1) = (   0.0000000   0.0000000   0.0000000), wk =   2.0000000

                       cryst. coord.
        k(    1) = (   0.0000000   0.0000000   0.0000000), wk =   2.0000000

     Initial potential from superposition of free atoms

     starting charge      79.8792, renormalised to      80.0000

     negative rho (up, down):  9.000E-02 0.000E+00
     Starting wfcs are   73 randomized atomic wfcs

     Self-consistent Calculation

     iteration #  1     ecut=    30.00 Ry     beta= 0.70
     Davidson diagonalization with overlap

     ethr =  1.00E-02,  avg # of iterations =  3.0

     Threshold (ethr) on eigenvalues was too large:
     Diagonalizing with lowered threshold

     Davidson diagonalization with overlap

[...]

     negative rho (up, down):  9.375E-02 0.000E+00

     total energy              =    -482.05253104 Ry
     estimated scf accuracy    <       0.49906943 Ry

[...]

     total energy              =    -482.23104281 Ry
     estimated scf accuracy    <       0.00001617 Ry

     iteration #  8     ecut=    30.00 Ry     beta= 0.70
     Davidson diagonalization with overlap

     ethr =  2.02E-08,  avg # of iterations =  2.0

[...]

     End of self-consistent calculation

          k = 0.0000 0.0000 0.0000 (  3620 PWs)   bands (ev):

   -46.9697 -25.5197 -25.5196 -25.5196 -18.5983 -18.5952 -17.7604 -11.4706
   -11.1446 -11.1445 -11.1445 -11.1046 -11.1046  -5.4102  -5.4102  -5.4102
    -5.3811  -5.3811  -5.3811  -4.6993  -4.6993  -4.6993  -1.0994  -0.2614
    -0.2614  -0.1501  -0.1501  -0.1501   0.0163   0.0163   0.0163   0.8437
     0.8437   0.8437   1.0658   1.0658   1.0658   1.3417   1.3417   1.3417
     5.4621   5.4621   5.4621   6.0482   6.8817   6.8817   7.4139   7.4139

     occupation numbers
     1.0000   1.0000   1.0000   1.0000   1.0000   1.0000   1.0000   1.0000
     1.0000   1.0000   1.0000   1.0000   1.0000   1.0000   1.0000   1.0000
     1.0000   1.0000   1.0000   1.0000   1.0000   1.0000   1.0000   1.0000
     1.0000   1.0000   1.0000   1.0000   1.0000   1.0000   1.0000   1.0000
     1.0000   1.0000   1.0000   1.0000   1.0000   1.0000   1.0000   1.0000
    -0.0000  -0.0000  -0.0000  -0.0000  -0.0000  -0.0000  -0.0000  -0.0000

     the Fermi energy is     4.1340 ev

!    total energy              =    -482.23104431 Ry
     estimated scf accuracy    <       0.00000086 Ry
     smearing contrib. (-TS)   =       0.00000000 Ry
     internal energy E=F+TS    =    -482.23104431 Ry

     The total energy is F=E-TS. E is the sum of the following terms:
     one-electron contribution =    -172.13836441 Ry
     hartree contribution      =     110.89828609 Ry
     xc contribution           =    -159.68908224 Ry
     ewald contribution        =    -261.30188375 Ry

     convergence has been achieved in   8 iterations

     negative rho (up, down):  8.926E-02 0.000E+00

     Forces acting on atoms (cartesian axes, Ry/au):

     atom    1 type  1   force =    -0.00000000    0.00000000    0.00000161
     atom    2 type  1   force =    -0.00000000   -0.00000000   -0.00000161
     atom    3 type  1   force =     0.00000000    0.00000000   -0.00000000
     atom    4 type  2   force =    -0.00000000    0.00000000    0.00000000
     atom    5 type  3   force =     0.00000000   -0.00305603   -0.00216270
     atom    6 type  3   force =    -0.00264660   -0.00152801    0.00216270
     atom    7 type  3   force =    -0.00000000    0.00305603    0.00216270
     atom    8 type  3   force =    -0.00264660    0.00152801   -0.00216270
     atom    9 type  3   force =     0.00264660   -0.00152801    0.00216270
     atom   10 type  3   force =     0.00264660    0.00152801   -0.00216270
     The non-local contrib.  to forces
     atom    1 type  1   force =     0.00000000    0.00000000   -0.00000902
     atom    2 type  1   force =    -0.00000000   -0.00000000    0.00000902
     atom    3 type  1   force =     0.00000000    0.00000000    0.00000000
     atom    4 type  2   force =    -0.00000000    0.00000000    0.00000000
     atom    5 type  3   force =     0.00000000   -0.04822050   -0.03408847
     atom    6 type  3   force =    -0.04176018   -0.02411025    0.03408847
     atom    7 type  3   force =     0.00000000    0.04822050    0.03408847
     atom    8 type  3   force =    -0.04176018    0.02411025   -0.03408847
     atom    9 type  3   force =     0.04176018   -0.02411025    0.03408847
     atom   10 type  3   force =     0.04176018    0.02411025   -0.03408847
     The ionic contribution  to forces
     atom    1 type  1   force =     0.00000000    0.00000000    0.00000000
     atom    2 type  1   force =     0.00000000   -0.00000000   -0.00000000
     atom    3 type  1   force =     0.00000000   -0.00000000   -0.00000000
     atom    4 type  2   force =    -0.00000000    0.00000000    0.00000000
     atom    5 type  3   force =     0.00000000    5.01251223    3.54438139
     atom    6 type  3   force =     4.34096293    2.50625611   -3.54438139
     atom    7 type  3   force =     0.00000000   -5.01251223   -3.54438139
     atom    8 type  3   force =     4.34096293   -2.50625611    3.54438139
     atom    9 type  3   force =    -4.34096293    2.50625611   -3.54438139
     atom   10 type  3   force =    -4.34096293   -2.50625611    3.54438139
     The local contribution  to forces
     atom    1 type  1   force =    -0.00002335   -0.00003917    0.00000826
     atom    2 type  1   force =    -0.00004863    0.00000471    0.00000606
     atom    3 type  1   force =     0.00000639   -0.00006954    0.00001610
     atom    4 type  2   force =     0.00001813    0.00002386   -0.00001326
     atom    5 type  3   force =     0.00003771   -4.96700727   -3.51223511
     atom    6 type  3   force =    -4.30161544   -2.48351400    3.51226333
     atom    7 type  3   force =    -0.00002468    4.96698950    3.51222071
     atom    8 type  3   force =    -4.30148762    2.48346286   -3.51216402
     atom    9 type  3   force =     4.30148488   -2.48346910    3.51217005
     atom   10 type  3   force =     4.30157831    2.48353012   -3.51220805
     The core correction contribution to forces
     atom    1 type  1   force =    -0.00001254   -0.00001288    0.00000568
     atom    2 type  1   force =    -0.00000913    0.00000593   -0.00000057
     atom    3 type  1   force =    -0.00000246   -0.00001709    0.00000179
     atom    4 type  2   force =     0.00000000    0.00000000    0.00000000
     atom    5 type  3   force =     0.00000184    0.00073167    0.00051729
     atom    6 type  3   force =     0.00063185    0.00036519   -0.00051528
     atom    7 type  3   force =    -0.00000053   -0.00073254   -0.00051749
     atom    8 type  3   force =     0.00063624   -0.00036767    0.00051864
     atom    9 type  3   force =    -0.00063609    0.00036662   -0.00051827
     atom   10 type  3   force =    -0.00063332   -0.00036510    0.00051705
     The Hubbard contrib.    to forces
     atom    1 type  1   force =     0.00000000    0.00000000    0.00000000
     atom    2 type  1   force =     0.00000000    0.00000000    0.00000000
     atom    3 type  1   force =     0.00000000    0.00000000    0.00000000
     atom    4 type  2   force =     0.00000000    0.00000000    0.00000000
     atom    5 type  3   force =     0.00000000    0.00000000    0.00000000
     atom    6 type  3   force =     0.00000000    0.00000000    0.00000000
     atom    7 type  3   force =     0.00000000    0.00000000    0.00000000
     atom    8 type  3   force =     0.00000000    0.00000000    0.00000000
     atom    9 type  3   force =     0.00000000    0.00000000    0.00000000
     atom   10 type  3   force =     0.00000000    0.00000000    0.00000000
     The SCF correction term to forces
     atom    1 type  1   force =    -0.00001191   -0.00000163    0.00000875
     atom    2 type  1   force =     0.00000923    0.00001007   -0.00000406
     atom    3 type  1   force =    -0.00001062   -0.00000872   -0.00000287
     atom    4 type  2   force =    -0.00002133   -0.00002434    0.00001334
     atom    5 type  3   force =    -0.00002175   -0.00107667   -0.00074584
     atom    6 type  3   force =    -0.00090557   -0.00054014    0.00073215
     atom    7 type  3   force =     0.00001190    0.00109269    0.00076497
     atom    8 type  3   force =    -0.00096165    0.00055253   -0.00077961
     atom    9 type  3   force =     0.00096149   -0.00055533    0.00078139
     atom   10 type  3   force =     0.00093241    0.00053618   -0.00077247

     Total force =     0.009171     Total SCF correction =     0.003253
     SCF correction compared to forces is large: reduce conv_thr to get better values

     Computing stress (Cartesian axis) and pressure

     negative rho (up, down):  8.926E-02 0.000E+00
          total   stress  (Ry/bohr**3)                   (kbar)     P=       10.65
   0.00007242   0.00000000  -0.00000000           10.65        0.00       -0.00
   0.00000000   0.00007242   0.00000000            0.00       10.65        0.00
   0.00000000  -0.00000000   0.00007242            0.00       -0.00       10.65

     kinetic stress (kbar)   5042.27     -0.00     -0.00
                               -0.00   5042.27     -0.00
                               -0.00     -0.00   5042.27

     local   stress (kbar)  -5042.47     -0.00      0.00
                               -0.00  -5042.47     -0.00
                                0.00     -0.00  -5042.47

     nonloc. stress (kbar)   4424.38     -0.00     -0.00
                               -0.00   4424.38     -0.00
                               -0.00     -0.00   4424.38

     hartree stress (kbar)   2083.89      0.00      0.00
                                0.00   2083.89     -0.00
                                0.00     -0.00   2083.89

     exc-cor stress (kbar)   3735.40      0.00     -0.00
                                0.00   3735.40      0.00
                               -0.00      0.00   3735.40

     corecor stress (kbar)  -5322.70     -0.00      0.00
                               -0.00  -5322.70     -0.00
                                0.00     -0.00  -5322.70

     ewald   stress (kbar)  -4910.12     -0.00     -0.00
                               -0.00  -4910.12     -0.00
                               -0.00     -0.00  -4910.12

     hubbard stress (kbar)      0.00      0.00      0.00
                                0.00      0.00      0.00
                                0.00      0.00      0.00

     DFT-D   stress (kbar)      0.00      0.00      0.00
                                0.00      0.00      0.00
                                0.00      0.00      0.00

     XDM     stress (kbar)      0.00      0.00      0.00
                                0.00      0.00      0.00
                                0.00      0.00      0.00

     dft-nl  stress (kbar)      0.00      0.00      0.00
                                0.00      0.00      0.00
                                0.00      0.00      0.00

     TS-vdW  stress (kbar)      0.00      0.00      0.00
                                0.00      0.00      0.00
                                0.00      0.00      0.00

[...]

                                0.00      0.00      0.00

     Writing all to output data dir new_calculations/myprefix.save/

     General routines

     Parallel routines

   This run was terminated on:   6:22:58  20May2023

   JOB DONE.