     Program PWSCF v.7.0 starts on 20May2023 at  8:50:56

     Reading input from espresso_12195.pwi
Warning: card &CELL ignored
Warning: card / ignored

     Current dimensions of program PWSCF are:
     Max number of different atomic species (ntypx) = 10
     Max number of k-points (npk) =  40000
     Max angular momentum in pseudopotentials (lmaxx) =  4

     gamma-point specific algorithms are used
     Message from routine setup:
     using ibrav=0 with symmetry is DISCOURAGED, use correct ibrav instead

     Subspace diagonalization in iterative solution of the eigenvalue problem:
     a serial algorithm will be used

     Using Slab Decomposition

     bravais-lattice index     =            0
     lattice parameter (alat)  =       8.6387  a.u.
     unit-cell volume          =     184.5507 (a.u.)^3
     number of atoms/cell      =            2
     number of atomic types    =            2
     number of electrons       =        33.00
     number of Kohn-Sham states=           21
     kinetic-energy cutoff     =      30.0000  Ry
     charge density cutoff     =     240.0000  Ry
     scf convergence threshold =      1.0E-06
     mixing beta               =       0.7000
     number of iterations used =            8  plain     mixing
     Exchange-correlation=  SLA  PW   PBX  PBC
                           (   1   4   3   4   0   0   0)

     celldm(1)=   8.638733  celldm(2)=   0.000000  celldm(3)=   0.000000
     celldm(4)=   0.000000  celldm(5)=   0.000000  celldm(6)=   0.000000

     crystal axes: (cart. coord. in units of alat)
               a(1) = (   1.000000   0.000000   0.000000 )
               a(2) = (   0.824089   0.566460   0.000000 )
               a(3) = (   0.824089   0.255916   0.505355 )

     reciprocal axes: (cart. coord. in units 2 pi/alat)
               b(1) = (  1.000000 -1.454807 -0.893988 )
               b(2) = (  0.000000  1.765351 -0.893988 )
               b(3) = (  0.000000  0.000000  1.978807 )

     PseudoPot. # 1 for Co read from file:
     /home/pragov/projects/rrg-bengioy-ad/pragov/crystal_structure_design/SSSP/Co_pbe_v1.2.uspp.F.UPF
     MD5 check sum: 5f91765df6ddd3222702df6e7b74a16d
     Pseudo is Ultrasoft + core correction, Zval = 17.0
     Generated by new atomic code, or converted to UPF format
     Using radial grid of  863 points,  6 beta functions with:
                l(1) =   0
                l(2) =   0
                l(3) =   1
                l(4) =   1
                l(5) =   2
                l(6) =   2
     Q(r) pseudized with  8 coefficients,  rinner =    1.200   1.200   1.200
                                                       1.200   1.200

     PseudoPot. # 2 for Pt read from file:
     /home/pragov/projects/rrg-bengioy-ad/pragov/crystal_structure_design/SSSP/pt_pbe_v1.4.uspp.F.UPF
     MD5 check sum: f09d6de1a584b5a045c4fc126da2d0c4
     Pseudo is Ultrasoft + core correction, Zval = 16.0
     Generated by new atomic code, or converted to UPF format
     Using radial grid of  985 points,  6 beta functions with:
                l(1) =   0
                l(2) =   0
                l(3) =   1
                l(4) =   1
                l(5) =   2
                l(6) =   2
     Q(r) pseudized with  8 coefficients,  rinner =    1.300   1.300   1.300
                                                       1.300   1.300

     atomic species   valence    mass     pseudopotential
        Co            17.00    58.93319     Co( 1.00)
        Pt            16.00   195.08400     Pt( 1.00)

      2 Sym. Ops., with inversion, found

                                    s                        frac. trans.

      isym =  1     identity

 cryst.   s( 1) = (     1          0          0      )
                  (     0          1          0      )
                  (     0          0          1      )

 cart.    s( 1) = (  1.0000000 -0.0000000 -0.0000000 )
                  (  0.0000000  1.0000000  0.0000000 )
                  (  0.0000000  0.0000000  1.0000000 )

      isym =  2     inversion

 cryst.   s( 2) = (    -1          0          0      )
                  (     0         -1          0      )
                  (     0          0         -1      )

 cart.    s( 2) = ( -1.0000000  0.0000000  0.0000000 )
                  (  0.0000000 -1.0000000 -0.0000000 )
                  (  0.0000000  0.0000000 -1.0000000 )

   Cartesian axes

     site n.     atom                  positions (alat units)
         1           Co  tau(   1) = (   0.0000000   0.0000000   0.0000000  )
         2           Pt  tau(   2) = (   1.3240893   0.4111878   0.2526775  )

   Crystallographic axes

     site n.     atom                  positions (cryst. coord.)
         1           Co  tau(   1) = (  0.0000000  0.0000000  0.0000000  )
         2           Pt  tau(   2) = (  0.5000000  0.5000000  0.5000000  )

     number of k points=     1  Methfessel-Paxton smearing, width (Ry)=  0.0010
                       cart. coord. in units 2pi/alat
        k(    1) = (   0.0000000   0.0000000   0.0000000), wk =   2.0000000

                       cryst. coord.
        k(    1) = (   0.0000000   0.0000000   0.0000000), wk =   2.0000000

     Check: negative core charge=   -0.000015

     Initial potential from superposition of free atoms

     starting charge      31.5000, renormalised to      33.0000

     negative rho (up, down):  1.947E-01 0.000E+00
     Starting wfcs are   25 randomized atomic wfcs

     Self-consistent Calculation

     iteration #  1     ecut=    30.00 Ry     beta= 0.70
     Davidson diagonalization with overlap

     ethr =  1.00E-02,  avg # of iterations =  3.0

     negative rho (up, down):  1.723E-01 0.000E+00

     total energy              =    -505.83220143 Ry
     estimated scf accuracy    <       6.57948984 Ry

[...]

     total energy              =    -509.50917964 Ry
     estimated scf accuracy    <       0.00000105 Ry

     iteration # 14     ecut=    30.00 Ry     beta= 0.70
     Davidson diagonalization with overlap

     ethr =  3.17E-09,  avg # of iterations =  2.0

[...]

     End of self-consistent calculation

          k = 0.0000 0.0000 0.0000 (   263 PWs)   bands (ev):

   -75.7755 -39.4432 -38.7481 -38.7481 -34.0157 -32.6469 -32.6469  10.1537
    13.3357  16.4278  16.4278  17.1331  17.1331  17.1362  18.6327  18.6327
    19.2008  19.4207  19.4207  25.6790  35.7593

     occupation numbers
     1.0000   1.0000   1.0000   1.0000   1.0000   1.0000   1.0000   1.0000
     1.0000   1.0000   1.0000   1.0000   1.0000   1.0000   1.0000   1.0000
     0.5000  -0.0000  -0.0000  -0.0000  -0.0000

     the Fermi energy is    19.2008 ev

!    total energy              =    -509.50917969 Ry
     estimated scf accuracy    <          6.9E-09 Ry
     smearing contrib. (-TS)   =      -0.00028209 Ry
     internal energy E=F+TS    =    -509.50889760 Ry

     The total energy is F=E-TS. E is the sum of the following terms:
     one-electron contribution =    -192.24056883 Ry
     hartree contribution      =     120.33362072 Ry
     xc contribution           =     -89.49205277 Ry
     ewald contribution        =    -348.10989671 Ry

     convergence has been achieved in  14 iterations

     negative rho (up, down):  1.717E-01 0.000E+00

     Forces acting on atoms (cartesian axes, Ry/au):

     atom    1 type  1   force =     0.00000000    0.00000000    0.00000000
     atom    2 type  2   force =     0.00000000    0.00000000    0.00000000
     The non-local contrib.  to forces
     atom    1 type  1   force =     0.00000000    0.00000000    0.00000000
     atom    2 type  2   force =     0.00000000    0.00000000    0.00000000
     The ionic contribution  to forces
     atom    1 type  1   force =     0.00000000    0.00000000   -0.00000000
     atom    2 type  2   force =    -0.00000000   -0.00000000    0.00000000
     The local contribution  to forces
     atom    1 type  1   force =     0.00001699    0.00000556    0.00000310
     atom    2 type  2   force =    -0.00002265   -0.00000610   -0.00000402
     The core correction contribution to forces
     atom    1 type  1   force =    -0.00000014   -0.00000006   -0.00000002
     atom    2 type  2   force =    -0.00000011   -0.00000014   -0.00000002
     The Hubbard contrib.    to forces
     atom    1 type  1   force =     0.00000000    0.00000000    0.00000000
     atom    2 type  2   force =     0.00000000    0.00000000    0.00000000
     The SCF correction term to forces
     atom    1 type  1   force =    -0.00002454   -0.00000867   -0.00000468
     atom    2 type  2   force =     0.00003629    0.00001075    0.00000699

     Total force =     0.000000     Total SCF correction =     0.000047

     Computing stress (Cartesian axis) and pressure

     negative rho (up, down):  1.717E-01 0.000E+00
          total   stress  (Ry/bohr**3)                   (kbar)     P=     -412.03
  -0.00232817   0.00023589   0.00014496         -342.49       34.70       21.32
   0.00023589  -0.00301453   0.00004502           34.70     -443.45        6.62
   0.00014496   0.00004502  -0.00306011           21.32        6.62     -450.16

     kinetic stress (kbar)  50655.48   -884.46   -543.51
                             -884.46  53228.91   -168.79
                             -543.51   -168.79  53399.87

     local   stress (kbar)  13504.32    894.05    549.38
                              894.05  10902.91    170.65
                              549.38    170.65  10730.08

     nonloc. stress (kbar)  11846.85   -332.77   -204.49
                             -332.77  12815.11    -63.52
                             -204.49    -63.52  12879.45

     hartree stress (kbar)  31029.41   -470.59   -289.18
                             -470.59  32398.68    -89.82
                             -289.18    -89.82  32489.65

     exc-cor stress (kbar)  15915.76    -16.63    -10.22
                              -16.63  15964.16     -3.17
                              -10.22     -3.17  15967.38

     corecor stress (kbar) -32463.04     16.16      9.93
                               16.16 -32510.05      3.08
                                9.93      3.08 -32513.18

     ewald   stress (kbar) -90831.26    828.95    509.40
                              828.95 -93243.18    158.19
                              509.40    158.19 -93403.40

     hubbard stress (kbar)      0.00      0.00      0.00
                                0.00      0.00      0.00
                                0.00      0.00      0.00

     DFT-D   stress (kbar)      0.00      0.00      0.00
                                0.00      0.00      0.00
                                0.00      0.00      0.00

     XDM     stress (kbar)      0.00      0.00      0.00
                                0.00      0.00      0.00
                                0.00      0.00      0.00

     dft-nl  stress (kbar)      0.00      0.00      0.00
                                0.00      0.00      0.00
                                0.00      0.00      0.00

     TS-vdW  stress (kbar)      0.00      0.00      0.00
                                0.00      0.00      0.00
                                0.00      0.00      0.00

[...]

                                0.00      0.00      0.00

     Writing all to output data dir new_calculations/myprefix.save/

     General routines

     Parallel routines

   This run was terminated on:   8:51: 1  20May2023

   JOB DONE.