     Program PWSCF v.7.0 starts on 20May2023 at 15:31:18

     Reading input from espresso_18404.pwi
Warning: card &CELL ignored
Warning: card / ignored

     Current dimensions of program PWSCF are:
     Max number of different atomic species (ntypx) = 10
     Max number of k-points (npk) =  40000
     Max angular momentum in pseudopotentials (lmaxx) =  4

     gamma-point specific algorithms are used
     Message from routine setup:
     using ibrav=0 with symmetry is DISCOURAGED, use correct ibrav instead

     Subspace diagonalization in iterative solution of the eigenvalue problem:
     a serial algorithm will be used

     Using Slab Decomposition

     bravais-lattice index     =            0
     lattice parameter (alat)  =      17.5114  a.u.
     unit-cell volume          =    3674.2825 (a.u.)^3
     number of atoms/cell      =           16
     number of atomic types    =            3
     number of electrons       =       168.00
     number of Kohn-Sham states=          101
     kinetic-energy cutoff     =      30.0000  Ry
     charge density cutoff     =     240.0000  Ry
     scf convergence threshold =      1.0E-06
     mixing beta               =       0.7000
     number of iterations used =            8  plain     mixing
     Exchange-correlation= SLA  PW   PBE  PBE
                           (   1   4   3   4   0   0   0)

     celldm(1)=  17.511450  celldm(2)=   0.000000  celldm(3)=   0.000000
     celldm(4)=   0.000000  celldm(5)=   0.000000  celldm(6)=   0.000000

     crystal axes: (cart. coord. in units of alat)
               a(1) = (   1.000000   0.000000   0.000000 )
               a(2) = (   0.060231   0.998184   0.000000 )
               a(3) = (  -0.530116  -0.499092   0.685481 )

     reciprocal axes: (cart. coord. in units 2 pi/alat)
               b(1) = (  1.000000 -0.060341  0.729415 )
               b(2) = (  0.000000  1.001819  0.729415 )
               b(3) = (  0.000000  0.000000  1.458830 )

     PseudoPot. # 1 for Tl read from file:
     /home/pragov/projects/rrg-bengioy-ad/pragov/crystal_structure_design/SSSP/Tl_pbe_v1.2.uspp.F.UPF
     MD5 check sum: b76cf1f7e72655a2b2c53cf6385d7059
     Pseudo is Ultrasoft + core correction, Zval = 13.0
     Generated by new atomic code, or converted to UPF format
     Using radial grid of  899 points,  6 beta functions with:
                l(1) =   0
                l(2) =   0
                l(3) =   1
                l(4) =   1
                l(5) =   2
                l(6) =   2
     Q(r) pseudized with  6 coefficients,  rinner =    1.100   1.100   1.100
                                                       1.100   1.100

     PseudoPot. # 2 for Bi read from file:
     /home/pragov/projects/rrg-bengioy-ad/pragov/crystal_structure_design/SSSP/Bi_pbe_v1.uspp.F.UPF
     MD5 check sum: cceb9f28ec65b6d7ff33140f5b0b1758
     Pseudo is Ultrasoft + core correction, Zval = 15.0
     Generated by new atomic code, or converted to UPF format
     Using radial grid of  899 points,  6 beta functions with:
                l(1) =   0
                l(2) =   0
                l(3) =   1
                l(4) =   1
                l(5) =   2
                l(6) =   2
     Q(r) pseudized with  6 coefficients,  rinner =    1.000   1.000   1.000
                                                       1.000   1.000

     PseudoPot. # 3 for Te read from file:
     /home/pragov/projects/rrg-bengioy-ad/pragov/crystal_structure_design/SSSP/Te_pbe_v1.uspp.F.UPF
     MD5 check sum: c319670d6894cc26e93307826a071b75
     Pseudo is Ultrasoft + core correction, Zval =  6.0
     Generated by new atomic code, or converted to UPF format
     Using radial grid of  891 points,  5 beta functions with:
                l(1) =   0
                l(2) =   0
                l(3) =   1
                l(4) =   1
                l(5) =   2
     Q(r) pseudized with  6 coefficients,  rinner =    1.800   1.800   1.800
                                                       1.800   1.800

     atomic species   valence    mass     pseudopotential
        Tl            13.00   204.38000     Tl( 1.00)
        Bi            15.00   208.98040     Bi( 1.00)
        Te             6.00   127.60000     Te( 1.00)

      2 Sym. Ops., with inversion, found

                                    s                        frac. trans.

      isym =  1     identity

 cryst.   s( 1) = (     1          0          0      )
                  (     0          1          0      )
                  (     0          0          1      )

 cart.    s( 1) = (  1.0000000  0.0000000  0.0000000 )
                  (  0.0000000  1.0000000  0.0000000 )
                  (  0.0000000  0.0000000  1.0000000 )

      isym =  2     inversion

 cryst.   s( 2) = (    -1          0          0      )
                  (     0         -1          0      )
                  (     0          0         -1      )

 cart.    s( 2) = ( -1.0000000 -0.0000000 -0.0000000 )
                  (  0.0000000 -1.0000000 -0.0000000 )
                  (  0.0000000  0.0000000 -1.0000000 )

   Cartesian axes

     site n.     atom                  positions (alat units)
         1           Tl  tau(   1) = (   0.5975452   0.0919138   0.5438428  )
         2           Tl  tau(   2) = (   0.5402681  -0.2382936   0.3427967  )
         3           Tl  tau(   3) = (   0.0000000   0.0000000   0.0000000  )
         4           Tl  tau(   4) = (   0.5976232   0.0918320   0.1416382  )
         5           Tl  tau(   5) = (   0.2645644   0.0545468   0.3426843  )
         6           Tl  tau(   6) = (   0.2655513   0.4445454   0.3427967  )
         7           Tl  tau(   7) = (  -0.0675075   0.4072602   0.5438428  )
         8           Tl  tau(   8) = (  -0.0101524   0.7373858   0.3426843  )
         9           Tl  tau(   9) = (  -0.0674294   0.4071784   0.1416382  )
        10           Bi  tau(  10) = (   0.5301157   0.4990922   0.0000000  )
        11           Te  tau(  11) = (   0.7833828   0.7375375   0.0000000  )
        12           Te  tau(  12) = (   0.6120551   0.4120595   0.3278820  )
        13           Te  tau(  13) = (   0.2247569  -0.2387278   0.5659455  )
        14           Te  tau(  14) = (   0.2768487   0.2606469   0.0000000  )
        15           Te  tau(  15) = (   0.3053588   0.7378200   0.1195356  )
        16           Te  tau(  16) = (  -0.0819394   0.0870327   0.3575990  )

   Crystallographic axes

     site n.     atom                  positions (cryst. coord.)
         1           Tl  tau(   1) = (  0.9886860  0.4887680  0.7933740  )
         2           Tl  tau(   2) = (  0.8046880  0.0113140  0.5000820  )
         3           Tl  tau(   3) = (  0.0000000  0.0000000  0.0000000  )
         4           Tl  tau(   4) = (  0.6953950  0.1953120  0.2066260  )
         5           Tl  tau(   5) = (  0.5112320  0.3046050  0.4999180  )
         6           Tl  tau(   6) = (  0.4887680  0.6953950  0.5000820  )
         7           Tl  tau(   7) = (  0.3046050  0.8046880  0.7933740  )
         8           Tl  tau(   8) = (  0.1953120  0.9886860  0.4999180  )
         9           Tl  tau(   9) = (  0.0113140  0.5112320  0.2066260  )
        10           Bi  tau(  10) = (  0.5000000  0.5000000  0.0000000  )
        11           Te  tau(  11) = (  0.7388790  0.7388790  0.0000000  )
        12           Te  tau(  12) = (  0.8263530  0.6519710  0.4783240  )
        13           Te  tau(  13) = (  0.6519710  0.1736470  0.8256180  )
        14           Te  tau(  14) = (  0.2611210  0.2611210  0.0000000  )
        15           Te  tau(  15) = (  0.3480290  0.8263530  0.1743820  )
        16           Te  tau(  16) = (  0.1736470  0.3480290  0.5216760  )

     number of k points=     1  Methfessel-Paxton smearing, width (Ry)=  0.0010
                       cart. coord. in units 2pi/alat
        k(    1) = (   0.0000000   0.0000000   0.0000000), wk =   2.0000000

                       cryst. coord.
        k(    1) = (   0.0000000   0.0000000   0.0000000), wk =   2.0000000

     Check: negative core charge=   -0.000003

     Initial potential from superposition of free atoms

     starting charge     166.9549, renormalised to     168.0000

     negative rho (up, down):  4.935E-01 0.000E+00
     Starting wfcs are  114 randomized atomic wfcs

     Self-consistent Calculation

     iteration #  1     ecut=    30.00 Ry     beta= 0.70
     Davidson diagonalization with overlap

     ethr =  1.00E-02,  avg # of iterations =  2.0

     negative rho (up, down):  4.901E-01 0.000E+00

     total energy              =   -1647.87014835 Ry
     estimated scf accuracy    <       1.93258544 Ry

[...]

     total energy              =   -1649.15441782 Ry
     estimated scf accuracy    <       0.00000104 Ry

     iteration # 12     ecut=    30.00 Ry     beta= 0.70
     Davidson diagonalization with overlap

     ethr =  6.20E-10,  avg # of iterations =  6.0

[...]

     End of self-consistent calculation

          k = 0.0000 0.0000 0.0000 (  5090 PWs)   bands (ev):

   -15.5631 -15.5585 -15.5108 -15.4988 -15.4934  -4.3743  -4.1693  -4.1080
    -4.1000  -4.0771  -4.0407  -4.0227  -4.0175  -4.0175  -3.9993  -3.9980
    -3.9782  -3.9775  -3.9706  -3.9592  -3.9410  -3.9346  -3.9245  -3.9067
    -3.8978  -3.8964  -3.8857  -3.8788  -3.8733  -3.8589  -3.8572  -3.8407
    -3.8383  -3.8330  -3.8256  -3.8238  -3.8172  -3.8078  -3.8021  -3.7880
    -3.7869  -3.7825  -3.7745  -3.7691  -3.7639  -3.7578  -3.7562  -3.7335
    -3.7032  -3.6657  -3.6539  -2.8133  -2.6341  -2.4790  -2.4436  -2.4298
    -2.1822   0.9949   1.1155   1.1764   1.2043   1.2295   1.5895   1.6959
     1.7742   1.8090   4.8108   4.9056   4.9376   4.9433   5.3313   5.5468
     5.5573   5.6013   5.8703   6.1252   6.1383   6.6185   6.6498   6.6720
     6.6846   6.7332   6.8450   7.3255   7.7499   8.3807   8.5061   8.5267
     8.5339   8.7816   9.2079   9.2899   9.4035   9.4640   9.5621   9.6454
     9.6690  10.0191  10.5160  10.5720  10.9438

     occupation numbers
     1.0000   1.0000   1.0000   1.0000   1.0000   1.0000   1.0000   1.0000
     1.0000   1.0000   1.0000   1.0000   1.0000   1.0000   1.0000   1.0000
     1.0000   1.0000   1.0000   1.0000   1.0000   1.0000   1.0000   1.0000
     1.0000   1.0000   1.0000   1.0000   1.0000   1.0000   1.0000   1.0000
     1.0000   1.0000   1.0000   1.0000   1.0000   1.0000   1.0000   1.0000
     1.0000   1.0000   1.0000   1.0000   1.0000   1.0000   1.0000   1.0000
     1.0000   1.0000   1.0000   1.0000   1.0000   1.0000   1.0000   1.0000
     1.0000   1.0000   1.0000   1.0000   1.0000   1.0000   1.0000   1.0000
     1.0000   1.0000   1.0000   1.0000   1.0000   1.0000   1.0000   1.0000
     1.0000   1.0000   1.0000   1.0000   1.0000   1.0000   1.0000   1.0000
     1.0000   1.0000   1.0000   1.0000  -0.0000  -0.0000  -0.0000  -0.0000
    -0.0000  -0.0000  -0.0000  -0.0000  -0.0000  -0.0000  -0.0000  -0.0000
    -0.0000  -0.0000  -0.0000  -0.0000  -0.0000

     the Fermi energy is     7.5233 ev

!    total energy              =   -1649.15441803 Ry
     estimated scf accuracy    <       0.00000038 Ry
     smearing contrib. (-TS)   =       0.00000000 Ry
     internal energy E=F+TS    =   -1649.15441803 Ry

     The total energy is F=E-TS. E is the sum of the following terms:
     one-electron contribution =    -349.29774923 Ry
     hartree contribution      =     289.87521187 Ry
     xc contribution           =    -710.12430609 Ry
     ewald contribution        =    -879.60757458 Ry

     convergence has been achieved in  12 iterations

     negative rho (up, down):  4.785E-01 0.000E+00

     Forces acting on atoms (cartesian axes, Ry/au):

     atom    1 type  1   force =     0.01278160    0.01107346    0.02670851
     atom    2 type  1   force =     0.00613801   -0.03014012    0.00987903
     atom    3 type  1   force =     0.00000000    0.00000000    0.00000000
     atom    4 type  1   force =     0.01386918    0.00383008   -0.01813093
     atom    5 type  1   force =    -0.02753768    0.00389200   -0.00779169
     atom    6 type  1   force =     0.02753768   -0.00389200    0.00779169
     atom    7 type  1   force =    -0.01386918   -0.00383008    0.01813093
     atom    8 type  1   force =    -0.00613801    0.03014012   -0.00987903
     atom    9 type  1   force =    -0.01278160   -0.01107346   -0.02670851
     atom   10 type  2   force =     0.00000000    0.00000000    0.00000000
     atom   11 type  3   force =     0.02148627   -0.00002761    0.02445227
     atom   12 type  3   force =     0.01779459    0.02521189   -0.02339317
     atom   13 type  3   force =    -0.03297453    0.06205266   -0.00187710
     atom   14 type  3   force =    -0.02148627    0.00002761   -0.02445227
     atom   15 type  3   force =     0.03297453   -0.06205266    0.00187710
     atom   16 type  3   force =    -0.01779459   -0.02521189    0.02339317
     The non-local contrib.  to forces
     atom    1 type  1   force =     0.11270152   -0.00721791    0.01964108
     atom    2 type  1   force =    -0.03954084   -0.08150319   -0.08441689
     atom    3 type  1   force =     0.00000000    0.00000000    0.00000000
     atom    4 type  1   force =     0.01641954    0.12783779   -0.03023829
     atom    5 type  1   force =    -0.09561126   -0.04641759    0.08831960
     atom    6 type  1   force =     0.09561126    0.04641759   -0.08831960
     atom    7 type  1   force =    -0.01641954   -0.12783779    0.03023829
     atom    8 type  1   force =     0.03954084    0.08150319    0.08441689
     atom    9 type  1   force =    -0.11270152    0.00721791   -0.01964108
     atom   10 type  2   force =     0.00000000    0.00000000    0.00000000
     atom   11 type  3   force =     0.02663698    0.04002102   -0.03364854
     atom   12 type  3   force =     0.02692002    0.01301561    0.07739825
     atom   13 type  3   force =     0.02619506    0.00927984   -0.04290120
     atom   14 type  3   force =    -0.02663698   -0.04002102    0.03364854
     atom   15 type  3   force =    -0.02619506   -0.00927984    0.04290120
     atom   16 type  3   force =    -0.02692002   -0.01301561   -0.07739825
     The ionic contribution  to forces
     atom    1 type  1   force =    -0.04125552    1.32674916    0.99556127
     atom    2 type  1   force =     0.04215196   -1.32770132    0.99423605
     atom    3 type  1   force =     0.00000000    0.00000000   -0.00000000
     atom    4 type  1   force =     1.32177173   -0.12106887   -0.99557737
     atom    5 type  1   force =    -1.32273723    0.12215904   -0.99426702
     atom    6 type  1   force =     1.32273723   -0.12215904    0.99426702
     atom    7 type  1   force =    -1.32177173    0.12106887    0.99557737
     atom    8 type  1   force =    -0.04215196    1.32770132   -0.99423605
     atom    9 type  1   force =     0.04125552   -1.32674916   -0.99556127
     atom   10 type  2   force =    -0.00000000    0.00000000   -0.00000000
     atom   11 type  3   force =     1.03342222    0.97296090   -0.00003383
     atom   12 type  3   force =     0.52998966   -0.56297336    1.24672012
     atom   13 type  3   force =     0.85460372   -0.90772915   -0.77318740
     atom   14 type  3   force =    -1.03342222   -0.97296090    0.00003383
     atom   15 type  3   force =    -0.85460372    0.90772915    0.77318739
     atom   16 type  3   force =    -0.52998966    0.56297336   -1.24672012
     The local contribution  to forces
     atom    1 type  1   force =    -0.05651326   -1.31122994   -0.99110314
     atom    2 type  1   force =     0.00283936    1.38001417   -0.90494966
     atom    3 type  1   force =     0.00037685    0.00072908    0.00041013
     atom    4 type  1   force =    -1.32735320    0.00293012    1.00854770
     atom    5 type  1   force =     1.39223026   -0.07587360    0.90396349
     atom    6 type  1   force =    -1.39275532    0.07564455   -0.90478421
     atom    7 type  1   force =     1.32689176   -0.00208314   -1.00866442
     atom    8 type  1   force =    -0.00270804   -1.37943954    0.90653636
     atom    9 type  1   force =     0.05713928    1.30991651    0.99074957
     atom   10 type  2   force =    -0.00038145   -0.00073459   -0.00052133
     atom   11 type  3   force =    -1.03978134   -1.01737585    0.06363093
     atom   12 type  3   force =    -0.54217092    0.57905354   -1.35624343
     atom   13 type  3   force =    -0.91813800    0.96488076    0.82156629
     atom   14 type  3   force =     1.03967699    1.01723729   -0.06369361
     atom   15 type  3   force =     0.91807192   -0.96480954   -0.82150586
     atom   16 type  3   force =     0.54227911   -0.57919074    1.35610193
     The core correction contribution to forces
     atom    1 type  1   force =    -0.00190997    0.00177108    0.00255717
     atom    2 type  1   force =     0.00074540   -0.00080878    0.00598527
     atom    3 type  1   force =     0.00000182    0.00000686    0.00000704
     atom    4 type  1   force =     0.00285011   -0.00538564   -0.00059153
     atom    5 type  1   force =    -0.00187367    0.00364396   -0.00582980
     atom    6 type  1   force =     0.00186390   -0.00364790    0.00582152
     atom    7 type  1   force =    -0.00285653    0.00539891    0.00058924
     atom    8 type  1   force =    -0.00074197    0.00081565   -0.00596061
     atom    9 type  1   force =     0.00191226   -0.00178561   -0.00256454
     atom   10 type  2   force =    -0.00000123   -0.00000687   -0.00000469
     atom   11 type  3   force =     0.00115050    0.00412170   -0.00547877
     atom   12 type  3   force =     0.00306160   -0.00384424    0.00856267
     atom   13 type  3   force =     0.00432548   -0.00417099   -0.00743062
     atom   14 type  3   force =    -0.00114832   -0.00411493    0.00547775
     atom   15 type  3   force =    -0.00432439    0.00417391    0.00742992
     atom   16 type  3   force =    -0.00306351    0.00384668   -0.00855840
     The Hubbard contrib.    to forces
     atom    1 type  1   force =     0.00000000    0.00000000    0.00000000
     atom    2 type  1   force =     0.00000000    0.00000000    0.00000000
     atom    3 type  1   force =     0.00000000    0.00000000    0.00000000
     atom    4 type  1   force =     0.00000000    0.00000000    0.00000000
     atom    5 type  1   force =     0.00000000    0.00000000    0.00000000
     atom    6 type  1   force =     0.00000000    0.00000000    0.00000000
     atom    7 type  1   force =     0.00000000    0.00000000    0.00000000
     atom    8 type  1   force =     0.00000000    0.00000000    0.00000000
     atom    9 type  1   force =     0.00000000    0.00000000    0.00000000
     atom   10 type  2   force =     0.00000000    0.00000000    0.00000000
     atom   11 type  3   force =     0.00000000    0.00000000    0.00000000
     atom   12 type  3   force =     0.00000000    0.00000000    0.00000000
     atom   13 type  3   force =     0.00000000    0.00000000    0.00000000
     atom   14 type  3   force =     0.00000000    0.00000000    0.00000000
     atom   15 type  3   force =     0.00000000    0.00000000    0.00000000
     atom   16 type  3   force =     0.00000000    0.00000000    0.00000000
     The SCF correction term to forces
     atom    1 type  1   force =    -0.00024092    0.00101093    0.00004881
     atom    2 type  1   force =    -0.00003407   -0.00012412   -0.00096630
     atom    3 type  1   force =    -0.00040943   -0.00076948   -0.00037409
     atom    4 type  1   force =     0.00019062   -0.00047572   -0.00027697
     atom    5 type  1   force =     0.00043833    0.00037138    0.00002345
     atom    6 type  1   force =     0.00006470   -0.00015602    0.00080835
     atom    7 type  1   force =     0.00029646   -0.00036932    0.00038493
     atom    8 type  1   force =    -0.00005307   -0.00042360   -0.00062617
     atom    9 type  1   force =    -0.00038688    0.00033675    0.00030548
     atom   10 type  2   force =     0.00038786    0.00073014    0.00051801
     atom   11 type  3   force =     0.00004031    0.00021533   -0.00001150
     atom   12 type  3   force =     0.00000047   -0.00004470    0.00014289
     atom   13 type  3   force =     0.00003586   -0.00022543    0.00007653
     atom   14 type  3   force =     0.00002665   -0.00014211    0.00008724
     atom   15 type  3   force =     0.00002243    0.00011601   -0.00013484
     atom   16 type  3   force =    -0.00009425    0.00016937   -0.00005832

     Total force =     0.147739     Total SCF correction =     0.002602

     Computing stress (Cartesian axis) and pressure

     negative rho (up, down):  4.785E-01 0.000E+00
          total   stress  (Ry/bohr**3)                   (kbar)     P=       51.34
   0.00033743   0.00000595   0.00001819           49.64        0.88        2.68
   0.00000595   0.00034848  -0.00014438            0.88       51.26      -21.24
   0.00001819  -0.00014438   0.00036100            2.68      -21.24       53.11

     kinetic stress (kbar)   4279.29     -2.18     -1.69
                               -2.18   4286.30    -18.37
                               -1.69    -18.37   4291.00

     local   stress (kbar)   3425.13   -111.06      5.02
                             -111.06   3434.12    -12.73
                                5.02    -12.73   3540.04

     nonloc. stress (kbar)   4099.16     -1.20      0.99
                               -1.20   4096.64      9.08
                                0.99      9.08   4095.14

     hartree stress (kbar)   3881.95     39.72     -1.01
                               39.72   3879.72     -0.24
                               -1.01     -0.24   3843.89

     exc-cor stress (kbar)  18058.53     -0.12     -0.00
                               -0.12  18058.63     -0.04
                               -0.00     -0.04  18058.78

     corecor stress (kbar) -21985.62     -0.28     -0.64
                               -0.28 -21986.15      1.06
                               -0.64      1.06 -21986.21

     ewald   stress (kbar) -11708.81     75.99     -0.00
                               75.99 -11717.99      0.00
                               -0.00      0.00 -11789.53

     hubbard stress (kbar)      0.00      0.00      0.00
                                0.00      0.00      0.00
                                0.00      0.00      0.00

     DFT-D   stress (kbar)      0.00      0.00      0.00
                                0.00      0.00      0.00
                                0.00      0.00      0.00

     XDM     stress (kbar)      0.00      0.00      0.00
                                0.00      0.00      0.00
                                0.00      0.00      0.00

     dft-nl  stress (kbar)      0.00      0.00      0.00
                                0.00      0.00      0.00
                                0.00      0.00      0.00

     TS-vdW  stress (kbar)      0.00      0.00      0.00
                                0.00      0.00      0.00
                                0.00      0.00      0.00

[...]

                                0.00      0.00      0.00

     Writing all to output data dir new_calculations/myprefix.save/

     General routines

     Parallel routines

   This run was terminated on:  15:32: 0  20May2023

   JOB DONE.