     Program PWSCF v.7.0 starts on 20May2023 at 11:48: 3

     Reading input from espresso_14336.pwi
Warning: card &CELL ignored
Warning: card / ignored

     Current dimensions of program PWSCF are:
     Max number of different atomic species (ntypx) = 10
     Max number of k-points (npk) =  40000
     Max angular momentum in pseudopotentials (lmaxx) =  4
     file O.pbe-n-kjpaw_psl.0.1.UPF: wavefunction(s)  2P renormalized

     gamma-point specific algorithms are used
     Message from routine setup:
     using ibrav=0 with symmetry is DISCOURAGED, use correct ibrav instead

     Subspace diagonalization in iterative solution of the eigenvalue problem:
     a serial algorithm will be used

     Using Slab Decomposition

     bravais-lattice index     =            0
     lattice parameter (alat)  =       8.2290  a.u.
     unit-cell volume          =     373.2043 (a.u.)^3
     number of atoms/cell      =            6
     number of atomic types    =            3
     number of electrons       =        56.00
     number of Kohn-Sham states=           34
     kinetic-energy cutoff     =      30.0000  Ry
     charge density cutoff     =     240.0000  Ry
     scf convergence threshold =      1.0E-06
     mixing beta               =       0.7000
     number of iterations used =            8  plain     mixing
     Exchange-correlation= SLA  PW   PBX  PBC
                           (   1   4   3   4   0   0   0)

     celldm(1)=   8.228953  celldm(2)=   0.000000  celldm(3)=   0.000000
     celldm(4)=   0.000000  celldm(5)=   0.000000  celldm(6)=   0.000000

     crystal axes: (cart. coord. in units of alat)
               a(1) = (   1.000000   0.000000   0.000000 )
               a(2) = (  -0.008892   0.999960   0.000000 )
               a(3) = (   0.000000   0.000000   0.669777 )

     reciprocal axes: (cart. coord. in units 2 pi/alat)
               b(1) = (  1.000000  0.008892  0.000000 )
               b(2) = (  0.000000  1.000040  0.000000 )
               b(3) = (  0.000000  0.000000  1.493035 )

     PseudoPot. # 1 for Mn read from file:
     /home/pragov/projects/rrg-bengioy-ad/pragov/crystal_structure_design/SSSP/mn_pbe_v1.5.uspp.F.UPF
     MD5 check sum: 82ef2b46521d7a7d9e736dc3972e4928
     Pseudo is Ultrasoft + core correction, Zval = 15.0
     Generated by new atomic code, or converted to UPF format
     Using radial grid of  859 points,  6 beta functions with:
                l(1) =   0
                l(2) =   0
                l(3) =   1
                l(4) =   1
                l(5) =   2
                l(6) =   2
     Q(r) pseudized with  8 coefficients,  rinner =    0.950   0.950   0.950
                                                       0.950   0.950

     PseudoPot. # 2 for Co read from file:
     /home/pragov/projects/rrg-bengioy-ad/pragov/crystal_structure_design/SSSP/Co_pbe_v1.2.uspp.F.UPF
     MD5 check sum: 5f91765df6ddd3222702df6e7b74a16d
     Pseudo is Ultrasoft + core correction, Zval = 17.0
     Generated by new atomic code, or converted to UPF format
     Using radial grid of  863 points,  6 beta functions with:
                l(1) =   0
                l(2) =   0
                l(3) =   1
                l(4) =   1
                l(5) =   2
                l(6) =   2
     Q(r) pseudized with  8 coefficients,  rinner =    1.200   1.200   1.200
                                                       1.200   1.200

     PseudoPot. # 3 for O  read from file:
     /home/pragov/projects/rrg-bengioy-ad/pragov/crystal_structure_design/SSSP/O.pbe-n-kjpaw_psl.0.1.UPF
     MD5 check sum: 0234752ac141de4415c5fc33072bef88
     Pseudo is Projector augmented-wave + core cor, Zval =  6.0
     Generated using "atomic" code by A. Dal Corso  v.5.0.99 svn rev. 10869
     Shape of augmentation charge: BESSEL
     Using radial grid of 1095 points,  4 beta functions with:
                l(1) =   0
                l(2) =   0
                l(3) =   1
                l(4) =   1
     Q(r) pseudized with 0 coefficients

     atomic species   valence    mass     pseudopotential
        Mn            15.00    54.93804     Mn( 1.00)
        Co            17.00    58.93319     Co( 1.00)
        O              6.00    15.99900     O ( 1.00)

      4 Sym. Ops., with inversion, found

                                    s                        frac. trans.

      isym =  1     identity

 cryst.   s( 1) = (     1          0          0      )
                  (     0          1          0      )
                  (     0          0          1      )

 cart.    s( 1) = (  1.0000000  0.0000000  0.0000000 )
                  (  0.0000000  1.0000000  0.0000000 )
                  (  0.0000000  0.0000000  1.0000000 )

      isym =  2     180 deg rotation - cart. axis [0,0,1]

[...]

      isym =  3     inversion

[...]

      isym =  4     inv. 180 deg rotation - cart. axis [0,0,1]

 cryst.   s( 4) = (     1          0          0      )
                  (     0          1          0      )
                  (     0          0         -1      )

 cart.    s( 4) = (  1.0000000  0.0000000  0.0000000 )
                  (  0.0000000  1.0000000  0.0000000 )
                  (  0.0000000  0.0000000 -1.0000000 )

   Cartesian axes

     site n.     atom                  positions (alat units)
         1           Mn  tau(   1) = (   0.0000000   0.0000000   0.3348884  )
         2           Co  tau(   2) = (   0.4955542   0.4999802   0.0000000  )
         3           O   tau(   3) = (   0.6876683   0.3095668   0.3348884  )
         4           O   tau(   4) = (   0.1985854   0.2003591   0.0000000  )
         5           O   tau(   5) = (   0.7925229   0.7996014   0.0000000  )
         6           O   tau(   6) = (   0.3034400   0.6903937   0.3348884  )

   Crystallographic axes

     site n.     atom                  positions (cryst. coord.)
         1           Mn  tau(   1) = (  0.0000000  0.0000000  0.5000000  )
         2           Co  tau(   2) = (  0.5000000  0.5000000  0.0000000  )
         3           O   tau(   3) = (  0.6904210  0.3095790  0.5000000  )
         4           O   tau(   4) = (  0.2003670  0.2003670  0.0000000  )
         5           O   tau(   5) = (  0.7996330  0.7996330  0.0000000  )
         6           O   tau(   6) = (  0.3095790  0.6904210  0.5000000  )

     number of k points=     1  Methfessel-Paxton smearing, width (Ry)=  0.0010
                       cart. coord. in units 2pi/alat
        k(    1) = (   0.0000000   0.0000000   0.0000000), wk =   2.0000000

                       cryst. coord.
        k(    1) = (   0.0000000   0.0000000   0.0000000), wk =   2.0000000

     Check: negative core charge=   -0.000032

     Initial potential from superposition of free atoms

     starting charge      54.4999, renormalised to      56.0000
     Starting wfcs are   42 randomized atomic wfcs
     Checking if some PAW data can be deallocated...

     Self-consistent Calculation

     iteration #  1     ecut=    30.00 Ry     beta= 0.70
     Davidson diagonalization with overlap

     ethr =  1.00E-02,  avg # of iterations =  2.0

     total energy              =    -670.10775476 Ry
     estimated scf accuracy    <       8.62014753 Ry

[...]

     total energy              =    -675.61167532 Ry
     estimated scf accuracy    <       0.00000166 Ry

     iteration # 98     ecut=    30.00 Ry     beta= 0.70
     Davidson diagonalization with overlap

     ethr =  2.97E-09,  avg # of iterations =  1.0

     End of self-consistent calculation

          k = 0.0000 0.0000 0.0000 (   509 PWs)   bands (ev):

   -85.3969 -69.3943 -48.7228 -48.6205 -48.4445 -38.5879 -38.1025 -37.5144
    -9.3934  -7.3501  -7.1491  -7.1243   3.0989   4.0991   4.2497   5.2834
     5.6645   6.6999   6.9634   7.0261   9.0409   9.1137   9.1253   9.1817
     9.6995   9.7446   9.9756   9.9802   9.9839  10.9764  11.4393  13.3541
    14.3026  14.6819

     occupation numbers
     1.0000   1.0000   1.0000   1.0000   1.0000   1.0000   1.0000   1.0000
     1.0000   1.0000   1.0000   1.0000   1.0000   1.0000   1.0000   1.0000
     1.0000   1.0000   1.0000   1.0000   1.0000   1.0000   1.0000   1.0000
     1.0000   1.0000   0.8901   0.6675   0.4424  -0.0000  -0.0000  -0.0000
    -0.0000  -0.0000

     the Fermi energy is     9.9830 ev

!    total energy              =    -675.61167518 Ry
     estimated scf accuracy    <       0.00000022 Ry
     smearing contrib. (-TS)   =      -0.00061579 Ry
     internal energy E=F+TS    =    -675.61105938 Ry

     The total energy is F=E-TS. E is the sum of the following terms:
     one-electron contribution =    -354.56859105 Ry
     hartree contribution      =     207.31505518 Ry
     xc contribution           =     -88.47405647 Ry
     ewald contribution        =    -401.82682771 Ry
     one-center paw contrib.   =     -38.05663933 Ry
      -> PAW hartree energy AE =     118.98262311 Ry
      -> PAW hartree energy PS =    -118.54235706 Ry
      -> PAW xc energy AE      =     -68.73513751 Ry
      -> PAW xc energy PS      =      30.23823214 Ry
      -> total E_H with PAW    =     207.75532123 Ry
      -> total E_XC with PAW   =    -126.97096184 Ry

     convergence has been achieved in  98 iterations

     Forces acting on atoms (cartesian axes, Ry/au):

     atom    1 type  1   force =     0.00000000    0.00000000    0.00000000
     atom    2 type  2   force =     0.00000000    0.00000000    0.00000000
     atom    3 type  3   force =     0.00310110   -0.00307324    0.00000000
     atom    4 type  3   force =    -0.05829705   -0.05881812    0.00000000
     atom    5 type  3   force =     0.05829705    0.05881812    0.00000000
     atom    6 type  3   force =    -0.00310110    0.00307324    0.00000000
     The non-local contrib.  to forces
     atom    1 type  1   force =     0.00000000    0.00000000    0.00000000
     atom    2 type  2   force =     0.00000000    0.00000000    0.00000000
     atom    3 type  3   force =     0.19008746   -0.18839962    0.00000000
     atom    4 type  3   force =     0.17291597    0.17446500    0.00000000
     atom    5 type  3   force =    -0.17291597   -0.17446500    0.00000000
     atom    6 type  3   force =    -0.19008746    0.18839962    0.00000000
     The ionic contribution  to forces
     atom    1 type  1   force =    -0.00000000    0.00000000    0.00000000
     atom    2 type  2   force =    -0.00000000   -0.00000000    0.00000000
     atom    3 type  3   force =     4.04803481   -4.01219969    0.00000000
     atom    4 type  3   force =    -0.32612927   -0.32904211   -0.00000000
     atom    5 type  3   force =     0.32612927    0.32904211   -0.00000000
     atom    6 type  3   force =    -4.04803481    4.01219969   -0.00000000
     The local contribution  to forces
     atom    1 type  1   force =     0.00001693   -0.00005589    0.00000028
     atom    2 type  2   force =    -0.00003146    0.00007285    0.00000002
     atom    3 type  3   force =    -4.23267602    4.19520407    0.00000841
     atom    4 type  3   force =     0.09789844    0.09876297   -0.00000002
     atom    5 type  3   force =    -0.09789903   -0.09876894   -0.00000007
     atom    6 type  3   force =     4.23267099   -4.19519094   -0.00000845
     The core correction contribution to forces
     atom    1 type  1   force =    -0.00000002   -0.00000007    0.00000001
     atom    2 type  2   force =     0.00000001    0.00000003   -0.00000000
     atom    3 type  3   force =    -0.00271026    0.00268622    0.00000009
     atom    4 type  3   force =    -0.00265221   -0.00267597   -0.00000000
     atom    5 type  3   force =     0.00265219    0.00267596   -0.00000000
     atom    6 type  3   force =     0.00271026   -0.00268617   -0.00000009
     The Hubbard contrib.    to forces
     atom    1 type  1   force =     0.00000000    0.00000000    0.00000000
     atom    2 type  2   force =     0.00000000    0.00000000    0.00000000
     atom    3 type  3   force =     0.00000000    0.00000000    0.00000000
     atom    4 type  3   force =     0.00000000    0.00000000    0.00000000
     atom    5 type  3   force =     0.00000000    0.00000000    0.00000000
     atom    6 type  3   force =     0.00000000    0.00000000    0.00000000
     The SCF correction term to forces
     atom    1 type  1   force =    -0.00001485    0.00005203   -0.00000031
     atom    2 type  2   force =     0.00003041   -0.00006963   -0.00000004
     atom    3 type  3   force =     0.00036504   -0.00036301   -0.00000834
     atom    4 type  3   force =    -0.00033073   -0.00032798   -0.00000003
     atom    5 type  3   force =     0.00032983    0.00033401    0.00000009
     atom    6 type  3   force =    -0.00036017    0.00035225    0.00000835

     Total force =     0.117279     Total SCF correction =     0.000982

     Computing stress (Cartesian axis) and pressure

          total   stress  (Ry/bohr**3)                   (kbar)     P=     -831.25
  -0.00531446   0.00011270   0.00000000         -781.78       16.58        0.00
   0.00011270  -0.00531245   0.00000000           16.58     -781.49        0.00
   0.00000000   0.00000000  -0.00632522            0.00        0.00     -930.47

     kinetic stress (kbar)  40381.50     51.91      0.00
                               51.91  40382.42      0.00
                                0.00      0.00  40477.60

     local   stress (kbar)  -5721.23  -4126.93      0.41
                            -4126.93  -5794.62     -0.40
                                0.41     -0.40 -48741.15

     nonloc. stress (kbar)  15063.29    133.70      0.00
                              133.70  15065.67      0.00
                                0.00      0.00  15679.47

     hartree stress (kbar)  21434.14   1651.52     -0.10
                             1651.52  21463.51      0.10
                               -0.10      0.10  38819.25

     exc-cor stress (kbar)  -7912.99      4.45     -0.00
                                4.45  -7912.91      0.00
                               -0.00      0.00  -7892.17

     corecor stress (kbar)  -2961.14     -3.34      0.00
                               -3.34  -2961.20     -0.00
                                0.00     -0.00  -2976.03

     ewald   stress (kbar) -61065.35   2305.28     -0.00
                             2305.28 -61024.35     -0.00
                               -0.00     -0.00 -36297.44

     hubbard stress (kbar)      0.00      0.00      0.00
                                0.00      0.00      0.00
                                0.00      0.00      0.00

     DFT-D   stress (kbar)      0.00      0.00      0.00
                                0.00      0.00      0.00
                                0.00      0.00      0.00

     XDM     stress (kbar)      0.00      0.00      0.00
                                0.00      0.00      0.00
                                0.00      0.00      0.00

     dft-nl  stress (kbar)      0.00      0.00      0.00
                                0.00      0.00      0.00
                                0.00      0.00      0.00

     TS-vdW  stress (kbar)      0.00      0.00      0.00
                                0.00      0.00      0.00
                                0.00      0.00      0.00

[...]

                                0.00      0.00      0.00

     Writing all to output data dir new_calculations/myprefix.save/

     General routines

     Parallel routines

     PAW routines

   This run was terminated on:  11:48:21  20May2023

   JOB DONE.