     Program PWSCF v.7.0 starts on 21May2023 at  4:13:44

     Reading input from espresso_13911.pwi
Warning: card &CELL ignored
Warning: card / ignored

     Current dimensions of program PWSCF are:
     Max number of different atomic species (ntypx) = 10
     Max number of k-points (npk) =  40000
     Max angular momentum in pseudopotentials (lmaxx) =  4
     file O.pbe-n-kjpaw_psl.0.1.UPF: wavefunction(s)  2P renormalized

     gamma-point specific algorithms are used
     Message from routine setup:
     using ibrav=0 with symmetry is DISCOURAGED, use correct ibrav instead

     Subspace diagonalization in iterative solution of the eigenvalue problem:
     a serial algorithm will be used

     Using Slab Decomposition

     bravais-lattice index     =            0
     lattice parameter (alat)  =      11.5910  a.u.
     unit-cell volume          =     863.0588 (a.u.)^3
     number of atoms/cell      =            8
     number of atomic types    =            3
     number of electrons       =        94.00
     number of Kohn-Sham states=           56
     kinetic-energy cutoff     =      30.0000  Ry
     charge density cutoff     =     240.0000  Ry
     scf convergence threshold =      1.0E-06
     mixing beta               =       0.7000
     number of iterations used =            8  plain     mixing
     Exchange-correlation= SLA  PW   PBX  PBC
                           (   1   4   3   4   0   0   0)

     celldm(1)=  11.590998  celldm(2)=   0.000000  celldm(3)=   0.000000
     celldm(4)=   0.000000  celldm(5)=   0.000000  celldm(6)=   0.000000

     crystal axes: (cart. coord. in units of alat)
               a(1) = (   1.000000   0.000000   0.000000 )
               a(2) = (   0.317044   0.948411   0.000000 )
               a(3) = (  -0.658522  -0.474205   0.584361 )

     reciprocal axes: (cart. coord. in units 2 pi/alat)
               b(1) = (  1.000000 -0.334290  0.855635 )
               b(2) = (  0.000000  1.054395  0.855635 )
               b(3) = (  0.000000  0.000000  1.711270 )

     PseudoPot. # 1 for V  read from file:
     /home/pragov/projects/rrg-bengioy-ad/pragov/crystal_structure_design/SSSP/v_pbe_v1.4.uspp.F.UPF
     MD5 check sum: 22b79981416ebb76fdaf5b1b8640f6fb
     Pseudo is Ultrasoft + core correction, Zval = 13.0
     Generated by new atomic code, or converted to UPF format
     Using radial grid of  853 points,  6 beta functions with:
                l(1) =   0
                l(2) =   0
                l(3) =   1
                l(4) =   1
                l(5) =   2
                l(6) =   2
     Q(r) pseudized with  8 coefficients,  rinner =    1.100   1.100   1.100
                                                       1.100   1.100

     PseudoPot. # 2 for Ag read from file:
     /home/pragov/projects/rrg-bengioy-ad/pragov/crystal_structure_design/SSSP/Ag_ONCV_PBE-1.0.oncvpsp.upf
     MD5 check sum: 94f47bd0669c641108e45594df92fabc
     Pseudo is Norm-conserving, Zval = 19.0
     Generated using ONCVPSP code by D. R. Hamann
     Using radial grid of 1398 points,  6 beta functions with:
                l(1) =   0
                l(2) =   0
                l(3) =   1
                l(4) =   1
                l(5) =   2
                l(6) =   2

     PseudoPot. # 3 for O  read from file:
     /home/pragov/projects/rrg-bengioy-ad/pragov/crystal_structure_design/SSSP/O.pbe-n-kjpaw_psl.0.1.UPF
     MD5 check sum: 0234752ac141de4415c5fc33072bef88
     Pseudo is Projector augmented-wave + core cor, Zval =  6.0
     Generated using "atomic" code by A. Dal Corso  v.5.0.99 svn rev. 10869
     Shape of augmentation charge: BESSEL
     Using radial grid of 1095 points,  4 beta functions with:
                l(1) =   0
                l(2) =   0
                l(3) =   1
                l(4) =   1
     Q(r) pseudized with 0 coefficients

     atomic species   valence    mass     pseudopotential
        V             13.00    50.94150     V ( 1.00)
        Ag            19.00   107.86820     Ag( 1.00)
        O              6.00    15.99900     O ( 1.00)

      2 Sym. Ops. (no inversion) found

                                    s                        frac. trans.

      isym =  1     identity

 cryst.   s( 1) = (     1          0          0      )
                  (     0          1          0      )
                  (     0          0          1      )

 cart.    s( 1) = (  1.0000000 -0.0000000 -0.0000000 )
                  (  0.0000000  1.0000000  0.0000000 )
                  (  0.0000000  0.0000000  1.0000000 )

      isym =  2     inv. 180 deg rotation - cart. axis [0,0,1]

 cryst.   s( 2) = (     1          0          0      )
                  (     0          1          0      )
                  (    -1         -1         -1      )

 cart.    s( 2) = (  1.0000000 -0.0000000 -0.0000000 )
                  (  0.0000000  1.0000000 -0.0000000 )
                  (  0.0000000  0.0000000 -1.0000000 )

   Cartesian axes

     site n.     atom                  positions (alat units)
         1           V   tau(   1) = (   0.0000000   0.0000000   0.0000000  )
         2           Ag  tau(   2) = (   0.6585219   0.4742054   0.0000000  )
         3           Ag  tau(   3) = (   0.1585219   0.4742054   0.2921806  )
         4           Ag  tau(   4) = (   0.5000000   0.0000000   0.2921806  )
         5           O   tau(   5) = (   0.5242322   0.3775026   0.3495357  )
         6           O   tau(   6) = (  -0.1342897  -0.0967028   0.2348256  )
         7           O   tau(   7) = (   0.5885566   0.8545542   0.0000000  )
         8           O   tau(   8) = (   0.9970668   0.2872623   0.0000000  )

   Crystallographic axes

     site n.     atom                  positions (cryst. coord.)
         1           V   tau(   1) = (  0.0000000  0.0000000  0.0000000  )
         2           Ag  tau(   2) = (  0.5000000  0.5000000  0.0000000  )
         3           Ag  tau(   3) = (  0.2500000  0.7500000  0.5000000  )
         4           Ag  tau(   4) = (  0.7500000  0.2500000  0.5000000  )
         5           O   tau(   5) = (  0.6971120  0.6971120  0.5981500  )
         6           O   tau(   6) = (  0.0989620  0.0989620  0.4018500  )
         7           O   tau(   7) = (  0.3028880  0.9010380  0.0000000  )
         8           O   tau(   8) = (  0.9010380  0.3028880  0.0000000  )

     number of k points=     1  Methfessel-Paxton smearing, width (Ry)=  0.0010
                       cart. coord. in units 2pi/alat
        k(    1) = (   0.0000000   0.0000000   0.0000000), wk =   2.0000000

                       cryst. coord.
        k(    1) = (   0.0000000   0.0000000   0.0000000), wk =   2.0000000

     Check: negative core charge=   -0.000012

     Initial potential from superposition of free atoms

     starting charge      93.9979, renormalised to      94.0000

     negative rho (up, down):  8.898E-04 0.000E+00
     Starting wfcs are   56 randomized atomic wfcs
     Checking if some PAW data can be deallocated...

     Self-consistent Calculation

     iteration #  1     ecut=    30.00 Ry     beta= 0.70
     Davidson diagonalization with overlap

     ethr =  1.00E-02,  avg # of iterations =  4.0

     negative rho (up, down):  1.517E-03 0.000E+00

     total energy              =   -1171.54418256 Ry
     estimated scf accuracy    <       2.30173336 Ry

[...]

     total energy              =   -1172.84257510 Ry
     estimated scf accuracy    <       0.00000440 Ry

     iteration # 11     ecut=    30.00 Ry     beta= 0.70
     Davidson diagonalization with overlap

     ethr =  4.68E-09,  avg # of iterations =  2.0

[...]

     End of self-consistent calculation

          k = 0.0000 0.0000 0.0000 (  1207 PWs)   bands (ev):

   -82.7565 -82.7015 -82.6200 -56.1692 -45.9270 -45.8830 -45.8230 -45.7886
   -45.7647 -45.7515 -45.7254 -45.6658 -45.6518 -30.0976 -30.0669 -30.0583
    -9.3148  -8.8465  -8.8194  -8.8181   3.6945   3.8499   3.8575   3.9091
     3.9365   4.2463   4.4216   5.0260   5.0309   5.1645   5.5254   5.5310
     6.0593   6.1771   6.2654   6.4273   6.4714   6.4931   6.5248   6.5305
     6.8836   7.0418   7.1083   7.1205   7.5573   7.5635   8.1172   8.9713
    10.4996  10.9442  12.3377  12.3697  12.5673  14.2968  15.3083  15.6449

     occupation numbers
     1.0000   1.0000   1.0000   1.0000   1.0000   1.0000   1.0000   1.0000
     1.0000   1.0000   1.0000   1.0000   1.0000   1.0000   1.0000   1.0000
     1.0000   1.0000   1.0000   1.0000   1.0000   1.0000   1.0000   1.0000
     1.0000   1.0000   1.0000   1.0000   1.0000   1.0000   1.0000   1.0000
     1.0000   1.0000   1.0000   1.0000   1.0000   1.0000   1.0000   1.0000
     1.0000   1.0000   1.0000   1.0000   1.0000   1.0000   1.0000  -0.0000
    -0.0000  -0.0000  -0.0000  -0.0000  -0.0000  -0.0000  -0.0000  -0.0000

     the Fermi energy is     8.8430 ev

!    total energy              =   -1172.84257574 Ry
     estimated scf accuracy    <       0.00000044 Ry
     smearing contrib. (-TS)   =       0.00000000 Ry
     internal energy E=F+TS    =   -1172.84257574 Ry

     The total energy is F=E-TS. E is the sum of the following terms:
     one-electron contribution =    -599.93409326 Ry
     hartree contribution      =     332.56228585 Ry
     xc contribution           =    -130.13343768 Ry
     ewald contribution        =    -737.22127640 Ry
     one-center paw contrib.   =     -38.11605425 Ry
      -> PAW hartree energy AE =     115.34867386 Ry
      -> PAW hartree energy PS =    -114.96213485 Ry
      -> PAW xc energy AE      =     -68.17796980 Ry
      -> PAW xc energy PS      =      29.67537654 Ry
      -> total E_H with PAW    =     332.94882486 Ry
      -> total E_XC with PAW   =    -168.63603095 Ry

     convergence has been achieved in  11 iterations

     negative rho (up, down):  1.292E-03 0.000E+00

     Forces acting on atoms (cartesian axes, Ry/au):

     atom    1 type  1   force =    -0.00247892    0.00359369   -0.00000000
     atom    2 type  2   force =    -0.00104914   -0.00117855    0.00000000
     atom    3 type  2   force =    -0.00101234    0.00010800   -0.00024186
     atom    4 type  2   force =    -0.00101234    0.00010800    0.00024186
     atom    5 type  3   force =     0.00723269    0.00086097    0.01855334
     atom    6 type  3   force =     0.00723269    0.00086097   -0.01855334
     atom    7 type  3   force =    -0.01318536    0.01059197    0.00000000
     atom    8 type  3   force =     0.00427272   -0.01494504    0.00000000
     The non-local contrib.  to forces
     atom    1 type  1   force =    -0.00123992    0.00039305    0.00000000
     atom    2 type  2   force =    -0.00281997    0.00010438    0.00000000
     atom    3 type  2   force =    -0.00343083    0.00182439    0.00321573
     atom    4 type  2   force =    -0.00343083    0.00182439   -0.00321573
     atom    5 type  3   force =     0.10593648    0.07696576    0.27916409
     atom    6 type  3   force =     0.10593648    0.07696576   -0.27916409
     atom    7 type  3   force =    -0.27320816    0.15145862    0.00000000
     atom    8 type  3   force =     0.05554853   -0.30536879    0.00000000
     The ionic contribution  to forces
     atom    1 type  1   force =    -0.00000000   -0.00000000   -0.00000000
     atom    2 type  2   force =     0.00000000    0.00000000   -0.00000000
     atom    3 type  2   force =    -0.00000000   -0.00000000   -0.00000000
     atom    4 type  2   force =    -0.00000000   -0.00000000   -0.00000000
     atom    5 type  3   force =    -1.83753902   -1.32322239   -3.11946782
     atom    6 type  3   force =    -1.83753902   -1.32322239    3.11946782
     atom    7 type  3   force =     3.66043509   -1.20820594    0.00000000
     atom    8 type  3   force =     0.01464295    3.85465073    0.00000000
     The local contribution  to forces
     atom    1 type  1   force =    -0.00094426    0.00170691    0.00004714
     atom    2 type  2   force =     0.00123652   -0.00139515   -0.00069715
     atom    3 type  2   force =     0.00173594   -0.00395336   -0.00578258
     atom    4 type  2   force =     0.00340648   -0.00029532    0.00032509
     atom    5 type  3   force =     1.73883764    1.24437443    2.85993584
     atom    6 type  3   force =     1.73823349    1.24826915   -2.85928620
     atom    7 type  3   force =    -3.40053696    1.06761403    0.00407804
     atom    8 type  3   force =    -0.06503687   -3.56561371   -0.00749616
     The core correction contribution to forces
     atom    1 type  1   force =     0.00005563   -0.00005427   -0.00017067
     atom    2 type  2   force =     0.00000000    0.00000000    0.00000000
     atom    3 type  2   force =     0.00000000    0.00000000    0.00000000
     atom    4 type  2   force =     0.00000000    0.00000000    0.00000000
     atom    5 type  3   force =     0.00023275    0.00003864   -0.00066148
     atom    6 type  3   force =     0.00022948    0.00016351    0.00069799
     atom    7 type  3   force =     0.00023527   -0.00080619    0.00018565
     atom    8 type  3   force =    -0.00070058    0.00059400   -0.00017982
     The Hubbard contrib.    to forces
     atom    1 type  1   force =     0.00000000    0.00000000    0.00000000
     atom    2 type  2   force =     0.00000000    0.00000000    0.00000000
     atom    3 type  2   force =     0.00000000    0.00000000    0.00000000
     atom    4 type  2   force =     0.00000000    0.00000000    0.00000000
     atom    5 type  3   force =     0.00000000    0.00000000    0.00000000
     atom    6 type  3   force =     0.00000000    0.00000000    0.00000000
     atom    7 type  3   force =     0.00000000    0.00000000    0.00000000
     atom    8 type  3   force =     0.00000000    0.00000000    0.00000000
     The SCF correction term to forces
     atom    1 type  1   force =    -0.00034802    0.00095206   -0.00122159
     atom    2 type  2   force =     0.00053665   -0.00048371    0.00091021
     atom    3 type  2   force =     0.00028925   -0.00073432   -0.00031029
     atom    4 type  2   force =    -0.00059001    0.00035836    0.00049723
     atom    5 type  3   force =     0.00001412    0.00006041   -0.00021743
     atom    6 type  3   force =     0.00012765    0.00013720   -0.00006901
     atom    7 type  3   force =    -0.00010825   -0.00006449   -0.00003378
     atom    8 type  3   force =    -0.00017897    0.00019679   -0.00004290

     Total force =     0.036687     Total SCF correction =     0.002344

     Computing stress (Cartesian axis) and pressure

     negative rho (up, down):  1.292E-03 0.000E+00
          total   stress  (Ry/bohr**3)                   (kbar)     P=    -1014.51
  -0.00696234  -0.00037135   0.00000000        -1024.20      -54.63        0.00
  -0.00037135  -0.00685914   0.00000000          -54.63    -1009.01        0.00
   0.00000000   0.00000000  -0.00686794            0.00        0.00    -1010.31

     kinetic stress (kbar)  44489.11    -52.57     -0.00
                              -52.57  44530.60     -0.00
                               -0.00     -0.00  44558.83

     local   stress (kbar) -14377.17    373.22      3.17
                              373.22 -14629.69      1.60
                                3.17      1.60 -14896.73

     nonloc. stress (kbar)   -899.42     -3.49      0.00
                               -3.49   -928.27      0.00
                                0.00      0.00   -965.36

     hartree stress (kbar)  18779.67   -158.51     -1.49
                             -158.51  18891.83     -2.33
                               -1.49     -2.33  19012.47

     exc-cor stress (kbar)  -6256.43     -0.49     -0.04
                               -0.49  -6255.85     -0.09
                               -0.04     -0.09  -6255.18

     corecor stress (kbar)   -728.46      0.06      0.02
                                0.06   -728.45     -0.02
                                0.02     -0.02   -728.46

     ewald   stress (kbar) -42031.48   -212.85     -0.00
                             -212.85 -41889.17     -0.00
                               -0.00     -0.00 -41735.90

     hubbard stress (kbar)      0.00      0.00      0.00
                                0.00      0.00      0.00
                                0.00      0.00      0.00

     DFT-D   stress (kbar)      0.00      0.00      0.00
                                0.00      0.00      0.00
                                0.00      0.00      0.00

     XDM     stress (kbar)      0.00      0.00      0.00
                                0.00      0.00      0.00
                                0.00      0.00      0.00

     dft-nl  stress (kbar)      0.00      0.00      0.00
                                0.00      0.00      0.00
                                0.00      0.00      0.00

     TS-vdW  stress (kbar)      0.00      0.00      0.00
                                0.00      0.00      0.00
                                0.00      0.00      0.00

[...]

                                0.00      0.00      0.00

     Writing all to output data dir new_calculations/myprefix.save/

     General routines

     Parallel routines

     PAW routines

   This run was terminated on:   4:13:54  21May2023

   JOB DONE.