     Program PWSCF v.7.0 starts on 21May2023 at  4:19:46

     Reading input from espresso_3048.pwi
Warning: card &CELL ignored
Warning: card / ignored

     Current dimensions of program PWSCF are:
     Max number of different atomic species (ntypx) = 10
     Max number of k-points (npk) =  40000
     Max angular momentum in pseudopotentials (lmaxx) =  4
     file O.pbe-n-kjpaw_psl.0.1.UPF: wavefunction(s)  2P renormalized

     gamma-point specific algorithms are used
     Message from routine setup:
     using ibrav=0 with symmetry is DISCOURAGED, use correct ibrav instead

     Subspace diagonalization in iterative solution of the eigenvalue problem:
     a serial algorithm will be used

     Using Slab Decomposition

     bravais-lattice index     =            0
     lattice parameter (alat)  =      12.2799  a.u.
     unit-cell volume          =     936.7417 (a.u.)^3
     number of atoms/cell      =           14
     number of atomic types    =            3
     number of electrons       =        68.00
     number of Kohn-Sham states=           41
     kinetic-energy cutoff     =      30.0000  Ry
     charge density cutoff     =     240.0000  Ry
     scf convergence threshold =      1.0E-06
     mixing beta               =       0.7000
     number of iterations used =            8  plain     mixing
     Exchange-correlation= SLA  PW   PBX  PBC
                           (   1   4   3   4   0   0   0)

     celldm(1)=  12.279936  celldm(2)=   0.000000  celldm(3)=   0.000000
     celldm(4)=   0.000000  celldm(5)=   0.000000  celldm(6)=   0.000000

     crystal axes: (cart. coord. in units of alat)
               a(1) = (   1.000000   0.000000   0.000000 )
               a(2) = (  -0.500000   0.866025   0.000000 )
               a(3) = (   0.000000   0.000000   0.584118 )

     reciprocal axes: (cart. coord. in units 2 pi/alat)
               b(1) = (  1.000000  0.577350  0.000000 )
               b(2) = (  0.000000  1.154701  0.000000 )
               b(3) = (  0.000000  0.000000  1.711981 )

     PseudoPot. # 1 for Pr read from file:
     /home/pragov/projects/rrg-bengioy-ad/pragov/crystal_structure_design/SSSP/Pr.GGA-PBE-paw-v1.0.UPF
     MD5 check sum: b5e1e58e76df433569641143f671cc27
     Pseudo is Projector augmented-wave + core cor, Zval = 13.0
     Generated using ATOMPAW code
     Shape of augmentation charge: BESSEL
     Using radial grid of 1103 points,  8 beta functions with:
                l(1) =   0
                l(2) =   0
                l(3) =   1
                l(4) =   1
                l(5) =   2
                l(6) =   2
                l(7) =   3
                l(8) =   3
     Q(r) pseudized with 0 coefficients

     PseudoPot. # 2 for H  read from file:
     /home/pragov/projects/rrg-bengioy-ad/pragov/crystal_structure_design/SSSP/H.pbe-rrkjus_psl.1.0.0.UPF
     MD5 check sum: f52b6d4d1c606e5624b1dc7b2218f220
     Pseudo is Ultrasoft, Zval =  1.0
     Generated using "atomic" code by A. Dal Corso  v.5.1
     Using radial grid of  929 points,  2 beta functions with:
                l(1) =   0
                l(2) =   0
     Q(r) pseudized with 0 coefficients

     PseudoPot. # 3 for O  read from file:
     /home/pragov/projects/rrg-bengioy-ad/pragov/crystal_structure_design/SSSP/O.pbe-n-kjpaw_psl.0.1.UPF
     MD5 check sum: 0234752ac141de4415c5fc33072bef88
     Pseudo is Projector augmented-wave + core cor, Zval =  6.0
     Generated using "atomic" code by A. Dal Corso  v.5.0.99 svn rev. 10869
     Shape of augmentation charge: BESSEL
     Using radial grid of 1095 points,  4 beta functions with:
                l(1) =   0
                l(2) =   0
                l(3) =   1
                l(4) =   1
     Q(r) pseudized with 0 coefficients

     atomic species   valence    mass     pseudopotential
        Pr            13.00   140.90766     Pr( 1.00)
        H              1.00     1.00800     H ( 1.00)
        O              6.00    15.99900     O ( 1.00)

     12 Sym. Ops., with inversion, found ( 6 have fractional translation)

                                    s                        frac. trans.

      isym =  1     identity

 cryst.   s( 1) = (     1          0          0      )
                  (     0          1          0      )
                  (     0          0          1      )

 cart.    s( 1) = (  1.0000000  0.0000000  0.0000000 )
                  (  0.0000000  1.0000000  0.0000000 )
                  (  0.0000000  0.0000000  1.0000000 )

      isym =  2     180 deg rotation - cart. axis [0,0,1]

 cryst.   s( 2) = (    -1          0          0      )    f =( -0.0000000 )
                  (     0         -1          0      )       (  0.0000000 )
                  (     0          0          1      )       (  0.5000000 )

 cart.    s( 2) = ( -1.0000000 -0.0000000  0.0000000 )    f =( -0.0000000 )
                  (  0.0000000 -1.0000000  0.0000000 )       (  0.0000000 )
                  (  0.0000000  0.0000000  1.0000000 )       (  0.2920592 )

      isym =  3      60 deg rotation - cryst. axis [0,0,1]

[...]

      isym =  6     120 deg rotation - cryst. axis [0,0,-1]

[...]

      isym =  7     inversion

 cryst.   s( 7) = (    -1          0          0      )
                  (     0         -1          0      )
                  (     0          0         -1      )

 cart.    s( 7) = ( -1.0000000 -0.0000000  0.0000000 )
                  (  0.0000000 -1.0000000  0.0000000 )
                  (  0.0000000  0.0000000 -1.0000000 )

      isym =  8     inv. 180 deg rotation - cart. axis [0,0,1]

[...]

      isym =  9     inv.  60 deg rotation - cryst. axis [0,0,1]

 cryst.   s( 9) = (    -1         -1          0      )    f =(  0.0000010 )
                  (     1          0          0      )       ( -0.0000000 )
                  (     0          0         -1      )       ( -0.5000000 )

 cart.    s( 9) = ( -0.5000000  0.8660254  0.0000000 )    f =(  0.0000010 )
                  ( -0.8660254 -0.5000000  0.0000000 )       ( -0.0000000 )
                  (  0.0000000  0.0000000 -1.0000000 )       ( -0.2920592 )

[...]

 cryst.   s(10) = (     0          1          0      )    f =( -0.0000000 )
                  (    -1         -1          0      )       ( -0.0000010 )
                  (     0          0         -1      )       ( -0.5000000 )

 cart.    s(10) = ( -0.5000000 -0.8660254  0.0000000 )    f =(  0.0000005 )
                  (  0.8660254 -0.5000000  0.0000000 )       ( -0.0000009 )
                  (  0.0000000  0.0000000 -1.0000000 )       ( -0.2920592 )

[...]

 cryst.   s(11) = (     0         -1          0      )
                  (     1          1          0      )
                  (     0          0         -1      )

 cart.    s(11) = (  0.5000000  0.8660254  0.0000000 )
                  ( -0.8660254  0.5000000  0.0000000 )
                  (  0.0000000  0.0000000 -1.0000000 )

      isym = 12     inv. 120 deg rotation - cryst. axis [0,0,-1]

 cryst.   s(12) = (     1          1          0      )
                  (    -1          0          0      )
                  (     0          0         -1      )

 cart.    s(12) = (  0.5000000 -0.8660254  0.0000000 )
                  (  0.8660254  0.5000000  0.0000000 )
                  (  0.0000000  0.0000000 -1.0000000 )

   Cartesian axes

     site n.     atom                  positions (alat units)
         1           Pr  tau(   1) = (  -0.0000005   0.5773506   0.1460296  )
         2           Pr  tau(   2) = (   0.5000005   0.2886748   0.4380889  )
         3           H   tau(   3) = (   0.5000320   0.6276017   0.1460296  )
         4           H   tau(   4) = (   0.7935030   0.1191841   0.1460296  )
         5           H   tau(   5) = (   0.2064650   0.1192396   0.1460296  )
         6           H   tau(   6) = (  -0.0000320   0.2384237   0.4380889  )
         7           H   tau(   7) = (  -0.2935030   0.7468413   0.4380889  )
         8           H   tau(   8) = (   0.2935350   0.7467858   0.4380889  )
         9           O   tau(   9) = (   0.6122645   0.5283941   0.1460296  )
        10           O   tau(  10) = (   0.6514705   0.0715917   0.1460296  )
        11           O   tau(  11) = (   0.2362650   0.2660395   0.1460296  )
        12           O   tau(  12) = (  -0.1122645   0.3376313   0.4380889  )
        13           O   tau(  13) = (  -0.1514705   0.7944337   0.4380889  )
        14           O   tau(  14) = (   0.2637350   0.5999859   0.4380889  )

   Crystallographic axes

     site n.     atom                  positions (cryst. coord.)
         1           Pr  tau(   1) = (  0.3333330  0.6666670  0.2500000  )
         2           Pr  tau(   2) = (  0.6666670  0.3333330  0.7500000  )
         3           H   tau(   3) = (  0.8623780  0.7246920  0.2500000  )
         4           H   tau(   4) = (  0.8623140  0.1376220  0.2500000  )
         5           H   tau(   5) = (  0.2753080  0.1376860  0.2500000  )
         6           H   tau(   6) = (  0.1376220  0.2753080  0.7500000  )
         7           H   tau(   7) = (  0.1376860  0.8623780  0.7500000  )
         8           H   tau(   8) = (  0.7246920  0.8623140  0.7500000  )
         9           O   tau(   9) = (  0.9173330  0.6101370  0.2500000  )
        10           O   tau(  10) = (  0.6928040  0.0826670  0.2500000  )
        11           O   tau(  11) = (  0.3898630  0.3071960  0.2500000  )
        12           O   tau(  12) = (  0.0826670  0.3898630  0.7500000  )
        13           O   tau(  13) = (  0.3071960  0.9173330  0.7500000  )
        14           O   tau(  14) = (  0.6101370  0.6928040  0.7500000  )

     number of k points=     1  Methfessel-Paxton smearing, width (Ry)=  0.0010
                       cart. coord. in units 2pi/alat
        k(    1) = (   0.0000000   0.0000000   0.0000000), wk =   2.0000000

                       cryst. coord.
        k(    1) = (   0.0000000   0.0000000   0.0000000), wk =   2.0000000

     Check: negative core charge=   -0.000012

     Initial potential from superposition of free atoms

     starting charge      67.9851, renormalised to      68.0000
     Starting wfcs are   94 randomized atomic wfcs
     Checking if some PAW data can be deallocated...

     Self-consistent Calculation

     iteration #  1     ecut=    30.00 Ry     beta= 0.70
     Davidson diagonalization with overlap

     ethr =  1.00E-02,  avg # of iterations =  2.0

     total energy              =   -1272.83498267 Ry
     estimated scf accuracy    <       2.52673895 Ry

[...]

     total energy              =   -1274.07558111 Ry
     estimated scf accuracy    <       0.00000109 Ry

     iteration # 98     ecut=    30.00 Ry     beta= 0.70
     Davidson diagonalization with overlap

     ethr =  1.60E-09,  avg # of iterations =  1.0

     End of self-consistent calculation

          k = 0.0000 0.0000 0.0000 (  1297 PWs)   bands (ev):

   -27.0673 -27.0162 -12.2155 -12.1158 -12.0950 -11.9896 -11.9653 -11.3807
    -8.9027  -8.7750  -8.7218  -8.7136  -8.5096  -8.5007   0.3246   0.8568
     0.8819   1.4104   1.4363   1.5655   3.3598   3.9153   4.2172   4.2452
     4.3688   4.4717   4.5013   4.8156   4.8362   5.3493   5.3707   6.1292
     9.1693   9.1696   9.1717   9.2039   9.2487   9.2716   9.3190   9.3454
     9.3499

     occupation numbers
     1.0000   1.0000   1.0000   1.0000   1.0000   1.0000   1.0000   1.0000
     1.0000   1.0000   1.0000   1.0000   1.0000   1.0000   1.0000   1.0000
     1.0000   1.0000   1.0000   1.0000   1.0000   1.0000   1.0000   1.0000
     1.0000   1.0000   1.0000   1.0000   1.0000   1.0000   1.0000   1.0000
     0.7183   0.7043   0.5804  -0.0030  -0.0000  -0.0000  -0.0000  -0.0000
    -0.0000

     the Fermi energy is     9.1730 ev

!    total energy              =   -1274.07558104 Ry
     estimated scf accuracy    <       0.00000050 Ry
     smearing contrib. (-TS)   =      -0.00071615 Ry
     internal energy E=F+TS    =   -1274.07486489 Ry

     The total energy is F=E-TS. E is the sum of the following terms:
     one-electron contribution =    -117.52688426 Ry
     hartree contribution      =     104.23701665 Ry
     xc contribution           =     -73.15078123 Ry
     ewald contribution        =    -291.45034251 Ry
     one-center paw contrib.   =    -896.18387353 Ry
      -> PAW hartree energy AE =     309.11377650 Ry
      -> PAW hartree energy PS =    -308.46724770 Ry
      -> PAW xc energy AE      =    -964.22327747 Ry
      -> PAW xc energy PS      =      67.39287513 Ry
      -> total E_H with PAW    =     104.88354546 Ry
      -> total E_XC with PAW   =    -969.98118357 Ry

     convergence has been achieved in  98 iterations

     Forces acting on atoms (cartesian axes, Ry/au):

     atom    1 type  1   force =     0.00000000   -0.00000000   -0.00000000
     atom    2 type  1   force =    -0.00000000    0.00000000   -0.00000000
     atom    3 type  2   force =    -0.00731898    0.00395656    0.00000000
     atom    4 type  2   force =     0.00708597    0.00436014   -0.00000000
     atom    5 type  2   force =     0.00023301   -0.00831670   -0.00000000
     atom    6 type  2   force =     0.00731898   -0.00395656    0.00000000
     atom    7 type  2   force =    -0.00708597   -0.00436014    0.00000000
     atom    8 type  2   force =    -0.00023301    0.00831670    0.00000000
     atom    9 type  3   force =     0.00230842   -0.05516293   -0.00000000
     atom   10 type  3   force =    -0.04892671    0.02558232    0.00000000
     atom   11 type  3   force =     0.04661829    0.02958061    0.00000000
     atom   12 type  3   force =    -0.00230842    0.05516293   -0.00000000
     atom   13 type  3   force =     0.04892671   -0.02558232    0.00000000
     atom   14 type  3   force =    -0.04661829   -0.02958061   -0.00000000
     The non-local contrib.  to forces
     atom    1 type  1   force =     0.00000000    0.00000000    0.00000000
     atom    2 type  1   force =     0.00000000   -0.00000000    0.00000000
     atom    3 type  2   force =     0.08189727   -0.07139999   -0.00000000
     atom    4 type  2   force =    -0.10278283   -0.03522512    0.00000000
     atom    5 type  2   force =     0.02088557    0.10662511    0.00000000
     atom    6 type  2   force =    -0.08189727    0.07139999    0.00000000
     atom    7 type  2   force =     0.10278283    0.03522512    0.00000000
     atom    8 type  2   force =    -0.02088557   -0.10662511    0.00000000
     atom    9 type  3   force =    -1.15725037    1.01736800   -0.00000000
     atom   10 type  3   force =     1.45969172    0.49352423   -0.00000000
     atom   11 type  3   force =    -0.30244135   -1.51089223    0.00000000
     atom   12 type  3   force =     1.15725037   -1.01736800    0.00000000
     atom   13 type  3   force =    -1.45969172   -0.49352423    0.00000000
     atom   14 type  3   force =     0.30244135    1.51089223   -0.00000000
     The ionic contribution  to forces
     atom    1 type  1   force =     0.00005349   -0.00003090    0.00000000
     atom    2 type  1   force =    -0.00005349    0.00003090    0.00000000
     atom    3 type  2   force =    -2.19914672    3.05081403    0.00000000
     atom    4 type  2   force =     3.74165789    0.37910388   -0.00000000
     atom    5 type  2   force =    -1.54251328   -3.42991672   -0.00000000
     atom    6 type  2   force =     2.19914672   -3.05081403    0.00000000
     atom    7 type  2   force =    -3.74165789   -0.37910388    0.00000000
     atom    8 type  2   force =     1.54251328    3.42991672   -0.00000000
     atom    9 type  3   force =     0.41988737    3.40636610    0.00000000
     atom   10 type  3   force =     2.74004927   -2.06686166   -0.00000000
     atom   11 type  3   force =    -3.15996461   -1.33948820   -0.00000000
     atom   12 type  3   force =    -0.41988737   -3.40636610    0.00000000
     atom   13 type  3   force =    -2.74004927    2.06686166    0.00000000
     atom   14 type  3   force =     3.15996462    1.33948820    0.00000000
     The local contribution  to forces
     atom    1 type  1   force =     0.05337548   -0.04838602    0.00075877
     atom    2 type  1   force =    -0.05338256    0.04892817    0.00062355
     atom    3 type  2   force =     2.10952401   -2.97585992    0.00000082
     atom    4 type  2   force =    -3.63157864   -0.34003781   -0.00000125
     atom    5 type  2   force =     1.52185636    3.31504035   -0.00000221
     atom    6 type  2   force =    -2.10954689    2.97587815   -0.00000600
     atom    7 type  2   force =     3.63157825    0.34001170    0.00000044
     atom    8 type  2   force =    -1.52188654   -3.31505793    0.00000211
     atom    9 type  3   force =     0.72030330   -4.47210801   -0.00010510
     atom   10 type  3   force =    -4.23126443    1.60081612   -0.00026217
     atom   11 type  3   force =     3.50226494    2.87189223   -0.00031335
     atom   12 type  3   force =    -0.72010334    4.47227707   -0.00035995
     atom   13 type  3   force =     4.23136820   -1.60121318   -0.00018640
     atom   14 type  3   force =    -3.50244962   -2.87179268   -0.00019632
     The core correction contribution to forces
     atom    1 type  1   force =     0.00001338   -0.00001392    0.00000019
     atom    2 type  1   force =    -0.00001342    0.00001404    0.00000016
     atom    3 type  2   force =     0.00000000    0.00000000    0.00000000
     atom    4 type  2   force =     0.00000000    0.00000000    0.00000000
     atom    5 type  2   force =     0.00000000    0.00000000    0.00000000
     atom    6 type  2   force =     0.00000000    0.00000000    0.00000000
     atom    7 type  2   force =     0.00000000    0.00000000    0.00000000
     atom    8 type  2   force =     0.00000000    0.00000000    0.00000000
     atom    9 type  3   force =     0.01114551   -0.01026149   -0.00000271
     atom   10 type  3   force =    -0.01442577   -0.00461233   -0.00000355
     atom   11 type  3   force =     0.00319117    0.01488429   -0.00000404
     atom   12 type  3   force =    -0.01114574    0.01026126   -0.00000398
     atom   13 type  3   force =     0.01442570    0.00461255   -0.00000339
     atom   14 type  3   force =    -0.00319109   -0.01488441   -0.00000344
     The Hubbard contrib.    to forces
     atom    1 type  1   force =     0.00000000    0.00000000    0.00000000
     atom    2 type  1   force =     0.00000000    0.00000000    0.00000000
     atom    3 type  2   force =     0.00000000    0.00000000    0.00000000
     atom    4 type  2   force =     0.00000000    0.00000000    0.00000000
     atom    5 type  2   force =     0.00000000    0.00000000    0.00000000
     atom    6 type  2   force =     0.00000000    0.00000000    0.00000000
     atom    7 type  2   force =     0.00000000    0.00000000    0.00000000
     atom    8 type  2   force =     0.00000000    0.00000000    0.00000000
     atom    9 type  3   force =     0.00000000    0.00000000    0.00000000
     atom   10 type  3   force =     0.00000000    0.00000000    0.00000000
     atom   11 type  3   force =     0.00000000    0.00000000    0.00000000
     atom   12 type  3   force =     0.00000000    0.00000000    0.00000000
     atom   13 type  3   force =     0.00000000    0.00000000    0.00000000
     atom   14 type  3   force =     0.00000000    0.00000000    0.00000000
     The SCF correction term to forces
     atom    1 type  1   force =    -0.00010320   -0.00008258   -0.00000078
     atom    2 type  1   force =     0.00002436   -0.00020458    0.00004810
     atom    3 type  2   force =     0.00001165    0.00000023   -0.00000381
     atom    4 type  2   force =     0.00000181    0.00000714   -0.00000092
     atom    5 type  2   force =     0.00000803    0.00000286    0.00000432
     atom    6 type  2   force =     0.00000872   -0.00001736    0.00000514
     atom    7 type  2   force =    -0.00000446    0.00001812   -0.00000015
     atom    8 type  2   force =     0.00002071    0.00001375   -0.00000336
     atom    9 type  3   force =    -0.00011098   -0.00003114   -0.00009898
     atom   10 type  3   force =    -0.00004374    0.00018037    0.00001988
     atom   11 type  3   force =     0.00004595   -0.00008164    0.00002639
     atom   12 type  3   force =    -0.00009604   -0.00015417    0.00007948
     atom   13 type  3   force =    -0.00006727    0.00021833   -0.00006248
     atom   14 type  3   force =     0.00014758   -0.00003387   -0.00004402

     Total force =     0.136766     Total SCF correction =     0.000502

     Computing stress (Cartesian axis) and pressure

          total   stress  (Ry/bohr**3)                   (kbar)     P=     -327.58
  -0.00259372  -0.00000000   0.00000000         -381.55       -0.00        0.00
  -0.00000000  -0.00259372   0.00000000           -0.00     -381.55        0.00
   0.00000000   0.00000000  -0.00149319            0.00        0.00     -219.66

     kinetic stress (kbar)  15246.33      0.00      0.00
                                0.00  15246.33      0.00
                                0.00      0.00  16492.61

     local   stress (kbar)  -5424.41      8.93      0.40
                                8.93  -5407.31      0.52
                                0.40      0.52 -13942.76

     nonloc. stress (kbar)   5663.24      0.00      0.00
                                0.00   5663.24      0.00
                                0.00      0.00   5630.81

     hartree stress (kbar)   4135.34     -6.65     -0.08
                               -6.65   4127.10     -0.10
                               -0.08     -0.10   8106.85

     exc-cor stress (kbar)  -3175.21     -0.03      0.00
                               -0.03  -3175.05      0.00
                                0.00      0.00  -3181.64

     corecor stress (kbar)   -405.62      0.00      0.00
                                0.00   -405.61      0.00
                                0.00      0.00   -407.91

     ewald   stress (kbar) -16425.75      0.03      0.00
                                0.03 -16425.73      0.00
                                0.00      0.00 -12917.62

     hubbard stress (kbar)      0.00      0.00      0.00
                                0.00      0.00      0.00
                                0.00      0.00      0.00

     DFT-D   stress (kbar)      0.00      0.00      0.00
                                0.00      0.00      0.00
                                0.00      0.00      0.00

     XDM     stress (kbar)      0.00      0.00      0.00
                                0.00      0.00      0.00
                                0.00      0.00      0.00

     dft-nl  stress (kbar)      0.00      0.00      0.00
                                0.00      0.00      0.00
                                0.00      0.00      0.00

     TS-vdW  stress (kbar)      0.00      0.00      0.00
                                0.00      0.00      0.00
                                0.00      0.00      0.00

[...]

                                0.00      0.00      0.00

     Writing all to output data dir new_calculations/myprefix.save/

     General routines

     Parallel routines

     PAW routines

   This run was terminated on:   4:22: 3  21May2023

   JOB DONE.