     Program PWSCF v.7.0 starts on 21May2023 at  0:42:58

     Reading input from espresso_21389.pwi
Warning: card &CELL ignored
Warning: card / ignored

     Current dimensions of program PWSCF are:
     Max number of different atomic species (ntypx) = 10
     Max number of k-points (npk) =  40000
     Max angular momentum in pseudopotentials (lmaxx) =  4

     gamma-point specific algorithms are used
     Message from routine setup:
     using ibrav=0 with symmetry is DISCOURAGED, use correct ibrav instead

     Subspace diagonalization in iterative solution of the eigenvalue problem:
     a serial algorithm will be used

     Using Slab Decomposition

     bravais-lattice index     =            0
     lattice parameter (alat)  =      12.4212  a.u.
     unit-cell volume          =    1355.1264 (a.u.)^3
     number of atoms/cell      =           10
     number of atomic types    =            4
     number of electrons       =        86.00
     number of Kohn-Sham states=           52
     kinetic-energy cutoff     =      30.0000  Ry
     charge density cutoff     =     240.0000  Ry
     scf convergence threshold =      1.0E-06
     mixing beta               =       0.7000
     number of iterations used =            8  plain     mixing
     Exchange-correlation=  SLA  PW   PBX  PBC
                           (   1   4   3   4   0   0   0)

     celldm(1)=  12.421240  celldm(2)=   0.000000  celldm(3)=   0.000000
     celldm(4)=   0.000000  celldm(5)=   0.000000  celldm(6)=   0.000000

     crystal axes: (cart. coord. in units of alat)
               a(1) = (   1.000000   0.000000   0.000000 )
               a(2) = (   0.500000   0.866025   0.000000 )
               a(3) = (   0.500000   0.288675   0.816497 )

     reciprocal axes: (cart. coord. in units 2 pi/alat)
               b(1) = (  1.000000 -0.577350 -0.408248 )
               b(2) = (  0.000000  1.154701 -0.408248 )
               b(3) = (  0.000000  0.000000  1.224745 )

     PseudoPot. # 1 for Cs read from file:
     /home/pragov/projects/rrg-bengioy-ad/pragov/crystal_structure_design/SSSP/Cs_pbe_v1.uspp.F.UPF
     MD5 check sum: 3476d69cb178dfad3ffaa59df4e07ca4
     Pseudo is Ultrasoft + core correction, Zval =  9.0
     Generated by new atomic code, or converted to UPF format
     Using radial grid of  905 points,  6 beta functions with:
                l(1) =   0
                l(2) =   0
                l(3) =   1
                l(4) =   1
                l(5) =   2
                l(6) =   2
     Q(r) pseudized with  6 coefficients,  rinner =    1.500   1.500   1.500
                                                       1.500   1.500

     PseudoPot. # 2 for Rb read from file:
     /home/pragov/projects/rrg-bengioy-ad/pragov/crystal_structure_design/SSSP/Rb_ONCV_PBE-1.0.oncvpsp.upf
     MD5 check sum: 55a5172d6bfbce6759a58e35d43f6aa9
     Pseudo is Norm-conserving, Zval =  9.0
     Generated using ONCVPSP code by D. R. Hamann
     Using radial grid of 2308 points,  6 beta functions with:
                l(1) =   0
                l(2) =   0
                l(3) =   1
                l(4) =   1
                l(5) =   2
                l(6) =   2

     PseudoPot. # 3 for Co read from file:
     /home/pragov/projects/rrg-bengioy-ad/pragov/crystal_structure_design/SSSP/Co_pbe_v1.2.uspp.F.UPF
     MD5 check sum: 5f91765df6ddd3222702df6e7b74a16d
     Pseudo is Ultrasoft + core correction, Zval = 17.0
     Generated by new atomic code, or converted to UPF format
     Using radial grid of  863 points,  6 beta functions with:
                l(1) =   0
                l(2) =   0
                l(3) =   1
                l(4) =   1
                l(5) =   2
                l(6) =   2
     Q(r) pseudized with  8 coefficients,  rinner =    1.200   1.200   1.200
                                                       1.200   1.200

     PseudoPot. # 4 for F  read from file:
     /home/pragov/projects/rrg-bengioy-ad/pragov/crystal_structure_design/SSSP/f_pbe_v1.4.uspp.F.UPF
     MD5 check sum: 4c38b6a325caf53ec0e86aed9459de46
     Pseudo is Ultrasoft, Zval =  7.0
     Generated by new atomic code, or converted to UPF format
     Using radial grid of  799 points,  4 beta functions with:
                l(1) =   0
                l(2) =   0
                l(3) =   1
                l(4) =   1
     Q(r) pseudized with  8 coefficients,  rinner =    0.950   0.950   0.950

     atomic species   valence    mass     pseudopotential
        Cs             9.00   132.90545     Cs( 1.00)
        Rb             9.00    85.46780     Rb( 1.00)
        Co            17.00    58.93319     Co( 1.00)
        F              7.00    18.99840     F ( 1.00)

     12 Sym. Ops., with inversion, found

                                    s                        frac. trans.

      isym =  1     identity

 cryst.   s( 1) = (     1          0          0      )
                  (     0          1          0      )
                  (     0          0          1      )

 cart.    s( 1) = (  1.0000000  0.0000000  0.0000000 )
                  (  0.0000000  1.0000000  0.0000000 )
                  (  0.0000000  0.0000000  1.0000000 )

      isym =  2     180 deg rotation - cart. axis [1,0,0]

[...]

      isym =  3     120 deg rotation - cryst. axis [0,0,1]

[...]

      isym =  6     180 deg rotation - cryst. axis [1,1,0]

[...]

      isym =  7     inversion

[...]

      isym =  8     inv. 180 deg rotation - cart. axis [1,0,0]

[...]

      isym =  9     inv. 120 deg rotation - cryst. axis [0,0,1]

 cryst.   s( 9) = (     1         -1          0      )
                  (     1          0          0      )
                  (     1          0         -1      )

 cart.    s( 9) = (  0.4999999  0.8660254 -0.0000000 )
                  ( -0.8660254  0.5000001  0.0000001 )
                  (  0.0000000  0.0000000 -1.0000000 )

[...]

 cryst.   s(10) = (     0          1          0      )
                  (    -1          1          0      )
                  (     0          1         -1      )

 cart.    s(10) = (  0.5000001 -0.8660254 -0.0000001 )
                  (  0.8660254  0.4999999  0.0000000 )
                  (  0.0000000  0.0000000 -1.0000000 )

[...]

      isym = 12     inv. 180 deg rotation - cryst. axis [1,1,0]

 cryst.   s(12) = (     1         -1          0      )
                  (     0         -1          0      )
                  (     0         -1          1      )

 cart.    s(12) = (  0.4999999 -0.8660255 -0.0000000 )
                  ( -0.8660254 -0.4999999 -0.0000000 )
                  (  0.0000000  0.0000000  1.0000000 )

   Cartesian axes

     site n.     atom                  positions (alat units)
         1           Cs  tau(   1) = (   1.0000001   0.5773502   0.4082483  )
         2           Rb  tau(   2) = (   0.5000000   0.2886751   0.2041241  )
         3           Rb  tau(   3) = (   1.5000001   0.8660254   0.6123724  )
         4           Co  tau(   4) = (   0.0000000   0.0000000   0.0000000  )
         5           F   tau(   5) = (   0.7018031   0.7495144   0.1647715  )
         6           F   tau(   6) = (   1.2981971   0.7495144   0.1647715  )
         7           F   tau(   7) = (   1.2981971   0.4051861   0.6517251  )
         8           F   tau(   8) = (   1.0000000   0.2330220   0.1647715  )
         9           F   tau(   9) = (   1.0000001   0.9216785   0.6517251  )
        10           F   tau(  10) = (   0.7018031   0.4051861   0.6517251  )

   Crystallographic axes

     site n.     atom                  positions (cryst. coord.)
         1           Cs  tau(   1) = (  0.5000000  0.5000000  0.5000000  )
         2           Rb  tau(   2) = (  0.2500000  0.2500000  0.2500000  )
         3           Rb  tau(   3) = (  0.7500000  0.7500000  0.7500000  )
         4           Co  tau(   4) = (  0.0000000  0.0000000  0.0000000  )
         5           F   tau(   5) = (  0.2018030  0.7981970  0.2018030  )
         6           F   tau(   6) = (  0.7981970  0.7981970  0.2018030  )
         7           F   tau(   7) = (  0.7981970  0.2018030  0.7981970  )
         8           F   tau(   8) = (  0.7981970  0.2018030  0.2018030  )
         9           F   tau(   9) = (  0.2018030  0.7981970  0.7981970  )
        10           F   tau(  10) = (  0.2018030  0.2018030  0.7981970  )

     number of k points=     1  Methfessel-Paxton smearing, width (Ry)=  0.0010
                       cart. coord. in units 2pi/alat
        k(    1) = (   0.0000000   0.0000000   0.0000000), wk =   2.0000000

                       cryst. coord.
        k(    1) = (   0.0000000   0.0000000   0.0000000), wk =   2.0000000

     Check: negative core charge=   -0.000004

     Initial potential from superposition of free atoms

     starting charge      84.9111, renormalised to      86.0000
     Starting wfcs are   60 randomized atomic wfcs

     Self-consistent Calculation

     iteration #  1     ecut=    30.00 Ry     beta= 0.70
     Davidson diagonalization with overlap

     ethr =  1.00E-02,  avg # of iterations =  5.0

     total energy              =    -750.79506376 Ry
     estimated scf accuracy    <       1.74917754 Ry

[...]

     total energy              =    -751.70005831 Ry
     estimated scf accuracy    <       0.00000393 Ry

     iteration #  9     ecut=    30.00 Ry     beta= 0.70
     Davidson diagonalization with overlap

     ethr =  4.57E-09,  avg # of iterations =  4.0

     End of self-consistent calculation

          k = 0.0000 0.0000 0.0000 (  1860 PWs)   bands (ev):

   -90.9344 -54.1446 -54.1445 -54.1445 -21.8833 -21.8666 -18.1286 -17.6027
   -17.6019 -17.6011 -17.5238 -17.5228 -15.6689  -6.0302  -6.0302  -6.0302
    -5.9434  -5.9434  -5.9434  -2.9654  -2.9653  -2.9652  -1.0958  -0.6994
    -0.6987  -0.0705  -0.0702  -0.0699   0.5269   0.5271   0.5273   1.3987
     1.3990   1.3994   1.4898   1.4900   1.4901   1.9299   1.9303   1.9307
     4.0795   4.0796   4.0796   5.8005   5.8008   7.8297  10.2436  10.2436
    10.6788  10.6788  10.6789  11.4299

     occupation numbers
     1.0000   1.0000   1.0000   1.0000   1.0000   1.0000   1.0000   1.0000
     1.0000   1.0000   1.0000   1.0000   1.0000   1.0000   1.0000   1.0000
     1.0000   1.0000   1.0000   1.0000   1.0000   1.0000   1.0000   1.0000
     1.0000   1.0000   1.0000   1.0000   1.0000   1.0000   1.0000   1.0000
     1.0000   1.0000   1.0000   1.0000   1.0000   1.0000   1.0000   1.0000
     1.0000   1.0000   1.0000  -0.0000  -0.0000  -0.0000  -0.0000  -0.0000
    -0.0000  -0.0000  -0.0000  -0.0000

     the Fermi energy is     5.1511 ev

!    total energy              =    -751.70005923 Ry
     estimated scf accuracy    <       0.00000042 Ry
     smearing contrib. (-TS)   =       0.00000000 Ry
     internal energy E=F+TS    =    -751.70005923 Ry

     The total energy is F=E-TS. E is the sum of the following terms:
     one-electron contribution =    -617.82303135 Ry
     hartree contribution      =     347.87632429 Ry
     xc contribution           =    -134.23349306 Ry
     ewald contribution        =    -347.51985911 Ry

     convergence has been achieved in   9 iterations

     Forces acting on atoms (cartesian axes, Ry/au):

     atom    1 type  1   force =     0.00000000    0.00000000    0.00000000
     atom    2 type  2   force =     0.00000000    0.00000000   -0.00000390
     atom    3 type  2   force =     0.00000000    0.00000000    0.00000390
     atom    4 type  3   force =     0.00000000    0.00000000   -0.00000000
     atom    5 type  4   force =    -0.00648571    0.00374453   -0.00529095
     atom    6 type  4   force =     0.00648571    0.00374453   -0.00529096
     atom    7 type  4   force =     0.00648571   -0.00374453    0.00529095
     atom    8 type  4   force =     0.00000000   -0.00748906   -0.00529096
     atom    9 type  4   force =     0.00000000    0.00748906    0.00529096
     atom   10 type  4   force =    -0.00648571   -0.00374453    0.00529096
     The non-local contrib.  to forces
     atom    1 type  1   force =     0.00000000    0.00000000    0.00000000
     atom    2 type  2   force =     0.00000000    0.00000000    0.00000085
     atom    3 type  2   force =     0.00000000    0.00000000   -0.00000085
     atom    4 type  3   force =     0.00000000    0.00000000   -0.00000000
     atom    5 type  4   force =    -0.49351300    0.28492991   -0.40294369
     atom    6 type  4   force =     0.49351300    0.28492982   -0.40294375
     atom    7 type  4   force =     0.49351300   -0.28492991    0.40294369
     atom    8 type  4   force =     0.00000000   -0.56985973   -0.40294377
     atom    9 type  4   force =     0.00000000    0.56985973    0.40294377
     atom   10 type  4   force =    -0.49351300   -0.28492982    0.40294375
     The ionic contribution  to forces
     atom    1 type  1   force =     0.00000000    0.00000000   -0.00000000
     atom    2 type  2   force =    -0.00000149    0.00000045   -0.00000067
     atom    3 type  2   force =     0.00000149   -0.00000045    0.00000067
     atom    4 type  3   force =    -0.00000000   -0.00000000    0.00000000
     atom    5 type  4   force =    13.88515418   -8.01659821   11.33718040
     atom    6 type  4   force =   -13.88515419   -8.01659808   11.33718050
     atom    7 type  4   force =   -13.88515418    8.01659821  -11.33718040
     atom    8 type  4   force =     0.00000200   16.03319629   11.33718194
     atom    9 type  4   force =    -0.00000200  -16.03319629  -11.33718194
     atom   10 type  4   force =    13.88515419    8.01659808  -11.33718050
     The local contribution  to forces
     atom    1 type  1   force =    -0.00023307   -0.00006593   -0.00012593
     atom    2 type  2   force =     0.00000243   -0.00001111   -0.00000128
     atom    3 type  2   force =    -0.00006099   -0.00001652   -0.00003055
     atom    4 type  3   force =     0.00093826    0.00058731    0.00077831
     atom    5 type  4   force =   -13.39805849    7.73543580  -10.93946867
     atom    6 type  4   force =    13.39804550    7.73537843  -10.93936497
     atom    7 type  4   force =    13.39803757   -7.73529697   10.93946121
     atom    8 type  4   force =     0.00005298  -15.47078029  -10.93947724
     atom    9 type  4   force =     0.00009296   15.47071394   10.93946424
     atom   10 type  4   force =   -13.39799983   -7.73534830   10.93949936
     The core correction contribution to forces
     atom    1 type  1   force =    -0.00000503    0.00000200    0.00000117
     atom    2 type  2   force =     0.00000000    0.00000000    0.00000000
     atom    3 type  2   force =     0.00000000    0.00000000    0.00000000
     atom    4 type  3   force =     0.00000545    0.00000280    0.00000452
     atom    5 type  4   force =     0.00000000    0.00000000    0.00000000
     atom    6 type  4   force =     0.00000000    0.00000000    0.00000000
     atom    7 type  4   force =     0.00000000    0.00000000    0.00000000
     atom    8 type  4   force =     0.00000000    0.00000000    0.00000000
     atom    9 type  4   force =     0.00000000    0.00000000    0.00000000
     atom   10 type  4   force =     0.00000000    0.00000000    0.00000000
     The Hubbard contrib.    to forces
     atom    1 type  1   force =     0.00000000    0.00000000    0.00000000
     atom    2 type  2   force =     0.00000000    0.00000000    0.00000000
     atom    3 type  2   force =     0.00000000    0.00000000    0.00000000
     atom    4 type  3   force =     0.00000000    0.00000000    0.00000000
     atom    5 type  4   force =     0.00000000    0.00000000    0.00000000
     atom    6 type  4   force =     0.00000000    0.00000000    0.00000000
     atom    7 type  4   force =     0.00000000    0.00000000    0.00000000
     atom    8 type  4   force =     0.00000000    0.00000000    0.00000000
     atom    9 type  4   force =     0.00000000    0.00000000    0.00000000
     atom   10 type  4   force =     0.00000000    0.00000000    0.00000000
     The SCF correction term to forces
     atom    1 type  1   force =     0.00019004    0.00008520    0.00013284
     atom    2 type  2   force =     0.00000097    0.00000612   -0.00000794
     atom    3 type  2   force =     0.00005515    0.00002009    0.00002950
     atom    4 type  3   force =    -0.00108040   -0.00070835   -0.00090586
     atom    5 type  4   force =    -0.00011021   -0.00002579   -0.00008545
     atom    6 type  4   force =     0.00007729    0.00001424   -0.00019820
     atom    7 type  4   force =     0.00005154   -0.00012927    0.00002299
     atom    8 type  4   force =    -0.00006603   -0.00004670   -0.00006607
     atom    9 type  4   force =    -0.00011768    0.00005782    0.00002169
     atom   10 type  4   force =    -0.00017553   -0.00009524    0.00003889

     Total force =     0.022461     Total SCF correction =     0.001646

     Computing stress (Cartesian axis) and pressure

          total   stress  (Ry/bohr**3)                   (kbar)     P=     -104.66
  -0.00071149   0.00000000   0.00000000         -104.66        0.00        0.00
   0.00000000  -0.00071149  -0.00000000            0.00     -104.66       -0.00
   0.00000000  -0.00000000  -0.00071149            0.00       -0.00     -104.66

     kinetic stress (kbar)  13745.45     -0.00     -0.00
                               -0.00  13745.45      0.00
                               -0.00      0.00  13745.45

     local   stress (kbar) -13752.76     -0.02      0.06
                               -0.02 -13752.62      0.09
                                0.06      0.09 -13752.67

     nonloc. stress (kbar)   3829.05     -0.00     -0.00
                               -0.00   3829.05      0.00
                               -0.00      0.00   3829.04

     hartree stress (kbar)  12587.91      0.02     -0.05
                                0.02  12587.79     -0.09
                               -0.05     -0.09  12587.85

     exc-cor stress (kbar)  -1093.93     -0.00      0.00
                               -0.00  -1093.93      0.00
                                0.00      0.00  -1093.93

     corecor stress (kbar)  -2845.45      0.00     -0.00
                                0.00  -2845.45     -0.00
                               -0.00     -0.00  -2845.45

     ewald   stress (kbar) -12574.95      0.00      0.00
                                0.00 -12574.95      0.00
                                0.00      0.00 -12574.95

     hubbard stress (kbar)      0.00      0.00      0.00
                                0.00      0.00      0.00
                                0.00      0.00      0.00

     DFT-D   stress (kbar)      0.00      0.00      0.00
                                0.00      0.00      0.00
                                0.00      0.00      0.00

     XDM     stress (kbar)      0.00      0.00      0.00
                                0.00      0.00      0.00
                                0.00      0.00      0.00

     dft-nl  stress (kbar)      0.00      0.00      0.00
                                0.00      0.00      0.00
                                0.00      0.00      0.00

     TS-vdW  stress (kbar)      0.00      0.00      0.00
                                0.00      0.00      0.00
                                0.00      0.00      0.00

[...]

                                0.00      0.00      0.00

     Writing all to output data dir new_calculations/myprefix.save/

     General routines

     Parallel routines

   This run was terminated on:   0:43:11  21May2023

   JOB DONE.