     Program PWSCF v.7.0 starts on 21May2023 at  6:37:16

     Reading input from espresso_18953.pwi
Warning: card &CELL ignored
Warning: card / ignored

     Current dimensions of program PWSCF are:
     Max number of different atomic species (ntypx) = 10
     Max number of k-points (npk) =  40000
     Max angular momentum in pseudopotentials (lmaxx) =  4

     gamma-point specific algorithms are used
     Message from routine setup:
     using ibrav=0 with symmetry is DISCOURAGED, use correct ibrav instead

     Subspace diagonalization in iterative solution of the eigenvalue problem:
     a serial algorithm will be used

     Using Slab Decomposition

     bravais-lattice index     =            0
     lattice parameter (alat)  =      13.5074  a.u.
     unit-cell volume          =    1742.6189 (a.u.)^3
     number of atoms/cell      =            9
     number of atomic types    =            3
     number of electrons       =        84.00
     number of Kohn-Sham states=           50
     kinetic-energy cutoff     =      30.0000  Ry
     charge density cutoff     =     240.0000  Ry
     scf convergence threshold =      1.0E-06
     mixing beta               =       0.7000
     number of iterations used =            8  plain     mixing
     Exchange-correlation=  SLA  PW   PBX  PBC
                           (   1   4   3   4   0   0   0)

     celldm(1)=  13.507422  celldm(2)=   0.000000  celldm(3)=   0.000000
     celldm(4)=   0.000000  celldm(5)=   0.000000  celldm(6)=   0.000000

     crystal axes: (cart. coord. in units of alat)
               a(1) = (   1.000000   0.000000   0.000000 )
               a(2) = (   0.500000   0.866025   0.000000 )
               a(3) = (   0.500000   0.288675   0.816497 )

     reciprocal axes: (cart. coord. in units 2 pi/alat)
               b(1) = (  1.000000 -0.577350 -0.408248 )
               b(2) = (  0.000000  1.154701 -0.408248 )
               b(3) = (  0.000000  0.000000  1.224745 )

     PseudoPot. # 1 for Tl read from file:
     /home/pragov/projects/rrg-bengioy-ad/pragov/crystal_structure_design/SSSP/Tl_pbe_v1.2.uspp.F.UPF
     MD5 check sum: b76cf1f7e72655a2b2c53cf6385d7059
     Pseudo is Ultrasoft + core correction, Zval = 13.0
     Generated by new atomic code, or converted to UPF format
     Using radial grid of  899 points,  6 beta functions with:
                l(1) =   0
                l(2) =   0
                l(3) =   1
                l(4) =   1
                l(5) =   2
                l(6) =   2
     Q(r) pseudized with  6 coefficients,  rinner =    1.100   1.100   1.100
                                                       1.100   1.100

     PseudoPot. # 2 for Pt read from file:
     /home/pragov/projects/rrg-bengioy-ad/pragov/crystal_structure_design/SSSP/pt_pbe_v1.4.uspp.F.UPF
     MD5 check sum: f09d6de1a584b5a045c4fc126da2d0c4
     Pseudo is Ultrasoft + core correction, Zval = 16.0
     Generated by new atomic code, or converted to UPF format
     Using radial grid of  985 points,  6 beta functions with:
                l(1) =   0
                l(2) =   0
                l(3) =   1
                l(4) =   1
                l(5) =   2
                l(6) =   2
     Q(r) pseudized with  8 coefficients,  rinner =    1.300   1.300   1.300
                                                       1.300   1.300

     PseudoPot. # 3 for Cl read from file:
     /home/pragov/projects/rrg-bengioy-ad/pragov/crystal_structure_design/SSSP/cl_pbe_v1.4.uspp.F.UPF
     MD5 check sum: fc6f6913ecf08c9257cb748ef0700058
     Pseudo is Ultrasoft + core correction, Zval =  7.0
     Generated by new atomic code, or converted to UPF format
     Using radial grid of  909 points,  6 beta functions with:
                l(1) =   0
                l(2) =   0
                l(3) =   1
                l(4) =   1
                l(5) =   2
                l(6) =   2
     Q(r) pseudized with  8 coefficients,  rinner =    1.300   1.300   1.300
                                                       1.300   1.300

     atomic species   valence    mass     pseudopotential
        Tl            13.00   204.38000     Tl( 1.00)
        Pt            16.00   195.08400     Pt( 1.00)
        Cl             7.00    35.45000     Cl( 1.00)

     12 Sym. Ops., with inversion, found

                                    s                        frac. trans.

      isym =  1     identity

 cryst.   s( 1) = (     1          0          0      )
                  (     0          1          0      )
                  (     0          0          1      )

 cart.    s( 1) = (  1.0000000  0.0000000  0.0000000 )
                  (  0.0000000  1.0000000  0.0000000 )
                  (  0.0000000  0.0000000  1.0000000 )

      isym =  2     180 deg rotation - cart. axis [1,0,0]

[...]

      isym =  3     120 deg rotation - cryst. axis [0,0,1]

[...]

      isym =  6     180 deg rotation - cryst. axis [1,1,0]

[...]

      isym =  7     inversion

[...]

      isym =  8     inv. 180 deg rotation - cart. axis [1,0,0]

[...]

      isym =  9     inv. 120 deg rotation - cryst. axis [0,0,1]

 cryst.   s( 9) = (     1         -1          0      )
                  (     1          0          0      )
                  (     1          0         -1      )

 cart.    s( 9) = (  0.5000000  0.8660254 -0.0000000 )
                  ( -0.8660254  0.5000000 -0.0000000 )
                  (  0.0000000  0.0000000 -1.0000000 )

[...]

 cryst.   s(10) = (     0          1          0      )
                  (    -1          1          0      )
                  (     0          1         -1      )

 cart.    s(10) = (  0.5000000 -0.8660254  0.0000000 )
                  (  0.8660254  0.5000000 -0.0000000 )
                  (  0.0000000  0.0000000 -1.0000000 )

[...]

      isym = 12     inv. 180 deg rotation - cryst. axis [1,1,0]

 cryst.   s(12) = (     1         -1          0      )
                  (     0         -1          0      )
                  (     0         -1          1      )

 cart.    s(12) = (  0.5000000 -0.8660254  0.0000000 )
                  ( -0.8660254 -0.5000000  0.0000000 )
                  (  0.0000000  0.0000000  1.0000000 )

   Cartesian axes

     site n.     atom                  positions (alat units)
         1           Tl  tau(   1) = (   1.5000000   0.8660254   0.6123724  )
         2           Tl  tau(   2) = (   0.5000000   0.2886751   0.2041241  )
         3           Pt  tau(   3) = (   0.0000000   0.0000000   0.0000000  )
         4           Cl  tau(   4) = (   0.7320110   0.4226267   0.6270604  )
         5           Cl  tau(   5) = (   1.0000000   0.8867973   0.6270604  )
         6           Cl  tau(   6) = (   1.0000000   0.2679032   0.1894362  )
         7           Cl  tau(   7) = (   0.7320110   0.7320738   0.1894362  )
         8           Cl  tau(   8) = (   1.2679890   0.4226267   0.6270604  )
         9           Cl  tau(   9) = (   1.2679890   0.7320738   0.1894362  )

   Crystallographic axes

     site n.     atom                  positions (cryst. coord.)
         1           Tl  tau(   1) = (  0.7500000  0.7500000  0.7500000  )
         2           Tl  tau(   2) = (  0.2500000  0.2500000  0.2500000  )
         3           Pt  tau(   3) = (  0.0000000  0.0000000  0.0000000  )
         4           Cl  tau(   4) = (  0.2320110  0.2320110  0.7679890  )
         5           Cl  tau(   5) = (  0.2320110  0.7679890  0.7679890  )
         6           Cl  tau(   6) = (  0.7679890  0.2320110  0.2320110  )
         7           Cl  tau(   7) = (  0.2320110  0.7679890  0.2320110  )
         8           Cl  tau(   8) = (  0.7679890  0.2320110  0.7679890  )
         9           Cl  tau(   9) = (  0.7679890  0.7679890  0.2320110  )

     number of k points=     1  Methfessel-Paxton smearing, width (Ry)=  0.0010
                       cart. coord. in units 2pi/alat
        k(    1) = (   0.0000000   0.0000000   0.0000000), wk =   2.0000000

                       cryst. coord.
        k(    1) = (   0.0000000   0.0000000   0.0000000), wk =   2.0000000

     Check: negative core charge=   -0.000004

     Initial potential from superposition of free atoms

     starting charge      83.4902, renormalised to      84.0000

     negative rho (up, down):  3.782E-01 0.000E+00
     Starting wfcs are   54 randomized atomic wfcs

     Self-consistent Calculation

     iteration #  1     ecut=    30.00 Ry     beta= 0.70
     Davidson diagonalization with overlap

     ethr =  1.00E-02,  avg # of iterations =  2.0

     negative rho (up, down):  3.638E-01 0.000E+00

     total energy              =    -699.89296276 Ry
     estimated scf accuracy    <       1.81645681 Ry

[...]

     total energy              =    -700.99009270 Ry
     estimated scf accuracy    <       0.00000740 Ry

     iteration #  8     ecut=    30.00 Ry     beta= 0.70
     Davidson diagonalization with overlap

     ethr =  8.81E-09,  avg # of iterations =  4.0

[...]

     End of self-consistent calculation

          k = 0.0000 0.0000 0.0000 (  2455 PWs)   bands (ev):

   -49.7096 -49.7095 -49.7094 -11.1853 -10.3473 -10.3472 -10.3428 -10.3428
   -10.3426  -5.9662  -5.9661  -5.9615  -5.9614  -5.9614  -5.9523  -5.9522
    -5.9499  -5.9498  -5.9498  -1.8363  -1.4350  -1.4349  -0.8783  -0.8783
    -0.8783   0.1665   0.1666   0.1666   0.2036   0.2595   2.0789   2.0790
     2.0790   2.2539   2.2539   2.2539   2.2993   2.2993   2.2993   2.8398
     2.8399   2.8399   5.6554   5.6555   8.8421   9.3133   9.3134   9.3134
     9.5748   9.5749

     occupation numbers
     1.0000   1.0000   1.0000   1.0000   1.0000   1.0000   1.0000   1.0000
     1.0000   1.0000   1.0000   1.0000   1.0000   1.0000   1.0000   1.0000
     1.0000   1.0000   1.0000   1.0000   1.0000   1.0000   1.0000   1.0000
     1.0000   1.0000   1.0000   1.0000   1.0000   1.0000   1.0000   1.0000
     1.0000   1.0000   1.0000   1.0000   1.0000   1.0000   1.0000   1.0000
     1.0000   1.0000  -0.0000  -0.0000  -0.0000  -0.0000  -0.0000  -0.0000
    -0.0000  -0.0000

     the Fermi energy is     4.1275 ev

!    total energy              =    -700.99009565 Ry
     estimated scf accuracy    <       0.00000053 Ry
     smearing contrib. (-TS)   =       0.00000000 Ry
     internal energy E=F+TS    =    -700.99009565 Ry

     The total energy is F=E-TS. E is the sum of the following terms:
     one-electron contribution =    -260.37044967 Ry
     hartree contribution      =     170.93212323 Ry
     xc contribution           =    -237.27595198 Ry
     ewald contribution        =    -374.27581723 Ry

     convergence has been achieved in   8 iterations

     negative rho (up, down):  3.665E-01 0.000E+00

     Forces acting on atoms (cartesian axes, Ry/au):

     atom    1 type  1   force =    -0.00000000   -0.00000000   -0.00027632
     atom    2 type  1   force =     0.00000000    0.00000000    0.00027632
     atom    3 type  2   force =     0.00000000    0.00000000    0.00000000
     atom    4 type  3   force =    -0.00191319   -0.00110458    0.00155740
     atom    5 type  3   force =    -0.00000000    0.00220916    0.00155740
     atom    6 type  3   force =     0.00000000   -0.00220916   -0.00155740
     atom    7 type  3   force =    -0.00191319    0.00110458   -0.00155740
     atom    8 type  3   force =     0.00191319   -0.00110458    0.00155740
     atom    9 type  3   force =     0.00191319    0.00110458   -0.00155740
     The non-local contrib.  to forces
     atom    1 type  1   force =    -0.00000000   -0.00000000   -0.00024106
     atom    2 type  1   force =     0.00000000    0.00000000    0.00024106
     atom    3 type  2   force =     0.00000000    0.00000000    0.00000000
     atom    4 type  3   force =    -0.21105291   -0.12185145    0.17230481
     atom    5 type  3   force =     0.00000000    0.24370291    0.17230481
     atom    6 type  3   force =     0.00000000   -0.24370291   -0.17230481
     atom    7 type  3   force =    -0.21105291    0.12185145   -0.17230481
     atom    8 type  3   force =     0.21105291   -0.12185145    0.17230481
     atom    9 type  3   force =     0.21105291    0.12185145   -0.17230481
     The ionic contribution  to forces
     atom    1 type  1   force =     0.00000000    0.00000000    0.00000000
     atom    2 type  1   force =    -0.00000000    0.00000000   -0.00000000
     atom    3 type  2   force =    -0.00000000   -0.00000000   -0.00000000
     atom    4 type  3   force =     7.73880399    4.46800057   -6.31870700
     atom    5 type  3   force =    -0.00000000   -8.93600113   -6.31870700
     atom    6 type  3   force =    -0.00000000    8.93600113    6.31870700
     atom    7 type  3   force =     7.73880399   -4.46800057    6.31870700
     atom    8 type  3   force =    -7.73880399    4.46800057   -6.31870700
     atom    9 type  3   force =    -7.73880399   -4.46800057    6.31870700
     The local contribution  to forces
     atom    1 type  1   force =    -0.00015711    0.00009223    0.00036039
     atom    2 type  1   force =     0.00047698    0.00011119   -0.00034103
     atom    3 type  2   force =    -0.00181419   -0.00042758    0.00019700
     atom    4 type  3   force =    -7.53588403   -4.35071985    6.15290607
     atom    5 type  3   force =    -0.00019528    8.70188550    6.15333117
     atom    6 type  3   force =    -0.00039066   -8.70164677   -6.15322794
     atom    7 type  3   force =    -7.53590160    4.35049451   -6.15303298
     atom    8 type  3   force =     7.53585666   -4.35082296    6.15330456
     atom    9 type  3   force =     7.53611753    4.35103040   -6.15350243
     The core correction contribution to forces
     atom    1 type  1   force =    -0.00000496    0.00000452    0.00000795
     atom    2 type  1   force =     0.00000962    0.00000381   -0.00001024
     atom    3 type  2   force =    -0.00005087   -0.00000777    0.00001103
     atom    4 type  3   force =     0.00586848    0.00339267   -0.00479236
     atom    5 type  3   force =    -0.00000484   -0.00677523   -0.00478966
     atom    6 type  3   force =    -0.00000410    0.00678155    0.00479228
     atom    7 type  3   force =     0.00587225   -0.00339577    0.00479707
     atom    8 type  3   force =    -0.00587382    0.00339376   -0.00479486
     atom    9 type  3   force =    -0.00586634   -0.00339064    0.00478938
     The Hubbard contrib.    to forces
     atom    1 type  1   force =     0.00000000    0.00000000    0.00000000
     atom    2 type  1   force =     0.00000000    0.00000000    0.00000000
     atom    3 type  2   force =     0.00000000    0.00000000    0.00000000
     atom    4 type  3   force =     0.00000000    0.00000000    0.00000000
     atom    5 type  3   force =     0.00000000    0.00000000    0.00000000
     atom    6 type  3   force =     0.00000000    0.00000000    0.00000000
     atom    7 type  3   force =     0.00000000    0.00000000    0.00000000
     atom    8 type  3   force =     0.00000000    0.00000000    0.00000000
     atom    9 type  3   force =     0.00000000    0.00000000    0.00000000
     The SCF correction term to forces
     atom    1 type  1   force =     0.00017709   -0.00010272   -0.00040836
     atom    2 type  1   force =    -0.00048538   -0.00011016    0.00038176
     atom    3 type  2   force =     0.00213053    0.00046275   -0.00022782
     atom    4 type  3   force =     0.00033194    0.00013279   -0.00017309
     atom    5 type  3   force =     0.00011133   -0.00054359   -0.00054803
     atom    6 type  3   force =     0.00033069    0.00036312    0.00046908
     atom    7 type  3   force =     0.00037797    0.00009307    0.00033542
     atom    8 type  3   force =    -0.00036768    0.00021729   -0.00058108
     atom    9 type  3   force =    -0.00052525   -0.00036398    0.00068529

     Total force =     0.006632     Total SCF correction =     0.002880
     SCF correction compared to forces is large: reduce conv_thr to get better values

     Computing stress (Cartesian axis) and pressure

     negative rho (up, down):  3.665E-01 0.000E+00
          total   stress  (Ry/bohr**3)                   (kbar)     P=      -31.42
  -0.00021366  -0.00000000  -0.00000000          -31.43       -0.00       -0.00
   0.00000000  -0.00021366   0.00000000            0.00      -31.43        0.00
  -0.00000000   0.00000000  -0.00021346           -0.00        0.00      -31.40

     kinetic stress (kbar)   8407.11      0.00     -0.00
                                0.00   8407.11     -0.00
                                0.00     -0.00   8407.12

     local   stress (kbar)  -5104.01      0.04      0.04
                                0.04  -5104.02      0.00
                                0.04      0.00  -5103.91

     nonloc. stress (kbar)   5854.36     -0.00      0.00
                               -0.00   5854.36     -0.00
                                0.00     -0.00   5854.36

     hartree stress (kbar)   4809.83     -0.03     -0.03
                               -0.03   4809.85     -0.01
                               -0.03     -0.01   4809.75

     exc-cor stress (kbar)   9854.95     -0.00     -0.00
                               -0.00   9854.95      0.00
                               -0.00      0.00   9854.95

     corecor stress (kbar) -13322.04     -0.00      0.00
                               -0.00 -13322.04     -0.00
                                0.00     -0.00 -13322.04

     ewald   stress (kbar) -10531.63     -0.00     -0.00
                               -0.00 -10531.63     -0.00
                               -0.00     -0.00 -10531.63

     hubbard stress (kbar)      0.00      0.00      0.00
                                0.00      0.00      0.00
                                0.00      0.00      0.00

     DFT-D   stress (kbar)      0.00      0.00      0.00
                                0.00      0.00      0.00
                                0.00      0.00      0.00

     XDM     stress (kbar)      0.00      0.00      0.00
                                0.00      0.00      0.00
                                0.00      0.00      0.00

     dft-nl  stress (kbar)      0.00      0.00      0.00
                                0.00      0.00      0.00
                                0.00      0.00      0.00

     TS-vdW  stress (kbar)      0.00      0.00      0.00
                                0.00      0.00      0.00
                                0.00      0.00      0.00

[...]

                                0.00      0.00      0.00

     Writing all to output data dir new_calculations/myprefix.save/

     General routines

     Parallel routines

   This run was terminated on:   6:37:36  21May2023

   JOB DONE.