     Program PWSCF v.7.0 starts on 20May2023 at 12:31:21

     Reading input from espresso_490.pwi
Warning: card &CELL ignored
Warning: card / ignored

     Current dimensions of program PWSCF are:
     Max number of different atomic species (ntypx) = 10
     Max number of k-points (npk) =  40000
     Max angular momentum in pseudopotentials (lmaxx) =  4
     file K.pbe-spn-kjpaw_psl.1.0.0.UPF: wavefunction(s)  3S renormalized

     gamma-point specific algorithms are used
     Message from routine setup:
     using ibrav=0 with symmetry is DISCOURAGED, use correct ibrav instead

     Subspace diagonalization in iterative solution of the eigenvalue problem:
     a serial algorithm will be used

     Using Slab Decomposition

     bravais-lattice index     =            0
     lattice parameter (alat)  =      12.2498  a.u.
     unit-cell volume          =     948.6509 (a.u.)^3
     number of atoms/cell      =            5
     number of atomic types    =            3
     number of electrons       =        46.00
     number of Kohn-Sham states=           28
     kinetic-energy cutoff     =      30.0000  Ry
     charge density cutoff     =     240.0000  Ry
     scf convergence threshold =      1.0E-06
     mixing beta               =       0.7000
     number of iterations used =            8  plain     mixing
     Exchange-correlation= SLA  PW   PBE  PBE
                           (   1   4   3   4   0   0   0)

     celldm(1)=  12.249792  celldm(2)=   0.000000  celldm(3)=   0.000000
     celldm(4)=   0.000000  celldm(5)=   0.000000  celldm(6)=   0.000000

     crystal axes: (cart. coord. in units of alat)
               a(1) = (   1.000000   0.000000   0.000000 )
               a(2) = (   0.167472   0.985877   0.000000 )
               a(3) = (  -0.340410  -0.781084   0.523477 )

     reciprocal axes: (cart. coord. in units 2 pi/alat)
               b(1) = (  1.000000 -0.169871  0.396820 )
               b(2) = (  0.000000  1.014326  1.513484 )
               b(3) = (  0.000000  0.000000  1.910304 )

     PseudoPot. # 1 for K  read from file:
     /home/pragov/projects/rrg-bengioy-ad/pragov/crystal_structure_design/SSSP/K.pbe-spn-kjpaw_psl.1.0.0.UPF
     MD5 check sum: 7d58810084cac21f60fbe77ea2b688fd
     Pseudo is Projector augmented-wave + core cor, Zval =  9.0
     Generated using "atomic" code by A. Dal Corso  v.5.1
     Shape of augmentation charge: PSQ
     Using radial grid of 1165 points,  6 beta functions with:
                l(1) =   0
                l(2) =   0
                l(3) =   1
                l(4) =   1
                l(5) =   2
                l(6) =   2
     Q(r) pseudized with 0 coefficients

     PseudoPot. # 2 for Pt read from file:
     /home/pragov/projects/rrg-bengioy-ad/pragov/crystal_structure_design/SSSP/pt_pbe_v1.4.uspp.F.UPF
     MD5 check sum: f09d6de1a584b5a045c4fc126da2d0c4
     Pseudo is Ultrasoft + core correction, Zval = 16.0
     Generated by new atomic code, or converted to UPF format
     Using radial grid of  985 points,  6 beta functions with:
                l(1) =   0
                l(2) =   0
                l(3) =   1
                l(4) =   1
                l(5) =   2
                l(6) =   2
     Q(r) pseudized with  8 coefficients,  rinner =    1.300   1.300   1.300
                                                       1.300   1.300

     PseudoPot. # 3 for Se read from file:
     /home/pragov/projects/rrg-bengioy-ad/pragov/crystal_structure_design/SSSP/Se_pbe_v1.uspp.F.UPF
     MD5 check sum: 1b3568f3a8ae88f9a2a0ad0698632c85
     Pseudo is Ultrasoft + core correction, Zval =  6.0
     Generated by new atomic code, or converted to UPF format
     Using radial grid of  877 points,  6 beta functions with:
                l(1) =   0
                l(2) =   0
                l(3) =   1
                l(4) =   1
                l(5) =   2
                l(6) =   2
     Q(r) pseudized with  8 coefficients,  rinner =    1.300   1.300   1.300
                                                       1.300   1.300

     atomic species   valence    mass     pseudopotential
        K              9.00    39.09830     K ( 1.00)
        Pt            16.00   195.08400     Pt( 1.00)
        Se             6.00    78.97100     Se( 1.00)

      2 Sym. Ops., with inversion, found

                                    s                        frac. trans.

      isym =  1     identity

 cryst.   s( 1) = (     1          0          0      )
                  (     0          1          0      )
                  (     0          0          1      )

 cart.    s( 1) = (  1.0000000 -0.0000000 -0.0000000 )
                  (  0.0000000  1.0000000  0.0000000 )
                  (  0.0000000  0.0000000  1.0000000 )

      isym =  2     inversion

 cryst.   s( 2) = (    -1          0          0      )
                  (     0         -1          0      )
                  (     0          0         -1      )

 cart.    s( 2) = ( -1.0000000  0.0000000  0.0000000 )
                  (  0.0000000 -1.0000000 -0.0000000 )
                  (  0.0000000  0.0000000 -1.0000000 )

   Cartesian axes

     site n.     atom                  positions (alat units)
         1           K   tau(   1) = (   0.2630817   0.3975756   0.2617385  )
         2           K   tau(   2) = (   0.5639806  -0.1927832   0.2617385  )
         3           Pt  tau(   3) = (   0.0000000   0.0000000   0.0000000  )
         4           Se  tau(   4) = (   0.7686291   0.2739887   0.1467385  )
         5           Se  tau(   5) = (   0.0584331  -0.0691963   0.3767385  )

   Crystallographic axes

     site n.     atom                  positions (cryst. coord.)
         1           K   tau(   1) = (  0.2994080  0.7994080  0.5000000  )
         2           K   tau(   2) = (  0.7005920  0.2005920  0.5000000  )
         3           Pt  tau(   3) = (  0.0000000  0.0000000  0.0000000  )
         4           Se  tau(   4) = (  0.7803150  0.5000000  0.2803150  )
         5           Se  tau(   5) = (  0.2196850  0.5000000  0.7196850  )

     number of k points=     1  Methfessel-Paxton smearing, width (Ry)=  0.0010
                       cart. coord. in units 2pi/alat
        k(    1) = (   0.0000000   0.0000000   0.0000000), wk =   2.0000000

                       cryst. coord.
        k(    1) = (   0.0000000   0.0000000   0.0000000), wk =   2.0000000

     Check: negative core charge=   -0.000002

     Initial potential from superposition of free atoms

     starting charge      45.4622, renormalised to      46.0000

     negative rho (up, down):  1.856E-01 0.000E+00
     Starting wfcs are   36 randomized atomic wfcs
     Checking if some PAW data can be deallocated...

     Self-consistent Calculation

     iteration #  1     ecut=    30.00 Ry     beta= 0.70
     Davidson diagonalization with overlap

     ethr =  1.00E-02,  avg # of iterations =  5.0

     negative rho (up, down):  1.700E-01 0.000E+00

     total energy              =    -523.33337736 Ry
     estimated scf accuracy    <       1.22116803 Ry

[...]

     total energy              =    -524.00822585 Ry
     estimated scf accuracy    <       0.00000183 Ry

     iteration #  9     ecut=    30.00 Ry     beta= 0.70
     Davidson diagonalization with overlap

     ethr =  3.97E-09,  avg # of iterations =  2.0

[...]

     End of self-consistent calculation

          k = 0.0000 0.0000 0.0000 (  1324 PWs)   bands (ev):

   -46.0727 -45.6507 -45.2130 -23.8872 -23.8712  -7.4780  -7.4502  -7.3605
    -7.3545  -7.3337  -7.3200  -6.4833  -5.3776   1.3219   1.8157   3.3111
     4.2763   4.3078   4.3545   4.6259   5.2257   6.0809   6.4246   8.4325
     8.9353   8.9547  10.2692  11.6824

     occupation numbers
     1.0000   1.0000   1.0000   1.0000   1.0000   1.0000   1.0000   1.0000
     1.0000   1.0000   1.0000   1.0000   1.0000   1.0000   1.0000   1.0000
     1.0000   1.0000   1.0000   1.0000   1.0000   1.0000   1.0000  -0.0000
    -0.0000  -0.0000  -0.0000  -0.0000

     the Fermi energy is     8.1917 ev

!    total energy              =    -524.00822605 Ry
     estimated scf accuracy    <       0.00000023 Ry
     smearing contrib. (-TS)   =       0.00000000 Ry
     internal energy E=F+TS    =    -524.00822605 Ry

     The total energy is F=E-TS. E is the sum of the following terms:
     one-electron contribution =    -159.62510292 Ry
     hartree contribution      =      98.71969127 Ry
     xc contribution           =    -139.10019328 Ry
     ewald contribution        =    -213.16086147 Ry
     one-center paw contrib.   =    -110.84175965 Ry
      -> PAW hartree energy AE =      76.00839774 Ry
      -> PAW hartree energy PS =     -75.58482149 Ry
      -> PAW xc energy AE      =    -132.53134406 Ry
      -> PAW xc energy PS      =      21.26600816 Ry
      -> total E_H with PAW    =      99.14326751 Ry
      -> total E_XC with PAW   =    -250.36552918 Ry

     convergence has been achieved in   9 iterations

     negative rho (up, down):  1.755E-01 0.000E+00

     Forces acting on atoms (cartesian axes, Ry/au):

     atom    1 type  1   force =     0.01218298    0.01030150    0.00003573
     atom    2 type  1   force =    -0.01218298   -0.01030150   -0.00003573
     atom    3 type  2   force =     0.00000000    0.00000000    0.00000000
     atom    4 type  3   force =     0.00718077   -0.00850262    0.00569783
     atom    5 type  3   force =    -0.00718077    0.00850262   -0.00569783
     The non-local contrib.  to forces
     atom    1 type  1   force =     0.00694170    0.00586181   -0.00001562
     atom    2 type  1   force =    -0.00694170   -0.00586181    0.00001562
     atom    3 type  2   force =     0.00000000    0.00000000    0.00000000
     atom    4 type  3   force =     0.07243769   -0.08579042    0.05749095
     atom    5 type  3   force =    -0.07243769    0.08579042   -0.05749095
     The ionic contribution  to forces
     atom    1 type  1   force =     2.73332955    2.30817128   -0.00000000
     atom    2 type  1   force =    -2.73332955   -2.30817128    0.00000000
     atom    3 type  2   force =    -0.00000000    0.00000000    0.00000000
     atom    4 type  3   force =    -4.54046721    5.37680773   -3.60349693
     atom    5 type  3   force =     4.54046721   -5.37680773    3.60349693
     The local contribution  to forces
     atom    1 type  1   force =    -2.72722585   -2.30288148    0.00007872
     atom    2 type  1   force =     2.72719262    2.30299820   -0.00003397
     atom    3 type  2   force =    -0.00019393    0.00003929   -0.00006717
     atom    4 type  3   force =     4.48377010   -5.30965751    3.55849163
     atom    5 type  3   force =    -4.48374185    5.30956252   -3.55845361
     The core correction contribution to forces
     atom    1 type  1   force =    -0.00071711   -0.00060457    0.00000257
     atom    2 type  1   force =     0.00071684    0.00060541   -0.00000092
     atom    3 type  2   force =    -0.00000358    0.00000243   -0.00000111
     atom    4 type  3   force =    -0.00838427    0.00992970   -0.00665343
     atom    5 type  3   force =     0.00838805   -0.00993609    0.00665779
     The Hubbard contrib.    to forces
     atom    1 type  1   force =     0.00000000    0.00000000    0.00000000
     atom    2 type  1   force =     0.00000000    0.00000000    0.00000000
     atom    3 type  2   force =     0.00000000    0.00000000    0.00000000
     atom    4 type  3   force =     0.00000000    0.00000000    0.00000000
     atom    5 type  3   force =     0.00000000    0.00000000    0.00000000
     The SCF correction term to forces
     atom    1 type  1   force =    -0.00018129   -0.00019978   -0.00002477
     atom    2 type  1   force =     0.00014282    0.00017375   -0.00001129
     atom    3 type  2   force =     0.00017652    0.00001533    0.00003463
     atom    4 type  3   force =    -0.00015766    0.00017962   -0.00011780
     atom    5 type  3   force =     0.00016139   -0.00013474    0.00010860

     Total force =     0.028666     Total SCF correction =     0.000533

     Computing stress (Cartesian axis) and pressure

     negative rho (up, down):  1.755E-01 0.000E+00
          total   stress  (Ry/bohr**3)                   (kbar)     P=       37.45
   0.00031314  -0.00007710   0.00013128           46.06      -11.34       19.31
  -0.00007710   0.00033927  -0.00015545          -11.34       49.91      -22.87
   0.00013128  -0.00015545   0.00011124           19.31      -22.87       16.36

     kinetic stress (kbar)  12096.10    133.28     80.02
                              133.28  12050.82    -94.75
                               80.02    -94.75  11759.57

     local   stress (kbar)  -2706.44   1876.77   2957.67
                             1876.77  -3344.09  -3502.46
                             2957.67  -3502.46 -11534.36

     nonloc. stress (kbar)   3204.61     16.11     46.95
                               16.11   3199.14    -55.60
                               46.95    -55.60   3080.67

     hartree stress (kbar)   3876.51   -512.43  -1297.51
                             -512.43   4050.63   1536.50
                            -1297.51   1536.50   7381.09

     exc-cor stress (kbar)  11281.81     -2.95      0.66
                               -2.95  11282.81     -0.78
                                0.66     -0.78  11283.82

     corecor stress (kbar) -14601.33     -1.96     -2.24
                               -1.96 -14600.67      2.66
                               -2.24      2.66 -14594.00

     ewald   stress (kbar) -13105.19  -1520.16  -1766.24
                            -1520.16 -12588.73   2091.57
                            -1766.24   2091.57  -7360.44

     hubbard stress (kbar)      0.00      0.00      0.00
                                0.00      0.00      0.00
                                0.00      0.00      0.00

     DFT-D   stress (kbar)      0.00      0.00      0.00
                                0.00      0.00      0.00
                                0.00      0.00      0.00

     XDM     stress (kbar)      0.00      0.00      0.00
                                0.00      0.00      0.00
                                0.00      0.00      0.00

     dft-nl  stress (kbar)      0.00      0.00      0.00
                                0.00      0.00      0.00
                                0.00      0.00      0.00

     TS-vdW  stress (kbar)      0.00      0.00      0.00
                                0.00      0.00      0.00
                                0.00      0.00      0.00

[...]

                                0.00      0.00      0.00

     Writing all to output data dir new_calculations/myprefix.save/

     General routines

     Parallel routines

     PAW routines

   This run was terminated on:  12:31:47  20May2023

   JOB DONE.