     Program PWSCF v.7.0 starts on 21May2023 at  4:20:35

     Reading input from espresso_11820.pwi
Warning: card &CELL ignored
Warning: card / ignored

     Current dimensions of program PWSCF are:
     Max number of different atomic species (ntypx) = 10
     Max number of k-points (npk) =  40000
     Max angular momentum in pseudopotentials (lmaxx) =  4

     gamma-point specific algorithms are used
     Message from routine setup:
     using ibrav=0 with symmetry is DISCOURAGED, use correct ibrav instead

     Subspace diagonalization in iterative solution of the eigenvalue problem:
     a serial algorithm will be used

     Using Slab Decomposition

     bravais-lattice index     =            0
     lattice parameter (alat)  =      12.4582  a.u.
     unit-cell volume          =     390.9905 (a.u.)^3
     number of atoms/cell      =            7
     number of atomic types    =            3
     number of electrons       =        60.00
     number of Kohn-Sham states=           36
     kinetic-energy cutoff     =      30.0000  Ry
     charge density cutoff     =     240.0000  Ry
     scf convergence threshold =      1.0E-06
     mixing beta               =       0.7000
     number of iterations used =            8  plain     mixing
     Exchange-correlation= PBE
                           (   1   4   3   4   0   0   0)

     celldm(1)=  12.458200  celldm(2)=   0.000000  celldm(3)=   0.000000
     celldm(4)=   0.000000  celldm(5)=   0.000000  celldm(6)=   0.000000

     crystal axes: (cart. coord. in units of alat)
               a(1) = (   1.000000   0.000000   0.000000 )
               a(2) = (   0.785998   0.618229   0.000000 )
               a(3) = (  -0.891495  -0.313459   0.327078 )

     reciprocal axes: (cart. coord. in units 2 pi/alat)
               b(1) = (  1.000000 -1.271370  1.507202 )
               b(2) = (  0.000000  1.617524  1.550176 )
               b(3) = (  0.000000  0.000000  3.057377 )

     PseudoPot. # 1 for Co read from file:
     /home/pragov/projects/rrg-bengioy-ad/pragov/crystal_structure_design/SSSP/Co_pbe_v1.2.uspp.F.UPF
     MD5 check sum: 5f91765df6ddd3222702df6e7b74a16d
     Pseudo is Ultrasoft + core correction, Zval = 17.0
     Generated by new atomic code, or converted to UPF format
     Using radial grid of  863 points,  6 beta functions with:
                l(1) =   0
                l(2) =   0
                l(3) =   1
                l(4) =   1
                l(5) =   2
                l(6) =   2
     Q(r) pseudized with  8 coefficients,  rinner =    1.200   1.200   1.200
                                                       1.200   1.200

     PseudoPot. # 2 for B  read from file:
     /home/pragov/projects/rrg-bengioy-ad/pragov/crystal_structure_design/SSSP/b_pbe_v1.4.uspp.F.UPF
     MD5 check sum: cc6de2960df11db49a60e589f9ebb39b
     Pseudo is Ultrasoft + core correction, Zval =  3.0
     Generated by new atomic code, or converted to UPF format
     Using radial grid of  781 points,  4 beta functions with:
                l(1) =   0
                l(2) =   0
                l(3) =   1
                l(4) =   1
     Q(r) pseudized with  8 coefficients,  rinner =    1.100   1.100   1.100

     PseudoPot. # 3 for Mo read from file:
     /home/pragov/projects/rrg-bengioy-ad/pragov/crystal_structure_design/SSSP/Mo_ONCV_PBE-1.0.oncvpsp.upf
     MD5 check sum: 1b5d28e075c9ccadda658a603575cd1f
     Pseudo is Norm-conserving, Zval = 14.0
     Generated using ONCVPSP code by D. R. Hamann
     Using radial grid of 1526 points,  6 beta functions with:
                l(1) =   0
                l(2) =   0
                l(3) =   1
                l(4) =   1
                l(5) =   2
                l(6) =   2

     atomic species   valence    mass     pseudopotential
        Co            17.00    58.93319     Co( 1.00)
        B              3.00    10.81000     B ( 1.00)
        Mo            14.00    95.95000     Mo( 1.00)

      2 Sym. Ops., with inversion, found

                                    s                        frac. trans.

      isym =  1     identity

 cryst.   s( 1) = (     1          0          0      )
                  (     0          1          0      )
                  (     0          0          1      )

 cart.    s( 1) = (  1.0000000 -0.0000000 -0.0000000 )
                  (  0.0000000  1.0000000 -0.0000000 )
                  (  0.0000000  0.0000000  1.0000000 )

      isym =  2     inversion

 cryst.   s( 2) = (    -1          0          0      )
                  (     0         -1          0      )
                  (     0          0         -1      )

 cart.    s( 2) = ( -1.0000000  0.0000000  0.0000000 )
                  (  0.0000000 -1.0000000  0.0000000 )
                  (  0.0000000  0.0000000 -1.0000000 )

   Cartesian axes

     site n.     atom                  positions (alat units)
         1           Co  tau(   1) = (   1.4545454   0.5034956   0.0000000  )
         2           Co  tau(   2) = (   0.3314527   0.1147334   0.0000000  )
         3           B   tau(   3) = (   0.7062846   0.4151266   0.1635389  )
         4           B   tau(   4) = (   0.1882184  -0.1103569   0.1635389  )
         5           B   tau(   5) = (   0.6221721   0.2153669   0.0000000  )
         6           B   tau(   6) = (   1.1638260   0.4028621   0.0000000  )
         7           Mo  tau(   7) = (  -0.0527485   0.1523848   0.1635389  )

   Crystallographic axes

     site n.     atom                  positions (cryst. coord.)
         1           Co  tau(   1) = (  0.8144160  0.8144160  0.0000000  )
         2           Co  tau(   2) = (  0.1855840  0.1855840  0.0000000  )
         3           B   tau(   3) = (  0.4249910  0.9249910  0.5000000  )
         4           B   tau(   4) = (  0.5750090  0.0750090  0.5000000  )
         5           B   tau(   5) = (  0.3483610  0.3483610  0.0000000  )
         6           B   tau(   6) = (  0.6516390  0.6516390  0.0000000  )
         7           Mo  tau(   7) = ( -0.0000000  0.5000000  0.5000000  )

     number of k points=     1  Methfessel-Paxton smearing, width (Ry)=  0.0010
                       cart. coord. in units 2pi/alat
        k(    1) = (   0.0000000   0.0000000   0.0000000), wk =   2.0000000

                       cryst. coord.
        k(    1) = (   0.0000000   0.0000000   0.0000000), wk =   2.0000000

     Check: negative core charge=   -0.000016

     Initial potential from superposition of free atoms

     starting charge      57.9979, renormalised to      60.0000
     Starting wfcs are   52 randomized atomic wfcs

     Self-consistent Calculation

     iteration #  1     ecut=    30.00 Ry     beta= 0.70
     Davidson diagonalization with overlap

     ethr =  1.00E-02,  avg # of iterations =  3.0

     total energy              =    -749.21131442 Ry
     estimated scf accuracy    <      14.85263966 Ry

[...]

     total energy              =    -759.31824364 Ry
     estimated scf accuracy    <       0.00001874 Ry

     iteration # 45     ecut=    30.00 Ry     beta= 0.70
     Davidson diagonalization with overlap

     ethr =  1.30E-08,  avg # of iterations =  1.0

     End of self-consistent calculation

          k = 0.0000 0.0000 0.0000 (   529 PWs)   bands (ev):

   -76.1829 -76.1701 -42.8303 -39.9123 -39.8719 -39.5214 -39.4756 -39.0071
   -38.9594 -17.3588 -16.8915 -16.6028   4.1077   6.8385   8.2288  13.3771
    13.5480  13.9497  14.0254  14.4599  14.5915  14.7238  15.3192  16.0555
    16.8731  17.1481  17.3089  17.5747  18.1289  18.9223  18.9270  19.9548
    20.3852  21.1517  21.3933  21.5060

     occupation numbers
     1.0000   1.0000   1.0000   1.0000   1.0000   1.0000   1.0000   1.0000
     1.0000   1.0000   1.0000   1.0000   1.0000   1.0000   1.0000   1.0000
     1.0000   1.0000   1.0000   1.0000   1.0000   1.0000   1.0000   1.0000
     1.0000   1.0000   1.0000   1.0000   1.0000   0.6439   0.3561  -0.0000
    -0.0000  -0.0000  -0.0000  -0.0000

     the Fermi energy is    18.9247 ev

!    total energy              =    -759.31824344 Ry
     estimated scf accuracy    <       0.00000023 Ry
     smearing contrib. (-TS)   =      -0.00051482 Ry
     internal energy E=F+TS    =    -759.31772862 Ry

     The total energy is F=E-TS. E is the sum of the following terms:
     one-electron contribution =    -403.26469394 Ry
     hartree contribution      =     241.52683378 Ry
     xc contribution           =     -93.41391092 Ry
     ewald contribution        =    -504.16595754 Ry

     convergence has been achieved in  45 iterations

     Forces acting on atoms (cartesian axes, Ry/au):

     atom    1 type  1   force =     0.09452914    0.03264800   -0.00050760
     atom    2 type  1   force =    -0.09452914   -0.03264800    0.00050760
     atom    3 type  2   force =    -0.18156384   -0.06294997   -0.00009620
     atom    4 type  2   force =     0.18156384    0.06294997    0.00009620
     atom    5 type  2   force =     0.07475488    0.02670336   -0.00034974
     atom    6 type  2   force =    -0.07475488   -0.02670336    0.00034974
     atom    7 type  3   force =     0.00000000    0.00000000    0.00000000
     The non-local contrib.  to forces
     atom    1 type  1   force =     0.23850890    0.08292467    0.00006212
     atom    2 type  1   force =    -0.23850890   -0.08292467   -0.00006212
     atom    3 type  2   force =     0.08459804    0.02942965   -0.00018921
     atom    4 type  2   force =    -0.08459804   -0.02942965    0.00018921
     atom    5 type  2   force =     0.13935600    0.04846362   -0.00002164
     atom    6 type  2   force =    -0.13935600   -0.04846362    0.00002164
     atom    7 type  3   force =     0.00000000    0.00000000    0.00000000
     The ionic contribution  to forces
     atom    1 type  1   force =    12.74678504    4.41234065    0.00000000
     atom    2 type  1   force =   -12.74678504   -4.41234065   -0.00000000
     atom    3 type  2   force =     3.99010169    1.38118654    0.00000000
     atom    4 type  2   force =    -3.99010169   -1.38118654   -0.00000000
     atom    5 type  2   force =     4.57095262    1.58224996    0.00000000
     atom    6 type  2   force =    -4.57095262   -1.58224996   -0.00000000
     atom    7 type  3   force =     0.00000000    0.00000000    0.00000000
     The local contribution  to forces
     atom    1 type  1   force =   -12.89520270   -4.46416075   -0.00057473
     atom    2 type  1   force =    12.89519713    4.46415743    0.00057585
     atom    3 type  2   force =    -4.25118928   -1.47178864    0.00007610
     atom    4 type  2   force =     4.25118757    1.47179733   -0.00008511
     atom    5 type  2   force =    -4.63461533   -1.60370531   -0.00031360
     atom    6 type  2   force =     4.63461356    1.60370668    0.00031182
     atom    7 type  3   force =     0.00000805   -0.00001447    0.00001660
     The core correction contribution to forces
     atom    1 type  1   force =     0.00324515    0.00112954    0.00000566
     atom    2 type  1   force =    -0.00324519   -0.00112956   -0.00000566
     atom    3 type  2   force =    -0.00540627   -0.00188760    0.00001222
     atom    4 type  2   force =     0.00540625    0.00188767   -0.00001229
     atom    5 type  2   force =    -0.00127079   -0.00041893   -0.00001543
     atom    6 type  2   force =     0.00127077    0.00041892    0.00001543
     atom    7 type  3   force =     0.00000000    0.00000000    0.00000000
     The Hubbard contrib.    to forces
     atom    1 type  1   force =     0.00000000    0.00000000    0.00000000
     atom    2 type  1   force =     0.00000000    0.00000000    0.00000000
     atom    3 type  2   force =     0.00000000    0.00000000    0.00000000
     atom    4 type  2   force =     0.00000000    0.00000000    0.00000000
     atom    5 type  2   force =     0.00000000    0.00000000    0.00000000
     atom    6 type  2   force =     0.00000000    0.00000000    0.00000000
     atom    7 type  3   force =     0.00000000    0.00000000    0.00000000
     The SCF correction term to forces
     atom    1 type  1   force =     0.00119129    0.00041379   -0.00000102
     atom    2 type  1   force =    -0.00118860   -0.00041064   -0.00000085
     atom    3 type  2   force =     0.00033089    0.00011279    0.00000170
     atom    4 type  2   force =    -0.00033134   -0.00011614    0.00000140
     atom    5 type  2   force =     0.00033218    0.00011431    0.00000060
     atom    6 type  2   force =    -0.00033080   -0.00011510    0.00000053
     atom    7 type  3   force =    -0.00000756    0.00001193   -0.00001410

     Total force =     0.326287     Total SCF correction =     0.001914

     Computing stress (Cartesian axis) and pressure

          total   stress  (Ry/bohr**3)                   (kbar)     P=     -346.07
  -0.00447763  -0.00117232  -0.00027502         -658.68     -172.45      -40.46
  -0.00117232  -0.00143050   0.00080622         -172.45     -210.43      118.60
  -0.00027502   0.00080622  -0.00114947          -40.46      118.60     -169.09

     kinetic stress (kbar)  35409.57   -625.29   -155.85
                             -625.29  36998.09    451.76
                             -155.85    451.76  37225.41

     local   stress (kbar)  -1060.77   4547.28    490.33
                             4547.28 -12652.43  -1395.99
                              490.33  -1395.99 -14232.85

     nonloc. stress (kbar)  15768.09   -159.72    -57.21
                             -159.72  16204.92    151.86
                              -57.21    151.86  16224.20

     hartree stress (kbar)  25541.73  -2617.30   -282.11
                            -2617.30  32206.80    807.82
                             -282.11    807.82  33122.80

     exc-cor stress (kbar)  -7852.46     -3.44     -2.21
                               -3.44  -7843.79      6.43
                               -2.21      6.43  -7842.54

     corecor stress (kbar)  -2845.72      5.71      6.01
                                5.71  -2860.55    -17.16
                                6.01    -17.16  -2862.83

     ewald   stress (kbar) -65619.12  -1319.69    -39.42
                            -1319.69 -62263.48    113.87
                              -39.42    113.87 -61803.28

     hubbard stress (kbar)      0.00      0.00      0.00
                                0.00      0.00      0.00
                                0.00      0.00      0.00

     DFT-D   stress (kbar)      0.00      0.00      0.00
                                0.00      0.00      0.00
                                0.00      0.00      0.00

     XDM     stress (kbar)      0.00      0.00      0.00
                                0.00      0.00      0.00
                                0.00      0.00      0.00

     dft-nl  stress (kbar)      0.00      0.00      0.00
                                0.00      0.00      0.00
                                0.00      0.00      0.00

     TS-vdW  stress (kbar)      0.00      0.00      0.00
                                0.00      0.00      0.00
                                0.00      0.00      0.00

[...]

                                0.00      0.00      0.00

     Writing all to output data dir new_calculations/myprefix.save/

     General routines

     Parallel routines

   This run was terminated on:   4:21: 5  21May2023

   JOB DONE.