     Program PWSCF v.7.0 starts on 20May2023 at 11:20: 6

     Reading input from espresso_4386.pwi
Warning: card &CELL ignored
Warning: card / ignored

     Current dimensions of program PWSCF are:
     Max number of different atomic species (ntypx) = 10
     Max number of k-points (npk) =  40000
     Max angular momentum in pseudopotentials (lmaxx) =  4
     file O.pbe-n-kjpaw_psl.0.1.UPF: wavefunction(s)  2P renormalized

     gamma-point specific algorithms are used
     Message from routine setup:
     using ibrav=0 with symmetry is DISCOURAGED, use correct ibrav instead

     Subspace diagonalization in iterative solution of the eigenvalue problem:
     a serial algorithm will be used

     Using Slab Decomposition

     bravais-lattice index     =            0
     lattice parameter (alat)  =      15.2787  a.u.
     unit-cell volume          =    1784.3965 (a.u.)^3
     number of atoms/cell      =           20
     number of atomic types    =            4
     number of electrons       =       160.00
     number of Kohn-Sham states=           96
     kinetic-energy cutoff     =      30.0000  Ry
     charge density cutoff     =     240.0000  Ry
     scf convergence threshold =      1.0E-06
     mixing beta               =       0.7000
     number of iterations used =            8  plain     mixing
     Exchange-correlation= SLA  PW   PBX  PBC
                           (   1   4   3   4   0   0   0)

     celldm(1)=  15.278738  celldm(2)=   0.000000  celldm(3)=   0.000000
     celldm(4)=   0.000000  celldm(5)=   0.000000  celldm(6)=   0.000000

     crystal axes: (cart. coord. in units of alat)
               a(1) = (   1.000000   0.000000   0.000000 )
               a(2) = (   0.000000   0.698412   0.000000 )
               a(3) = (   0.000000   0.000320   0.716337 )

     reciprocal axes: (cart. coord. in units 2 pi/alat)
               b(1) = (  1.000000  0.000000  0.000000 )
               b(2) = (  0.000000  1.431821 -0.000640 )
               b(3) = (  0.000000  0.000000  1.395991 )

     PseudoPot. # 1 for Sr read from file:
     /home/pragov/projects/rrg-bengioy-ad/pragov/crystal_structure_design/SSSP/Sr_pbe_v1.uspp.F.UPF
     MD5 check sum: 6b418c05fbe9db5448babca5e47b7a5b
     Pseudo is Ultrasoft + core correction, Zval = 10.0
     Generated by new atomic code, or converted to UPF format
     Using radial grid of  883 points,  6 beta functions with:
                l(1) =   0
                l(2) =   0
                l(3) =   1
                l(4) =   1
                l(5) =   2
                l(6) =   2
     Q(r) pseudized with  6 coefficients,  rinner =    1.400   1.400   1.400
                                                       1.400   1.400

     PseudoPot. # 2 for Ca read from file:
     /home/pragov/projects/rrg-bengioy-ad/pragov/crystal_structure_design/SSSP/Ca_pbe_v1.uspp.F.UPF
     MD5 check sum: 403a4c14b9e4d4dfdc3024c9a3812218
     Pseudo is Ultrasoft + core correction, Zval = 10.0
     Generated by new atomic code, or converted to UPF format
     Using radial grid of  845 points,  6 beta functions with:
                l(1) =   0
                l(2) =   0
                l(3) =   1
                l(4) =   1
                l(5) =   2
                l(6) =   2
     Q(r) pseudized with  8 coefficients,  rinner =    1.500   1.500   1.500
                                                       1.500   1.500

     PseudoPot. # 3 for Hf read from file:
     /home/pragov/projects/rrg-bengioy-ad/pragov/crystal_structure_design/SSSP/Hf-sp.oncvpsp.upf
     MD5 check sum: 417ed15784afe83d2e06dacf143de3f8
     Pseudo is Norm-conserving + core correction, Zval = 12.0
     Generated using ONCVPSP code by D. R. Hamann
     Using radial grid of 1656 points,  8 beta functions with:
                l(1) =   0
                l(2) =   0
                l(3) =   1
                l(4) =   1
                l(5) =   2
                l(6) =   2
                l(7) =   3
                l(8) =   3

     PseudoPot. # 4 for O  read from file:
     /home/pragov/projects/rrg-bengioy-ad/pragov/crystal_structure_design/SSSP/O.pbe-n-kjpaw_psl.0.1.UPF
     MD5 check sum: 0234752ac141de4415c5fc33072bef88
     Pseudo is Projector augmented-wave + core cor, Zval =  6.0
     Generated using "atomic" code by A. Dal Corso  v.5.0.99 svn rev. 10869
     Shape of augmentation charge: BESSEL
     Using radial grid of 1095 points,  4 beta functions with:
                l(1) =   0
                l(2) =   0
                l(3) =   1
                l(4) =   1
     Q(r) pseudized with 0 coefficients

     atomic species   valence    mass     pseudopotential
        Sr            10.00    87.62000     Sr( 1.00)
        Ca            10.00    40.07800     Ca( 1.00)
        Hf            12.00   178.49000     Hf( 1.00)
        O              6.00    15.99900     O ( 1.00)

      2 Sym. Ops. (no inversion) found

                                    s                        frac. trans.

      isym =  1     identity

 cryst.   s( 1) = (     1          0          0      )
                  (     0          1          0      )
                  (     0          0          1      )

 cart.    s( 1) = (  1.0000000  0.0000000  0.0000000 )
                  (  0.0000000  1.0000000 -0.0000000 )
                  (  0.0000000  0.0000000  1.0000000 )

      isym =  2     inv. 180 deg rotation - cart. axis [1,0,0]

 cryst.   s( 2) = (    -1          0          0      )
                  (     0          1          0      )
                  (     0          0          1      )

 cart.    s( 2) = ( -1.0000000  0.0000000  0.0000000 )
                  (  0.0000000  1.0000000 -0.0000000 )
                  (  0.0000000  0.0000000  1.0000000 )

   Cartesian axes

     site n.     atom                  positions (alat units)
         1           Sr  tau(   1) = (   0.5000000   0.3414521   0.3877770  )
         2           Ca  tau(   2) = (   0.5000000   0.0086588   0.0325095  )
         3           Ca  tau(   3) = (   0.0000000   0.3575235   0.3257887  )
         4           Ca  tau(   4) = (   0.0000000   0.6914004   0.6850512  )
         5           Hf  tau(   5) = (   0.2475780   0.0004003   0.3581700  )
         6           Hf  tau(   6) = (   0.7519910   0.3487512   0.0001160  )
         7           Hf  tau(   7) = (   0.7524220   0.0004003   0.3581700  )
         8           Hf  tau(   8) = (   0.2480090   0.3487512   0.0001160  )
         9           O   tau(   9) = (   0.5000000   0.4188673   0.7015785  )
        10           O   tau(  10) = (   0.5000000   0.6432005   0.3340524  )
        11           O   tau(  11) = (   0.0000000   0.2806687   0.0222215  )
        12           O   tau(  12) = (   0.0000000   0.0709305   0.3825527  )
        13           O   tau(  13) = (   0.3002940   0.1409688   0.5706006  )
        14           O   tau(  14) = (   0.7054260   0.2025009   0.2063245  )
        15           O   tau(  15) = (   0.8039080   0.5542921   0.1481729  )
        16           O   tau(  16) = (   0.1962300   0.4910278   0.5043687  )
        17           O   tau(  17) = (   0.1960920   0.5542921   0.1481729  )
        18           O   tau(  18) = (   0.8037700   0.4910278   0.5043687  )
        19           O   tau(  19) = (   0.6997060   0.1409688   0.5706006  )
        20           O   tau(  20) = (   0.2945740   0.2025009   0.2063245  )

   Crystallographic axes

     site n.     atom                  positions (cryst. coord.)
         1           Sr  tau(   1) = (  0.5000000  0.4886500  0.5413330  )
         2           Ca  tau(   2) = (  0.5000000  0.0123770  0.0453830  )
         3           Ca  tau(   3) = (  0.0000000  0.5117010  0.4547980  )
         4           Ca  tau(   4) = (  0.0000000  0.9895230  0.9563250  )
         5           Hf  tau(   5) = (  0.2475780  0.0003440  0.5000020  )
         6           Hf  tau(   6) = (  0.7519910  0.4993490  0.0001620  )
         7           Hf  tau(   7) = (  0.7524220  0.0003440  0.5000020  )
         8           Hf  tau(   8) = (  0.2480090  0.4993490  0.0001620  )
         9           O   tau(   9) = (  0.5000000  0.5992940  0.9793970  )
        10           O   tau(  10) = (  0.5000000  0.9207340  0.4663340  )
        11           O   tau(  11) = (  0.0000000  0.4018530  0.0310210  )
        12           O   tau(  12) = (  0.0000000  0.1013150  0.5340400  )
        13           O   tau(  13) = (  0.3002940  0.2014770  0.7965530  )
        14           O   tau(  14) = (  0.7054260  0.2898130  0.2880270  )
        15           O   tau(  15) = (  0.8039080  0.7935520  0.2068480  )
        16           O   tau(  16) = (  0.1962300  0.7027410  0.7040940  )
        17           O   tau(  17) = (  0.1960920  0.7935520  0.2068480  )
        18           O   tau(  18) = (  0.8037700  0.7027410  0.7040940  )
        19           O   tau(  19) = (  0.6997060  0.2014770  0.7965530  )
        20           O   tau(  20) = (  0.2945740  0.2898130  0.2880270  )

     number of k points=     1  Methfessel-Paxton smearing, width (Ry)=  0.0010
                       cart. coord. in units 2pi/alat
        k(    1) = (   0.0000000   0.0000000   0.0000000), wk =   2.0000000

                       cryst. coord.
        k(    1) = (   0.0000000   0.0000000   0.0000000), wk =   2.0000000

     Check: negative core charge=   -0.000012

     Initial potential from superposition of free atoms

     starting charge     159.9426, renormalised to     160.0000

     negative rho (up, down):  6.398E-02 0.000E+00
     Starting wfcs are  131 randomized atomic wfcs
     Checking if some PAW data can be deallocated...

     Self-consistent Calculation

     iteration #  1     ecut=    30.00 Ry     beta= 0.70
     Davidson diagonalization with overlap

     ethr =  1.00E-02,  avg # of iterations =  2.0

     negative rho (up, down):  6.536E-02 0.000E+00

     total energy              =   -1245.15695632 Ry
     estimated scf accuracy    <       5.85775183 Ry

[...]

     total energy              =   -1248.05689897 Ry
     estimated scf accuracy    <       0.00000957 Ry

     iteration # 10     ecut=    30.00 Ry     beta= 0.70
     Davidson diagonalization with overlap

     ethr =  5.98E-09,  avg # of iterations =  4.0

[...]

     End of self-consistent calculation

          k = 0.0000 0.0000 0.0000 (  2482 PWs)   bands (ev):

   -51.2869 -51.2863 -51.2798 -51.2791 -29.3381 -29.2681 -29.2580 -23.1771
   -20.2431 -20.2382 -20.2174 -20.2116 -20.1760 -20.1573 -20.1117 -20.1092
   -20.0778 -20.0773 -20.0409 -20.0311 -10.5554 -10.5008 -10.4884 -10.3983
   -10.3913 -10.3651 -10.3588 -10.3235 -10.3056  -7.9293  -7.6428  -7.3816
    -7.3164  -7.2078  -7.1985  -6.6551  -6.5835  -6.5397  -6.5186  -6.5004
    -6.4034  -5.0780  -5.0582  -4.8892   4.8145   4.9094   4.9956   4.9973
     5.2004   5.3043   5.3337   5.5715   5.6268   5.6747   6.7139   6.8855
     6.9072   7.0434   7.0516   7.1025   7.1303   7.1779   7.2493   7.2556
     7.3570   7.7165   7.8561   8.0284   8.0699   8.2151   8.2787   8.3953
     8.4426   8.4533   8.5400   8.6020   8.6124   8.6985   8.7664   8.7961
    12.9703  13.0604  13.0759  13.5378  14.0465  14.1668  14.6345  14.7624
    15.1013  15.2972  15.3832  15.4706  15.4753  15.5763  15.6529  15.7221

     occupation numbers
     1.0000   1.0000   1.0000   1.0000   1.0000   1.0000   1.0000   1.0000
     1.0000   1.0000   1.0000   1.0000   1.0000   1.0000   1.0000   1.0000
     1.0000   1.0000   1.0000   1.0000   1.0000   1.0000   1.0000   1.0000
     1.0000   1.0000   1.0000   1.0000   1.0000   1.0000   1.0000   1.0000
     1.0000   1.0000   1.0000   1.0000   1.0000   1.0000   1.0000   1.0000
     1.0000   1.0000   1.0000   1.0000   1.0000   1.0000   1.0000   1.0000
     1.0000   1.0000   1.0000   1.0000   1.0000   1.0000   1.0000   1.0000
     1.0000   1.0000   1.0000   1.0000   1.0000   1.0000   1.0000   1.0000
     1.0000   1.0000   1.0000   1.0000   1.0000   1.0000   1.0000   1.0000
     1.0000   1.0000   1.0000   1.0000   1.0000   1.0000   1.0000   1.0000
    -0.0000  -0.0000  -0.0000  -0.0000  -0.0000  -0.0000  -0.0000  -0.0000
    -0.0000  -0.0000  -0.0000  -0.0000  -0.0000  -0.0000  -0.0000  -0.0000

     the Fermi energy is    11.6531 ev

!    total energy              =   -1248.05690141 Ry
     estimated scf accuracy    <       0.00000047 Ry
     smearing contrib. (-TS)   =       0.00000000 Ry
     internal energy E=F+TS    =   -1248.05690141 Ry

     The total energy is F=E-TS. E is the sum of the following terms:
     one-electron contribution =    -257.73276926 Ry
     hartree contribution      =     212.97513967 Ry
     xc contribution           =    -258.66591358 Ry
     ewald contribution        =    -830.46527259 Ry
     one-center paw contrib.   =    -114.16808564 Ry
      -> PAW hartree energy AE =     363.83863547 Ry
      -> PAW hartree energy PS =    -362.51415650 Ry
      -> PAW xc energy AE      =    -207.24960329 Ry
      -> PAW xc energy PS      =      91.75703868 Ry
      -> total E_H with PAW    =     214.29961863 Ry
      -> total E_XC with PAW   =    -374.15847819 Ry

     convergence has been achieved in  10 iterations

     negative rho (up, down):  6.734E-02 0.000E+00

     Forces acting on atoms (cartesian axes, Ry/au):

     atom    1 type  1   force =     0.00000000   -0.01117507    0.01335208
     atom    2 type  2   force =     0.00000000    0.00908755    0.01116123
     atom    3 type  2   force =     0.00000000    0.00775789   -0.01252131
     atom    4 type  2   force =     0.00000000   -0.00692749   -0.00880117
     atom    5 type  3   force =     0.00018724   -0.00184709    0.00331234
     atom    6 type  3   force =    -0.00027415    0.00825147   -0.00128109
     atom    7 type  3   force =    -0.00018724   -0.00184709    0.00331234
     atom    8 type  3   force =     0.00027415    0.00825147   -0.00128109
     atom    9 type  4   force =     0.00000000    0.01369980   -0.00643209
     atom   10 type  4   force =     0.00000000   -0.00004687   -0.01779620
     atom   11 type  4   force =     0.00000000   -0.01062393    0.01527712
     atom   12 type  4   force =     0.00000000    0.01791074    0.01648626
     atom   13 type  4   force =     0.02720963   -0.01586978    0.01053502
     atom   14 type  4   force =    -0.02225935    0.00713857    0.00433553
     atom   15 type  4   force =     0.02629717    0.00879987   -0.00782559
     atom   16 type  4   force =    -0.02423784   -0.01631435   -0.01443916
     atom   17 type  4   force =    -0.02629717    0.00879987   -0.00782559
     atom   18 type  4   force =     0.02423784   -0.01631435   -0.01443916
     atom   19 type  4   force =    -0.02720963   -0.01586978    0.01053502
     atom   20 type  4   force =     0.02225935    0.00713857    0.00433553
     The non-local contrib.  to forces
     atom    1 type  1   force =     0.00000000    0.00641777   -0.00280376
     atom    2 type  2   force =     0.00000000    0.01177493    0.00883415
     atom    3 type  2   force =     0.00000000    0.00851148   -0.01415310
     atom    4 type  2   force =     0.00000000   -0.01182624   -0.01243151
     atom    5 type  3   force =     0.00219712   -0.00284657    0.00207833
     atom    6 type  3   force =    -0.00661432    0.00468959   -0.00777557
     atom    7 type  3   force =    -0.00219712   -0.00284657    0.00207833
     atom    8 type  3   force =     0.00661432    0.00468959   -0.00777557
     atom    9 type  4   force =     0.00000000   -0.13706322   -0.01193870
     atom   10 type  4   force =     0.00000000    0.09269372    0.00918730
     atom   11 type  4   force =     0.00000000    0.14267428   -0.02074422
     atom   12 type  4   force =     0.00000000   -0.15851821   -0.00747179
     atom   13 type  4   force =    -0.07966624    0.11038644   -0.08675005
     atom   14 type  4   force =     0.06710317   -0.05896178   -0.04007857
     atom   15 type  4   force =    -0.07595391   -0.10758241    0.06700882
     atom   16 type  4   force =     0.09411244    0.09738181    0.05965899
     atom   17 type  4   force =     0.07595391   -0.10758241    0.06700882
     atom   18 type  4   force =    -0.09411244    0.09738181    0.05965899
     atom   19 type  4   force =     0.07966624    0.11038644   -0.08675005
     atom   20 type  4   force =    -0.06710317   -0.05896178   -0.04007857
     The ionic contribution  to forces
     atom    1 type  1   force =     0.00000000    1.16883027   -0.98199119
     atom    2 type  2   force =     0.00000000   -0.90544338   -1.50682351
     atom    3 type  2   force =    -0.00000000   -0.64355493    1.35891712
     atom    4 type  2   force =    -0.00000000    0.49034587    1.08359583
     atom    5 type  3   force =     0.78555523   -0.42036459    0.33105870
     atom    6 type  3   force =    -1.13214017    0.47382361   -0.61200171
     atom    7 type  3   force =    -0.78555523   -0.42036459    0.33105870
     atom    8 type  3   force =     1.13214017    0.47382361   -0.61200171
     atom    9 type  4   force =     0.00000000    1.73173967    0.07734275
     atom   10 type  4   force =     0.00000000   -2.12339389    0.55568966
     atom   11 type  4   force =    -0.00000000   -1.83759660   -0.33138109
     atom   12 type  4   force =     0.00000000    1.91625156   -0.04627217
     atom   13 type  4   force =     1.28862831   -1.05273563    0.48764626
     atom   14 type  4   force =    -1.26184494    1.22913108    0.83645170
     atom   15 type  4   force =     0.40956694    1.10287696   -0.56560613
     atom   16 type  4   force =    -0.25075218   -1.23132071   -0.58208752
     atom   17 type  4   force =    -0.40956694    1.10287696   -0.56560613
     atom   18 type  4   force =     0.25075218   -1.23132071   -0.58208752
     atom   19 type  4   force =    -1.28862831   -1.05273563    0.48764626
     atom   20 type  4   force =     1.26184494    1.22913108    0.83645170
     The local contribution  to forces
     atom    1 type  1   force =     0.00002784   -1.18635129    0.99772052
     atom    2 type  2   force =     0.00002234    0.90301721    1.50893136
     atom    3 type  2   force =    -0.00002558    0.64279448   -1.35722684
     atom    4 type  2   force =    -0.00002989   -0.48535582   -1.07966785
     atom    5 type  3   force =    -0.78764720    0.42363121   -0.33118399
     atom    6 type  3   force =     1.14030353   -0.47336161    0.62122940
     atom    7 type  3   force =     0.78765205    0.42359683   -0.33120848
     atom    8 type  3   force =    -1.14029348   -0.47338522    0.62121695
     atom    9 type  4   force =     0.00002322   -1.58241314   -0.07186021
     atom   10 type  4   force =     0.00000593    2.03165810   -0.58256075
     atom   11 type  4   force =    -0.00002608    1.68555883    0.36726690
     atom   12 type  4   force =    -0.00000456   -1.74115934    0.07020929
     atom   13 type  4   force =    -1.18247742    0.92752513   -0.39116965
     atom   14 type  4   force =     1.17319588   -1.16351806   -0.79242898
     atom   15 type  4   force =    -0.30771812   -0.98753041    0.49142694
     atom   16 type  4   force =     0.13303732    1.11846741    0.50854499
     atom   17 type  4   force =     0.30770389   -0.98751274    0.49143833
     atom   18 type  4   force =    -0.13304488    1.11845302    0.50856029
     atom   19 type  4   force =     1.18248485    0.92754209   -0.39115722
     atom   20 type  4   force =    -1.17318999   -1.16353999   -0.79241450
     The core correction contribution to forces
     atom    1 type  1   force =     0.00000024   -0.00044482    0.00043839
     atom    2 type  2   force =     0.00000036    0.00008589    0.00008876
     atom    3 type  2   force =    -0.00000014   -0.00000943   -0.00012568
     atom    4 type  2   force =    -0.00000041   -0.00008654   -0.00016469
     atom    5 type  3   force =    -0.00011297   -0.00190357    0.00131198
     atom    6 type  3   force =    -0.00185039    0.00280929   -0.00255519
     atom    7 type  3   force =     0.00011300   -0.00190466    0.00131137
     atom    8 type  3   force =     0.00185065    0.00280860   -0.00255529
     atom    9 type  4   force =    -0.00000018    0.00126411    0.00004755
     atom   10 type  4   force =    -0.00000002   -0.00079658   -0.00008679
     atom   11 type  4   force =     0.00000012   -0.00122998    0.00019853
     atom   12 type  4   force =    -0.00000001    0.00141332   -0.00000400
     atom   13 type  4   force =     0.00064041   -0.00097980    0.00083863
     atom   14 type  4   force =    -0.00053826    0.00047955    0.00032938
     atom   15 type  4   force =     0.00056673    0.00096960   -0.00065120
     atom   16 type  4   force =    -0.00076233   -0.00089058   -0.00059656
     atom   17 type  4   force =    -0.00056673    0.00096956   -0.00065132
     atom   18 type  4   force =     0.00076237   -0.00089063   -0.00059662
     atom   19 type  4   force =    -0.00064052   -0.00097979    0.00083848
     atom   20 type  4   force =     0.00053804    0.00047961    0.00032931
     The Hubbard contrib.    to forces
     atom    1 type  1   force =     0.00000000    0.00000000    0.00000000
     atom    2 type  2   force =     0.00000000    0.00000000    0.00000000
     atom    3 type  2   force =     0.00000000    0.00000000    0.00000000
     atom    4 type  2   force =     0.00000000    0.00000000    0.00000000
     atom    5 type  3   force =     0.00000000    0.00000000    0.00000000
     atom    6 type  3   force =     0.00000000    0.00000000    0.00000000
     atom    7 type  3   force =     0.00000000    0.00000000    0.00000000
     atom    8 type  3   force =     0.00000000    0.00000000    0.00000000
     atom    9 type  4   force =     0.00000000    0.00000000    0.00000000
     atom   10 type  4   force =     0.00000000    0.00000000    0.00000000
     atom   11 type  4   force =     0.00000000    0.00000000    0.00000000
     atom   12 type  4   force =     0.00000000    0.00000000    0.00000000
     atom   13 type  4   force =     0.00000000    0.00000000    0.00000000
     atom   14 type  4   force =     0.00000000    0.00000000    0.00000000
     atom   15 type  4   force =     0.00000000    0.00000000    0.00000000
     atom   16 type  4   force =     0.00000000    0.00000000    0.00000000
     atom   17 type  4   force =     0.00000000    0.00000000    0.00000000
     atom   18 type  4   force =     0.00000000    0.00000000    0.00000000
     atom   19 type  4   force =     0.00000000    0.00000000    0.00000000
     atom   20 type  4   force =     0.00000000    0.00000000    0.00000000
     The SCF correction term to forces
     atom    1 type  1   force =    -0.00002182    0.00037388   -0.00000958
     atom    2 type  2   force =    -0.00002033   -0.00034624    0.00013277
     atom    3 type  2   force =     0.00002497    0.00001716    0.00006950
     atom    4 type  2   force =     0.00002794   -0.00000388   -0.00013066
     atom    5 type  3   force =     0.00019492   -0.00036160    0.00004949
     atom    6 type  3   force =     0.00002816    0.00028987   -0.00017606
     atom    7 type  3   force =    -0.00020009   -0.00032834    0.00007485
     atom    8 type  3   force =    -0.00003658    0.00031736   -0.00016285
     atom    9 type  4   force =    -0.00003309    0.00017326   -0.00002119
     atom   10 type  4   force =    -0.00000755   -0.00020735   -0.00002333
     atom   11 type  4   force =     0.00003481   -0.00002958   -0.00006069
     atom   12 type  4   force =     0.00000493   -0.00007572    0.00002723
     atom   13 type  4   force =     0.00008219   -0.00006300   -0.00002536
     atom   14 type  4   force =    -0.00017889    0.00000928    0.00006835
     atom   15 type  4   force =    -0.00016615    0.00006844    0.00000166
     atom   16 type  4   force =     0.00012811    0.00004710    0.00004506
     atom   17 type  4   force =     0.00017701    0.00004793   -0.00001639
     atom   18 type  4   force =    -0.00011821    0.00006452    0.00002617
     atom   19 type  4   force =    -0.00009427   -0.00008407   -0.00004266
     atom   20 type  4   force =     0.00016583    0.00002988    0.00004582

     Total force =     0.098119     Total SCF correction =     0.001077

     Computing stress (Cartesian axis) and pressure

     negative rho (up, down):  6.734E-02 0.000E+00
          total   stress  (Ry/bohr**3)                   (kbar)     P=     -373.18
  -0.00285977   0.00000000   0.00000000         -420.69        0.00        0.00
   0.00000000  -0.00241233  -0.00000216            0.00     -354.87       -0.32
   0.00000000  -0.00000216  -0.00233840            0.00       -0.32     -343.99

     kinetic stress (kbar)  22151.89      0.00      0.00
                                0.00  22250.76      0.00
                                0.00      0.00  22279.25

     local   stress (kbar)  -7106.09     -0.00     -0.00
                               -0.00  -7597.96    197.84
                               -0.00    197.84  -6954.47

     nonloc. stress (kbar)   7153.34      0.00      0.00
                                0.00   7154.83     -2.27
                                0.00     -2.27   7164.39

     hartree stress (kbar)   5872.92      0.00      0.00
                                0.00   5934.29    -66.44
                                0.00    -66.44   5750.39

     exc-cor stress (kbar)   1377.57      0.00      0.00
                                0.00   1378.30     -0.32
                                0.00     -0.32   1377.06

     corecor stress (kbar)  -6947.86     -0.00      0.00
                               -0.00  -6947.18      0.05
                                0.00      0.05  -6947.69

     ewald   stress (kbar) -22922.47      0.00      0.00
                                0.00 -22527.91   -129.19
                                0.00   -129.19 -23012.91

     hubbard stress (kbar)      0.00      0.00      0.00
                                0.00      0.00      0.00
                                0.00      0.00      0.00

     DFT-D   stress (kbar)      0.00      0.00      0.00
                                0.00      0.00      0.00
                                0.00      0.00      0.00

     XDM     stress (kbar)      0.00      0.00      0.00
                                0.00      0.00      0.00
                                0.00      0.00      0.00

     dft-nl  stress (kbar)      0.00      0.00      0.00
                                0.00      0.00      0.00
                                0.00      0.00      0.00

     TS-vdW  stress (kbar)      0.00      0.00      0.00
                                0.00      0.00      0.00
                                0.00      0.00      0.00

[...]

                                0.00      0.00      0.00

     Writing all to output data dir new_calculations/myprefix.save/

     General routines

     Parallel routines

     PAW routines

   This run was terminated on:  11:20:30  20May2023

   JOB DONE.