     Program PWSCF v.7.0 starts on 21May2023 at  5:25:26

     Reading input from espresso_8121.pwi
Warning: card &CELL ignored
Warning: card / ignored

     Current dimensions of program PWSCF are:
     Max number of different atomic species (ntypx) = 10
     Max number of k-points (npk) =  40000
     Max angular momentum in pseudopotentials (lmaxx) =  4
     file Cd.pbe-dn-rrkjus_psl.0.3.1.UPF: wavefunction(s)  4D renormalized

     gamma-point specific algorithms are used
     Message from routine setup:
     using ibrav=0 with symmetry is DISCOURAGED, use correct ibrav instead

     Subspace diagonalization in iterative solution of the eigenvalue problem:
     a serial algorithm will be used

     Using Slab Decomposition

     bravais-lattice index     =            0
     lattice parameter (alat)  =       8.8664  a.u.
     unit-cell volume          =     492.8634 (a.u.)^3
     number of atoms/cell      =            4
     number of atomic types    =            3
     number of electrons       =        67.00
     number of Kohn-Sham states=           41
     kinetic-energy cutoff     =      30.0000  Ry
     charge density cutoff     =     240.0000  Ry
     scf convergence threshold =      1.0E-06
     mixing beta               =       0.7000
     number of iterations used =            8  plain     mixing
     Exchange-correlation= PBE
                           (   1   4   3   4   0   0   0)

     celldm(1)=   8.866397  celldm(2)=   0.000000  celldm(3)=   0.000000
     celldm(4)=   0.000000  celldm(5)=   0.000000  celldm(6)=   0.000000

     crystal axes: (cart. coord. in units of alat)
               a(1) = (   1.000000   0.000000   0.000000 )
               a(2) = (   0.500000   0.866025   0.000000 )
               a(3) = (   0.500000   0.288675   0.816497 )

     reciprocal axes: (cart. coord. in units 2 pi/alat)
               b(1) = (  1.000000 -0.577350 -0.408248 )
               b(2) = (  0.000000  1.154701 -0.408248 )
               b(3) = (  0.000000  0.000000  1.224745 )

     PseudoPot. # 1 for Ho read from file:
     /home/pragov/projects/rrg-bengioy-ad/pragov/crystal_structure_design/SSSP/Ho.GGA-PBE-paw-v1.0.UPF
     MD5 check sum: 3d93cae5f38e6cc822e0e70538981326
     Pseudo is Projector augmented-wave + core cor, Zval = 21.0
     Generated using ATOMPAW code
     Shape of augmentation charge: BESSEL
     Using radial grid of 1114 points,  8 beta functions with:
                l(1) =   0
                l(2) =   0
                l(3) =   1
                l(4) =   1
                l(5) =   2
                l(6) =   2
                l(7) =   3
                l(8) =   3
     Q(r) pseudized with 0 coefficients

     PseudoPot. # 2 for Cd read from file:
     /home/pragov/projects/rrg-bengioy-ad/pragov/crystal_structure_design/SSSP/Cd.pbe-dn-rrkjus_psl.0.3.1.UPF
     MD5 check sum: 558e9f355611b531a870a69ef6ace9e2
     Pseudo is Ultrasoft + core correction, Zval = 12.0
     Generated using "atomic" code by A. Dal Corso  v.5.0.99 svn rev. 10869
     Using radial grid of 1239 points,  6 beta functions with:
                l(1) =   0
                l(2) =   0
                l(3) =   1
                l(4) =   1
                l(5) =   2
                l(6) =   2
     Q(r) pseudized with 0 coefficients

     PseudoPot. # 3 for Rh read from file:
     /home/pragov/projects/rrg-bengioy-ad/pragov/crystal_structure_design/SSSP/Rh_ONCV_PBE-1.0.oncvpsp.upf
     MD5 check sum: ba07c69523b14cacd10683cd4c4284c1
     Pseudo is Norm-conserving, Zval = 17.0
     Generated using ONCVPSP code by D. R. Hamann
     Using radial grid of 1442 points,  6 beta functions with:
                l(1) =   0
                l(2) =   0
                l(3) =   1
                l(4) =   1
                l(5) =   2
                l(6) =   2

     atomic species   valence    mass     pseudopotential
        Ho            21.00   164.93033     Ho( 1.00)
        Cd            12.00   112.41400     Cd( 1.00)
        Rh            17.00   102.90550     Rh( 1.00)

     12 Sym. Ops., with inversion, found ( 6 have fractional translation)

                                    s                        frac. trans.

      isym =  1     identity

 cryst.   s( 1) = (     1          0          0      )
                  (     0          1          0      )
                  (     0          0          1      )

 cart.    s( 1) = (  1.0000000  0.0000000  0.0000000 )
                  (  0.0000000  1.0000000  0.0000000 )
                  (  0.0000000  0.0000000  1.0000000 )

      isym =  2     180 deg rotation - cart. axis [1,0,0]

 cryst.   s( 2) = (     1          0          0      )    f =(  0.5000000 )
                  (     1         -1          0      )       ( -0.5000000 )
                  (     1          0         -1      )       ( -0.5000000 )

 cart.    s( 2) = (  1.0000000  0.0000000  0.0000000 )    f =(  0.0000000 )
                  (  0.0000000 -1.0000000 -0.0000000 )       ( -0.5773503 )
                  (  0.0000000  0.0000000 -1.0000000 )       ( -0.4082483 )

      isym =  3     120 deg rotation - cryst. axis [0,0,1]

[...]

      isym =  6     180 deg rotation - cryst. axis [1,1,0]

[...]

      isym =  7     inversion

[...]

      isym =  8     inv. 180 deg rotation - cart. axis [1,0,0]

 cryst.   s( 8) = (    -1          0          0      )
                  (    -1          1          0      )
                  (    -1          0          1      )

 cart.    s( 8) = ( -1.0000000  0.0000000  0.0000000 )
                  (  0.0000000  1.0000000  0.0000000 )
                  (  0.0000000  0.0000000  1.0000000 )

      isym =  9     inv. 120 deg rotation - cryst. axis [0,0,1]

 cryst.   s( 9) = (     1         -1          0      )    f =(  0.5000000 )
                  (     1          0          0      )       (  0.5000000 )
                  (     1          0         -1      )       ( -0.5000000 )

 cart.    s( 9) = (  0.5000000  0.8660254  0.0000000 )    f =(  0.5000000 )
                  ( -0.8660254  0.5000000  0.0000000 )       (  0.2886751 )
                  (  0.0000000  0.0000000 -1.0000000 )       ( -0.4082483 )

[...]

 cryst.   s(10) = (     0          1          0      )    f =(  0.5000000 )
                  (    -1          1          0      )       (  0.5000000 )
                  (     0          1         -1      )       ( -0.5000000 )

 cart.    s(10) = (  0.5000000 -0.8660254 -0.0000000 )    f =(  0.5000000 )
                  (  0.8660254  0.5000000  0.0000000 )       (  0.2886751 )
                  (  0.0000000  0.0000000 -1.0000000 )       ( -0.4082483 )

[...]

 cryst.   s(11) = (     0          1          0      )
                  (     1          0          0      )
                  (     0          0          1      )

 cart.    s(11) = (  0.5000000  0.8660254  0.0000000 )
                  (  0.8660254 -0.5000000 -0.0000000 )
                  (  0.0000000  0.0000000  1.0000000 )

      isym = 12     inv. 180 deg rotation - cryst. axis [1,1,0]

 cryst.   s(12) = (     1         -1          0      )
                  (     0         -1          0      )
                  (     0         -1          1      )

 cart.    s(12) = (  0.5000000 -0.8660254 -0.0000000 )
                  ( -0.8660254 -0.5000000 -0.0000000 )
                  (  0.0000000  0.0000000  1.0000000 )

   Cartesian axes

     site n.     atom                  positions (alat units)
         1           Ho  tau(   1) = (   1.5000000   0.8660254   0.6123724  )
         2           Cd  tau(   2) = (   0.4999980   0.2886740   0.2041233  )
         3           Rh  tau(   3) = (   0.0000000   0.0000000   0.0000000  )
         4           Rh  tau(   4) = (   1.0000000   0.5773503   0.4082483  )

   Crystallographic axes

     site n.     atom                  positions (cryst. coord.)
         1           Ho  tau(   1) = (  0.7500000  0.7500000  0.7500000  )
         2           Cd  tau(   2) = (  0.2499990  0.2499990  0.2499990  )
         3           Rh  tau(   3) = (  0.0000000  0.0000000  0.0000000  )
         4           Rh  tau(   4) = (  0.5000000  0.5000000  0.5000000  )

     number of k points=     1  Methfessel-Paxton smearing, width (Ry)=  0.0010
                       cart. coord. in units 2pi/alat
        k(    1) = (   0.0000000   0.0000000   0.0000000), wk =   2.0000000

                       cryst. coord.
        k(    1) = (   0.0000000   0.0000000   0.0000000), wk =   2.0000000

     Check: negative core charge=   -0.000001

     Initial potential from superposition of free atoms

     starting charge      66.9900, renormalised to      67.0000
     Starting wfcs are   61 randomized atomic wfcs
     Checking if some PAW data can be deallocated...

     Self-consistent Calculation

     iteration #  1     ecut=    30.00 Ry     beta= 0.70
     Davidson diagonalization with overlap

     ethr =  1.00E-02,  avg # of iterations =  2.0

     total energy              =   -1375.67035740 Ry
     estimated scf accuracy    <       7.90321813 Ry

[...]

     total energy              =   -1385.43261142 Ry
     estimated scf accuracy    <       0.00000115 Ry

     iteration # 56     ecut=    30.00 Ry     beta= 0.70
     Davidson diagonalization with overlap

     ethr =  1.71E-09,  avg # of iterations =  1.0

     End of self-consistent calculation

          k = 0.0000 0.0000 0.0000 (   682 PWs)   bands (ev):

   -59.2909 -59.2843 -27.8916 -27.2550 -27.2549 -27.2549 -27.2184 -27.2184
   -27.2184  -3.4056  -3.4055  -3.4055   7.7774   7.7774   7.7774   7.7940
     7.7940   9.9779  14.9581  14.9581  15.0446  15.0446  15.0446  16.8227
    16.8227  16.8227  17.9899  17.9899  18.4295  18.7533  18.7545  18.7545
    18.8230  18.8230  18.8231  19.4914  19.4914  19.4914  23.1657  23.1665
    23.1666

     occupation numbers
     1.0000   1.0000   1.0000   1.0000   1.0000   1.0000   1.0000   1.0000
     1.0000   1.0000   1.0000   1.0000   1.0000   1.0000   1.0000   1.0000
     1.0000   1.0000   1.0000   1.0000   1.0000   1.0000   1.0000   1.0000
     1.0000   1.0000   1.0000   1.0000   1.0000   1.0000   1.0000   1.0000
     0.5016   0.5001   0.4983  -0.0000  -0.0000  -0.0000  -0.0000  -0.0000
    -0.0000

     the Fermi energy is    18.8230 ev

!    total energy              =   -1385.43261102 Ry
     estimated scf accuracy    <       0.00000055 Ry
     smearing contrib. (-TS)   =      -0.00084628 Ry
     internal energy E=F+TS    =   -1385.43176474 Ry

     The total energy is F=E-TS. E is the sum of the following terms:
     one-electron contribution =    -328.66217816 Ry
     hartree contribution      =     208.03764455 Ry
     xc contribution           =    -117.83681760 Ry
     ewald contribution        =    -662.79956410 Ry
     one-center paw contrib.   =    -484.17084944 Ry
      -> PAW hartree energy AE =     302.82035332 Ry
      -> PAW hartree energy PS =    -276.55439298 Ry
      -> PAW xc energy AE      =    -539.90524346 Ry
      -> PAW xc energy PS      =      29.46843367 Ry
      -> total E_H with PAW    =     234.30360490 Ry
      -> total E_XC with PAW   =    -628.27362738 Ry

     convergence has been achieved in  56 iterations

     Forces acting on atoms (cartesian axes, Ry/au):

     atom    1 type  1   force =    -0.00000000    0.00000000    0.00000000
     atom    2 type  2   force =     0.00000000    0.00000000   -0.00000000
     atom    3 type  3   force =     0.00000000   -0.00000000    0.00000309
     atom    4 type  3   force =    -0.00000000    0.00000000   -0.00000309
     The non-local contrib.  to forces
     atom    1 type  1   force =     0.00000000    0.00000000    0.00000000
     atom    2 type  2   force =     0.00000000    0.00000000    0.00000000
     atom    3 type  3   force =     0.00000000    0.00000000   -0.00000406
     atom    4 type  3   force =     0.00000000    0.00000000    0.00000406
     The ionic contribution  to forces
     atom    1 type  1   force =    -0.00007596   -0.00004385   -0.00003101
     atom    2 type  2   force =     0.00019894    0.00011485    0.00008121
     atom    3 type  3   force =    -0.00006149   -0.00003550   -0.00002510
     atom    4 type  3   force =    -0.00006149   -0.00003550   -0.00002510
     The local contribution  to forces
     atom    1 type  1   force =     0.00018486   -0.00008731    0.00009326
     atom    2 type  2   force =    -0.00021109   -0.00010700   -0.00008918
     atom    3 type  3   force =     0.00053747    0.00000755    0.00002874
     atom    4 type  3   force =    -0.00045699    0.00008593   -0.00001864
     The core correction contribution to forces
     atom    1 type  1   force =     0.00000000   -0.00000000    0.00000000
     atom    2 type  2   force =    -0.00000056    0.00000011   -0.00000026
     atom    3 type  3   force =     0.00000000    0.00000000    0.00000000
     atom    4 type  3   force =     0.00000000    0.00000000    0.00000000
     The Hubbard contrib.    to forces
     atom    1 type  1   force =     0.00000000    0.00000000    0.00000000
     atom    2 type  2   force =     0.00000000    0.00000000    0.00000000
     atom    3 type  3   force =     0.00000000    0.00000000    0.00000000
     atom    4 type  3   force =     0.00000000    0.00000000    0.00000000
     The SCF correction term to forces
     atom    1 type  1   force =    -0.00009917    0.00013266   -0.00005895
     atom    2 type  2   force =     0.00000718   -0.00001381    0.00000491
     atom    3 type  3   force =    -0.00047114    0.00001424   -0.00000593
     atom    4 type  3   force =     0.00050006   -0.00003909    0.00002716

     Total force =     0.000004     Total SCF correction =     0.000711
     SCF correction compared to forces is large: reduce conv_thr to get better values

     Computing stress (Cartesian axis) and pressure

          total   stress  (Ry/bohr**3)                   (kbar)     P=     -101.77
  -0.00069119  -0.00000000   0.00000000         -101.68       -0.00        0.00
  -0.00000000  -0.00069119  -0.00000000           -0.00     -101.68       -0.00
   0.00000000  -0.00000000  -0.00069307            0.00       -0.00     -101.95

     kinetic stress (kbar)  40795.50      0.00      0.00
                                0.00  40795.50      0.00
                                0.00      0.00  40795.41

     local   stress (kbar)   5039.00      2.81      2.50
                                2.81   5040.02     -0.43
                                2.50     -0.43   5040.38

     nonloc. stress (kbar)   8328.56      0.00     -0.00
                                0.00   8328.56      0.00
                               -0.00      0.00   8327.85

     hartree stress (kbar)  20698.00     -1.12     -0.97
                               -1.12  20697.60      0.16
                               -0.97      0.16  20697.46

     exc-cor stress (kbar)  -1342.93     -0.01     -0.00
                               -0.01  -1342.93      0.00
                               -0.00      0.00  -1342.93

     corecor stress (kbar)  -7678.12     -0.00      0.00
                               -0.00  -7678.12     -0.00
                                0.00     -0.00  -7678.12

     ewald   stress (kbar) -65941.99     -0.00     -0.00
                               -0.00 -65941.99     -0.00
                               -0.00     -0.00 -65941.99

     hubbard stress (kbar)      0.00      0.00      0.00
                                0.00      0.00      0.00
                                0.00      0.00      0.00

     DFT-D   stress (kbar)      0.00      0.00      0.00
                                0.00      0.00      0.00
                                0.00      0.00      0.00

     XDM     stress (kbar)      0.00      0.00      0.00
                                0.00      0.00      0.00
                                0.00      0.00      0.00

     dft-nl  stress (kbar)      0.00      0.00      0.00
                                0.00      0.00      0.00
                                0.00      0.00      0.00

     TS-vdW  stress (kbar)      0.00      0.00      0.00
                                0.00      0.00      0.00
                                0.00      0.00      0.00

[...]

                                0.00      0.00      0.00

     Writing all to output data dir new_calculations/myprefix.save/

     General routines

     Parallel routines

     PAW routines

   This run was terminated on:   5:26: 0  21May2023

   JOB DONE.