     Program PWSCF v.7.0 starts on 20May2023 at 16:47:52

     Reading input from espresso_1537.pwi
Warning: card &CELL ignored
Warning: card / ignored

     Current dimensions of program PWSCF are:
     Max number of different atomic species (ntypx) = 10
     Max number of k-points (npk) =  40000
     Max angular momentum in pseudopotentials (lmaxx) =  4

     gamma-point specific algorithms are used
     Message from routine setup:
     using ibrav=0 with symmetry is DISCOURAGED, use correct ibrav instead

     Subspace diagonalization in iterative solution of the eigenvalue problem:
     a serial algorithm will be used

     Using Slab Decomposition

     bravais-lattice index     =            0
     lattice parameter (alat)  =      11.4471  a.u.
     unit-cell volume          =    1432.6124 (a.u.)^3
     number of atoms/cell      =           10
     number of atomic types    =            3
     number of electrons       =        96.00
     number of Kohn-Sham states=           58
     kinetic-energy cutoff     =      30.0000  Ry
     charge density cutoff     =     240.0000  Ry
     scf convergence threshold =      1.0E-06
     mixing beta               =       0.7000
     number of iterations used =            8  plain     mixing
     Exchange-correlation=  SLA  PW   PBX  PBC
                           (   1   4   3   4   0   0   0)

     celldm(1)=  11.447092  celldm(2)=   0.000000  celldm(3)=   0.000000
     celldm(4)=   0.000000  celldm(5)=   0.000000  celldm(6)=   0.000000

     crystal axes: (cart. coord. in units of alat)
               a(1) = (   1.000000   0.000000   0.000000 )
               a(2) = (   0.000000   0.804289   0.000000 )
               a(3) = (   0.000000   0.371678   1.187493 )

     reciprocal axes: (cart. coord. in units 2 pi/alat)
               b(1) = (  1.000000  0.000000  0.000000 )
               b(2) = (  0.000000  1.243334 -0.389156 )
               b(3) = (  0.000000  0.000000  0.842110 )

     PseudoPot. # 1 for Tl read from file:
     /home/pragov/projects/rrg-bengioy-ad/pragov/crystal_structure_design/SSSP/Tl_pbe_v1.2.uspp.F.UPF
     MD5 check sum: b76cf1f7e72655a2b2c53cf6385d7059
     Pseudo is Ultrasoft + core correction, Zval = 13.0
     Generated by new atomic code, or converted to UPF format
     Using radial grid of  899 points,  6 beta functions with:
                l(1) =   0
                l(2) =   0
                l(3) =   1
                l(4) =   1
                l(5) =   2
                l(6) =   2
     Q(r) pseudized with  6 coefficients,  rinner =    1.100   1.100   1.100
                                                       1.100   1.100

     PseudoPot. # 2 for Ge read from file:
     /home/pragov/projects/rrg-bengioy-ad/pragov/crystal_structure_design/SSSP/ge_pbe_v1.4.uspp.F.UPF
     MD5 check sum: 9c9eaa91e581c3f09632fb3098b2c6b2
     Pseudo is Ultrasoft + core correction, Zval = 14.0
     Generated by new atomic code, or converted to UPF format
     Using radial grid of  873 points,  6 beta functions with:
                l(1) =   0
                l(2) =   0
                l(3) =   1
                l(4) =   1
                l(5) =   2
                l(6) =   2
     Q(r) pseudized with  8 coefficients,  rinner =    1.400   1.400   1.400
                                                       1.400   1.400

     PseudoPot. # 3 for F  read from file:
     /home/pragov/projects/rrg-bengioy-ad/pragov/crystal_structure_design/SSSP/f_pbe_v1.4.uspp.F.UPF
     MD5 check sum: 4c38b6a325caf53ec0e86aed9459de46
     Pseudo is Ultrasoft, Zval =  7.0
     Generated by new atomic code, or converted to UPF format
     Using radial grid of  799 points,  4 beta functions with:
                l(1) =   0
                l(2) =   0
                l(3) =   1
                l(4) =   1
     Q(r) pseudized with  8 coefficients,  rinner =    0.950   0.950   0.950

     atomic species   valence    mass     pseudopotential
        Tl            13.00   204.38000     Tl( 1.00)
        Ge            14.00    72.63000     Ge( 1.00)
        F              7.00    18.99840     F ( 1.00)

      4 Sym. Ops., with inversion, found ( 2 have fractional translation)

                                    s                        frac. trans.

      isym =  1     identity

 cryst.   s( 1) = (     1          0          0      )
                  (     0          1          0      )
                  (     0          0          1      )

 cart.    s( 1) = (  1.0000000  0.0000000  0.0000000 )
                  (  0.0000000  1.0000000 -0.0000000 )
                  (  0.0000000  0.0000000  1.0000000 )

      isym =  2     180 deg rotation - cart. axis [1,0,0]

 cryst.   s( 2) = (     1          0          0      )    f =( -0.5000000 )
                  (     0         -1          0      )       ( -0.0000000 )
                  (     0          0         -1      )       (  0.0000000 )

 cart.    s( 2) = (  1.0000000  0.0000000  0.0000000 )    f =( -0.5000000 )
                  (  0.0000000 -1.0000000  0.0000000 )       ( -0.0000000 )
                  (  0.0000000  0.0000000 -1.0000000 )       (  0.0000000 )

      isym =  3     inversion

 cryst.   s( 3) = (    -1          0          0      )
                  (     0         -1          0      )
                  (     0          0         -1      )

 cart.    s( 3) = ( -1.0000000  0.0000000  0.0000000 )
                  (  0.0000000 -1.0000000  0.0000000 )
                  (  0.0000000  0.0000000 -1.0000000 )

      isym =  4     inv. 180 deg rotation - cart. axis [1,0,0]

 cryst.   s( 4) = (    -1          0          0      )    f =( -0.5000000 )
                  (     0          1          0      )       (  0.0000000 )
                  (     0          0          1      )       (  0.0000000 )

 cart.    s( 4) = ( -1.0000000  0.0000000  0.0000000 )    f =( -0.5000000 )
                  (  0.0000000  1.0000000 -0.0000000 )       (  0.0000000 )
                  (  0.0000000  0.0000000  1.0000000 )       (  0.0000000 )

   Cartesian axes

     site n.     atom                  positions (alat units)
         1           Tl  tau(   1) = (   0.7500000   0.5962309   0.2271662  )
         2           Tl  tau(   2) = (   0.2500000   0.5797366   0.9603269  )
         3           Ge  tau(   3) = (   0.7500000   1.0073903   0.7755719  )
         4           Ge  tau(   4) = (   0.2500000   0.1685772   0.4119212  )
         5           F   tau(   5) = (   0.9707690   0.9768105   0.9925982  )
         6           F   tau(   6) = (   0.4707690   0.1991569   0.1948949  )
         7           F   tau(   7) = (   0.2500000   0.6642633   0.3841445  )
         8           F   tau(   8) = (   0.7500000   0.5117041   0.8033486  )
         9           F   tau(   9) = (   0.0292310   0.1991569   0.1948949  )
        10           F   tau(  10) = (   0.5292310   0.9768105   0.9925982  )

   Crystallographic axes

     site n.     atom                  positions (cryst. coord.)
         1           Tl  tau(   1) = (  0.7500000  0.6529110  0.1912990  )
         2           Tl  tau(   2) = (  0.2500000  0.3470890  0.8087010  )
         3           Ge  tau(   3) = (  0.7500000  0.9507040  0.6531170  )
         4           Ge  tau(   4) = (  0.2500000  0.0492960  0.3468830  )
         5           F   tau(   5) = (  0.9707690  0.8282260  0.8358770  )
         6           F   tau(   6) = (  0.4707690  0.1717740  0.1641230  )
         7           F   tau(   7) = (  0.2500000  0.6764090  0.3234920  )
         8           F   tau(   8) = (  0.7500000  0.3235910  0.6765080  )
         9           F   tau(   9) = (  0.0292310  0.1717740  0.1641230  )
        10           F   tau(  10) = (  0.5292310  0.8282260  0.8358770  )

     number of k points=     1  Methfessel-Paxton smearing, width (Ry)=  0.0010
                       cart. coord. in units 2pi/alat
        k(    1) = (   0.0000000   0.0000000   0.0000000), wk =   2.0000000

                       cryst. coord.
        k(    1) = (   0.0000000   0.0000000   0.0000000), wk =   2.0000000

     Check: negative core charge=   -0.000005

     Initial potential from superposition of free atoms

     starting charge      95.9885, renormalised to      96.0000

     negative rho (up, down):  9.943E-02 0.000E+00
     Starting wfcs are   60 randomized atomic wfcs

     Self-consistent Calculation

     iteration #  1     ecut=    30.00 Ry     beta= 0.70
     Davidson diagonalization with overlap

     ethr =  1.00E-02,  avg # of iterations =  2.0

     negative rho (up, down):  9.908E-02 0.000E+00

     total energy              =   -1008.76850316 Ry
     estimated scf accuracy    <       1.24962880 Ry

[...]

     total energy              =   -1009.39828721 Ry
     estimated scf accuracy    <       0.00000353 Ry

     iteration #  8     ecut=    30.00 Ry     beta= 0.70
     Davidson diagonalization with overlap

     ethr =  3.68E-09,  avg # of iterations =  5.0

[...]

     End of self-consistent calculation

          k = 0.0000 0.0000 0.0000 (  1975 PWs)   bands (ev):

   -20.7049 -20.7018 -20.6424 -20.6390 -20.2289 -20.2281 -20.2248 -20.2243
   -20.1675 -20.1650 -19.6372 -19.6002 -18.6839 -18.6733 -18.5825 -18.5466
    -6.6046  -6.5889  -6.5841  -6.5737  -6.5689  -6.5646  -6.5572  -6.5504
    -6.5469  -6.5416  -4.4226  -4.1688  -1.9786  -1.9330  -1.6211  -1.5561
    -1.4320  -1.3927  -0.7517  -0.7454  -0.5706  -0.4601  -0.3479  -0.0700
    -0.0114   0.0545   0.1464   0.2966   0.3215   1.1781   2.1156   2.4915
     6.3730   7.2471   7.8280   8.2777   8.8948   8.9077   8.9882   9.7779
     9.9433  10.6385

     occupation numbers
     1.0000   1.0000   1.0000   1.0000   1.0000   1.0000   1.0000   1.0000
     1.0000   1.0000   1.0000   1.0000   1.0000   1.0000   1.0000   1.0000
     1.0000   1.0000   1.0000   1.0000   1.0000   1.0000   1.0000   1.0000
     1.0000   1.0000   1.0000   1.0000   1.0000   1.0000   1.0000   1.0000
     1.0000   1.0000   1.0000   1.0000   1.0000   1.0000   1.0000   1.0000
     1.0000   1.0000   1.0000   1.0000   1.0000   1.0000   1.0000   1.0000
    -0.0000  -0.0000  -0.0000  -0.0000  -0.0000  -0.0000  -0.0000  -0.0000
    -0.0000  -0.0000

     the Fermi energy is     2.8707 ev

!    total energy              =   -1009.39828863 Ry
     estimated scf accuracy    <       0.00000039 Ry
     smearing contrib. (-TS)   =       0.00000000 Ry
     internal energy E=F+TS    =   -1009.39828863 Ry

     The total energy is F=E-TS. E is the sum of the following terms:
     one-electron contribution =    -591.09220639 Ry
     hartree contribution      =     361.19767191 Ry
     xc contribution           =    -296.64363984 Ry
     ewald contribution        =    -482.86011431 Ry

     convergence has been achieved in   8 iterations

     negative rho (up, down):  9.810E-02 0.000E+00

     Forces acting on atoms (cartesian axes, Ry/au):

     atom    1 type  1   force =     0.00000000    0.00118663   -0.00546592
     atom    2 type  1   force =     0.00000000   -0.00118663    0.00546592
     atom    3 type  2   force =     0.00000000   -0.04016641    0.02257432
     atom    4 type  2   force =     0.00000000    0.04016641   -0.02257432
     atom    5 type  3   force =     0.01589885    0.00090062    0.00021589
     atom    6 type  3   force =     0.01589885   -0.00090062   -0.00021589
     atom    7 type  3   force =     0.00000000   -0.03630894    0.01732804
     atom    8 type  3   force =     0.00000000    0.03630894   -0.01732804
     atom    9 type  3   force =    -0.01589885   -0.00090062   -0.00021589
     atom   10 type  3   force =    -0.01589885    0.00090062    0.00021589
     The non-local contrib.  to forces
     atom    1 type  1   force =     0.00000000   -0.00554682   -0.10824369
     atom    2 type  1   force =     0.00000000    0.00554682    0.10824369
     atom    3 type  2   force =     0.00000000    0.49640719    1.08166575
     atom    4 type  2   force =     0.00000000   -0.49640719   -1.08166575
     atom    5 type  3   force =    -0.77170262    0.09497875   -0.66412469
     atom    6 type  3   force =    -0.77170262   -0.09497875    0.66412469
     atom    7 type  3   force =     0.00000000    0.95119488    0.04073370
     atom    8 type  3   force =     0.00000000   -0.95119488   -0.04073370
     atom    9 type  3   force =     0.77170262   -0.09497875    0.66412469
     atom   10 type  3   force =     0.77170262    0.09497875   -0.66412469
     The ionic contribution  to forces
     atom    1 type  1   force =    -0.00000000   -0.68462767    3.93195284
     atom    2 type  1   force =    -0.00000000    0.68462767   -3.93195284
     atom    3 type  2   force =     0.00000000   -7.40234659  -16.86708922
     atom    4 type  2   force =    -0.00000000    7.40234659   16.86708922
     atom    5 type  3   force =     9.33979965   -1.97158035    6.50290509
     atom    6 type  3   force =     9.33979965    1.97158035   -6.50290509
     atom    7 type  3   force =    -0.00000000  -11.02870046    1.39943924
     atom    8 type  3   force =    -0.00000000   11.02870046   -1.39943924
     atom    9 type  3   force =    -9.33979965    1.97158035   -6.50290509
     atom   10 type  3   force =    -9.33979965   -1.97158035    6.50290509
     The local contribution  to forces
     atom    1 type  1   force =    -0.00004334    0.69079518   -3.83520576
     atom    2 type  1   force =     0.00009454   -0.69078522    3.83542344
     atom    3 type  2   force =    -0.00009913    6.87118834   15.82531435
     atom    4 type  2   force =     0.00000412   -6.87123100  -15.82569584
     atom    5 type  3   force =    -8.55253685    1.87751173   -5.83874430
     atom    6 type  3   force =    -8.55252822   -1.87750908    5.83874558
     atom    7 type  3   force =     0.00000075   10.04146130   -1.42297888
     atom    8 type  3   force =    -0.00003075  -10.04150520    1.42288523
     atom    9 type  3   force =     8.55254505   -1.87751599    5.83874318
     atom   10 type  3   force =     8.55254174    1.87752621   -5.83875275
     The core correction contribution to forces
     atom    1 type  1   force =    -0.00000202    0.00045763    0.00561853
     atom    2 type  1   force =     0.00000447   -0.00045582   -0.00561420
     atom    3 type  2   force =    -0.00000036   -0.00525010   -0.01698182
     atom    4 type  2   force =    -0.00000010    0.00525008    0.01698164
     atom    5 type  3   force =     0.00000000    0.00000000    0.00000000
     atom    6 type  3   force =     0.00000000    0.00000000    0.00000000
     atom    7 type  3   force =     0.00000000    0.00000000    0.00000000
     atom    8 type  3   force =     0.00000000    0.00000000    0.00000000
     atom    9 type  3   force =     0.00000000    0.00000000    0.00000000
     atom   10 type  3   force =     0.00000000    0.00000000    0.00000000
     The Hubbard contrib.    to forces
     atom    1 type  1   force =     0.00000000    0.00000000    0.00000000
     atom    2 type  1   force =     0.00000000    0.00000000    0.00000000
     atom    3 type  2   force =     0.00000000    0.00000000    0.00000000
     atom    4 type  2   force =     0.00000000    0.00000000    0.00000000
     atom    5 type  3   force =     0.00000000    0.00000000    0.00000000
     atom    6 type  3   force =     0.00000000    0.00000000    0.00000000
     atom    7 type  3   force =     0.00000000    0.00000000    0.00000000
     atom    8 type  3   force =     0.00000000    0.00000000    0.00000000
     atom    9 type  3   force =     0.00000000    0.00000000    0.00000000
     atom   10 type  3   force =     0.00000000    0.00000000    0.00000000
     The SCF correction term to forces
     atom    1 type  1   force =     0.00006012    0.00010987    0.00041754
     atom    2 type  1   force =    -0.00010520   -0.00011855   -0.00062878
     atom    3 type  2   force =     0.00011647   -0.00011537   -0.00028318
     atom    4 type  2   force =     0.00000071    0.00025780    0.00076796
     atom    5 type  3   force =     0.00037322   -0.00000685    0.00018451
     atom    6 type  3   force =     0.00031679    0.00000437   -0.00018713
     atom    7 type  3   force =    -0.00000032   -0.00025663    0.00014560
     atom    8 type  3   force =     0.00002887    0.00031659   -0.00002872
     atom    9 type  3   force =    -0.00031747    0.00002347   -0.00017218
     atom   10 type  3   force =    -0.00035168   -0.00001946    0.00018398

     Total force =     0.092521     Total SCF correction =     0.001470

     Computing stress (Cartesian axis) and pressure

     negative rho (up, down):  9.810E-02 0.000E+00
          total   stress  (Ry/bohr**3)                   (kbar)     P=      -98.94
  -0.00056203   0.00000000   0.00000000          -82.68        0.00        0.00
   0.00000000  -0.00088097   0.00000426            0.00     -129.60        0.63
   0.00000000   0.00000426  -0.00057483            0.00        0.63      -84.56

     kinetic stress (kbar)  11214.60      0.00      0.00
                                0.00  11174.64     28.64
                                0.00     28.64  11257.28

     local   stress (kbar)  -7323.21     -0.00      0.01
                               -0.00  -7300.29   1763.56
                                0.01   1763.56  -2058.55

     nonloc. stress (kbar)   4063.66      0.00      0.00
                                0.00   4063.57     14.54
                                0.00     14.54   4093.13

     hartree stress (kbar)  13089.91      0.00     -0.01
                                0.00  13193.74   -732.99
                               -0.01   -732.99  10805.25

     exc-cor stress (kbar)  10587.59      0.00      0.00
                                0.00  10589.62      0.20
                                0.00      0.20  10587.63

     corecor stress (kbar) -16251.15     -0.00     -0.00
                               -0.00 -16251.18     -0.41
                               -0.00     -0.41 -16251.48

     ewald   stress (kbar) -15464.07      0.00      0.00
                                0.00 -15599.69  -1072.92
                                0.00  -1072.92 -18517.81

     hubbard stress (kbar)      0.00      0.00      0.00
                                0.00      0.00      0.00
                                0.00      0.00      0.00

     DFT-D   stress (kbar)      0.00      0.00      0.00
                                0.00      0.00      0.00
                                0.00      0.00      0.00

     XDM     stress (kbar)      0.00      0.00      0.00
                                0.00      0.00      0.00
                                0.00      0.00      0.00

     dft-nl  stress (kbar)      0.00      0.00      0.00
                                0.00      0.00      0.00
                                0.00      0.00      0.00

     TS-vdW  stress (kbar)      0.00      0.00      0.00
                                0.00      0.00      0.00
                                0.00      0.00      0.00

[...]

                                0.00      0.00      0.00

     Writing all to output data dir new_calculations/myprefix.save/

     General routines

     Parallel routines

   This run was terminated on:  16:48:19  20May2023

   JOB DONE.