     Program PWSCF v.7.0 starts on 20May2023 at  5:19:34

     Reading input from espresso_251.pwi
Warning: card &CELL ignored
Warning: card / ignored

     Current dimensions of program PWSCF are:
     Max number of different atomic species (ntypx) = 10
     Max number of k-points (npk) =  40000
     Max angular momentum in pseudopotentials (lmaxx) =  4
     file K.pbe-spn-kjpaw_psl.1.0.0.UPF: wavefunction(s)  3S renormalized
     file Ga.pbe-dn-kjpaw_psl.1.0.0.UPF: wavefunction(s)  4S renormalized

     gamma-point specific algorithms are used
     Message from routine setup:
     using ibrav=0 with symmetry is DISCOURAGED, use correct ibrav instead

     Subspace diagonalization in iterative solution of the eigenvalue problem:
     a serial algorithm will be used

     Using Slab Decomposition

     bravais-lattice index     =            0
     lattice parameter (alat)  =      16.8382  a.u.
     unit-cell volume          =    2301.1021 (a.u.)^3
     number of atoms/cell      =           12
     number of atomic types    =            4
     number of electrons       =       100.00
     number of Kohn-Sham states=           60
     kinetic-energy cutoff     =      30.0000  Ry
     charge density cutoff     =     240.0000  Ry
     scf convergence threshold =      1.0E-06
     mixing beta               =       0.7000
     number of iterations used =            8  plain     mixing
     Exchange-correlation= PBE
                           (   1   4   3   4   0   0   0)

     celldm(1)=  16.838181  celldm(2)=   0.000000  celldm(3)=   0.000000
     celldm(4)=   0.000000  celldm(5)=   0.000000  celldm(6)=   0.000000

     crystal axes: (cart. coord. in units of alat)
               a(1) = (   1.000000   0.000000   0.000000 )
               a(2) = (   0.429794   0.902927   0.000000 )
               a(3) = (  -0.708688  -0.461296   0.533824 )

     reciprocal axes: (cart. coord. in units 2 pi/alat)
               b(1) = (  1.000000 -0.476001  0.916239 )
               b(2) = (  0.000000  1.107509  0.957039 )
               b(3) = (  0.000000  0.000000  1.873278 )

     PseudoPot. # 1 for K  read from file:
     /home/pragov/projects/rrg-bengioy-ad/pragov/crystal_structure_design/SSSP/K.pbe-spn-kjpaw_psl.1.0.0.UPF
     MD5 check sum: 7d58810084cac21f60fbe77ea2b688fd
     Pseudo is Projector augmented-wave + core cor, Zval =  9.0
     Generated using "atomic" code by A. Dal Corso  v.5.1
     Shape of augmentation charge: PSQ
     Using radial grid of 1165 points,  6 beta functions with:
                l(1) =   0
                l(2) =   0
                l(3) =   1
                l(4) =   1
                l(5) =   2
                l(6) =   2
     Q(r) pseudized with 0 coefficients

     PseudoPot. # 2 for Na read from file:
     /home/pragov/projects/rrg-bengioy-ad/pragov/crystal_structure_design/SSSP/na_pbe_v1.5.uspp.F.UPF
     MD5 check sum: 44600605ef58000f06b90626533354dc
     Pseudo is Ultrasoft, Zval =  9.0
     Generated by new atomic code, or converted to UPF format
     Using radial grid of  819 points,  5 beta functions with:
                l(1) =   0
                l(2) =   0
                l(3) =   1
                l(4) =   1
                l(5) =   2
     Q(r) pseudized with  8 coefficients,  rinner =    1.250   1.250   1.250
                                                       1.250   1.250

     PseudoPot. # 3 for Ga read from file:
     /home/pragov/projects/rrg-bengioy-ad/pragov/crystal_structure_design/SSSP/Ga.pbe-dn-kjpaw_psl.1.0.0.UPF
     MD5 check sum: a27b4342b1af7e5f338de752e9ed7044
     Pseudo is Projector augmented-wave + core cor, Zval = 13.0
     Generated using "atomic" code by A. Dal Corso  v.5.1
     Shape of augmentation charge: PSQ
     Using radial grid of 1205 points,  6 beta functions with:
                l(1) =   0
                l(2) =   0
                l(3) =   1
                l(4) =   1
                l(5) =   2
                l(6) =   2
     Q(r) pseudized with 0 coefficients

     PseudoPot. # 4 for As read from file:
     /home/pragov/projects/rrg-bengioy-ad/pragov/crystal_structure_design/SSSP/As.pbe-n-rrkjus_psl.0.2.UPF
     MD5 check sum: 767315de957beeeb34f87d97bf945c8f
     Pseudo is Ultrasoft + core correction, Zval =  5.0
     Generated using "atomic" code by A. Dal Corso  v.5.0.99 svn rev. 10869
     Using radial grid of 1209 points,  4 beta functions with:
                l(1) =   0
                l(2) =   0
                l(3) =   1
                l(4) =   1
     Q(r) pseudized with 0 coefficients

     atomic species   valence    mass     pseudopotential
        K              9.00    39.09830     K ( 1.00)
        Na             9.00    22.98977     Na( 1.00)
        Ga            13.00    69.72300     Ga( 1.00)
        As             5.00    74.92159     As( 1.00)

      2 Sym. Ops., with inversion, found

                                    s                        frac. trans.

      isym =  1     identity

 cryst.   s( 1) = (     1          0          0      )
                  (     0          1          0      )
                  (     0          0          1      )

 cart.    s( 1) = (  1.0000000  0.0000000 -0.0000000 )
                  (  0.0000000  1.0000000  0.0000000 )
                  (  0.0000000  0.0000000  1.0000000 )

      isym =  2     inversion

 cryst.   s( 2) = (    -1          0          0      )
                  (     0         -1          0      )
                  (     0          0         -1      )

 cart.    s( 2) = ( -1.0000000 -0.0000000  0.0000000 )
                  (  0.0000000 -1.0000000 -0.0000000 )
                  (  0.0000000  0.0000000 -1.0000000 )

   Cartesian axes

     site n.     atom                  positions (alat units)
         1           K   tau(   1) = (  -0.3124019  -0.0530318   0.4031052  )
         2           K   tau(   2) = (   0.3995074   0.4031627   0.3976303  )
         3           K   tau(   3) = (   0.3215991   0.0384680   0.1361934  )
         4           K   tau(   4) = (   1.0335085   0.4946625   0.1307185  )
         5           Na  tau(   5) = (   0.6451737   0.5618711   0.1334559  )
         6           Na  tau(   6) = (   0.0759328  -0.1202404   0.4003677  )
         7           Ga  tau(   7) = (  -0.0697234   0.1104077   0.1334559  )
         8           Ga  tau(   8) = (  -0.2091701   0.3312230   0.4003677  )
         9           As  tau(   9) = (   0.0549954   0.2131874   0.3748072  )
        10           As  tau(  10) = (   0.6661112   0.2284433   0.1590165  )
        11           As  tau(  11) = (   0.3531120   0.7240823   0.1078954  )
        12           As  tau(  12) = (   0.3679946  -0.2824517   0.4259283  )

   Crystallographic axes

     site n.     atom                  positions (cryst. coord.)
         1           K   tau(   1) = (  0.0821820  0.3270540  0.7551280  )
         2           K   tau(   2) = (  0.5719260  0.8270540  0.7448720  )
         3           K   tau(   3) = (  0.4280740  0.1729460  0.2551280  )
         4           K   tau(   4) = (  0.9178180  0.6729460  0.2448720  )
         5           Na  tau(   5) = (  0.5000000  0.7500000  0.2500000  )
         6           Na  tau(   6) = (  0.5000000  0.2500000  0.7500000  )
         7           Ga  tau(   7) = ( -0.0000000  0.2500000  0.2500000  )
         8           Ga  tau(   8) = ( -0.0000000  0.7500000  0.7500000  )
         9           As  tau(   9) = (  0.2969310  0.5948120  0.7021180  )
        10           As  tau(  10) = (  0.7030690  0.4051880  0.2978820  )
        11           As  tau(  11) = (  0.1073060  0.9051880  0.2021180  )
        12           As  tau(  12) = (  0.8926940  0.0948120  0.7978820  )

     number of k points=     1  Methfessel-Paxton smearing, width (Ry)=  0.0010
                       cart. coord. in units 2pi/alat
        k(    1) = (   0.0000000   0.0000000   0.0000000), wk =   2.0000000

                       cryst. coord.
        k(    1) = (   0.0000000   0.0000000   0.0000000), wk =   2.0000000

     Check: negative core charge=   -0.000002

     Initial potential from superposition of free atoms

     starting charge      99.9052, renormalised to     100.0000
     Starting wfcs are   76 randomized atomic wfcs
     Checking if some PAW data can be deallocated...

     Self-consistent Calculation

     iteration #  1     ecut=    30.00 Ry     beta= 0.70
     Davidson diagonalization with overlap

     ethr =  1.00E-02,  avg # of iterations =  4.0

     Threshold (ethr) on eigenvalues was too large:
     Diagonalizing with lowered threshold

     Davidson diagonalization with overlap

[...]

     total energy              =   -1274.29293225 Ry
     estimated scf accuracy    <       0.80992631 Ry

[...]

     total energy              =   -1274.58878901 Ry
     estimated scf accuracy    <       0.00000227 Ry

     iteration # 10     ecut=    30.00 Ry     beta= 0.70
     Davidson diagonalization with overlap

     ethr =  2.27E-09,  avg # of iterations =  4.0

     End of self-consistent calculation

          k = 0.0000 0.0000 0.0000 (  3191 PWs)   bands (ev):

   -57.4303 -49.2903 -28.4695 -27.5892 -26.0954 -25.9214 -25.9209 -23.4774
   -21.2279 -21.1494 -21.0979 -21.0491  -9.8023  -9.7739  -9.7508  -9.7224
    -9.7184  -9.7088  -9.7057  -9.6836  -9.6461  -9.6063  -9.5950  -9.5641
    -9.5199  -9.5178  -9.4782  -9.4755  -9.4516  -9.4505  -9.4230  -9.4201
    -9.3772  -9.3329  -5.7497  -4.4813  -4.3969  -4.2255  -0.5286   0.1331
     2.1740   2.9725   2.9933   3.0908   3.1673   3.1858   4.3306   4.4971
     4.7832   4.8997   5.4125   5.7459   6.6559   7.8068   8.0251   8.4481
     8.5032   8.6540   8.7471   8.8973

     occupation numbers
     1.0000   1.0000   1.0000   1.0000   1.0000   1.0000   1.0000   1.0000
     1.0000   1.0000   1.0000   1.0000   1.0000   1.0000   1.0000   1.0000
     1.0000   1.0000   1.0000   1.0000   1.0000   1.0000   1.0000   1.0000
     1.0000   1.0000   1.0000   1.0000   1.0000   1.0000   1.0000   1.0000
     1.0000   1.0000   1.0000   1.0000   1.0000   1.0000   1.0000   1.0000
     1.0000   1.0000   1.0000   1.0000   1.0000   1.0000   1.0000   1.0000
     1.0000   1.0000  -0.0000  -0.0000  -0.0000  -0.0000  -0.0000  -0.0000
    -0.0000  -0.0000  -0.0000  -0.0000

     the Fermi energy is     5.1310 ev

!    total energy              =   -1274.58878980 Ry
     estimated scf accuracy    <       0.00000040 Ry
     smearing contrib. (-TS)   =       0.00000000 Ry
     internal energy E=F+TS    =   -1274.58878980 Ry

     The total energy is F=E-TS. E is the sum of the following terms:
     one-electron contribution =    -575.29332852 Ry
     hartree contribution      =     331.52220634 Ry
     xc contribution           =    -186.73691961 Ry
     ewald contribution        =    -400.64349578 Ry
     one-center paw contrib.   =    -443.43725222 Ry
      -> PAW hartree energy AE =     425.97173910 Ry
      -> PAW hartree energy PS =    -420.65693003 Ry
      -> PAW xc energy AE      =    -565.70385989 Ry
      -> PAW xc energy PS      =     116.95179859 Ry
      -> total E_H with PAW    =     336.83701541 Ry
      -> total E_XC with PAW   =    -635.48898091 Ry

     convergence has been achieved in  10 iterations

     Forces acting on atoms (cartesian axes, Ry/au):

     atom    1 type  1   force =    -0.00869502   -0.00320783   -0.00809132
     atom    2 type  1   force =    -0.00655721   -0.00558598    0.01055272
     atom    3 type  1   force =     0.00655721    0.00558598   -0.01055272
     atom    4 type  1   force =     0.00869502    0.00320783    0.00809132
     atom    5 type  2   force =     0.00889323    0.00151352    0.00327043
     atom    6 type  2   force =    -0.00889323   -0.00151352   -0.00327043
     atom    7 type  3   force =    -0.00127680   -0.00053206    0.00015912
     atom    8 type  3   force =     0.00127680    0.00053206   -0.00015912
     atom    9 type  4   force =     0.00316267   -0.04806755    0.06476757
     atom   10 type  4   force =    -0.00316267    0.04806755   -0.06476757
     atom   11 type  4   force =     0.03736446   -0.01825486    0.06572962
     atom   12 type  4   force =    -0.03736446    0.01825486   -0.06572962
     The non-local contrib.  to forces
     atom    1 type  1   force =     0.02442358   -0.02343467    0.02371948
     atom    2 type  1   force =    -0.01079754    0.02977712   -0.02252733
     atom    3 type  1   force =     0.01079754   -0.02977712    0.02252733
     atom    4 type  1   force =    -0.02442358    0.02343467   -0.02371948
     atom    5 type  2   force =    -0.00100798    0.01120503    0.01886399
     atom    6 type  2   force =     0.00100798   -0.01120503   -0.01886399
     atom    7 type  3   force =     0.00526084    0.02599118    0.01846870
     atom    8 type  3   force =    -0.00526084   -0.02599118   -0.01846870
     atom    9 type  4   force =    -0.09811260   -0.02188063   -0.05002733
     atom   10 type  4   force =     0.09811260    0.02188063    0.05002733
     atom   11 type  4   force =     0.05862092    0.07095545   -0.05366861
     atom   12 type  4   force =    -0.05862092   -0.07095545    0.05366861
     The ionic contribution  to forces
     atom    1 type  1   force =    -5.04344013   -4.47814898    1.06983655
     atom    2 type  1   force =    -6.21108333   -2.62916826   -1.06983534
     atom    3 type  1   force =     6.21108333    2.62916826    1.06983534
     atom    4 type  1   force =     5.04344013    4.47814898   -1.06983655
     atom    5 type  2   force =     0.00000355    0.00000329   -0.00000751
     atom    6 type  2   force =    -0.00000355   -0.00000328    0.00000751
     atom    7 type  3   force =    -0.00003385    0.00002713    0.00002329
     atom    8 type  3   force =     0.00003385   -0.00002713   -0.00002329
     atom    9 type  4   force =     6.22263532    1.64635928    1.88897565
     atom   10 type  4   force =    -6.22263532   -1.64635928   -1.88897565
     atom   11 type  4   force =    -4.16099752   -4.91102498    1.88898478
     atom   12 type  4   force =     4.16099752    4.91102498   -1.88898478
     The local contribution  to forces
     atom    1 type  1   force =     5.01108911    4.49623514   -1.09887428
     atom    2 type  1   force =     6.21406227    2.59520879    1.09980555
     atom    3 type  1   force =    -6.21404078   -2.59513395   -1.09969748
     atom    4 type  1   force =    -5.01110626   -4.49636846    1.09883660
     atom    5 type  2   force =     0.00993622   -0.00982722   -0.01562375
     atom    6 type  2   force =    -0.00987706    0.00974903    0.01570469
     atom    7 type  3   force =    -0.00594254   -0.02594873   -0.01764089
     atom    8 type  3   force =     0.00613301    0.02583332    0.01773516
     atom    9 type  4   force =    -6.12753140   -1.67100121   -1.78379780
     atom   10 type  4   force =     6.12759855    1.67087950    1.78368912
     atom   11 type  4   force =     4.14070077    4.82757268   -1.78074163
     atom   12 type  4   force =    -4.14071244   -4.82746546    1.78085019
     The core correction contribution to forces
     atom    1 type  1   force =    -0.00040965    0.00245657   -0.00287705
     atom    2 type  1   force =     0.00170404   -0.00125951    0.00328141
     atom    3 type  1   force =    -0.00170436    0.00125839   -0.00328071
     atom    4 type  1   force =     0.00040997   -0.00245739    0.00287787
     atom    5 type  2   force =     0.00000000    0.00000000    0.00000000
     atom    6 type  2   force =     0.00000000    0.00000000    0.00000000
     atom    7 type  3   force =    -0.00044047   -0.00075457   -0.00077210
     atom    8 type  3   force =     0.00044862    0.00074775    0.00077893
     atom    9 type  4   force =     0.00617538   -0.00170921    0.00960655
     atom   10 type  4   force =    -0.00616690    0.00170098   -0.00960609
     atom   11 type  4   force =    -0.00086068   -0.00568691    0.01124283
     atom   12 type  4   force =     0.00086275    0.00568694   -0.01123507
     The Hubbard contrib.    to forces
     atom    1 type  1   force =     0.00000000    0.00000000    0.00000000
     atom    2 type  1   force =     0.00000000    0.00000000    0.00000000
     atom    3 type  1   force =     0.00000000    0.00000000    0.00000000
     atom    4 type  1   force =     0.00000000    0.00000000    0.00000000
     atom    5 type  2   force =     0.00000000    0.00000000    0.00000000
     atom    6 type  2   force =     0.00000000    0.00000000    0.00000000
     atom    7 type  3   force =     0.00000000    0.00000000    0.00000000
     atom    8 type  3   force =     0.00000000    0.00000000    0.00000000
     atom    9 type  4   force =     0.00000000    0.00000000    0.00000000
     atom   10 type  4   force =     0.00000000    0.00000000    0.00000000
     atom   11 type  4   force =     0.00000000    0.00000000    0.00000000
     atom   12 type  4   force =     0.00000000    0.00000000    0.00000000
     The SCF correction term to forces
     atom    1 type  1   force =    -0.00035360   -0.00030882    0.00011815
     atom    2 type  1   force =    -0.00044865   -0.00016047   -0.00017683
     atom    3 type  1   force =     0.00041550    0.00005403    0.00005755
     atom    4 type  1   force =     0.00037907    0.00045710   -0.00005295
     atom    5 type  2   force =    -0.00004509    0.00017264    0.00001201
     atom    6 type  2   force =    -0.00002713   -0.00001402   -0.00014431
     atom    7 type  3   force =    -0.00017994    0.00014923    0.00006820
     atom    8 type  3   force =    -0.00013701   -0.00003442   -0.00019314
     atom    9 type  4   force =     0.00002026    0.00014123    0.00001481
     atom   10 type  4   force =    -0.00004729   -0.00005726    0.00010200
     atom   11 type  4   force =    -0.00008927   -0.00007362   -0.00006769
     atom   12 type  4   force =     0.00011840   -0.00003869   -0.00000852

     Total force =     0.161220     Total SCF correction =     0.001126

     Computing stress (Cartesian axis) and pressure

          total   stress  (Ry/bohr**3)                   (kbar)     P=       72.44
  -0.00040819   0.00024896   0.00003123          -60.05       36.62        4.59
   0.00024896   0.00070560  -0.00080611           36.62      103.80     -118.58
   0.00003123  -0.00080611   0.00117981            4.59     -118.58      173.56

     kinetic stress (kbar)   7434.31     12.78     19.64
                               12.78   7482.52    -50.17
                               19.64    -50.17   7532.21

     local   stress (kbar)   4735.44   5623.10    706.10
                             5623.10   -611.22  -1123.61
                              706.10  -1123.61  -4210.08

     nonloc. stress (kbar)  -3170.78     19.48      0.69
                               19.48  -3061.44    -91.24
                                0.69    -91.24  -3043.48

     hartree stress (kbar)   4768.85  -2706.25   -302.74
                            -2706.25   7348.84    483.25
                             -302.74    483.25   9075.90

     exc-cor stress (kbar)   1279.84     -0.71     -0.03
                               -0.71   1280.65      0.08
                               -0.03      0.08   1280.75

     corecor stress (kbar)  -4096.86      1.24     -0.63
                                1.24  -4097.92      0.49
                               -0.63      0.49  -4097.85

     ewald   stress (kbar) -11010.84  -2913.02   -418.44
                            -2913.02  -8237.64    662.61
                             -418.44    662.61  -6363.90

     hubbard stress (kbar)      0.00      0.00      0.00
                                0.00      0.00      0.00
                                0.00      0.00      0.00

     DFT-D   stress (kbar)      0.00      0.00      0.00
                                0.00      0.00      0.00
                                0.00      0.00      0.00

     XDM     stress (kbar)      0.00      0.00      0.00
                                0.00      0.00      0.00
                                0.00      0.00      0.00

     dft-nl  stress (kbar)      0.00      0.00      0.00
                                0.00      0.00      0.00
                                0.00      0.00      0.00

     TS-vdW  stress (kbar)      0.00      0.00      0.00
                                0.00      0.00      0.00
                                0.00      0.00      0.00

[...]

                                0.00      0.00      0.00

     Writing all to output data dir new_calculations/myprefix.save/

     General routines

     Parallel routines

     PAW routines

   This run was terminated on:   5:20:20  20May2023

   JOB DONE.