     Program PWSCF v.7.0 starts on 20May2023 at 23:58:32

     Reading input from espresso_20307.pwi
Warning: card &CELL ignored
Warning: card / ignored

     Current dimensions of program PWSCF are:
     Max number of different atomic species (ntypx) = 10
     Max number of k-points (npk) =  40000
     Max angular momentum in pseudopotentials (lmaxx) =  4
     file In.pbe-dn-rrkjus_psl.0.2.2.UPF: wavefunction(s)  5S renormalized

     gamma-point specific algorithms are used
     Message from routine setup:
     using ibrav=0 with symmetry is DISCOURAGED, use correct ibrav instead

     Subspace diagonalization in iterative solution of the eigenvalue problem:
     a serial algorithm will be used

     Using Slab Decomposition

     bravais-lattice index     =            0
     lattice parameter (alat)  =       8.0413  a.u.
     unit-cell volume          =    1468.0716 (a.u.)^3
     number of atoms/cell      =            8
     number of atomic types    =            3
     number of electrons       =        72.00
     number of Kohn-Sham states=           43
     kinetic-energy cutoff     =      30.0000  Ry
     charge density cutoff     =     240.0000  Ry
     scf convergence threshold =      1.0E-06
     mixing beta               =       0.7000
     number of iterations used =            8  plain     mixing
     Exchange-correlation= PBE
                           (   1   4   3   4   0   0   0)

     celldm(1)=   8.041329  celldm(2)=   0.000000  celldm(3)=   0.000000
     celldm(4)=   0.000000  celldm(5)=   0.000000  celldm(6)=   0.000000

     crystal axes: (cart. coord. in units of alat)
               a(1) = (   1.000000   0.000000   0.000000 )
               a(2) = (   0.000000   1.730063   0.000000 )
               a(3) = (   0.000000   0.574384   1.631931 )

     reciprocal axes: (cart. coord. in units 2 pi/alat)
               b(1) = (  1.000000  0.000000  0.000000 )
               b(2) = (  0.000000  0.578014 -0.203441 )
               b(3) = (  0.000000  0.000000  0.612771 )

     PseudoPot. # 1 for In read from file:
     /home/pragov/projects/rrg-bengioy-ad/pragov/crystal_structure_design/SSSP/In.pbe-dn-rrkjus_psl.0.2.2.UPF
     MD5 check sum: 25e7c42c3b55b68f4bf926be2e7201a4
     Pseudo is Ultrasoft + core correction, Zval = 13.0
     Generated using "atomic" code by A. Dal Corso  v.5.0.99 svn rev. 10869
     Using radial grid of 1241 points,  6 beta functions with:
                l(1) =   0
                l(2) =   0
                l(3) =   1
                l(4) =   1
                l(5) =   2
                l(6) =   2
     Q(r) pseudized with 0 coefficients

     PseudoPot. # 2 for As read from file:
     /home/pragov/projects/rrg-bengioy-ad/pragov/crystal_structure_design/SSSP/As.pbe-n-rrkjus_psl.0.2.UPF
     MD5 check sum: 767315de957beeeb34f87d97bf945c8f
     Pseudo is Ultrasoft + core correction, Zval =  5.0
     Generated using "atomic" code by A. Dal Corso  v.5.0.99 svn rev. 10869
     Using radial grid of 1209 points,  4 beta functions with:
                l(1) =   0
                l(2) =   0
                l(3) =   1
                l(4) =   1
     Q(r) pseudized with 0 coefficients

     PseudoPot. # 3 for P  read from file:
     /home/pragov/projects/rrg-bengioy-ad/pragov/crystal_structure_design/SSSP/P.pbe-n-rrkjus_psl.1.0.0.UPF
     MD5 check sum: 8b930f418f0a4573dca56cd030ffe088
     Pseudo is Ultrasoft + core correction, Zval =  5.0
     Generated using "atomic" code by A. Dal Corso  v.5.1
     Using radial grid of 1147 points,  6 beta functions with:
                l(1) =   0
                l(2) =   0
                l(3) =   1
                l(4) =   1
                l(5) =   2
                l(6) =   2
     Q(r) pseudized with 0 coefficients

     atomic species   valence    mass     pseudopotential
        In            13.00   114.81800     In( 1.00)
        As             5.00    74.92159     As( 1.00)
        P              5.00    30.97376     P ( 1.00)

      2 Sym. Ops. (no inversion) found

                                    s                        frac. trans.

      isym =  1     identity

 cryst.   s( 1) = (     1          0          0      )
                  (     0          1          0      )
                  (     0          0          1      )

 cart.    s( 1) = (  1.0000000  0.0000000  0.0000000 )
                  (  0.0000000  1.0000000 -0.0000000 )
                  (  0.0000000  0.0000000  1.0000000 )

      isym =  2     inv. 180 deg rotation - cart. axis [1,0,0]

 cryst.   s( 2) = (    -1          0          0      )
                  (     0          1          0      )
                  (     0          0          1      )

 cart.    s( 2) = ( -1.0000000  0.0000000  0.0000000 )
                  (  0.0000000  1.0000000 -0.0000000 )
                  (  0.0000000  0.0000000  1.0000000 )

   Cartesian axes

     site n.     atom                  positions (alat units)
         1           In  tau(   1) = (   0.0000000   2.3041959   1.6317535  )
         2           In  tau(   2) = (   0.5000000   2.0069537   0.8199509  )
         3           In  tau(   3) = (   0.5000000   1.4397547   1.6208914  )
         4           In  tau(   4) = (   0.0000000   1.1628816   0.8235134  )
         5           As  tau(   5) = (   0.5000000   0.8637298   0.6116642  )
         6           P   tau(   6) = (   0.0000000   1.1511288   1.4281586  )
         7           P   tau(   7) = (   0.0000000   1.7293286   0.6116838  )
         8           P   tau(   8) = (   0.5000000   2.0164833   1.4280052  )

   Crystallographic axes

     site n.     atom                  positions (cryst. coord.)
         1           In  tau(   1) = (  0.0000000  0.9998910  0.9998910  )
         2           In  tau(   2) = (  0.5000000  0.9932350  0.5024420  )
         3           In  tau(   3) = (  0.5000000  0.5024420  0.9932350  )
         4           In  tau(   4) = (  0.0000000  0.5046250  0.5046250  )
         5           As  tau(   5) = (  0.5000000  0.3748100  0.3748100  )
         6           P   tau(   6) = (  0.0000000  0.3748220  0.8751340  )
         7           P   tau(   7) = (  0.0000000  0.8751340  0.3748220  )
         8           P   tau(   8) = (  0.5000000  0.8750400  0.8750400  )

     number of k points=     1  Methfessel-Paxton smearing, width (Ry)=  0.0010
                       cart. coord. in units 2pi/alat
        k(    1) = (   0.0000000   0.0000000   0.0000000), wk =   2.0000000

                       cryst. coord.
        k(    1) = (   0.0000000   0.0000000   0.0000000), wk =   2.0000000

     Initial potential from superposition of free atoms

     starting charge      71.9844, renormalised to      72.0000
     Starting wfcs are   52 randomized atomic wfcs

     Self-consistent Calculation

     iteration #  1     ecut=    30.00 Ry     beta= 0.70
     Davidson diagonalization with overlap

     ethr =  1.00E-02,  avg # of iterations =  4.0

     total energy              =    -638.22799309 Ry
     estimated scf accuracy    <       1.00334798 Ry

[...]

     total energy              =    -638.66051444 Ry
     estimated scf accuracy    <       0.00000730 Ry

     iteration # 33     ecut=    30.00 Ry     beta= 0.70
     Davidson diagonalization with overlap

     ethr =  3.76E-09,  avg # of iterations =  1.0

     End of self-consistent calculation

          k = 0.0000 0.0000 0.0000 (  2008 PWs)   bands (ev):

    -8.1284  -8.0893  -8.0661  -8.0296  -8.0062  -8.0046  -7.9721  -7.9623
    -7.9561  -7.9552  -7.9354  -7.9242  -7.9143  -7.9030  -7.8975  -7.8906
    -7.8681  -7.8527  -7.8521  -7.8136  -4.7684  -3.3285  -3.0642  -2.5057
     0.7550   0.8423   0.9277   4.2881   4.2968   5.5329   5.6206   5.6266
     5.6844   6.5925   6.6023   6.6032   6.6038   7.5512   7.5917   8.0437
     8.6027  10.2794  10.2922

     occupation numbers
     1.0000   1.0000   1.0000   1.0000   1.0000   1.0000   1.0000   1.0000
     1.0000   1.0000   1.0000   1.0000   1.0000   1.0000   1.0000   1.0000
     1.0000   1.0000   1.0000   1.0000   1.0000   1.0000   1.0000   1.0000
     1.0000   1.0000   1.0000   1.0000   1.0000   1.0000   1.0000   1.0000
     1.0000   1.0221   0.7046   0.6544   0.6189  -0.0000  -0.0000  -0.0000
    -0.0000  -0.0000  -0.0000

     the Fermi energy is     6.6057 ev

!    total energy              =    -638.66051445 Ry
     estimated scf accuracy    <       0.00000041 Ry
     smearing contrib. (-TS)   =      -0.00065291 Ry
     internal energy E=F+TS    =    -638.65986154 Ry

     The total energy is F=E-TS. E is the sum of the following terms:
     one-electron contribution =    -254.77749428 Ry
     hartree contribution      =     178.94648064 Ry
     xc contribution           =    -213.23704059 Ry
     ewald contribution        =    -349.59180730 Ry

     convergence has been achieved in  33 iterations

     Forces acting on atoms (cartesian axes, Ry/au):

     atom    1 type  1   force =     0.00000000    0.03594444    0.02554238
     atom    2 type  1   force =     0.00000000    0.03103112    0.02988351
     atom    3 type  1   force =     0.00000000    0.03841648    0.01954470
     atom    4 type  1   force =     0.00000000    0.04760331    0.03379193
     atom    5 type  2   force =     0.00000000   -0.04069224   -0.02894679
     atom    6 type  3   force =     0.00000000   -0.04154533   -0.02354797
     atom    7 type  3   force =     0.00000000   -0.03590522   -0.03148717
     atom    8 type  3   force =     0.00000000   -0.03485255   -0.02478059
     The non-local contrib.  to forces
     atom    1 type  1   force =     0.00000000   -0.17119105   -0.12099373
     atom    2 type  1   force =     0.00000000   -0.17520023   -0.12225799
     atom    3 type  1   force =     0.00000000   -0.17371569   -0.12420342
     atom    4 type  1   force =     0.00000000   -0.18730902   -0.13238903
     atom    5 type  2   force =     0.00000000   -0.03999766   -0.02771174
     atom    6 type  3   force =     0.00000000   -0.04089676   -0.04708191
     atom    7 type  3   force =     0.00000000   -0.05867565   -0.02208628
     atom    8 type  3   force =     0.00000000   -0.04370114   -0.03026892
     The ionic contribution  to forces
     atom    1 type  1   force =     0.00000000    0.12664153    0.08968325
     atom    2 type  1   force =    -0.00000000    0.87542056   -0.44777882
     atom    3 type  1   force =     0.00000000   -0.13173888    0.97442901
     atom    4 type  1   force =     0.00000000   -0.89666443   -0.63498740
     atom    5 type  2   force =     0.00000000   -0.19181366   -0.13583594
     atom    6 type  3   force =    -0.00000000   -0.21057346    0.30238139
     atom    7 type  3   force =    -0.00000000    0.21531913   -0.29902067
     atom    8 type  3   force =    -0.00000000    0.21340920    0.15112917
     The local contribution  to forces
     atom    1 type  1   force =     0.00014052    0.07662899    0.05393309
     atom    2 type  1   force =     0.00009186   -0.67395573    0.59632651
     atom    3 type  1   force =     0.00003244    0.33889723   -0.83433036
     atom    4 type  1   force =     0.00019496    1.12656464    0.79764716
     atom    5 type  2   force =     0.00092190    0.18552431    0.13069792
     atom    6 type  3   force =     0.00106623    0.20754864   -0.28143729
     atom    7 type  3   force =     0.00101689   -0.19568094    0.28815561
     atom    8 type  3   force =     0.00095348   -0.20691391   -0.14739626
     The core correction contribution to forces
     atom    1 type  1   force =     0.00000370    0.00452233    0.00319466
     atom    2 type  1   force =     0.00000170    0.00530706    0.00323767
     atom    3 type  1   force =    -0.00000004    0.00482348    0.00391265
     atom    4 type  1   force =     0.00000299    0.00512111    0.00361845
     atom    5 type  2   force =     0.00013131    0.00554124    0.00381809
     atom    6 type  3   force =     0.00004717    0.00234050    0.00237690
     atom    7 type  3   force =     0.00004581    0.00306037    0.00136813
     atom    8 type  3   force =     0.00004294    0.00229379    0.00158408
     The Hubbard contrib.    to forces
     atom    1 type  1   force =     0.00000000    0.00000000    0.00000000
     atom    2 type  1   force =     0.00000000    0.00000000    0.00000000
     atom    3 type  1   force =     0.00000000    0.00000000    0.00000000
     atom    4 type  1   force =     0.00000000    0.00000000    0.00000000
     atom    5 type  2   force =     0.00000000    0.00000000    0.00000000
     atom    6 type  3   force =     0.00000000    0.00000000    0.00000000
     atom    7 type  3   force =     0.00000000    0.00000000    0.00000000
     atom    8 type  3   force =     0.00000000    0.00000000    0.00000000
     The SCF correction term to forces
     atom    1 type  1   force =    -0.00001653   -0.00077376   -0.00031721
     atom    2 type  1   force =     0.00002845   -0.00065694    0.00031381
     atom    3 type  1   force =     0.00008255    0.00003394   -0.00030551
     atom    4 type  1   force =    -0.00003436   -0.00022540   -0.00013958
     atom    5 type  2   force =    -0.00016242   -0.00006287    0.00004256
     atom    6 type  3   force =    -0.00021582   -0.00008066    0.00017061
     atom    7 type  3   force =    -0.00020045   -0.00004453    0.00005372
     atom    8 type  3   force =    -0.00018516   -0.00005689    0.00012903

     Total force =     0.133977     Total SCF correction =     0.001272

     Computing stress (Cartesian axis) and pressure

          total   stress  (Ry/bohr**3)                   (kbar)     P=      141.05
   0.00148404   0.00000000   0.00000000          218.31        0.00        0.00
   0.00000000   0.00075716   0.00017336            0.00      111.38       25.50
   0.00000000   0.00017336   0.00063528            0.00       25.50       93.45

     kinetic stress (kbar)   9308.43      0.00      0.00
                                0.00   9109.36     15.15
                                0.00     15.15   9098.84

     local   stress (kbar)  -2352.48     -0.41     -0.32
                               -0.41  -2214.47     85.77
                               -0.32     85.77  -2275.30

     nonloc. stress (kbar)   2548.87      0.00      0.00
                                0.00   2529.61     -3.80
                                0.00     -3.80   2532.35

     hartree stress (kbar)   5972.98      0.25      0.11
                                0.25   5961.13    -50.36
                                0.11    -50.36   5996.85

     exc-cor stress (kbar)   9057.54      0.00      0.00
                                0.00   9057.55     -0.94
                                0.00     -0.94   9058.22

     corecor stress (kbar) -12649.19     -0.01     -0.01
                               -0.01 -12643.73     -0.62
                               -0.01     -0.62 -12643.30

     ewald   stress (kbar) -11667.85     -0.00      0.00
                               -0.00 -11688.07    -19.70
                                0.00    -19.70 -11674.21

     hubbard stress (kbar)      0.00      0.00      0.00
                                0.00      0.00      0.00
                                0.00      0.00      0.00

     DFT-D   stress (kbar)      0.00      0.00      0.00
                                0.00      0.00      0.00
                                0.00      0.00      0.00

     XDM     stress (kbar)      0.00      0.00      0.00
                                0.00      0.00      0.00
                                0.00      0.00      0.00

     dft-nl  stress (kbar)      0.00      0.00      0.00
                                0.00      0.00      0.00
                                0.00      0.00      0.00

     TS-vdW  stress (kbar)      0.00      0.00      0.00
                                0.00      0.00      0.00
                                0.00      0.00      0.00

[...]

                                0.00      0.00      0.00

     Writing all to output data dir new_calculations/myprefix.save/

     General routines

     Parallel routines

   This run was terminated on:  23:59:28  20May2023

   JOB DONE.