     Program PWSCF v.7.0 starts on 20May2023 at 16:22: 5

     Reading input from espresso_3600.pwi
Warning: card &CELL ignored
Warning: card / ignored

     Current dimensions of program PWSCF are:
     Max number of different atomic species (ntypx) = 10
     Max number of k-points (npk) =  40000
     Max angular momentum in pseudopotentials (lmaxx) =  4
     file Mg.pbe-n-kjpaw_psl.0.3.0.UPF: wavefunction(s)  3S renormalized

     gamma-point specific algorithms are used
     Message from routine setup:
     using ibrav=0 with symmetry is DISCOURAGED, use correct ibrav instead

     Subspace diagonalization in iterative solution of the eigenvalue problem:
     a serial algorithm will be used

     Using Slab Decomposition

     bravais-lattice index     =            0
     lattice parameter (alat)  =      10.5243  a.u.
     unit-cell volume          =     788.7236 (a.u.)^3
     number of atoms/cell      =            8
     number of atomic types    =            3
     number of electrons       =        58.00
     number of Kohn-Sham states=           35
     kinetic-energy cutoff     =      30.0000  Ry
     charge density cutoff     =     240.0000  Ry
     scf convergence threshold =      1.0E-06
     mixing beta               =       0.7000
     number of iterations used =            8  plain     mixing
     Exchange-correlation=  SLA  PW   PBX  PBC
                           (   1   4   3   4   0   0   0)

     celldm(1)=  10.524346  celldm(2)=   0.000000  celldm(3)=   0.000000
     celldm(4)=   0.000000  celldm(5)=   0.000000  celldm(6)=   0.000000

     crystal axes: (cart. coord. in units of alat)
               a(1) = (   1.000000   0.000000   0.000000 )
               a(2) = (   0.528161   0.849144   0.000000 )
               a(3) = (   0.528161   0.293480   0.796816 )

     reciprocal axes: (cart. coord. in units 2 pi/alat)
               b(1) = (  1.000000 -0.621992 -0.433750 )
               b(2) = (  0.000000  1.177656 -0.433750 )
               b(3) = (  0.000000  0.000000  1.254995 )

     PseudoPot. # 1 for Mg read from file:
     /home/pragov/projects/rrg-bengioy-ad/pragov/crystal_structure_design/SSSP/Mg.pbe-n-kjpaw_psl.0.3.0.UPF
     MD5 check sum: 24ecedc7f3e3cbe212e682f4413594e4
     Pseudo is Projector augmented-wave + core cor, Zval =  2.0
     Generated using "atomic" code by A. Dal Corso  v.5.0.99 svn rev. 10869
     Shape of augmentation charge: PSQ
     Using radial grid of 1129 points,  4 beta functions with:
                l(1) =   0
                l(2) =   0
                l(3) =   1
                l(4) =   1
     Q(r) pseudized with 0 coefficients

     PseudoPot. # 2 for Sn read from file:
     /home/pragov/projects/rrg-bengioy-ad/pragov/crystal_structure_design/SSSP/Sn_pbe_v1.uspp.F.UPF
     MD5 check sum: 4cf58ce39ec5d5d420df3dd08604eb00
     Pseudo is Ultrasoft + core correction, Zval = 14.0
     Generated by new atomic code, or converted to UPF format
     Using radial grid of  891 points,  6 beta functions with:
                l(1) =   0
                l(2) =   0
                l(3) =   1
                l(4) =   1
                l(5) =   2
                l(6) =   2
     Q(r) pseudized with  6 coefficients,  rinner =    1.200   1.200   1.200
                                                       1.200   1.200

     PseudoPot. # 3 for F  read from file:
     /home/pragov/projects/rrg-bengioy-ad/pragov/crystal_structure_design/SSSP/f_pbe_v1.4.uspp.F.UPF
     MD5 check sum: 4c38b6a325caf53ec0e86aed9459de46
     Pseudo is Ultrasoft, Zval =  7.0
     Generated by new atomic code, or converted to UPF format
     Using radial grid of  799 points,  4 beta functions with:
                l(1) =   0
                l(2) =   0
                l(3) =   1
                l(4) =   1
     Q(r) pseudized with  8 coefficients,  rinner =    0.950   0.950   0.950

     atomic species   valence    mass     pseudopotential
        Mg             2.00    24.30500     Mg( 1.00)
        Sn            14.00   118.71000     Sn( 1.00)
        F              7.00    18.99840     F ( 1.00)

      2 Sym. Ops., with inversion, found

                                    s                        frac. trans.

      isym =  1     identity

 cryst.   s( 1) = (     1          0          0      )
                  (     0          1          0      )
                  (     0          0          1      )

 cart.    s( 1) = (  1.0000000  0.0000000  0.0000000 )
                  (  0.0000000  1.0000000  0.0000000 )
                  (  0.0000000  0.0000000  1.0000000 )

      isym =  2     inversion

 cryst.   s( 2) = (    -1          0          0      )
                  (     0         -1          0      )
                  (     0          0         -1      )

 cart.    s( 2) = ( -1.0000000 -0.0000000 -0.0000000 )
                  (  0.0000000 -1.0000000 -0.0000000 )
                  (  0.0000000  0.0000000 -1.0000000 )

   Cartesian axes

     site n.     atom                  positions (alat units)
         1           Mg  tau(   1) = (   1.0281609   0.5713122   0.3984079  )
         2           Sn  tau(   2) = (   0.0000000   0.0000000   0.0000000  )
         3           F   tau(   3) = (   1.2354915   0.7860661   0.1976868  )
         4           F   tau(   4) = (   1.3200218   0.4046062   0.5265502  )
         5           F   tau(   5) = (   1.0155688   0.3349804   0.1275152  )
         6           F   tau(   6) = (   0.7363000   0.7380181   0.2702656  )
         7           F   tau(   7) = (   0.8208304   0.3565582   0.5991290  )
         8           F   tau(   8) = (   1.0407531   0.8076440   0.6693006  )

   Crystallographic axes

     site n.     atom                  positions (cryst. coord.)
         1           Mg  tau(   1) = (  0.5000000  0.5000000  0.5000000  )
         2           Sn  tau(   2) = (  0.0000000  0.0000000  0.0000000  )
         3           F   tau(   3) = (  0.6608180  0.8399690  0.2480960  )
         4           F   tau(   4) = (  0.8399690  0.2480960  0.6608180  )
         5           F   tau(   5) = (  0.7519040  0.3391820  0.1600310  )
         6           F   tau(   6) = (  0.1600310  0.7519040  0.3391820  )
         7           F   tau(   7) = (  0.3391820  0.1600310  0.7519040  )
         8           F   tau(   8) = (  0.2480960  0.6608180  0.8399690  )

     number of k points=     1  Methfessel-Paxton smearing, width (Ry)=  0.0010
                       cart. coord. in units 2pi/alat
        k(    1) = (   0.0000000   0.0000000   0.0000000), wk =   2.0000000

                       cryst. coord.
        k(    1) = (   0.0000000   0.0000000   0.0000000), wk =   2.0000000

     Initial potential from superposition of free atoms

     starting charge      56.9990, renormalised to      58.0000
     Starting wfcs are   37 randomized atomic wfcs
     Checking if some PAW data can be deallocated...

     Self-consistent Calculation

     iteration #  1     ecut=    30.00 Ry     beta= 0.70
     Davidson diagonalization with overlap

     ethr =  1.00E-02,  avg # of iterations =  6.0

     total energy              =    -488.82206353 Ry
     estimated scf accuracy    <       0.66183953 Ry

[...]

     total energy              =    -489.10526678 Ry
     estimated scf accuracy    <       0.00000186 Ry

     iteration #  7     ecut=    30.00 Ry     beta= 0.70
     Davidson diagonalization with overlap

     ethr =  3.21E-09,  avg # of iterations =  2.0

     End of self-consistent calculation

          k = 0.0000 0.0000 0.0000 (  1091 PWs)   bands (ev):

   -20.8527 -20.8523 -20.6553 -19.9584 -19.9500 -19.9494 -18.6404 -18.6404
   -18.6263 -17.4906 -17.4904  -5.9336  -3.3660  -3.3657  -3.2057  -1.7530
    -1.6805  -1.6803  -1.1328  -1.1322  -0.8141  -0.5609  -0.5605  -0.4427
    -0.4204  -0.4198  -0.4163  -0.0343  -0.0340   4.7580  10.5107  11.0553
    11.3680  11.3681  12.9016

     occupation numbers
     1.0000   1.0000   1.0000   1.0000   1.0000   1.0000   1.0000   1.0000
     1.0000   1.0000   1.0000   1.0000   1.0000   1.0000   1.0000   1.0000
     1.0000   1.0000   1.0000   1.0000   1.0000   1.0000   1.0000   1.0000
     1.0000   1.0000   1.0000   1.0000   1.0000  -0.0000  -0.0000  -0.0000
    -0.0000  -0.0000  -0.0000

     the Fermi energy is     4.5311 ev

!    total energy              =    -489.10526719 Ry
     estimated scf accuracy    <       0.00000004 Ry
     smearing contrib. (-TS)   =       0.00000000 Ry
     internal energy E=F+TS    =    -489.10526719 Ry

     The total energy is F=E-TS. E is the sum of the following terms:
     one-electron contribution =    -277.54733475 Ry
     hartree contribution      =     171.99085490 Ry
     xc contribution           =    -105.91516848 Ry
     ewald contribution        =    -246.37888443 Ry
     one-center paw contrib.   =     -31.25473442 Ry
      -> PAW hartree energy AE =       0.58568536 Ry
      -> PAW hartree energy PS =      -0.58507363 Ry
      -> PAW xc energy AE      =     -32.45502704 Ry
      -> PAW xc energy PS      =       1.19968089 Ry
      -> total E_H with PAW    =     171.99146663 Ry
      -> total E_XC with PAW   =    -137.17051463 Ry

     convergence has been achieved in   7 iterations

     Forces acting on atoms (cartesian axes, Ry/au):

     atom    1 type  1   force =     0.00000000    0.00000000    0.00000000
     atom    2 type  2   force =     0.00000000    0.00000000    0.00000000
     atom    3 type  3   force =    -0.00017028    0.01819917   -0.00190415
     atom    4 type  3   force =     0.01538964   -0.00518489   -0.00846231
     atom    5 type  3   force =    -0.00372316    0.00253493   -0.01772723
     atom    6 type  3   force =    -0.01538964    0.00518489    0.00846231
     atom    7 type  3   force =     0.00017028   -0.01819917    0.00190415
     atom    8 type  3   force =     0.00372316   -0.00253493    0.01772723
     The non-local contrib.  to forces
     atom    1 type  1   force =     0.00000000    0.00000000    0.00000000
     atom    2 type  2   force =     0.00000000    0.00000000    0.00000000
     atom    3 type  3   force =     0.77457818   -0.25559874   -0.36613079
     atom    4 type  3   force =     0.19209938   -0.06961027    0.87050643
     atom    5 type  3   force =    -0.04234151   -0.88580976    0.11330659
     atom    6 type  3   force =    -0.19209938    0.06961027   -0.87050643
     atom    7 type  3   force =    -0.77457818    0.25559874    0.36613079
     atom    8 type  3   force =     0.04234151    0.88580976   -0.11330659
     The ionic contribution  to forces
     atom    1 type  1   force =     0.00000000    0.00000000    0.00000000
     atom    2 type  2   force =     0.00000000    0.00000000    0.00000000
     atom    3 type  3   force =    -7.91492311   -0.44193717    4.87121538
     atom    4 type  3   force =    -4.55562208    2.32882826   -7.77129163
     atom    5 type  3   force =     0.42859229    9.05448032    2.09828704
     atom    6 type  3   force =     4.55562208   -2.32882826    7.77129163
     atom    7 type  3   force =     7.91492311    0.44193717   -4.87121538
     atom    8 type  3   force =    -0.42859229   -9.05448032   -2.09828704
     The local contribution  to forces
     atom    1 type  1   force =     0.00000251   -0.00000182    0.00000126
     atom    2 type  2   force =     0.00001183    0.00000177    0.00001288
     atom    3 type  3   force =     7.14025232    0.71562284   -4.50702068
     atom    4 type  3   force =     4.37885853   -2.26435728    6.89246632
     atom    5 type  3   force =    -0.38997183   -8.16622505   -2.22925091
     atom    6 type  3   force =    -4.37886896    2.26437332   -6.89246237
     atom    7 type  3   force =    -7.14024566   -0.71563316    4.50703831
     atom    8 type  3   force =     0.38998587    8.16622578    2.22923821
     The core correction contribution to forces
     atom    1 type  1   force =     0.00000013   -0.00000011    0.00000009
     atom    2 type  2   force =     0.00000055   -0.00000011    0.00000083
     atom    3 type  3   force =     0.00000000    0.00000000    0.00000000
     atom    4 type  3   force =     0.00000000    0.00000000    0.00000000
     atom    5 type  3   force =     0.00000000    0.00000000    0.00000000
     atom    6 type  3   force =     0.00000000    0.00000000    0.00000000
     atom    7 type  3   force =     0.00000000    0.00000000    0.00000000
     atom    8 type  3   force =     0.00000000    0.00000000    0.00000000
     The Hubbard contrib.    to forces
     atom    1 type  1   force =     0.00000000    0.00000000    0.00000000
     atom    2 type  2   force =     0.00000000    0.00000000    0.00000000
     atom    3 type  3   force =     0.00000000    0.00000000    0.00000000
     atom    4 type  3   force =     0.00000000    0.00000000    0.00000000
     atom    5 type  3   force =     0.00000000    0.00000000    0.00000000
     atom    6 type  3   force =     0.00000000    0.00000000    0.00000000
     atom    7 type  3   force =     0.00000000    0.00000000    0.00000000
     atom    8 type  3   force =     0.00000000    0.00000000    0.00000000
     The SCF correction term to forces
     atom    1 type  1   force =    -0.00000164    0.00000140   -0.00000085
     atom    2 type  2   force =    -0.00001556   -0.00001005   -0.00001036
     atom    3 type  3   force =    -0.00008225    0.00011633    0.00002951
     atom    4 type  3   force =     0.00005648   -0.00005149   -0.00013595
     atom    5 type  3   force =    -0.00000616    0.00008849   -0.00006439
     atom    6 type  3   force =    -0.00004074    0.00002369    0.00014697
     atom    7 type  3   force =     0.00006643   -0.00009782   -0.00005200
     atom    8 type  3   force =    -0.00001596   -0.00009108    0.00008821

     Total force =     0.044827     Total SCF correction =     0.000339

     Computing stress (Cartesian axis) and pressure

          total   stress  (Ry/bohr**3)                   (kbar)     P=     -105.17
  -0.00071264   0.00000230   0.00000182         -104.83        0.34        0.27
   0.00000230  -0.00071585   0.00000080            0.34     -105.31        0.12
   0.00000182   0.00000080  -0.00071638            0.27        0.12     -105.38

     kinetic stress (kbar)  16144.96     14.02      9.77
                               14.02  16127.53      5.43
                                9.77      5.43  16123.50

     local   stress (kbar)  -9633.09   -382.65   -266.75
                             -382.65  -9157.22   -148.32
                             -266.75   -148.32  -9047.88

     nonloc. stress (kbar)   2667.44      4.47      3.12
                                4.47   2661.87      1.73
                                3.12      1.73   2660.60

     hartree stress (kbar)  10843.48    163.14    113.71
                              163.14  10640.62     63.25
                              113.71     63.25  10593.97

     exc-cor stress (kbar)    508.23      0.06      0.04
                                0.06    508.17      0.02
                                0.04      0.02    508.15

     corecor stress (kbar)  -5504.73     -0.20     -0.14
                               -0.20  -5504.49     -0.08
                               -0.14     -0.08  -5504.43

     ewald   stress (kbar) -15131.12    201.50    140.52
                              201.50 -15381.78     78.08
                              140.52     78.08 -15439.30

     hubbard stress (kbar)      0.00      0.00      0.00
                                0.00      0.00      0.00
                                0.00      0.00      0.00

     DFT-D   stress (kbar)      0.00      0.00      0.00
                                0.00      0.00      0.00
                                0.00      0.00      0.00

     XDM     stress (kbar)      0.00      0.00      0.00
                                0.00      0.00      0.00
                                0.00      0.00      0.00

     dft-nl  stress (kbar)      0.00      0.00      0.00
                                0.00      0.00      0.00
                                0.00      0.00      0.00

     TS-vdW  stress (kbar)      0.00      0.00      0.00
                                0.00      0.00      0.00
                                0.00      0.00      0.00

[...]

                                0.00      0.00      0.00

     Writing all to output data dir new_calculations/myprefix.save/

     General routines

     Parallel routines

     PAW routines

   This run was terminated on:  16:22:20  20May2023

   JOB DONE.