     Program PWSCF v.7.0 starts on 20May2023 at 17:35:27

     Reading input from espresso_19400.pwi
Warning: card &CELL ignored
Warning: card / ignored

     Current dimensions of program PWSCF are:
     Max number of different atomic species (ntypx) = 10
     Max number of k-points (npk) =  40000
     Max angular momentum in pseudopotentials (lmaxx) =  4
     file Al.pbe-n-kjpaw_psl.1.0.0.UPF: wavefunction(s)  3S 3P renormalized
     file O.pbe-n-kjpaw_psl.0.1.UPF: wavefunction(s)  2P renormalized

     gamma-point specific algorithms are used
     Message from routine setup:
     using ibrav=0 with symmetry is DISCOURAGED, use correct ibrav instead

     Subspace diagonalization in iterative solution of the eigenvalue problem:
     a serial algorithm will be used

     Using Slab Decomposition

     bravais-lattice index     =            0
     lattice parameter (alat)  =       9.5234  a.u.
     unit-cell volume          =     733.5642 (a.u.)^3
     number of atoms/cell      =           14
     number of atomic types    =            3
     number of electrons       =        48.00
     number of Kohn-Sham states=           29
     kinetic-energy cutoff     =      30.0000  Ry
     charge density cutoff     =     240.0000  Ry
     scf convergence threshold =      1.0E-06
     mixing beta               =       0.7000
     number of iterations used =            8  plain     mixing
     Exchange-correlation= SLA  PW   PBX  PBC
                           (   1   4   3   4   0   0   0)

     celldm(1)=   9.523424  celldm(2)=   0.000000  celldm(3)=   0.000000
     celldm(4)=   0.000000  celldm(5)=   0.000000  celldm(6)=   0.000000

     crystal axes: (cart. coord. in units of alat)
               a(1) = (   1.000000   0.000000   0.000000 )
               a(2) = (  -0.490100   0.884045   0.000000 )
               a(3) = (  -0.164432  -0.425505   0.960692 )

     reciprocal axes: (cart. coord. in units 2 pi/alat)
               b(1) = (  1.000000  0.554384  0.416704 )
               b(2) = (  0.000000  1.131164  0.501009 )
               b(3) = (  0.000000  0.000000  1.040916 )

     PseudoPot. # 1 for Al read from file:
     /home/pragov/projects/rrg-bengioy-ad/pragov/crystal_structure_design/SSSP/Al.pbe-n-kjpaw_psl.1.0.0.UPF
     MD5 check sum: cfc449ca30b5f3223ec38ddd88ac046d
     Pseudo is Projector augmented-wave + core cor, Zval =  3.0
     Generated using "atomic" code by A. Dal Corso  v.5.1
     Shape of augmentation charge: PSQ
     Using radial grid of 1135 points,  6 beta functions with:
                l(1) =   0
                l(2) =   0
                l(3) =   1
                l(4) =   1
                l(5) =   2
                l(6) =   2
     Q(r) pseudized with 0 coefficients

     PseudoPot. # 2 for H  read from file:
     /home/pragov/projects/rrg-bengioy-ad/pragov/crystal_structure_design/SSSP/H.pbe-rrkjus_psl.1.0.0.UPF
     MD5 check sum: f52b6d4d1c606e5624b1dc7b2218f220
     Pseudo is Ultrasoft, Zval =  1.0
     Generated using "atomic" code by A. Dal Corso  v.5.1
     Using radial grid of  929 points,  2 beta functions with:
                l(1) =   0
                l(2) =   0
     Q(r) pseudized with 0 coefficients

     PseudoPot. # 3 for O  read from file:
     /home/pragov/projects/rrg-bengioy-ad/pragov/crystal_structure_design/SSSP/O.pbe-n-kjpaw_psl.0.1.UPF
     MD5 check sum: 0234752ac141de4415c5fc33072bef88
     Pseudo is Projector augmented-wave + core cor, Zval =  6.0
     Generated using "atomic" code by A. Dal Corso  v.5.0.99 svn rev. 10869
     Shape of augmentation charge: BESSEL
     Using radial grid of 1095 points,  4 beta functions with:
                l(1) =   0
                l(2) =   0
                l(3) =   1
                l(4) =   1
     Q(r) pseudized with 0 coefficients

     atomic species   valence    mass     pseudopotential
        Al             3.00    26.98154     Al( 1.00)
        H              1.00     1.00800     H ( 1.00)
        O              6.00    15.99900     O ( 1.00)

      2 Sym. Ops., with inversion, found

                                    s                        frac. trans.

      isym =  1     identity

 cryst.   s( 1) = (     1          0          0      )
                  (     0          1          0      )
                  (     0          0          1      )

 cart.    s( 1) = (  1.0000000  0.0000000 -0.0000000 )
                  (  0.0000000  1.0000000  0.0000000 )
                  (  0.0000000  0.0000000  1.0000000 )

      isym =  2     inversion

 cryst.   s( 2) = (    -1          0          0      )
                  (     0         -1          0      )
                  (     0          0         -1      )

 cart.    s( 2) = ( -1.0000000 -0.0000000  0.0000000 )
                  (  0.0000000 -1.0000000 -0.0000000 )
                  (  0.0000000  0.0000000 -1.0000000 )

   Cartesian axes

     site n.     atom                  positions (alat units)
         1           Al  tau(   1) = (   0.0074710   0.2943467   0.0020732  )
         2           Al  tau(   2) = (   0.3379969   0.1641936   0.9586190  )
         3           H   tau(   3) = (   0.0068921   0.4684743   0.7664383  )
         4           H   tau(   4) = (  -0.2870247   0.3846335   0.3908480  )
         5           H   tau(   5) = (   0.3385758  -0.0099340   0.1942539  )
         6           H   tau(   6) = (   0.6324927   0.0739068   0.5698442  )
         7           H   tau(   7) = (   0.2113887   0.5150815   0.3978178  )
         8           H   tau(   8) = (   0.1340793  -0.0565412   0.5628743  )
         9           O   tau(   9) = (   0.1442868  -0.0041113   0.2019116  )
        10           O   tau(  10) = (  -0.3440782   0.1299165   0.7532595  )
        11           O   tau(  11) = (   0.6895462   0.3286237   0.2074326  )
        12           O   tau(  12) = (   0.1553902  -0.0980564   0.7536102  )
        13           O   tau(  13) = (   0.2011811   0.4626516   0.7587806  )
        14           O   tau(  14) = (   0.1900778   0.5565966   0.2070820  )

   Crystallographic axes

     site n.     atom                  positions (cryst. coord.)
         1           Al  tau(   1) = (  0.1715160  0.3339930  0.0021580  )
         2           Al  tau(   2) = (  0.8284840  0.6660070  0.9978420  )
         3           H   tau(   3) = (  0.5859850  0.9139140  0.7977980  )
         4           H   tau(   4) = (  0.0890780  0.6309020  0.4068400  )
         5           H   tau(   5) = (  0.4140150  0.0860860  0.2022020  )
         6           H   tau(   6) = (  0.9109220  0.3690980  0.5931600  )
         7           H   tau(   7) = (  0.6627140  0.7819520  0.4140950  )
         8           H   tau(   8) = (  0.3372860  0.2180480  0.5859050  )
         9           O   tau(   9) = (  0.2261450  0.0965090  0.2101730  )
        10           O   tau(  10) = (  0.0418320  0.5243470  0.7840800  )
        11           O   tau(  11) = (  0.9581680  0.4756530  0.2159200  )
        12           O   tau(  12) = (  0.4150620  0.2666480  0.7844450  )
        13           O   tau(  13) = (  0.7738550  0.9034910  0.7898270  )
        14           O   tau(  14) = (  0.5849380  0.7333520  0.2155550  )

     number of k points=     1  Methfessel-Paxton smearing, width (Ry)=  0.0010
                       cart. coord. in units 2pi/alat
        k(    1) = (   0.0000000   0.0000000   0.0000000), wk =   2.0000000

                       cryst. coord.
        k(    1) = (   0.0000000   0.0000000   0.0000000), wk =   2.0000000

     Check: negative core charge=   -0.000012

     Initial potential from superposition of free atoms

     starting charge      47.9954, renormalised to      48.0000
     Starting wfcs are   38 randomized atomic wfcs
     Checking if some PAW data can be deallocated...

     Self-consistent Calculation

     iteration #  1     ecut=    30.00 Ry     beta= 0.70
     Davidson diagonalization with overlap

     ethr =  1.00E-02,  avg # of iterations =  3.0

     total energy              =    -335.65627001 Ry
     estimated scf accuracy    <       1.96345270 Ry

[...]

     total energy              =    -336.44374267 Ry
     estimated scf accuracy    <       0.00000100 Ry

     iteration #  9     ecut=    30.00 Ry     beta= 0.70
     Davidson diagonalization with overlap

     ethr =  2.09E-09,  avg # of iterations =  2.0

     End of self-consistent calculation

          k = 0.0000 0.0000 0.0000 (  1024 PWs)   bands (ev):

   -16.5766 -15.3076 -15.1880 -15.0246 -14.9249 -14.6608  -4.7918  -3.5145
    -3.2847  -2.6377  -2.4933  -2.1746  -1.6971  -0.6321  -0.0961   0.2751
     0.4729   0.9199   1.4793   1.8176   1.9589   2.1332   2.3237   2.6244
     7.4311  11.0364  12.9300  13.0306  13.3594

     occupation numbers
     1.0000   1.0000   1.0000   1.0000   1.0000   1.0000   1.0000   1.0000
     1.0000   1.0000   1.0000   1.0000   1.0000   1.0000   1.0000   1.0000
     1.0000   1.0000   1.0000   1.0000   1.0000   1.0000   1.0000   1.0000
    -0.0000  -0.0000  -0.0000  -0.0000  -0.0000

     the Fermi energy is     5.9435 ev

!    total energy              =    -336.44374264 Ry
     estimated scf accuracy    <       0.00000047 Ry
     smearing contrib. (-TS)   =       0.00000000 Ry
     internal energy E=F+TS    =    -336.44374264 Ry

     The total energy is F=E-TS. E is the sum of the following terms:
     one-electron contribution =     -85.25533435 Ry
     hartree contribution      =      69.16504271 Ry
     xc contribution           =     -54.85716809 Ry
     ewald contribution        =    -139.18588477 Ry
     one-center paw contrib.   =    -126.31039814 Ry
      -> PAW hartree energy AE =     195.21062546 Ry
      -> PAW hartree energy PS =    -194.48124325 Ry
      -> PAW xc energy AE      =    -178.69226486 Ry
      -> PAW xc energy PS      =      51.65248451 Ry
      -> total E_H with PAW    =      69.89442492 Ry
      -> total E_XC with PAW   =    -181.89694844 Ry

     convergence has been achieved in   9 iterations

     Forces acting on atoms (cartesian axes, Ry/au):

     atom    1 type  1   force =    -0.00228921   -0.00392174   -0.00171389
     atom    2 type  1   force =     0.00228921    0.00392174    0.00171389
     atom    3 type  2   force =    -0.01222421    0.00234799    0.00371669
     atom    4 type  2   force =    -0.00020375    0.00312442   -0.01019305
     atom    5 type  2   force =     0.01222421   -0.00234799   -0.00371669
     atom    6 type  2   force =     0.00020375   -0.00312442    0.01019305
     atom    7 type  2   force =    -0.00041659    0.00204925   -0.00556316
     atom    8 type  2   force =     0.00041659   -0.00204925    0.00556316
     atom    9 type  3   force =    -0.01057609   -0.00984426   -0.00592069
     atom   10 type  3   force =     0.01260342    0.01816904   -0.01244161
     atom   11 type  3   force =    -0.01260342   -0.01816904    0.01244161
     atom   12 type  3   force =     0.01035479   -0.00074456   -0.00217666
     atom   13 type  3   force =     0.01057609    0.00984426    0.00592069
     atom   14 type  3   force =    -0.01035479    0.00074456    0.00217666
     The non-local contrib.  to forces
     atom    1 type  1   force =    -0.00859808   -0.01576430   -0.00093885
     atom    2 type  1   force =     0.00859808    0.01576430    0.00093885
     atom    3 type  2   force =     0.10870951   -0.00332103   -0.00388034
     atom    4 type  2   force =    -0.01269951   -0.03147030   -0.10732357
     atom    5 type  2   force =    -0.10870951    0.00332103    0.00388034
     atom    6 type  2   force =     0.01269951    0.03147030    0.10732357
     atom    7 type  2   force =    -0.01085797    0.02169723   -0.10236185
     atom    8 type  2   force =     0.01085797   -0.02169723    0.10236185
     atom    9 type  3   force =     1.25951797   -0.01467115   -0.51386147
     atom   10 type  3   force =    -0.50696950   -0.91977688   -1.09014269
     atom   11 type  3   force =     0.50696950    0.91977688    1.09014269
     atom   12 type  3   force =    -0.43015039    0.69758952   -0.98374769
     atom   13 type  3   force =    -1.25951797    0.01467115    0.51386147
     atom   14 type  3   force =     0.43015039   -0.69758952    0.98374769
     The ionic contribution  to forces
     atom    1 type  1   force =     0.02963218   -0.18022853    0.05942513
     atom    2 type  1   force =    -0.02963218    0.18022853   -0.05942513
     atom    3 type  2   force =    -3.17343509    0.03731763   -0.22753865
     atom    4 type  2   force =     0.38790374    0.89229411    3.15889479
     atom    5 type  2   force =     3.17343509   -0.03731763    0.22753865
     atom    6 type  2   force =    -0.38790374   -0.89229411   -3.15889479
     atom    7 type  2   force =     0.26729132   -0.48069424    2.72068980
     atom    8 type  2   force =    -0.26729132    0.48069424   -2.72068980
     atom    9 type  3   force =    -0.95852809    0.27438659    3.43375359
     atom   10 type  3   force =     1.25920053    2.62118048   -1.30719453
     atom   11 type  3   force =    -1.25920053   -2.62118048    1.30719453
     atom   12 type  3   force =     1.27869468   -2.52020304   -1.23105846
     atom   13 type  3   force =     0.95852809   -0.27438659   -3.43375359
     atom   14 type  3   force =    -1.27869469    2.52020304    1.23105846
     The local contribution  to forces
     atom    1 type  1   force =    -0.02448552    0.18973504   -0.06026909
     atom    2 type  1   force =     0.02448752   -0.18973736    0.06026699
     atom    3 type  2   force =     3.05246593   -0.03164490    0.23514750
     atom    4 type  2   force =    -0.37539831   -0.85767464   -3.06173383
     atom    5 type  2   force =    -3.05245569    0.03164335   -0.23514717
     atom    6 type  2   force =     0.37539645    0.85767089    3.06171982
     atom    7 type  2   force =    -0.25684022    0.46102234   -2.62381466
     atom    8 type  2   force =     0.25683884   -0.46102371    2.62382418
     atom    9 type  3   force =    -0.29914843   -0.26963547   -2.93048313
     atom   10 type  3   force =    -0.74472210   -1.69237161    2.37397144
     atom   11 type  3   force =     0.74471985    1.69237530   -2.37395641
     atom   12 type  3   force =    -0.84239717    1.82842690    2.20266723
     atom   13 type  3   force =     0.29911137    0.26960982    2.93047923
     atom   14 type  3   force =     0.84238441   -1.82840396   -2.20269383
     The core correction contribution to forces
     atom    1 type  1   force =     0.00113501    0.00231629    0.00006735
     atom    2 type  1   force =    -0.00113447   -0.00231609   -0.00006756
     atom    3 type  2   force =     0.00000000    0.00000000    0.00000000
     atom    4 type  2   force =     0.00000000    0.00000000    0.00000000
     atom    5 type  2   force =     0.00000000    0.00000000    0.00000000
     atom    6 type  2   force =     0.00000000    0.00000000    0.00000000
     atom    7 type  2   force =     0.00000000    0.00000000    0.00000000
     atom    8 type  2   force =     0.00000000    0.00000000    0.00000000
     atom    9 type  3   force =    -0.01232044    0.00002663    0.00447762
     atom   10 type  3   force =     0.00499668    0.00895313    0.01100427
     atom   11 type  3   force =    -0.00499671   -0.00895313   -0.01100416
     atom   12 type  3   force =     0.00411290   -0.00638942    0.00990395
     atom   13 type  3   force =     0.01232020   -0.00002696   -0.00447753
     atom   14 type  3   force =    -0.00411282    0.00638956   -0.00990449
     The Hubbard contrib.    to forces
     atom    1 type  1   force =     0.00000000    0.00000000    0.00000000
     atom    2 type  1   force =     0.00000000    0.00000000    0.00000000
     atom    3 type  2   force =     0.00000000    0.00000000    0.00000000
     atom    4 type  2   force =     0.00000000    0.00000000    0.00000000
     atom    5 type  2   force =     0.00000000    0.00000000    0.00000000
     atom    6 type  2   force =     0.00000000    0.00000000    0.00000000
     atom    7 type  2   force =     0.00000000    0.00000000    0.00000000
     atom    8 type  2   force =     0.00000000    0.00000000    0.00000000
     atom    9 type  3   force =     0.00000000    0.00000000    0.00000000
     atom   10 type  3   force =     0.00000000    0.00000000    0.00000000
     atom   11 type  3   force =     0.00000000    0.00000000    0.00000000
     atom   12 type  3   force =     0.00000000    0.00000000    0.00000000
     atom   13 type  3   force =     0.00000000    0.00000000    0.00000000
     atom   14 type  3   force =     0.00000000    0.00000000    0.00000000
     The SCF correction term to forces
     atom    1 type  1   force =     0.00002896    0.00002096    0.00000220
     atom    2 type  1   force =    -0.00002796   -0.00001645    0.00000136
     atom    3 type  2   force =     0.00003785   -0.00000398   -0.00001192
     atom    4 type  2   force =    -0.00000956   -0.00002601   -0.00003388
     atom    5 type  2   force =    -0.00004326    0.00000497    0.00001140
     atom    6 type  2   force =     0.00001162    0.00002724    0.00004100
     atom    7 type  2   force =    -0.00001026    0.00002409   -0.00007676
     atom    8 type  2   force =     0.00001055   -0.00002236    0.00006662
     atom    9 type  3   force =    -0.00009969    0.00004089    0.00019929
     atom   10 type  3   force =     0.00009979    0.00017932   -0.00007848
     atom   11 type  3   force =    -0.00009354   -0.00019220    0.00006660
     atom   12 type  3   force =     0.00009998   -0.00016020    0.00004738
     atom   13 type  3   force =     0.00013180   -0.00003140   -0.00018231
     atom   14 type  3   force =    -0.00007686    0.00015378   -0.00004211

     Total force =     0.051796     Total SCF correction =     0.000541

     Computing stress (Cartesian axis) and pressure

          total   stress  (Ry/bohr**3)                   (kbar)     P=     -392.64
  -0.00268056   0.00003962  -0.00014209         -394.32        5.83      -20.90
   0.00003962  -0.00272890  -0.00013318            5.83     -401.43      -19.59
  -0.00014209  -0.00013318  -0.00259783          -20.90      -19.59     -382.15

     kinetic stress (kbar)  15178.12      5.94   -177.29
                                5.94  15915.05   -118.58
                             -177.29   -118.58  14761.74

     local   stress (kbar) -10926.99     36.77   -287.17
                               36.77  -9370.82    427.98
                             -287.17    427.98  -9977.92

     nonloc. stress (kbar)   2452.52      5.55     -8.72
                                5.55   2464.69     -0.15
                               -8.72     -0.15   2422.49

     hartree stress (kbar)   4914.29    -31.50     64.26
                              -31.50   4658.81   -170.35
                               64.26   -170.35   4296.89

     exc-cor stress (kbar)  -2452.90      0.03      1.89
                                0.03  -2462.58     -0.34
                                1.89     -0.34  -2443.50

     corecor stress (kbar)   -899.80     -0.65      0.90
                               -0.65   -899.81      0.30
                                0.90      0.30   -896.59

     ewald   stress (kbar)  -8659.57    -10.32    385.22
                              -10.32 -10706.77   -158.45
                              385.22   -158.45  -8545.26

     hubbard stress (kbar)      0.00      0.00      0.00
                                0.00      0.00      0.00
                                0.00      0.00      0.00

     DFT-D   stress (kbar)      0.00      0.00      0.00
                                0.00      0.00      0.00
                                0.00      0.00      0.00

     XDM     stress (kbar)      0.00      0.00      0.00
                                0.00      0.00      0.00
                                0.00      0.00      0.00

     dft-nl  stress (kbar)      0.00      0.00      0.00
                                0.00      0.00      0.00
                                0.00      0.00      0.00

     TS-vdW  stress (kbar)      0.00      0.00      0.00
                                0.00      0.00      0.00
                                0.00      0.00      0.00

[...]

                                0.00      0.00      0.00

     Writing all to output data dir new_calculations/myprefix.save/

     General routines

     Parallel routines

     PAW routines

   This run was terminated on:  17:35:36  20May2023

   JOB DONE.