     Program PWSCF v.7.0 starts on 21May2023 at  0:10:43

     Reading input from espresso_18673.pwi
Warning: card &CELL ignored
Warning: card / ignored

     Current dimensions of program PWSCF are:
     Max number of different atomic species (ntypx) = 10
     Max number of k-points (npk) =  40000
     Max angular momentum in pseudopotentials (lmaxx) =  4

     gamma-point specific algorithms are used
     Message from routine setup:
     using ibrav=0 with symmetry is DISCOURAGED, use correct ibrav instead

     Subspace diagonalization in iterative solution of the eigenvalue problem:
     a serial algorithm will be used

     Using Slab Decomposition

     bravais-lattice index     =            0
     lattice parameter (alat)  =      13.2789  a.u.
     unit-cell volume          =    1655.6521 (a.u.)^3
     number of atoms/cell      =           10
     number of atomic types    =            3
     number of electrons       =        81.00
     number of Kohn-Sham states=           49
     kinetic-energy cutoff     =      30.0000  Ry
     charge density cutoff     =     240.0000  Ry
     scf convergence threshold =      1.0E-06
     mixing beta               =       0.7000
     number of iterations used =            8  plain     mixing
     Exchange-correlation=  SLA  PW   PBX  PBC
                           (   1   4   3   4   0   0   0)

     celldm(1)=  13.278877  celldm(2)=   0.000000  celldm(3)=   0.000000
     celldm(4)=   0.000000  celldm(5)=   0.000000  celldm(6)=   0.000000

     crystal axes: (cart. coord. in units of alat)
               a(1) = (   1.000000   0.000000   0.000000 )
               a(2) = (   0.500000   0.866025   0.000000 )
               a(3) = (   0.500000   0.288675   0.816497 )

     reciprocal axes: (cart. coord. in units 2 pi/alat)
               b(1) = (  1.000000 -0.577350 -0.408248 )
               b(2) = (  0.000000  1.154701 -0.408248 )
               b(3) = (  0.000000  0.000000  1.224745 )

     PseudoPot. # 1 for Rb read from file:
     /home/pragov/projects/rrg-bengioy-ad/pragov/crystal_structure_design/SSSP/Rb_ONCV_PBE-1.0.oncvpsp.upf
     MD5 check sum: 55a5172d6bfbce6759a58e35d43f6aa9
     Pseudo is Norm-conserving, Zval =  9.0
     Generated using ONCVPSP code by D. R. Hamann
     Using radial grid of 2308 points,  6 beta functions with:
                l(1) =   0
                l(2) =   0
                l(3) =   1
                l(4) =   1
                l(5) =   2
                l(6) =   2

     PseudoPot. # 2 for Ce read from file:
     /home/pragov/projects/rrg-bengioy-ad/pragov/crystal_structure_design/SSSP/Ce.GGA-PBE-paw-v1.0.UPF
     MD5 check sum: f2b950f613061344c13339c8d844425d
     Pseudo is Projector augmented-wave + core cor, Zval = 12.0
     Generated using ATOMPAW code
     Shape of augmentation charge: BESSEL
     Using radial grid of 1102 points,  8 beta functions with:
                l(1) =   0
                l(2) =   0
                l(3) =   1
                l(4) =   1
                l(5) =   2
                l(6) =   2
                l(7) =   3
                l(8) =   3
     Q(r) pseudized with 0 coefficients

     PseudoPot. # 3 for F  read from file:
     /home/pragov/projects/rrg-bengioy-ad/pragov/crystal_structure_design/SSSP/f_pbe_v1.4.uspp.F.UPF
     MD5 check sum: 4c38b6a325caf53ec0e86aed9459de46
     Pseudo is Ultrasoft, Zval =  7.0
     Generated by new atomic code, or converted to UPF format
     Using radial grid of  799 points,  4 beta functions with:
                l(1) =   0
                l(2) =   0
                l(3) =   1
                l(4) =   1
     Q(r) pseudized with  8 coefficients,  rinner =    0.950   0.950   0.950

     atomic species   valence    mass     pseudopotential
        Rb             9.00    85.46780     Rb( 1.00)
        Ce            12.00   140.11600     Ce( 1.00)
        F              7.00    18.99840     F ( 1.00)

     12 Sym. Ops., with inversion, found

                                    s                        frac. trans.

      isym =  1     identity

 cryst.   s( 1) = (     1          0          0      )
                  (     0          1          0      )
                  (     0          0          1      )

 cart.    s( 1) = (  1.0000000  0.0000000  0.0000000 )
                  (  0.0000000  1.0000000  0.0000000 )
                  (  0.0000000  0.0000000  1.0000000 )

      isym =  2     180 deg rotation - cart. axis [1,0,0]

[...]

      isym =  3     120 deg rotation - cryst. axis [0,0,1]

[...]

      isym =  6     180 deg rotation - cryst. axis [1,1,0]

[...]

      isym =  7     inversion

[...]

      isym =  8     inv. 180 deg rotation - cart. axis [1,0,0]

[...]

      isym =  9     inv. 120 deg rotation - cryst. axis [0,0,1]

 cryst.   s( 9) = (     1         -1          0      )
                  (     1          0          0      )
                  (     1          0         -1      )

 cart.    s( 9) = (  0.5000000  0.8660254  0.0000000 )
                  ( -0.8660254  0.5000000  0.0000000 )
                  (  0.0000000  0.0000000 -1.0000000 )

[...]

 cryst.   s(10) = (     0          1          0      )
                  (    -1          1          0      )
                  (     0          1         -1      )

 cart.    s(10) = (  0.5000000 -0.8660254 -0.0000000 )
                  (  0.8660254  0.5000000  0.0000000 )
                  (  0.0000000  0.0000000 -1.0000000 )

[...]

      isym = 12     inv. 180 deg rotation - cryst. axis [1,1,0]

 cryst.   s(12) = (     1         -1          0      )
                  (     0         -1          0      )
                  (     0         -1          1      )

 cart.    s(12) = (  0.5000000 -0.8660254 -0.0000000 )
                  ( -0.8660254 -0.5000000 -0.0000000 )
                  (  0.0000000  0.0000000  1.0000000 )

   Cartesian axes

     site n.     atom                  positions (alat units)
         1           Rb  tau(   1) = (   1.0000000   0.5773503   0.4082483  )
         2           Rb  tau(   2) = (   1.5000000   0.8660254   0.6123724  )
         3           Rb  tau(   3) = (   0.5000000   0.2886751   0.2041241  )
         4           Ce  tau(   4) = (   0.0000000   0.0000000   0.0000000  )
         5           F   tau(   5) = (   1.2696700   0.7330443   0.1880637  )
         6           F   tau(   6) = (   0.7303300   0.7330443   0.1880637  )
         7           F   tau(   7) = (   1.0000000   0.2659622   0.1880637  )
         8           F   tau(   8) = (   0.7303300   0.4216562   0.6284329  )
         9           F   tau(   9) = (   1.2696700   0.4216562   0.6284329  )
        10           F   tau(  10) = (   1.0000000   0.8887384   0.6284329  )

   Crystallographic axes

     site n.     atom                  positions (cryst. coord.)
         1           Rb  tau(   1) = (  0.5000000  0.5000000  0.5000000  )
         2           Rb  tau(   2) = (  0.7500000  0.7500000  0.7500000  )
         3           Rb  tau(   3) = (  0.2500000  0.2500000  0.2500000  )
         4           Ce  tau(   4) = (  0.0000000  0.0000000  0.0000000  )
         5           F   tau(   5) = (  0.7696700  0.7696700  0.2303300  )
         6           F   tau(   6) = (  0.2303300  0.7696700  0.2303300  )
         7           F   tau(   7) = (  0.7696700  0.2303300  0.2303300  )
         8           F   tau(   8) = (  0.2303300  0.2303300  0.7696700  )
         9           F   tau(   9) = (  0.7696700  0.2303300  0.7696700  )
        10           F   tau(  10) = (  0.2303300  0.7696700  0.7696700  )

     number of k points=     1  Methfessel-Paxton smearing, width (Ry)=  0.0010
                       cart. coord. in units 2pi/alat
        k(    1) = (   0.0000000   0.0000000   0.0000000), wk =   2.0000000

                       cryst. coord.
        k(    1) = (   0.0000000   0.0000000   0.0000000), wk =   2.0000000

     Initial potential from superposition of free atoms

     starting charge      80.9187, renormalised to      81.0000
     Starting wfcs are   71 randomized atomic wfcs
     Checking if some PAW data can be deallocated...

     Self-consistent Calculation

     iteration #  1     ecut=    30.00 Ry     beta= 0.70
     Davidson diagonalization with overlap

     ethr =  1.00E-02,  avg # of iterations =  2.0

     total energy              =    -921.04708824 Ry
     estimated scf accuracy    <       1.59704885 Ry

[...]

     total energy              =    -921.72257215 Ry
     estimated scf accuracy    <       0.00000706 Ry

     iteration # 37     ecut=    30.00 Ry     beta= 0.70
     Davidson diagonalization with overlap

     ethr =  2.93E-09,  avg # of iterations =  1.0

     End of self-consistent calculation

          k = 0.0000 0.0000 0.0000 (  2311 PWs)   bands (ev):

   -29.2347 -23.2029 -23.1974 -21.2333 -18.6314 -18.6314 -18.6314 -18.3746
   -18.3746 -18.1989 -11.6763 -11.6763 -11.6762  -7.2986  -7.2986  -7.2986
    -7.2503  -7.2503  -7.2503  -5.4281  -5.4281  -5.4281  -0.7383  -0.7383
    -0.3649  -0.3649  -0.3649  -0.2896   0.2377   0.2377   0.2377   0.2761
     0.2761   0.2761   0.5968   0.5968   0.5968   0.7941   0.7941   0.7941
     6.1844   6.1910   6.3320   6.3323   6.3323   6.3954   6.3955   6.3955
     8.8849

     occupation numbers
     1.0000   1.0000   1.0000   1.0000   1.0000   1.0000   1.0000   1.0000
     1.0000   1.0000   1.0000   1.0000   1.0000   1.0000   1.0000   1.0000
     1.0000   1.0000   1.0000   1.0000   1.0000   1.0000   1.0000   1.0000
     1.0000   1.0000   1.0000   1.0000   1.0000   1.0000   1.0000   1.0000
     1.0000   1.0000   1.0000   1.0000   1.0000   1.0000   1.0000   1.0000
     0.4143   0.0857  -0.0000  -0.0000  -0.0000  -0.0000  -0.0000  -0.0000
    -0.0000

     the Fermi energy is     6.1830 ev

!    total energy              =    -921.72257215 Ry
     estimated scf accuracy    <          9.5E-09 Ry
     smearing contrib. (-TS)   =      -0.00033529 Ry
     internal energy E=F+TS    =    -921.72223687 Ry

     The total energy is F=E-TS. E is the sum of the following terms:
     one-electron contribution =    -280.45722640 Ry
     hartree contribution      =     178.37802309 Ry
     xc contribution           =     -89.30612440 Ry
     ewald contribution        =    -321.95801164 Ry
     one-center paw contrib.   =    -408.37889753 Ry
      -> PAW hartree energy AE =      44.11487180 Ry
      -> PAW hartree energy PS =     -43.83826248 Ry
      -> PAW xc energy AE      =    -417.24613004 Ry
      -> PAW xc energy PS      =       8.59062319 Ry
      -> total E_H with PAW    =     178.65463241 Ry
      -> total E_XC with PAW   =    -497.96163124 Ry

     convergence has been achieved in  37 iterations

     Forces acting on atoms (cartesian axes, Ry/au):

     atom    1 type  1   force =     0.00000000    0.00000000   -0.00000000
     atom    2 type  1   force =     0.00000000    0.00000000   -0.00000011
     atom    3 type  1   force =     0.00000000    0.00000000    0.00000011
     atom    4 type  2   force =     0.00000000    0.00000000    0.00000000
     atom    5 type  3   force =     0.01046181    0.00604013   -0.00854262
     atom    6 type  3   force =    -0.01046181    0.00604013   -0.00854262
     atom    7 type  3   force =    -0.00000000   -0.01208025   -0.00854262
     atom    8 type  3   force =    -0.01046181   -0.00604013    0.00854262
     atom    9 type  3   force =     0.01046181   -0.00604013    0.00854262
     atom   10 type  3   force =     0.00000000    0.01208025    0.00854262
     The non-local contrib.  to forces
     atom    1 type  1   force =     0.00000000    0.00000000   -0.00000000
     atom    2 type  1   force =    -0.00000000   -0.00000000    0.00000010
     atom    3 type  1   force =     0.00000000   -0.00000000   -0.00000010
     atom    4 type  2   force =     0.00000000    0.00000000    0.00000000
     atom    5 type  3   force =     0.31150097    0.17984517   -0.25434175
     atom    6 type  3   force =    -0.31150097    0.17984517   -0.25434175
     atom    7 type  3   force =     0.00000000   -0.35969034   -0.25434175
     atom    8 type  3   force =    -0.31150097   -0.17984517    0.25434175
     atom    9 type  3   force =     0.31150097   -0.17984517    0.25434175
     atom   10 type  3   force =    -0.00000000    0.35969034    0.25434175
     The ionic contribution  to forces
     atom    1 type  1   force =     0.00000000    0.00000000    0.00000000
     atom    2 type  1   force =    -0.00000000   -0.00000000   -0.00000000
     atom    3 type  1   force =     0.00000000    0.00000000    0.00000000
     atom    4 type  2   force =    -0.00000000   -0.00000000    0.00000000
     atom    5 type  3   force =    -4.07640673   -2.35351452    3.32837216
     atom    6 type  3   force =     4.07640673   -2.35351452    3.32837216
     atom    7 type  3   force =     0.00000000    4.70702905    3.32837216
     atom    8 type  3   force =     4.07640673    2.35351452   -3.32837216
     atom    9 type  3   force =    -4.07640673    2.35351452   -3.32837216
     atom   10 type  3   force =     0.00000000   -4.70702905   -3.32837216
     The local contribution  to forces
     atom    1 type  1   force =    -0.00000012   -0.00000033    0.00000006
     atom    2 type  1   force =    -0.00000004   -0.00000006    0.00000008
     atom    3 type  1   force =    -0.00000029    0.00000024   -0.00000006
     atom    4 type  2   force =     0.00000904   -0.00000232   -0.00000039
     atom    5 type  3   force =     3.77542543    2.17974247   -3.08262041
     atom    6 type  3   force =    -3.77542591    2.17974319   -3.08262133
     atom    7 type  3   force =     0.00000026   -4.35948607   -3.08262092
     atom    8 type  3   force =    -3.77542493   -2.17974290    3.08262049
     atom    9 type  3   force =     3.77542513   -2.17974246    3.08262023
     atom   10 type  3   force =     0.00000024    4.35948597    3.08262117
     The core correction contribution to forces
     atom    1 type  1   force =     0.00000000    0.00000000    0.00000000
     atom    2 type  1   force =     0.00000000    0.00000000    0.00000000
     atom    3 type  1   force =     0.00000000    0.00000000    0.00000000
     atom    4 type  2   force =     0.00000001   -0.00000000    0.00000000
     atom    5 type  3   force =     0.00000000    0.00000000    0.00000000
     atom    6 type  3   force =     0.00000000    0.00000000    0.00000000
     atom    7 type  3   force =     0.00000000    0.00000000    0.00000000
     atom    8 type  3   force =     0.00000000    0.00000000    0.00000000
     atom    9 type  3   force =     0.00000000    0.00000000    0.00000000
     atom   10 type  3   force =     0.00000000    0.00000000    0.00000000
     The Hubbard contrib.    to forces
     atom    1 type  1   force =     0.00000000    0.00000000    0.00000000
     atom    2 type  1   force =     0.00000000    0.00000000    0.00000000
     atom    3 type  1   force =     0.00000000    0.00000000    0.00000000
     atom    4 type  2   force =     0.00000000    0.00000000    0.00000000
     atom    5 type  3   force =     0.00000000    0.00000000    0.00000000
     atom    6 type  3   force =     0.00000000    0.00000000    0.00000000
     atom    7 type  3   force =     0.00000000    0.00000000    0.00000000
     atom    8 type  3   force =     0.00000000    0.00000000    0.00000000
     atom    9 type  3   force =     0.00000000    0.00000000    0.00000000
     atom   10 type  3   force =     0.00000000    0.00000000    0.00000000
     The SCF correction term to forces
     atom    1 type  1   force =     0.00000008    0.00000043    0.00000001
     atom    2 type  1   force =    -0.00000006    0.00000010   -0.00000028
     atom    3 type  1   force =     0.00000031   -0.00000028    0.00000027
     atom    4 type  2   force =    -0.00000324    0.00000062    0.00000028
     atom    5 type  3   force =    -0.00005797   -0.00003310    0.00004744
     atom    6 type  3   force =     0.00005883   -0.00003363    0.00004864
     atom    7 type  3   force =    -0.00000006    0.00006619    0.00004732
     atom    8 type  3   force =     0.00005700    0.00003302   -0.00004714
     atom    9 type  3   force =    -0.00005786    0.00003323   -0.00004735
     atom   10 type  3   force =    -0.00000013   -0.00006750   -0.00004850

     Total force =     0.036242     Total SCF correction =     0.000201

     Computing stress (Cartesian axis) and pressure

          total   stress  (Ry/bohr**3)                   (kbar)     P=      -46.79
  -0.00031805  -0.00000000  -0.00000000          -46.79       -0.00       -0.00
   0.00000000  -0.00031805  -0.00000000            0.00      -46.79       -0.00
  -0.00000000  -0.00000000  -0.00031806           -0.00       -0.00      -46.79

     kinetic stress (kbar)  10140.09     -0.00     -0.00
                               -0.00  10140.09      0.00
                                0.00      0.00  10140.10

     local   stress (kbar)  -5124.88     -0.00     -0.00
                               -0.00  -5124.88      0.00
                               -0.00      0.00  -5124.89

     nonloc. stress (kbar)   1692.76      0.00      0.00
                                0.00   1692.76      0.00
                                0.00      0.00   1692.76

     hartree stress (kbar)   5282.98      0.00     -0.00
                                0.00   5282.98      0.00
                               -0.00      0.00   5282.98

     exc-cor stress (kbar)  -2494.22     -0.00      0.00
                               -0.00  -2494.22      0.00
                                0.00      0.00  -2494.22

     corecor stress (kbar)     -8.16     -0.00     -0.00
                               -0.00     -8.16      0.00
                               -0.00      0.00     -8.16

     ewald   stress (kbar)  -9535.35     -0.00      0.00
                               -0.00  -9535.35      0.00
                                0.00      0.00  -9535.35

     hubbard stress (kbar)      0.00      0.00      0.00
                                0.00      0.00      0.00
                                0.00      0.00      0.00

     DFT-D   stress (kbar)      0.00      0.00      0.00
                                0.00      0.00      0.00
                                0.00      0.00      0.00

     XDM     stress (kbar)      0.00      0.00      0.00
                                0.00      0.00      0.00
                                0.00      0.00      0.00

     dft-nl  stress (kbar)      0.00      0.00      0.00
                                0.00      0.00      0.00
                                0.00      0.00      0.00

     TS-vdW  stress (kbar)      0.00      0.00      0.00
                                0.00      0.00      0.00
                                0.00      0.00      0.00

[...]

                                0.00      0.00      0.00

     Writing all to output data dir new_calculations/myprefix.save/

     General routines

     Parallel routines

     PAW routines

   This run was terminated on:   0:11:48  21May2023

   JOB DONE.