     Program PWSCF v.7.0 starts on 21May2023 at  4:49: 2

     Reading input from espresso_19745.pwi
Warning: card &CELL ignored
Warning: card / ignored

     Current dimensions of program PWSCF are:
     Max number of different atomic species (ntypx) = 10
     Max number of k-points (npk) =  40000
     Max angular momentum in pseudopotentials (lmaxx) =  4
     file Pb.pbe-dn-kjpaw_psl.0.2.2.UPF: wavefunction(s)  6S renormalized

     gamma-point specific algorithms are used
     Message from routine setup:
     using ibrav=0 with symmetry is DISCOURAGED, use correct ibrav instead

     Subspace diagonalization in iterative solution of the eigenvalue problem:
     a serial algorithm will be used

     Using Slab Decomposition

     bravais-lattice index     =            0
     lattice parameter (alat)  =      22.1027  a.u.
     unit-cell volume          =    3856.6846 (a.u.)^3
     number of atoms/cell      =           20
     number of atomic types    =            3
     number of electrons       =       292.00
     number of Kohn-Sham states=          175
     kinetic-energy cutoff     =      30.0000  Ry
     charge density cutoff     =     240.0000  Ry
     scf convergence threshold =      1.0E-06
     mixing beta               =       0.7000
     number of iterations used =            8  plain     mixing
     Exchange-correlation= SLA  PW   PBX  PBC
                           (   1   4   3   4   0   0   0)

     celldm(1)=  22.102664  celldm(2)=   0.000000  celldm(3)=   0.000000
     celldm(4)=   0.000000  celldm(5)=   0.000000  celldm(6)=   0.000000

     crystal axes: (cart. coord. in units of alat)
               a(1) = (   1.000000   0.000000   0.000000 )
               a(2) = (   0.000000   1.000000   0.000000 )
               a(3) = (   0.000000   0.000000   0.357174 )

     reciprocal axes: (cart. coord. in units 2 pi/alat)
               b(1) = (  1.000000  0.000000  0.000000 )
               b(2) = (  0.000000  1.000000  0.000000 )
               b(3) = (  0.000000  0.000000  2.799753 )

     PseudoPot. # 1 for Bi read from file:
     /home/pragov/projects/rrg-bengioy-ad/pragov/crystal_structure_design/SSSP/Bi_pbe_v1.uspp.F.UPF
     MD5 check sum: cceb9f28ec65b6d7ff33140f5b0b1758
     Pseudo is Ultrasoft + core correction, Zval = 15.0
     Generated by new atomic code, or converted to UPF format
     Using radial grid of  899 points,  6 beta functions with:
                l(1) =   0
                l(2) =   0
                l(3) =   1
                l(4) =   1
                l(5) =   2
                l(6) =   2
     Q(r) pseudized with  6 coefficients,  rinner =    1.000   1.000   1.000
                                                       1.000   1.000

     PseudoPot. # 2 for Pt read from file:
     /home/pragov/projects/rrg-bengioy-ad/pragov/crystal_structure_design/SSSP/pt_pbe_v1.4.uspp.F.UPF
     MD5 check sum: f09d6de1a584b5a045c4fc126da2d0c4
     Pseudo is Ultrasoft + core correction, Zval = 16.0
     Generated by new atomic code, or converted to UPF format
     Using radial grid of  985 points,  6 beta functions with:
                l(1) =   0
                l(2) =   0
                l(3) =   1
                l(4) =   1
                l(5) =   2
                l(6) =   2
     Q(r) pseudized with  8 coefficients,  rinner =    1.300   1.300   1.300
                                                       1.300   1.300

     PseudoPot. # 3 for Pb read from file:
     /home/pragov/projects/rrg-bengioy-ad/pragov/crystal_structure_design/SSSP/Pb.pbe-dn-kjpaw_psl.0.2.2.UPF
     MD5 check sum: 9d431e6316058b74ade52399a6cf67da
     Pseudo is Projector augmented-wave + core cor, Zval = 14.0
     Generated using "atomic" code by A. Dal Corso  v.5.0.99 svn rev. 10869
     Shape of augmentation charge: PSQ
     Using radial grid of 1281 points,  6 beta functions with:
                l(1) =   0
                l(2) =   0
                l(3) =   1
                l(4) =   1
                l(5) =   2
                l(6) =   2
     Q(r) pseudized with 0 coefficients

     atomic species   valence    mass     pseudopotential
        Bi            15.00   208.98040     Bi( 1.00)
        Pt            16.00   195.08400     Pt( 1.00)
        Pb            14.00   207.20000     Pb( 1.00)

     16 Sym. Ops., with inversion, found ( 8 have fractional translation)

                                    s                        frac. trans.

      isym =  1     identity

 cryst.   s( 1) = (     1          0          0      )
                  (     0          1          0      )
                  (     0          0          1      )

 cart.    s( 1) = (  1.0000000  0.0000000  0.0000000 )
                  (  0.0000000  1.0000000  0.0000000 )
                  (  0.0000000  0.0000000  1.0000000 )

      isym =  2     180 deg rotation - cart. axis [0,0,1]

[...]

 cryst.   s( 3) = (    -1          0          0      )    f =(  0.5000000 )
                  (     0          1          0      )       ( -0.5000000 )
                  (     0          0         -1      )       (  0.5000000 )

 cart.    s( 3) = ( -1.0000000  0.0000000  0.0000000 )    f =(  0.5000000 )
                  (  0.0000000  1.0000000  0.0000000 )       ( -0.5000000 )
                  (  0.0000000  0.0000000 -1.0000000 )       (  0.1785872 )

[...]

      isym =  8      90 deg rotation - cart. axis [0,0,1]

 cryst.   s( 8) = (     0          1          0      )    f =(  0.5000000 )
                  (    -1          0          0      )       ( -0.5000000 )
                  (     0          0          1      )       (  0.5000000 )

 cart.    s( 8) = (  0.0000000 -1.0000000  0.0000000 )    f =(  0.5000000 )
                  (  1.0000000  0.0000000  0.0000000 )       ( -0.5000000 )
                  (  0.0000000  0.0000000  1.0000000 )       (  0.1785872 )

      isym =  9     inversion

 cryst.   s( 9) = (    -1          0          0      )
                  (     0         -1          0      )
                  (     0          0         -1      )

 cart.    s( 9) = ( -1.0000000  0.0000000  0.0000000 )
                  (  0.0000000 -1.0000000  0.0000000 )
                  (  0.0000000  0.0000000 -1.0000000 )

      isym = 10     inv. 180 deg rotation - cart. axis [0,0,1]

 cryst.   s(10) = (     1          0          0      )
                  (     0          1          0      )
                  (     0          0         -1      )

 cart.    s(10) = (  1.0000000  0.0000000  0.0000000 )
                  (  0.0000000  1.0000000  0.0000000 )
                  (  0.0000000  0.0000000 -1.0000000 )

[...]

 cryst.   s(11) = (     1          0          0      )    f =( -0.5000000 )
                  (     0         -1          0      )       (  0.5000000 )
                  (     0          0          1      )       (  0.5000000 )

 cart.    s(11) = (  1.0000000  0.0000000  0.0000000 )    f =( -0.5000000 )
                  (  0.0000000 -1.0000000  0.0000000 )       (  0.5000000 )
                  (  0.0000000  0.0000000  1.0000000 )       (  0.1785872 )

[...]

 cryst.   s(14) = (     0          1          0      )
                  (     1          0          0      )
                  (     0          0          1      )

 cart.    s(14) = (  0.0000000  1.0000000  0.0000000 )
                  (  1.0000000  0.0000000  0.0000000 )
                  (  0.0000000  0.0000000  1.0000000 )

[...]

      isym = 16     inv.  90 deg rotation - cart. axis [0,0,1]

 cryst.   s(16) = (     0         -1          0      )    f =( -0.5000000 )
                  (     1          0          0      )       (  0.5000000 )
                  (     0          0         -1      )       (  0.5000000 )

 cart.    s(16) = (  0.0000000  1.0000000  0.0000000 )    f =( -0.5000000 )
                  ( -1.0000000  0.0000000  0.0000000 )       (  0.5000000 )
                  (  0.0000000  0.0000000 -1.0000000 )       (  0.1785872 )

   Cartesian axes

     site n.     atom                  positions (alat units)
         1           Bi  tau(   1) = (   0.2939340   0.2939340   0.1785872  )
         2           Bi  tau(   2) = (   0.2060660   0.7939340   0.0000000  )
         3           Bi  tau(   3) = (   0.7060660   0.7060660   0.1785872  )
         4           Bi  tau(   4) = (   0.7939340   0.2060660   0.0000000  )
         5           Pt  tau(   5) = (   0.0868440   0.9131560   0.1785872  )
         6           Pt  tau(   6) = (   0.5868440   0.5868440   0.0000000  )
         7           Pt  tau(   7) = (   0.9131560   0.0868440   0.1785872  )
         8           Pt  tau(   8) = (   0.4131560   0.4131560   0.0000000  )
         9           Pb  tau(   9) = (   0.0027280   0.6703320   0.1785872  )
        10           Pb  tau(  10) = (   0.4972720   0.1703320   0.0000000  )
        11           Pb  tau(  11) = (   0.5027280   0.8296680   0.0000000  )
        12           Pb  tau(  12) = (   0.8973670   0.8973670   0.0000000  )
        13           Pb  tau(  13) = (   0.1703320   0.4972720   0.0000000  )
        14           Pb  tau(  14) = (   0.3973670   0.6026330   0.1785872  )
        15           Pb  tau(  15) = (   0.1026330   0.1026330   0.0000000  )
        16           Pb  tau(  16) = (   0.9972720   0.3296680   0.1785872  )
        17           Pb  tau(  17) = (   0.6703320   0.0027280   0.1785872  )
        18           Pb  tau(  18) = (   0.8296680   0.5027280   0.0000000  )
        19           Pb  tau(  19) = (   0.3296680   0.9972720   0.1785872  )
        20           Pb  tau(  20) = (   0.6026330   0.3973670   0.1785872  )

   Crystallographic axes

     site n.     atom                  positions (cryst. coord.)
         1           Bi  tau(   1) = (  0.2939340  0.2939340  0.5000000  )
         2           Bi  tau(   2) = (  0.2060660  0.7939340  0.0000000  )
         3           Bi  tau(   3) = (  0.7060660  0.7060660  0.5000000  )
         4           Bi  tau(   4) = (  0.7939340  0.2060660  0.0000000  )
         5           Pt  tau(   5) = (  0.0868440  0.9131560  0.5000000  )
         6           Pt  tau(   6) = (  0.5868440  0.5868440  0.0000000  )
         7           Pt  tau(   7) = (  0.9131560  0.0868440  0.5000000  )
         8           Pt  tau(   8) = (  0.4131560  0.4131560  0.0000000  )
         9           Pb  tau(   9) = (  0.0027280  0.6703320  0.5000000  )
        10           Pb  tau(  10) = (  0.4972720  0.1703320  0.0000000  )
        11           Pb  tau(  11) = (  0.5027280  0.8296680  0.0000000  )
        12           Pb  tau(  12) = (  0.8973670  0.8973670  0.0000000  )
        13           Pb  tau(  13) = (  0.1703320  0.4972720  0.0000000  )
        14           Pb  tau(  14) = (  0.3973670  0.6026330  0.5000000  )
        15           Pb  tau(  15) = (  0.1026330  0.1026330  0.0000000  )
        16           Pb  tau(  16) = (  0.9972720  0.3296680  0.5000000  )
        17           Pb  tau(  17) = (  0.6703320  0.0027280  0.5000000  )
        18           Pb  tau(  18) = (  0.8296680  0.5027280  0.0000000  )
        19           Pb  tau(  19) = (  0.3296680  0.9972720  0.5000000  )
        20           Pb  tau(  20) = (  0.6026330  0.3973670  0.5000000  )

[...]
    12.5617  12.6132  12.6132  12.8649  12.8992  13.0442  13.0442  13.8250
    13.8974  13.9704  13.9704  14.1130  14.1130  14.5601  14.7464  14.7465
    15.3816  15.3816  15.3998  15.4259  15.4496  15.4874  15.5168  15.8348
    15.8960  15.8961  15.9283  15.9283  16.0291  16.4864  16.5748

     occupation numbers
     1.0000   1.0000   1.0000   1.0000   1.0000   1.0000   1.0000   1.0000
     1.0000   1.0000   1.0000   1.0000   1.0000   1.0000   1.0000   1.0000
     1.0000   1.0000   1.0000   1.0000   1.0000   1.0000   1.0000   1.0000
     1.0000   1.0000   1.0000   1.0000   1.0000   1.0000   1.0000   1.0000
     1.0000   1.0000   1.0000   1.0000   1.0000   1.0000   1.0000   1.0000
     1.0000   1.0000   1.0000   1.0000   1.0000   1.0000   1.0000   1.0000
     1.0000   1.0000   1.0000   1.0000   1.0000   1.0000   1.0000   1.0000
     1.0000   1.0000   1.0000   1.0000   1.0000   1.0000   1.0000   1.0000
     1.0000   1.0000   1.0000   1.0000   1.0000   1.0000   1.0000   1.0000
     1.0000   1.0000   1.0000   1.0000   1.0000   1.0000   1.0000   1.0000
     1.0000   1.0000   1.0000   1.0000   1.0000   1.0000   1.0000   1.0000
     1.0000   1.0000   1.0000   1.0000   1.0000   1.0000   1.0000   1.0000
     1.0000   1.0000   1.0000   1.0000   1.0000   1.0000   1.0000   1.0000
     1.0000   1.0000   1.0000   1.0000   1.0000   1.0000   1.0000   1.0000
     1.0000   1.0000   1.0000   1.0000   1.0000   1.0000   1.0000   1.0000
     1.0000   1.0000   1.0000   1.0000   1.0000   1.0000   1.0000   1.0000
     1.0000   1.0000   1.0000   1.0000   1.0000   1.0000   1.0000   1.0000
     1.0000   1.0000   1.0000   1.0000   1.0000   1.0000   1.0000   1.0000
     1.0000   0.5006   0.4994  -0.0000  -0.0000  -0.0000  -0.0000  -0.0000
    -0.0000  -0.0000  -0.0000  -0.0000  -0.0000  -0.0000  -0.0000  -0.0000
    -0.0000  -0.0000  -0.0000  -0.0000  -0.0000  -0.0000  -0.0000  -0.0000
    -0.0000  -0.0000  -0.0000  -0.0000  -0.0000  -0.0000  -0.0000

     the Fermi energy is    12.6132 ev

!    total energy              =  -12029.24598394 Ry
     estimated scf accuracy    <       0.00000027 Ry
     smearing contrib. (-TS)   =      -0.00056418 Ry
     internal energy E=F+TS    =  -12029.24541976 Ry

     The total energy is F=E-TS. E is the sum of the following terms:
     one-electron contribution =    -932.94953600 Ry
     hartree contribution      =     696.71338172 Ry
     xc contribution           =   -1019.22962630 Ry
     ewald contribution        =   -2031.99498846 Ry
     one-center paw contrib.   =   -8741.78465072 Ry
      -> PAW hartree energy AE =    1197.96786950 Ry
      -> PAW hartree energy PS =   -1195.52848445 Ry
      -> PAW xc energy AE      =   -9270.45576318 Ry
      -> PAW xc energy PS      =     526.23172741 Ry
      -> total E_H with PAW    =     699.15276677 Ry
      -> total E_XC with PAW   =   -9763.45366207 Ry

     convergence has been achieved in  30 iterations

     negative rho (up, down):  8.746E-01 0.000E+00

     Forces acting on atoms (cartesian axes, Ry/au):

     atom    1 type  1   force =     0.00595841    0.00595841   -0.00000000
     atom    2 type  1   force =    -0.00595841    0.00595841    0.00000000
     atom    3 type  1   force =    -0.00595841   -0.00595841    0.00000000
     atom    4 type  1   force =     0.00595841   -0.00595841    0.00000000
     atom    5 type  2   force =    -0.00011779    0.00011779   -0.00000000
     atom    6 type  2   force =    -0.00011779   -0.00011779    0.00000000
     atom    7 type  2   force =     0.00011779   -0.00011779    0.00000000
     atom    8 type  2   force =     0.00011779    0.00011779   -0.00000000
     atom    9 type  3   force =     0.01642596   -0.00839377    0.00000000
     atom   10 type  3   force =    -0.01642596   -0.00839377   -0.00000000
     atom   11 type  3   force =     0.01642596    0.00839377    0.00000000
     atom   12 type  3   force =    -0.00832449   -0.00832449    0.00000000
     atom   13 type  3   force =    -0.00839377   -0.01642596    0.00000000
     atom   14 type  3   force =    -0.00832449    0.00832449   -0.00000000
     atom   15 type  3   force =     0.00832449    0.00832449    0.00000000
     atom   16 type  3   force =    -0.01642596    0.00839377    0.00000000
     atom   17 type  3   force =    -0.00839377    0.01642596   -0.00000000
     atom   18 type  3   force =     0.00839377    0.01642596    0.00000000
     atom   19 type  3   force =     0.00839377   -0.01642596   -0.00000000
     atom   20 type  3   force =     0.00832449   -0.00832449    0.00000000
     The non-local contrib.  to forces
     atom    1 type  1   force =     0.26736304    0.26736304    0.00000000
     atom    2 type  1   force =    -0.26736304    0.26736304    0.00000000
     atom    3 type  1   force =    -0.26736304   -0.26736304   -0.00000000
     atom    4 type  1   force =     0.26736304   -0.26736304   -0.00000000
     atom    5 type  2   force =    -0.02397136    0.02397136    0.00000000
     atom    6 type  2   force =    -0.02397136   -0.02397136   -0.00000000
     atom    7 type  2   force =     0.02397136   -0.02397136   -0.00000000
     atom    8 type  2   force =     0.02397136    0.02397136    0.00000000
     atom    9 type  3   force =    -0.00185427    0.10391790    0.00000000
     atom   10 type  3   force =     0.00185427    0.10391790   -0.00000000
     atom   11 type  3   force =    -0.00185427   -0.10391790   -0.00000000
     atom   12 type  3   force =     0.16318468    0.16318468   -0.00000000
     atom   13 type  3   force =     0.10391790    0.00185427   -0.00000000
     atom   14 type  3   force =     0.16318468   -0.16318468   -0.00000000
     atom   15 type  3   force =    -0.16318468   -0.16318468    0.00000000
     atom   16 type  3   force =     0.00185427   -0.10391790    0.00000000
     atom   17 type  3   force =     0.10391790   -0.00185427    0.00000000
     atom   18 type  3   force =    -0.10391790   -0.00185427   -0.00000000
     atom   19 type  3   force =    -0.10391790    0.00185427    0.00000000
     atom   20 type  3   force =    -0.16318468    0.16318468    0.00000000
     The ionic contribution  to forces
     atom    1 type  1   force =   -10.38890201  -10.38890201    0.00000000
     atom    2 type  1   force =    10.38890201  -10.38890201   -0.00000000
     atom    3 type  1   force =    10.38890201   10.38890201    0.00000000
     atom    4 type  1   force =   -10.38890201   10.38890201   -0.00000000
     atom    5 type  2   force =     6.63356684   -6.63356684    0.00000000
     atom    6 type  2   force =     6.63356684    6.63356684    0.00000000
     atom    7 type  2   force =    -6.63356684    6.63356684    0.00000000
     atom    8 type  2   force =    -6.63356684   -6.63356684   -0.00000000
     atom    9 type  3   force =    -2.19945118  -11.59349513    0.00000000
     atom   10 type  3   force =     2.19945118  -11.59349513   -0.00000000
     atom   11 type  3   force =    -2.19945118   11.59349513   -0.00000000
     atom   12 type  3   force =   -13.46310061  -13.46310061    0.00000000
     atom   13 type  3   force =   -11.59349513    2.19945118   -0.00000000
     atom   14 type  3   force =   -13.46310061   13.46310061    0.00000000
     atom   15 type  3   force =    13.46310061   13.46310061    0.00000000
     atom   16 type  3   force =     2.19945118   11.59349513    0.00000000
     atom   17 type  3   force =   -11.59349513   -2.19945118    0.00000000
     atom   18 type  3   force =    11.59349513   -2.19945118    0.00000000
     atom   19 type  3   force =    11.59349513    2.19945118    0.00000000
     atom   20 type  3   force =    13.46310061  -13.46310061    0.00000000
     The local contribution  to forces
     atom    1 type  1   force =    10.13922581   10.13891125   -0.00000282
     atom    2 type  1   force =   -10.13876789   10.13914434    0.00000180
     atom    3 type  1   force =   -10.13935306  -10.13864492    0.00000006
     atom    4 type  1   force =    10.13876804  -10.13924583   -0.00000212
     atom    5 type  2   force =    -6.61113557    6.61062265   -0.00000180
     atom    6 type  2   force =    -6.61003290   -6.61010189    0.00000045
     atom    7 type  2   force =     6.60947442   -6.61012446   -0.00000004
     atom    8 type  2   force =     6.61137196    6.61045114    0.00000457
     atom    9 type  3   force =     2.21646886   11.48459368    0.00000388
     atom   10 type  3   force =    -2.21590502   11.48417960   -0.00000161
     atom   11 type  3   force =     2.21764036  -11.48438437    0.00000108
     atom   12 type  3   force =    13.29719984   13.29825519   -0.00000064
     atom   13 type  3   force =    11.48417572   -2.21705865    0.00000103
     atom   14 type  3   force =    13.29851773  -13.29734924   -0.00000035
     atom   15 type  3   force =   -13.29872319  -13.29778901    0.00000040
     atom   16 type  3   force =    -2.21794390  -11.48490805   -0.00000043
     atom   17 type  3   force =    11.48458276    2.21727548    0.00000095
     atom   18 type  3   force =   -11.48488850    2.21670263   -0.00000022
     atom   19 type  3   force =   -11.48372210   -2.21735385   -0.00000363
     atom   20 type  3   force =   -13.29720431   13.29750204   -0.00000254
     The core correction contribution to forces
     atom    1 type  1   force =    -0.01153599   -0.01153265   -0.00000034
     atom    2 type  1   force =     0.01153875   -0.01153387    0.00000002
     atom    3 type  1   force =     0.01153254    0.01153877   -0.00000010
     atom    4 type  1   force =    -0.01153687    0.01153770    0.00000029
     atom    5 type  2   force =     0.00081194   -0.00081835   -0.00000008
     atom    6 type  2   force =     0.00080917    0.00081575    0.00000027
     atom    7 type  2   force =    -0.00081741    0.00082317   -0.00000012
     atom    8 type  2   force =    -0.00080515   -0.00081171    0.00000002
     atom    9 type  3   force =     0.00069829   -0.00340959    0.00000010
     atom   10 type  3   force =    -0.00069670   -0.00340881   -0.00000006
     atom   11 type  3   force =     0.00070083    0.00340788    0.00000005
     atom   12 type  3   force =    -0.00628004   -0.00627997    0.00000002
     atom   13 type  3   force =    -0.00340973   -0.00070167    0.00000001
     atom   14 type  3   force =    -0.00627820    0.00628204    0.00000003
     atom   15 type  3   force =     0.00627695    0.00628115    0.00000003
     atom   16 type  3   force =    -0.00070198    0.00340856    0.00000002
     atom   17 type  3   force =    -0.00341053    0.00070189   -0.00000006
     atom   18 type  3   force =     0.00340815    0.00069838    0.00000006
     atom   19 type  3   force =     0.00341181   -0.00070295   -0.00000006
     atom   20 type  3   force =     0.00628180   -0.00628200   -0.00000001
     The Hubbard contrib.    to forces
     atom    1 type  1   force =     0.00000000    0.00000000    0.00000000
     atom    2 type  1   force =     0.00000000    0.00000000    0.00000000
     atom    3 type  1   force =     0.00000000    0.00000000    0.00000000
     atom    4 type  1   force =     0.00000000    0.00000000    0.00000000
     atom    5 type  2   force =     0.00000000    0.00000000    0.00000000
     atom    6 type  2   force =     0.00000000    0.00000000    0.00000000
     atom    7 type  2   force =     0.00000000    0.00000000    0.00000000
     atom    8 type  2   force =     0.00000000    0.00000000    0.00000000
     atom    9 type  3   force =     0.00000000    0.00000000    0.00000000
     atom   10 type  3   force =     0.00000000    0.00000000    0.00000000
     atom   11 type  3   force =     0.00000000    0.00000000    0.00000000
     atom   12 type  3   force =     0.00000000    0.00000000    0.00000000
     atom   13 type  3   force =     0.00000000    0.00000000    0.00000000
     atom   14 type  3   force =     0.00000000    0.00000000    0.00000000
     atom   15 type  3   force =     0.00000000    0.00000000    0.00000000
     atom   16 type  3   force =     0.00000000    0.00000000    0.00000000
     atom   17 type  3   force =     0.00000000    0.00000000    0.00000000
     atom   18 type  3   force =     0.00000000    0.00000000    0.00000000
     atom   19 type  3   force =     0.00000000    0.00000000    0.00000000
     atom   20 type  3   force =     0.00000000    0.00000000    0.00000000
     The SCF correction term to forces
     atom    1 type  1   force =    -0.00018909    0.00013516    0.00000279
     atom    2 type  1   force =    -0.00024886   -0.00008878    0.00000008
     atom    3 type  1   force =     0.00029533   -0.00034735    0.00000006
     atom    4 type  1   force =     0.00025755    0.00021073    0.00000129
     atom    5 type  2   force =     0.00059949   -0.00009099    0.00000157
     atom    6 type  2   force =    -0.00047409   -0.00043208   -0.00000014
     atom    7 type  2   force =     0.00105895   -0.00040982   -0.00000040
     atom    8 type  2   force =    -0.00084596    0.00006530   -0.00000381
     atom    9 type  3   force =     0.00058390   -0.00000116   -0.00000316
     atom   10 type  3   force =    -0.00112543    0.00041858    0.00000016
     atom   11 type  3   force =    -0.00062964   -0.00020725   -0.00000188
     atom   12 type  3   force =     0.00070104   -0.00038655    0.00000085
     atom   13 type  3   force =     0.00040941    0.00003157    0.00000062
     atom   14 type  3   force =    -0.00067134   -0.00052031   -0.00000062
     atom   15 type  3   force =     0.00085134   -0.00009218   -0.00000022
     atom   16 type  3   force =     0.00092176    0.00031864   -0.00000047
     atom   17 type  3   force =     0.00001334   -0.00023548   -0.00000117
     atom   18 type  3   force =     0.00030981    0.00030985    0.00000213
     atom   19 type  3   force =    -0.00088900    0.00030079    0.00000283
     atom   20 type  3   force =    -0.00066760    0.00036126    0.00000279

     Total force =     0.059671     Total SCF correction =     0.003221

     Computing stress (Cartesian axis) and pressure

     negative rho (up, down):  8.746E-01 0.000E+00
          total   stress  (Ry/bohr**3)                   (kbar)     P=       47.63
   0.00049407   0.00000000   0.00000000           72.68        0.00        0.00
   0.00000000   0.00049407   0.00000000            0.00       72.68        0.00
   0.00000000   0.00000000  -0.00001672            0.00        0.00       -2.46

     kinetic stress (kbar)  16975.38      0.00      0.00
                                0.00  16975.38      0.00
                                0.00      0.00  16754.59

     local   stress (kbar)   4542.90      0.11      0.00
                                0.11   4542.84     -0.00
                                0.00     -0.00  -2034.54

     nonloc. stress (kbar)   4629.91      0.00      0.00
                                0.00   4629.91      0.00
                                0.00      0.00   4491.53

     hartree stress (kbar)   7788.63     -0.10     -0.00
                               -0.10   7788.67      0.00
                               -0.00      0.00  10997.36

     exc-cor stress (kbar)  19473.31     -0.00     -0.00
                               -0.00  19473.31      0.00
                               -0.00      0.00  19466.62

     corecor stress (kbar) -26284.07      0.00      0.00
                                0.00 -26284.07     -0.00
                                0.00     -0.00 -26278.58

     ewald   stress (kbar) -27053.36     -0.00      0.00
                               -0.00 -27053.36     -0.00
                                0.00     -0.00 -23399.43

     hubbard stress (kbar)      0.00      0.00      0.00
                                0.00      0.00      0.00
                                0.00      0.00      0.00

     DFT-D   stress (kbar)      0.00      0.00      0.00
                                0.00      0.00      0.00
                                0.00      0.00      0.00

     XDM     stress (kbar)      0.00      0.00      0.00
                                0.00      0.00      0.00
                                0.00      0.00      0.00

     dft-nl  stress (kbar)      0.00      0.00      0.00
                                0.00      0.00      0.00
                                0.00      0.00      0.00

     TS-vdW  stress (kbar)      0.00      0.00      0.00
                                0.00      0.00      0.00
                                0.00      0.00      0.00

[...]

                                0.00      0.00      0.00

     Writing all to output data dir new_calculations/myprefix.save/

     General routines

     Parallel routines

     PAW routines

   This run was terminated on:   4:56: 3  21May2023

   JOB DONE.