     Program PWSCF v.7.0 starts on 20May2023 at  5:36: 8

     Reading input from espresso_18074.pwi
Warning: card &CELL ignored
Warning: card / ignored

     Current dimensions of program PWSCF are:
     Max number of different atomic species (ntypx) = 10
     Max number of k-points (npk) =  40000
     Max angular momentum in pseudopotentials (lmaxx) =  4

     gamma-point specific algorithms are used
     Message from routine setup:
     using ibrav=0 with symmetry is DISCOURAGED, use correct ibrav instead

     Subspace diagonalization in iterative solution of the eigenvalue problem:
     a serial algorithm will be used

     Using Slab Decomposition

     bravais-lattice index     =            0
     lattice parameter (alat)  =      11.0399  a.u.
     unit-cell volume          =     600.7217 (a.u.)^3
     number of atoms/cell      =            6
     number of atomic types    =            2
     number of electrons       =        48.00
     number of Kohn-Sham states=           29
     kinetic-energy cutoff     =      30.0000  Ry
     charge density cutoff     =     240.0000  Ry
     scf convergence threshold =      1.0E-06
     mixing beta               =       0.7000
     number of iterations used =            8  plain     mixing
     Exchange-correlation= PBE
                           (   1   4   3   4   0   0   0)

     celldm(1)=  11.039876  celldm(2)=   0.000000  celldm(3)=   0.000000
     celldm(4)=   0.000000  celldm(5)=   0.000000  celldm(6)=   0.000000

     crystal axes: (cart. coord. in units of alat)
               a(1) = (   1.000000   0.000000   0.000000 )
               a(2) = (  -0.853839   0.520536   0.000000 )
               a(3) = (   0.000000   0.000000   0.857688 )

     reciprocal axes: (cart. coord. in units 2 pi/alat)
               b(1) = (  1.000000  1.640307  0.000000 )
               b(2) = (  0.000000  1.921095  0.000000 )
               b(3) = (  0.000000  0.000000  1.165925 )

     PseudoPot. # 1 for Mo read from file:
     /home/pragov/projects/rrg-bengioy-ad/pragov/crystal_structure_design/SSSP/Mo_ONCV_PBE-1.0.oncvpsp.upf
     MD5 check sum: 1b5d28e075c9ccadda658a603575cd1f
     Pseudo is Norm-conserving, Zval = 14.0
     Generated using ONCVPSP code by D. R. Hamann
     Using radial grid of 1526 points,  6 beta functions with:
                l(1) =   0
                l(2) =   0
                l(3) =   1
                l(4) =   1
                l(5) =   2
                l(6) =   2

     PseudoPot. # 2 for P  read from file:
     /home/pragov/projects/rrg-bengioy-ad/pragov/crystal_structure_design/SSSP/P.pbe-n-rrkjus_psl.1.0.0.UPF
     MD5 check sum: 8b930f418f0a4573dca56cd030ffe088
     Pseudo is Ultrasoft + core correction, Zval =  5.0
     Generated using "atomic" code by A. Dal Corso  v.5.1
     Using radial grid of 1147 points,  6 beta functions with:
                l(1) =   0
                l(2) =   0
                l(3) =   1
                l(4) =   1
                l(5) =   2
                l(6) =   2
     Q(r) pseudized with 0 coefficients

     atomic species   valence    mass     pseudopotential
        Mo            14.00    95.95000     Mo( 1.00)
        P              5.00    30.97376     P ( 1.00)

      2 Sym. Ops. (no inversion) found ( 1 have fractional translation)

                                    s                        frac. trans.

      isym =  1     identity

 cryst.   s( 1) = (     1          0          0      )
                  (     0          1          0      )
                  (     0          0          1      )

 cart.    s( 1) = (  1.0000000 -0.0000000  0.0000000 )
                  (  0.0000000  1.0000000  0.0000000 )
                  (  0.0000000  0.0000000  1.0000000 )

      isym =  2     180 deg rotation - cart. axis [0,0,1]

 cryst.   s( 2) = (    -1          0          0      )    f =(  0.0000000 )
                  (     0         -1          0      )       (  0.0000000 )
                  (     0          0          1      )       ( -0.5000000 )

 cart.    s( 2) = ( -1.0000000  0.0000000  0.0000000 )    f =( -0.0000000 )
                  (  0.0000000 -1.0000000  0.0000000 )       (  0.0000000 )
                  (  0.0000000  0.0000000  1.0000000 )       ( -0.4288442 )

   Cartesian axes

     site n.     atom                  positions (alat units)
         1           Mo  tau(   1) = (  -0.6800698   0.4717440   0.4302242  )
         2           Mo  tau(   2) = (   0.8262304   0.0487925   0.0013800  )
         3           P   tau(   3) = (  -0.0558413   0.2964679   0.5313431  )
         4           P   tau(   4) = (   0.2020018   0.2240686   0.1024989  )
         5           P   tau(   5) = (   0.4472796   0.1551974   0.6894828  )
         6           P   tau(   6) = (  -0.3011191   0.3653391   0.2606386  )

   Crystallographic axes

     site n.     atom                  positions (cryst. coord.)
         1           Mo  tau(   1) = (  0.0937350  0.9062650  0.5016090  )
         2           Mo  tau(   2) = (  0.9062650  0.0937350  0.0016090  )
         3           P   tau(   3) = (  0.4304570  0.5695430  0.6195060  )
         4           P   tau(   4) = (  0.5695430  0.4304570  0.1195060  )
         5           P   tau(   5) = (  0.7018510  0.2981490  0.8038850  )
         6           P   tau(   6) = (  0.2981490  0.7018510  0.3038850  )

     number of k points=     1  Methfessel-Paxton smearing, width (Ry)=  0.0010
                       cart. coord. in units 2pi/alat
        k(    1) = (   0.0000000   0.0000000   0.0000000), wk =   2.0000000

                       cryst. coord.
        k(    1) = (   0.0000000   0.0000000   0.0000000), wk =   2.0000000

     Initial potential from superposition of free atoms

     starting charge      47.9974, renormalised to      48.0000
     Starting wfcs are   36 randomized atomic wfcs

     Self-consistent Calculation

     iteration #  1     ecut=    30.00 Ry     beta= 0.70
     Davidson diagonalization with overlap

     ethr =  1.00E-02,  avg # of iterations =  2.0

     total energy              =    -329.74324258 Ry
     estimated scf accuracy    <       0.95148076 Ry

[...]

     total energy              =    -330.29745306 Ry
     estimated scf accuracy    <       0.00000137 Ry

     iteration # 12     ecut=    30.00 Ry     beta= 0.70
     Davidson diagonalization with overlap

     ethr =  2.86E-09,  avg # of iterations =  2.0

     End of self-consistent calculation

          k = 0.0000 0.0000 0.0000 (   826 PWs)   bands (ev):

   -45.7015 -45.6864 -20.2428 -20.2017 -19.9300 -19.9230 -19.3984 -19.3773
    -0.2228   2.2056   4.4808   5.0051   8.2166   8.8225   9.8505  10.1399
    10.7544  12.2553  12.5517  12.7274  13.0186  13.3689  13.7519  13.9331
    15.0306  15.6956  15.9999  16.3365  17.3417

     occupation numbers
     1.0000   1.0000   1.0000   1.0000   1.0000   1.0000   1.0000   1.0000
     1.0000   1.0000   1.0000   1.0000   1.0000   1.0000   1.0000   1.0000
     1.0000   1.0000   1.0000   1.0000   1.0000   1.0000   1.0000   1.0000
    -0.0000  -0.0000  -0.0000  -0.0000  -0.0000

     the Fermi energy is    14.5098 ev

!    total energy              =    -330.29745303 Ry
     estimated scf accuracy    <       0.00000020 Ry
     smearing contrib. (-TS)   =       0.00000000 Ry
     internal energy E=F+TS    =    -330.29745303 Ry

     The total energy is F=E-TS. E is the sum of the following terms:
     one-electron contribution =     -82.36611661 Ry
     hartree contribution      =      66.71048945 Ry
     xc contribution           =     -49.38319721 Ry
     ewald contribution        =    -265.25862867 Ry

     convergence has been achieved in  12 iterations

     Forces acting on atoms (cartesian axes, Ry/au):

     atom    1 type  1   force =    -0.03414629    0.00958451   -0.05637328
     atom    2 type  1   force =     0.03414629   -0.00958451   -0.05637328
     atom    3 type  2   force =     0.05760003   -0.01617212    0.02698620
     atom    4 type  2   force =    -0.05760003    0.01617212    0.02698620
     atom    5 type  2   force =    -0.04763855    0.01337257    0.02938708
     atom    6 type  2   force =     0.04763855   -0.01337257    0.02938708
     The non-local contrib.  to forces
     atom    1 type  1   force =    -0.09200978    0.02583465    0.08247356
     atom    2 type  1   force =     0.09200978   -0.02583465    0.08247356
     atom    3 type  2   force =    -0.00878444    0.00246874   -0.00022471
     atom    4 type  2   force =     0.00878444   -0.00246874   -0.00022471
     atom    5 type  2   force =     0.10143250   -0.02848235   -0.03943775
     atom    6 type  2   force =    -0.10143250    0.02848235   -0.03943775
     The ionic contribution  to forces
     atom    1 type  1   force =     5.19148030   -1.45770713    0.24866169
     atom    2 type  1   force =    -5.19148030    1.45770713    0.24866169
     atom    3 type  2   force =    -3.42311745    0.96117146   -1.37000069
     atom    4 type  2   force =     3.42311745   -0.96117146   -1.37000069
     atom    5 type  2   force =     1.72330023   -0.48388261    1.12133901
     atom    6 type  2   force =    -1.72330023    0.48388261    1.12133901
     The local contribution  to forces
     atom    1 type  1   force =    -5.13465593    1.44174639   -0.38758478
     atom    2 type  1   force =     5.13477082   -1.44177953   -0.38743894
     atom    3 type  2   force =     3.48972828   -0.97987348    1.39825150
     atom    4 type  2   force =    -3.48983406    0.97990907    1.39791201
     atom    5 type  2   force =    -1.86445534    0.52351731   -1.05625784
     atom    6 type  2   force =     1.86458832   -0.52355049   -1.05669589
     The core correction contribution to forces
     atom    1 type  1   force =     0.00000000    0.00000000    0.00000000
     atom    2 type  1   force =     0.00000000    0.00000000    0.00000000
     atom    3 type  2   force =    -0.00005690    0.00001605   -0.00090757
     atom    4 type  2   force =     0.00005962   -0.00001655   -0.00090616
     atom    5 type  2   force =    -0.00805633    0.00226206    0.00399602
     atom    6 type  2   force =     0.00805563   -0.00226176    0.00399642
     The Hubbard contrib.    to forces
     atom    1 type  1   force =     0.00000000    0.00000000    0.00000000
     atom    2 type  1   force =     0.00000000    0.00000000    0.00000000
     atom    3 type  2   force =     0.00000000    0.00000000    0.00000000
     atom    4 type  2   force =     0.00000000    0.00000000    0.00000000
     atom    5 type  2   force =     0.00000000    0.00000000    0.00000000
     atom    6 type  2   force =     0.00000000    0.00000000    0.00000000
     The SCF correction term to forces
     atom    1 type  1   force =     0.00102032   -0.00028472    0.00008830
     atom    2 type  1   force =    -0.00117280    0.00032721   -0.00008843
     atom    3 type  2   force =    -0.00016670    0.00004722   -0.00015499
     atom    4 type  2   force =     0.00027525   -0.00007811    0.00022164
     atom    5 type  2   force =     0.00015168   -0.00004275   -0.00027329
     atom    6 type  2   force =    -0.00026138    0.00007381    0.00019945

     Total force =     0.155275     Total SCF correction =     0.001737

     Computing stress (Cartesian axis) and pressure

          total   stress  (Ry/bohr**3)                   (kbar)     P=       99.83
  -0.00006704   0.00079043   0.00000000           -9.86      116.28        0.00
   0.00079043   0.00252604   0.00000000          116.28      371.59        0.00
   0.00000000   0.00000000  -0.00042320            0.00        0.00      -62.25

     kinetic stress (kbar)  17435.56    331.74      0.00
                              331.74  18523.86      0.00
                                0.00      0.00  17266.25

     local   stress (kbar)   -180.17  -3337.07      0.12
                            -3337.07 -11127.83     -0.04
                                0.12     -0.04  -4529.53

     nonloc. stress (kbar)   7467.81      7.47      0.00
                                7.47   7492.30      0.00
                                0.00      0.00   7486.71

     hartree stress (kbar)   3119.81   1494.23     -0.03
                             1494.23   8021.81      0.01
                               -0.03      0.01   5194.49

     exc-cor stress (kbar)  -2640.91     -0.30     -0.00
                               -0.30  -2641.90      0.00
                               -0.00      0.00  -2644.33

     corecor stress (kbar)   -994.64     -1.53     -0.00
                               -1.53   -999.66      0.00
                               -0.00      0.00   -993.46

     ewald   stress (kbar) -24217.31   1621.75     -0.00
                             1621.75 -18896.99     -0.00
                               -0.00     -0.00 -21842.39

     hubbard stress (kbar)      0.00      0.00      0.00
                                0.00      0.00      0.00
                                0.00      0.00      0.00

     DFT-D   stress (kbar)      0.00      0.00      0.00
                                0.00      0.00      0.00
                                0.00      0.00      0.00

     XDM     stress (kbar)      0.00      0.00      0.00
                                0.00      0.00      0.00
                                0.00      0.00      0.00

     dft-nl  stress (kbar)      0.00      0.00      0.00
                                0.00      0.00      0.00
                                0.00      0.00      0.00

     TS-vdW  stress (kbar)      0.00      0.00      0.00
                                0.00      0.00      0.00
                                0.00      0.00      0.00

[...]

                                0.00      0.00      0.00

     Writing all to output data dir new_calculations/myprefix.save/

     General routines

     Parallel routines

   This run was terminated on:   5:36:16  20May2023

   JOB DONE.