     Program PWSCF v.7.0 starts on 21May2023 at  8:21:25

     Reading input from espresso_17981.pwi
Warning: card &CELL ignored
Warning: card / ignored

     Current dimensions of program PWSCF are:
     Max number of different atomic species (ntypx) = 10
     Max number of k-points (npk) =  40000
     Max angular momentum in pseudopotentials (lmaxx) =  4
     file K.pbe-spn-kjpaw_psl.1.0.0.UPF: wavefunction(s)  3S renormalized

     gamma-point specific algorithms are used
     Message from routine setup:
     using ibrav=0 with symmetry is DISCOURAGED, use correct ibrav instead

     Subspace diagonalization in iterative solution of the eigenvalue problem:
     a serial algorithm will be used

     Using Slab Decomposition

     bravais-lattice index     =            0
     lattice parameter (alat)  =      12.6836  a.u.
     unit-cell volume          =    2462.3879 (a.u.)^3
     number of atoms/cell      =           14
     number of atomic types    =            4
     number of electrons       =       116.00
     number of Kohn-Sham states=           70
     kinetic-energy cutoff     =      30.0000  Ry
     charge density cutoff     =     240.0000  Ry
     scf convergence threshold =      1.0E-06
     mixing beta               =       0.7000
     number of iterations used =            8  plain     mixing
     Exchange-correlation=  SLA  PW   PBX  PBC
                           (   1   4   3   4   0   0   0)

     celldm(1)=  12.683611  celldm(2)=   0.000000  celldm(3)=   0.000000
     celldm(4)=   0.000000  celldm(5)=   0.000000  celldm(6)=   0.000000

     crystal axes: (cart. coord. in units of alat)
               a(1) = (   1.000000   0.000000   0.000000 )
               a(2) = (   0.000000   0.974709   0.000000 )
               a(3) = (   0.000000   0.386112   1.238091 )

     reciprocal axes: (cart. coord. in units 2 pi/alat)
               b(1) = (  1.000000  0.000000  0.000000 )
               b(2) = (  0.000000  1.025947 -0.319952 )
               b(3) = (  0.000000  0.000000  0.807695 )

     PseudoPot. # 1 for K  read from file:
     /home/pragov/projects/rrg-bengioy-ad/pragov/crystal_structure_design/SSSP/K.pbe-spn-kjpaw_psl.1.0.0.UPF
     MD5 check sum: 7d58810084cac21f60fbe77ea2b688fd
     Pseudo is Projector augmented-wave + core cor, Zval =  9.0
     Generated using "atomic" code by A. Dal Corso  v.5.1
     Shape of augmentation charge: PSQ
     Using radial grid of 1165 points,  6 beta functions with:
                l(1) =   0
                l(2) =   0
                l(3) =   1
                l(4) =   1
                l(5) =   2
                l(6) =   2
     Q(r) pseudized with 0 coefficients

     PseudoPot. # 2 for Y  read from file:
     /home/pragov/projects/rrg-bengioy-ad/pragov/crystal_structure_design/SSSP/Y_pbe_v1.uspp.F.UPF
     MD5 check sum: 2cf71db95cafeb975fc457bd7f14888e
     Pseudo is Ultrasoft + core correction, Zval = 11.0
     Generated by new atomic code, or converted to UPF format
     Using radial grid of  885 points,  6 beta functions with:
                l(1) =   0
                l(2) =   0
                l(3) =   1
                l(4) =   1
                l(5) =   2
                l(6) =   2
     Q(r) pseudized with  6 coefficients,  rinner =    1.200   1.200   1.200
                                                       1.200   1.200

     PseudoPot. # 3 for Ge read from file:
     /home/pragov/projects/rrg-bengioy-ad/pragov/crystal_structure_design/SSSP/ge_pbe_v1.4.uspp.F.UPF
     MD5 check sum: 9c9eaa91e581c3f09632fb3098b2c6b2
     Pseudo is Ultrasoft + core correction, Zval = 14.0
     Generated by new atomic code, or converted to UPF format
     Using radial grid of  873 points,  6 beta functions with:
                l(1) =   0
                l(2) =   0
                l(3) =   1
                l(4) =   1
                l(5) =   2
                l(6) =   2
     Q(r) pseudized with  8 coefficients,  rinner =    1.400   1.400   1.400
                                                       1.400   1.400

     PseudoPot. # 4 for S  read from file:
     /home/pragov/projects/rrg-bengioy-ad/pragov/crystal_structure_design/SSSP/s_pbe_v1.4.uspp.F.UPF
     MD5 check sum: 88d86576ff6df21479756cfb9bdac1df
     Pseudo is Ultrasoft + core correction, Zval =  6.0
     Generated by new atomic code, or converted to UPF format
     Using radial grid of  907 points,  6 beta functions with:
                l(1) =   0
                l(2) =   0
                l(3) =   1
                l(4) =   1
                l(5) =   2
                l(6) =   2
     Q(r) pseudized with  8 coefficients,  rinner =    1.300   1.300   1.300
                                                       1.300   1.300

     atomic species   valence    mass     pseudopotential
        K              9.00    39.09830     K ( 1.00)
        Y             11.00    88.90584     Y ( 1.00)
        Ge            14.00    72.63000     Ge( 1.00)
        S              6.00    32.06000     S ( 1.00)

      2 Sym. Ops. (no inversion) found ( 1 have fractional translation)

                                    s                        frac. trans.

      isym =  1     identity

 cryst.   s( 1) = (     1          0          0      )
                  (     0          1          0      )
                  (     0          0          1      )

 cart.    s( 1) = (  1.0000000  0.0000000  0.0000000 )
                  (  0.0000000  1.0000000 -0.0000000 )
                  (  0.0000000  0.0000000  1.0000000 )

      isym =  2     180 deg rotation - cart. axis [1,0,0]

 cryst.   s( 2) = (     1          0          0      )    f =(  0.5000000 )
                  (     0         -1          0      )       ( -0.0000000 )
                  (     0          0         -1      )       ( -0.0000000 )

 cart.    s( 2) = (  1.0000000  0.0000000  0.0000000 )    f =(  0.5000000 )
                  (  0.0000000 -1.0000000  0.0000000 )       ( -0.0000000 )
                  (  0.0000000  0.0000000 -1.0000000 )       ( -0.0000000 )

   Cartesian axes

     site n.     atom                  positions (alat units)
         1           K   tau(   1) = (   0.9908710   0.7398743   0.0809451  )
         2           K   tau(   2) = (   0.4908710   0.6209468   1.1571457  )
         3           Y   tau(   3) = (   0.5091100   0.3960418   0.5560229  )
         4           Y   tau(   4) = (   0.0091100   0.9647793   0.6820680  )
         5           Ge  tau(   5) = (   0.4741440   0.8808611   0.4029775  )
         6           Ge  tau(   6) = (   0.9741440   0.4799600   0.8351134  )
         7           S   tau(   7) = (   0.4721390   0.6192183   0.2058995  )
         8           S   tau(   8) = (   0.2363270   0.1327548   0.3474529  )
         9           S   tau(   9) = (   0.7449150   1.0727209   0.3696568  )
        10           S   tau(  10) = (   0.9054950   0.5878927   0.5285559  )
        11           S   tau(  11) = (   0.4054950   0.7729283   0.7095350  )
        12           S   tau(  12) = (   0.2449150   0.2881002   0.8684341  )
        13           S   tau(  13) = (   0.7363270   1.2280663   0.8906380  )
        14           S   tau(  14) = (   0.9721390   0.7416028   1.0321914  )

   Crystallographic axes

     site n.     atom                  positions (cryst. coord.)
         1           K   tau(   1) = (  0.9908710  0.7331730  0.0653790  )
         2           K   tau(   2) = (  0.4908710  0.2668270  0.9346210  )
         3           Y   tau(   3) = (  0.5091100  0.2284170  0.4490970  )
         4           Y   tau(   4) = (  0.0091100  0.7715830  0.5509030  )
         5           Ge  tau(   5) = (  0.4741440  0.7747830  0.3254830  )
         6           Ge  tau(   6) = (  0.9741440  0.2252170  0.6745170  )
         7           S   tau(   7) = (  0.4721390  0.5694070  0.1663040  )
         8           S   tau(   8) = (  0.2363270  0.0250310  0.2806360  )
         9           S   tau(   9) = (  0.7449150  0.9822820  0.2985700  )
        10           S   tau(  10) = (  0.9054950  0.4340340  0.4269120  )
        11           S   tau(  11) = (  0.4054950  0.5659660  0.5730880  )
        12           S   tau(  12) = (  0.2449150  0.0177180  0.7014300  )
        13           S   tau(  13) = (  0.7363270  0.9749690  0.7193640  )
        14           S   tau(  14) = (  0.9721390  0.4305930  0.8336960  )

     number of k points=     1  Methfessel-Paxton smearing, width (Ry)=  0.0010
                       cart. coord. in units 2pi/alat
        k(    1) = (   0.0000000   0.0000000   0.0000000), wk =   2.0000000

                       cryst. coord.
        k(    1) = (   0.0000000   0.0000000   0.0000000), wk =   2.0000000

     Check: negative core charge=   -0.000003

     Initial potential from superposition of free atoms

     starting charge     115.9514, renormalised to     116.0000

     negative rho (up, down):  8.956E-02 0.000E+00
     Starting wfcs are   92 randomized atomic wfcs
     Checking if some PAW data can be deallocated...

     Self-consistent Calculation

     iteration #  1     ecut=    30.00 Ry     beta= 0.70
     Davidson diagonalization with overlap

     ethr =  1.00E-02,  avg # of iterations =  4.0

     Threshold (ethr) on eigenvalues was too large:
     Diagonalizing with lowered threshold

     Davidson diagonalization with overlap

[...]

     negative rho (up, down):  9.054E-02 0.000E+00

     total energy              =   -1021.96132272 Ry
     estimated scf accuracy    <       0.75839016 Ry

[...]

     total energy              =   -1022.22630472 Ry
     estimated scf accuracy    <       0.00000512 Ry

     iteration #  8     ecut=    30.00 Ry     beta= 0.70
     Davidson diagonalization with overlap

     ethr =  4.42E-09,  avg # of iterations =  4.0

[...]

     End of self-consistent calculation

          k = 0.0000 0.0000 0.0000 (  3413 PWs)   bands (ev):

   -37.0984 -37.0967 -24.4709 -24.4689 -19.5534 -19.5509 -19.5402 -19.5385
   -19.5203 -19.5198 -19.4989 -19.4989 -19.4776 -19.4750 -17.1564 -17.1288
   -17.0742 -17.0587 -17.0549 -17.0253  -8.4271  -8.1997  -8.0279  -7.9947
    -7.9942  -7.9691  -7.9326  -7.8097  -6.5840  -6.5220  -6.4747  -6.3912
    -6.2462  -6.2373  -2.0500  -1.9282   0.7556   1.1630   1.2461   1.3629
     1.7663   1.8845   1.9925   2.7404   2.8160   3.0083   3.0086   3.2448
     3.4244   3.5391   3.9332   4.0452   4.1142   4.2063   4.3038   4.4177
     4.5760   4.7559   7.1338   7.6204   7.9637   8.4052   8.5691   8.7947
     8.9196   9.1499   9.3884   9.5401   9.6654   9.6944

     occupation numbers
     1.0000   1.0000   1.0000   1.0000   1.0000   1.0000   1.0000   1.0000
     1.0000   1.0000   1.0000   1.0000   1.0000   1.0000   1.0000   1.0000
     1.0000   1.0000   1.0000   1.0000   1.0000   1.0000   1.0000   1.0000
     1.0000   1.0000   1.0000   1.0000   1.0000   1.0000   1.0000   1.0000
     1.0000   1.0000   1.0000   1.0000   1.0000   1.0000   1.0000   1.0000
     1.0000   1.0000   1.0000   1.0000   1.0000   1.0000   1.0000   1.0000
     1.0000   1.0000   1.0000   1.0000   1.0000   1.0000   1.0000   1.0000
     1.0000   1.0000  -0.0000  -0.0000  -0.0000  -0.0000  -0.0000  -0.0000
    -0.0000  -0.0000  -0.0000  -0.0000  -0.0000  -0.0000

     the Fermi energy is     6.8889 ev

!    total energy              =   -1022.22630628 Ry
     estimated scf accuracy    <       0.00000096 Ry
     smearing contrib. (-TS)   =       0.00000000 Ry
     internal energy E=F+TS    =   -1022.22630628 Ry

     The total energy is F=E-TS. E is the sum of the following terms:
     one-electron contribution =    -527.18513411 Ry
     hartree contribution      =     318.64113677 Ry
     xc contribution           =    -251.03678983 Ry
     ewald contribution        =    -451.81278279 Ry
     one-center paw contrib.   =    -110.83273632 Ry
      -> PAW hartree energy AE =      75.31431342 Ry
      -> PAW hartree energy PS =     -74.89436970 Ry
      -> PAW xc energy AE      =    -132.42338841 Ry
      -> PAW xc energy PS      =      21.17070836 Ry
      -> total E_H with PAW    =     319.06108050 Ry
      -> total E_XC with PAW   =    -362.28946988 Ry

     convergence has been achieved in   8 iterations

     negative rho (up, down):  9.098E-02 0.000E+00

     Forces acting on atoms (cartesian axes, Ry/au):

     atom    1 type  1   force =     0.00150336    0.00227490   -0.00385726
     atom    2 type  1   force =     0.00150336   -0.00227490    0.00385726
     atom    3 type  2   force =    -0.00206283   -0.01379507    0.00659858
     atom    4 type  2   force =    -0.00206283    0.01379507   -0.00659858
     atom    5 type  3   force =     0.00841501   -0.00071825    0.00072654
     atom    6 type  3   force =     0.00841501    0.00071825   -0.00072654
     atom    7 type  4   force =     0.00021567    0.00107763    0.00091975
     atom    8 type  4   force =     0.01844330    0.01549684    0.00629848
     atom    9 type  4   force =    -0.02569275   -0.01440572    0.01763940
     atom   10 type  4   force =    -0.00082174   -0.00645568    0.00590078
     atom   11 type  4   force =    -0.00082174    0.00645568   -0.00590078
     atom   12 type  4   force =    -0.02569275    0.01440572   -0.01763940
     atom   13 type  4   force =     0.01844330   -0.01549684   -0.00629848
     atom   14 type  4   force =     0.00021567   -0.00107763   -0.00091975
     The non-local contrib.  to forces
     atom    1 type  1   force =    -0.00457870   -0.00896929    0.00178515
     atom    2 type  1   force =    -0.00457870    0.00896929   -0.00178515
     atom    3 type  2   force =     0.00211251   -0.02648053    0.00615882
     atom    4 type  2   force =     0.00211251    0.02648053   -0.00615882
     atom    5 type  3   force =    -0.00229225    0.05308288   -0.01834929
     atom    6 type  3   force =    -0.00229225   -0.05308288    0.01834929
     atom    7 type  4   force =    -0.00035320    0.14614210    0.15460989
     atom    8 type  4   force =     0.19438600   -0.13641981    0.08818317
     atom    9 type  4   force =    -0.19958564   -0.12287783    0.09487562
     atom   10 type  4   force =     0.02824615   -0.02725125    0.16747686
     atom   11 type  4   force =     0.02824615    0.02725125   -0.16747686
     atom   12 type  4   force =    -0.19958564    0.12287783   -0.09487562
     atom   13 type  4   force =     0.19438600    0.13641981   -0.08818317
     atom   14 type  4   force =    -0.00035320   -0.14614210   -0.15460989
     The ionic contribution  to forces
     atom    1 type  1   force =    -0.00323187   -1.74361465   -1.90674429
     atom    2 type  1   force =    -0.00323187    1.74361465    1.90674429
     atom    3 type  2   force =    -0.75260875   -0.34574734   -1.74845623
     atom    4 type  2   force =    -0.75260875    0.34574734    1.74845623
     atom    5 type  3   force =     0.70430228   -0.64588476   -7.83253584
     atom    6 type  3   force =     0.70430228    0.64588476    7.83253584
     atom    7 type  4   force =    -0.27651292   -4.61712938   -9.28149077
     atom    8 type  4   force =    -5.52427209    4.87445850   -6.58231792
     atom    9 type  4   force =     5.57691895    3.58158671   -6.03931247
     atom   10 type  4   force =     0.27540440    0.15191296   -8.45756752
     atom   11 type  4   force =     0.27540440   -0.15191296    8.45756752
     atom   12 type  4   force =     5.57691895   -3.58158671    6.03931247
     atom   13 type  4   force =    -5.52427209   -4.87445850    6.58231792
     atom   14 type  4   force =    -0.27651292    4.61712938    9.28149077
     The local contribution  to forces
     atom    1 type  1   force =     0.00911565    1.75493424    1.90089796
     atom    2 type  1   force =     0.00912269   -1.75491235   -1.90068932
     atom    3 type  2   force =     0.74880891    0.35636779    1.74931744
     atom    4 type  2   force =     0.74876621   -0.35631209   -1.74961599
     atom    5 type  3   force =    -0.69236271    0.59352471    7.85034612
     atom    6 type  3   force =    -0.69236174   -0.59362774   -7.85043059
     atom    7 type  4   force =     0.27705265    4.47972537    9.13541189
     atom    8 type  4   force =     5.35822300   -4.72961776    6.50460666
     atom    9 type  4   force =    -5.41323381   -3.47953603    5.96665078
     atom   10 type  4   force =    -0.30283046   -0.13271898    8.30415087
     atom   11 type  4   force =    -0.30286441    0.13262453   -8.30427226
     atom   12 type  4   force =    -5.41331917    3.47959944   -5.96672899
     atom   13 type  4   force =     5.35831580    4.72968614   -6.50466257
     atom   14 type  4   force =     0.27704996   -4.47979624   -9.13532819
     The core correction contribution to forces
     atom    1 type  1   force =     0.00013770    0.00015466    0.00012747
     atom    2 type  1   force =     0.00013802   -0.00015437   -0.00012764
     atom    3 type  2   force =    -0.00043964    0.00157406   -0.00013744
     atom    4 type  2   force =    -0.00044110   -0.00157394    0.00013352
     atom    5 type  3   force =    -0.00108047   -0.00099513    0.00082989
     atom    6 type  3   force =    -0.00108008    0.00099287   -0.00082742
     atom    7 type  4   force =    -0.00003457   -0.00765077   -0.00798819
     atom    8 type  4   force =    -0.01040924    0.00716958   -0.00458458
     atom    9 type  4   force =     0.01063700    0.00649498   -0.00504314
     atom   10 type  4   force =    -0.00151811    0.00137426   -0.00854972
     atom   11 type  4   force =    -0.00151913   -0.00137601    0.00854967
     atom   12 type  4   force =     0.01063591   -0.00649478    0.00504210
     atom   13 type  4   force =    -0.01040779   -0.00716931    0.00458458
     atom   14 type  4   force =    -0.00003463    0.00764993    0.00798863
     The Hubbard contrib.    to forces
     atom    1 type  1   force =     0.00000000    0.00000000    0.00000000
     atom    2 type  1   force =     0.00000000    0.00000000    0.00000000
     atom    3 type  2   force =     0.00000000    0.00000000    0.00000000
     atom    4 type  2   force =     0.00000000    0.00000000    0.00000000
     atom    5 type  3   force =     0.00000000    0.00000000    0.00000000
     atom    6 type  3   force =     0.00000000    0.00000000    0.00000000
     atom    7 type  4   force =     0.00000000    0.00000000    0.00000000
     atom    8 type  4   force =     0.00000000    0.00000000    0.00000000
     atom    9 type  4   force =     0.00000000    0.00000000    0.00000000
     atom   10 type  4   force =     0.00000000    0.00000000    0.00000000
     atom   11 type  4   force =     0.00000000    0.00000000    0.00000000
     atom   12 type  4   force =     0.00000000    0.00000000    0.00000000
     atom   13 type  4   force =     0.00000000    0.00000000    0.00000000
     atom   14 type  4   force =     0.00000000    0.00000000    0.00000000
     The SCF correction term to forces
     atom    1 type  1   force =     0.00003733   -0.00022646    0.00007268
     atom    2 type  1   force =     0.00002918    0.00021149   -0.00028868
     atom    3 type  2   force =     0.00004398    0.00049226   -0.00029732
     atom    4 type  2   force =     0.00008116   -0.00054545    0.00057318
     atom    5 type  3   force =    -0.00017211   -0.00044535    0.00046721
     atom    6 type  3   force =    -0.00018021    0.00055184   -0.00032210
     atom    7 type  4   force =     0.00004083   -0.00001592    0.00037797
     atom    8 type  4   force =     0.00048362   -0.00008972    0.00040857
     atom    9 type  4   force =    -0.00044628   -0.00007535    0.00046133
     atom   10 type  4   force =    -0.00014285    0.00021541    0.00038919
     atom   11 type  4   force =    -0.00011690   -0.00014305   -0.00026995
     atom   12 type  4   force =    -0.00037306    0.00000813   -0.00039664
     atom   13 type  4   force =     0.00040610    0.00002896   -0.00035781
     atom   14 type  4   force =     0.00004205    0.00007515   -0.00046004

     Total force =     0.066487     Total SCF correction =     0.002036

     Computing stress (Cartesian axis) and pressure

     negative rho (up, down):  9.098E-02 0.000E+00
          total   stress  (Ry/bohr**3)                   (kbar)     P=      -12.40
   0.00009391   0.00000000   0.00000000           13.81        0.00        0.00
   0.00000000  -0.00022898   0.00001650            0.00      -33.68        2.43
   0.00000000   0.00001650  -0.00011784            0.00        2.43      -17.34

     kinetic stress (kbar)   7345.98      0.00      0.00
                                0.00   7183.35     -3.21
                                0.00     -3.21   7278.55

     local   stress (kbar)  -8000.98      0.00     -0.00
                                0.00 -11696.24   -271.43
                               -0.00   -271.43   1119.57

     nonloc. stress (kbar)   4588.80      0.00      0.00
                                0.00   4567.60      2.52
                                0.00      2.52   4576.69

     hartree stress (kbar)   7333.05      0.00      0.00
                                0.00   8711.00     74.48
                                0.00     74.48   2991.84

     exc-cor stress (kbar)   4308.85     -0.00      0.00
                               -0.00   4310.98      0.52
                                0.00      0.52   4309.54

     corecor stress (kbar)  -7326.00      0.00     -0.00
                                0.00  -7323.39     -0.11
                               -0.00     -0.11  -7324.73

     ewald   stress (kbar)  -8235.89     -0.00      0.00
                               -0.00  -5786.99    199.66
                                0.00    199.66 -12968.79

     hubbard stress (kbar)      0.00      0.00      0.00
                                0.00      0.00      0.00
                                0.00      0.00      0.00

     DFT-D   stress (kbar)      0.00      0.00      0.00
                                0.00      0.00      0.00
                                0.00      0.00      0.00

     XDM     stress (kbar)      0.00      0.00      0.00
                                0.00      0.00      0.00
                                0.00      0.00      0.00

     dft-nl  stress (kbar)      0.00      0.00      0.00
                                0.00      0.00      0.00
                                0.00      0.00      0.00

     TS-vdW  stress (kbar)      0.00      0.00      0.00
                                0.00      0.00      0.00
                                0.00      0.00      0.00

[...]

                                0.00      0.00      0.00

     Writing all to output data dir new_calculations/myprefix.save/

     General routines

     Parallel routines

     PAW routines

   This run was terminated on:   8:21:59  21May2023

   JOB DONE.