     Program PWSCF v.7.0 starts on 21May2023 at  7:14:44

     Reading input from espresso_17927.pwi
Warning: card &CELL ignored
Warning: card / ignored

     Current dimensions of program PWSCF are:
     Max number of different atomic species (ntypx) = 10
     Max number of k-points (npk) =  40000
     Max angular momentum in pseudopotentials (lmaxx) =  4
     file Ga.pbe-dn-kjpaw_psl.1.0.0.UPF: wavefunction(s)  4S renormalized

     gamma-point specific algorithms are used
     Message from routine setup:
     using ibrav=0 with symmetry is DISCOURAGED, use correct ibrav instead

     Subspace diagonalization in iterative solution of the eigenvalue problem:
     a serial algorithm will be used

     Using Slab Decomposition

     bravais-lattice index     =            0
     lattice parameter (alat)  =      14.2156  a.u.
     unit-cell volume          =    1664.1321 (a.u.)^3
     number of atoms/cell      =            8
     number of atomic types    =            3
     number of electrons       =        56.00
     number of Kohn-Sham states=           34
     kinetic-energy cutoff     =      30.0000  Ry
     charge density cutoff     =     240.0000  Ry
     scf convergence threshold =      1.0E-06
     mixing beta               =       0.7000
     number of iterations used =            8  plain     mixing
     Exchange-correlation= SLA  PW   PBE  PBE
                           (   1   4   3   4   0   0   0)

     celldm(1)=  14.215631  celldm(2)=   0.000000  celldm(3)=   0.000000
     celldm(4)=   0.000000  celldm(5)=   0.000000  celldm(6)=   0.000000

     crystal axes: (cart. coord. in units of alat)
               a(1) = (   1.000000   0.000000   0.000000 )
               a(2) = (   0.274273   0.961652   0.000000 )
               a(3) = (  -0.637137  -0.480826   0.602381 )

     reciprocal axes: (cart. coord. in units 2 pi/alat)
               b(1) = (  1.000000 -0.285211  0.830039 )
               b(2) = (  0.000000  1.039877  0.830039 )
               b(3) = (  0.000000  0.000000  1.660078 )

     PseudoPot. # 1 for Li read from file:
     /home/pragov/projects/rrg-bengioy-ad/pragov/crystal_structure_design/SSSP/li_pbe_v1.4.uspp.F.UPF
     MD5 check sum: e912e257baa3777c20ea3d68f190483c
     Pseudo is Ultrasoft, Zval =  3.0
     Generated by new atomic code, or converted to UPF format
     Using radial grid of  751 points,  5 beta functions with:
                l(1) =   0
                l(2) =   0
                l(3) =   0
                l(4) =   1
                l(5) =   1
     Q(r) pseudized with 10 coefficients,  rinner =    1.150   1.150   1.150

     PseudoPot. # 2 for Ga read from file:
     /home/pragov/projects/rrg-bengioy-ad/pragov/crystal_structure_design/SSSP/Ga.pbe-dn-kjpaw_psl.1.0.0.UPF
     MD5 check sum: a27b4342b1af7e5f338de752e9ed7044
     Pseudo is Projector augmented-wave + core cor, Zval = 13.0
     Generated using "atomic" code by A. Dal Corso  v.5.1
     Shape of augmentation charge: PSQ
     Using radial grid of 1205 points,  6 beta functions with:
                l(1) =   0
                l(2) =   0
                l(3) =   1
                l(4) =   1
                l(5) =   2
                l(6) =   2
     Q(r) pseudized with 0 coefficients

     PseudoPot. # 3 for Te read from file:
     /home/pragov/projects/rrg-bengioy-ad/pragov/crystal_structure_design/SSSP/Te_pbe_v1.uspp.F.UPF
     MD5 check sum: c319670d6894cc26e93307826a071b75
     Pseudo is Ultrasoft + core correction, Zval =  6.0
     Generated by new atomic code, or converted to UPF format
     Using radial grid of  891 points,  5 beta functions with:
                l(1) =   0
                l(2) =   0
                l(3) =   1
                l(4) =   1
                l(5) =   2
     Q(r) pseudized with  6 coefficients,  rinner =    1.800   1.800   1.800
                                                       1.800   1.800

     atomic species   valence    mass     pseudopotential
        Li             3.00     6.94000     Li( 1.00)
        Ga            13.00    69.72300     Ga( 1.00)
        Te             6.00   127.60000     Te( 1.00)

      2 Sym. Ops. (no inversion) found ( 1 have fractional translation)

                                    s                        frac. trans.

      isym =  1     identity

 cryst.   s( 1) = (     1          0          0      )
                  (     0          1          0      )
                  (     0          0          1      )

 cart.    s( 1) = (  1.0000000 -0.0000000  0.0000000 )
                  (  0.0000000  1.0000000 -0.0000000 )
                  (  0.0000000  0.0000000  1.0000000 )

      isym =  2     inv. 180 deg rotation - cart. axis [0,0,1]

 cryst.   s( 2) = (     1          0          0      )    f =(  0.2500000 )
                  (     0          1          0      )       ( -0.2500000 )
                  (    -1         -1         -1      )       ( -0.5000000 )

 cart.    s( 2) = (  1.0000000 -0.0000000 -0.0000000 )    f =(  0.5000000 )
                  (  0.0000000  1.0000000 -0.0000000 )       (  0.0000000 )
                  (  0.0000000  0.0000000 -1.0000000 )       ( -0.3011907 )

   Cartesian axes

     site n.     atom                  positions (alat units)
         1           Li  tau(   1) = (   0.6371367   0.4808259   0.0000000  )
         2           Li  tau(   2) = (   0.1371367   0.4808259   0.3011907  )
         3           Ga  tau(   3) = (   0.0000000   0.0000000   0.0000000  )
         4           Ga  tau(   4) = (   0.5000000   0.0000000   0.3011907  )
         5           Te  tau(   5) = (   0.4831833   0.3535556   0.3100403  )
         6           Te  tau(   6) = (   0.6096583   0.8485091   0.0088496  )
         7           Te  tau(   7) = (   0.3460467  -0.1272703   0.5935318  )
         8           Te  tau(   8) = (  -0.1646150  -0.1131427   0.2923411  )

   Crystallographic axes

     site n.     atom                  positions (cryst. coord.)
         1           Li  tau(   1) = (  0.5000000  0.5000000  0.0000000  )
         2           Li  tau(   2) = (  0.2500000  0.7500000  0.5000000  )
         3           Ga  tau(   3) = (  0.0000000  0.0000000  0.0000000  )
         4           Ga  tau(   4) = (  0.7500000  0.2500000  0.5000000  )
         5           Te  tau(   5) = (  0.6396910  0.6250000  0.5146910  )
         6           Te  tau(   6) = (  0.3750000  0.8896910  0.0146910  )
         7           Te  tau(   7) = (  0.8750000  0.3603090  0.9853090  )
         8           Te  tau(   8) = (  0.1103090  0.1250000  0.4853090  )

     number of k points=     1  Methfessel-Paxton smearing, width (Ry)=  0.0010
                       cart. coord. in units 2pi/alat
        k(    1) = (   0.0000000   0.0000000   0.0000000), wk =   2.0000000

                       cryst. coord.
        k(    1) = (   0.0000000   0.0000000   0.0000000), wk =   2.0000000

     Initial potential from superposition of free atoms

     starting charge      55.0917, renormalised to      56.0000
     Starting wfcs are   44 randomized atomic wfcs
     Checking if some PAW data can be deallocated...

     Self-consistent Calculation

     iteration #  1     ecut=    30.00 Ry     beta= 0.70
     Davidson diagonalization with overlap

     ethr =  1.00E-02,  avg # of iterations =  4.0

     total energy              =    -690.58095341 Ry
     estimated scf accuracy    <       0.89682413 Ry

[...]

     total energy              =    -691.01294923 Ry
     estimated scf accuracy    <       0.00000107 Ry

     iteration #  9     ecut=    30.00 Ry     beta= 0.70
     Davidson diagonalization with overlap

     ethr =  1.91E-09,  avg # of iterations =  6.0

     End of self-consistent calculation

          k = 0.0000 0.0000 0.0000 (  2326 PWs)   bands (ev):

   -42.1208 -42.1203 -11.3796 -11.3795 -11.3727 -11.3453 -11.3452 -11.3429
   -11.3165 -11.3108 -11.3080 -11.3031  -7.7667  -6.4000  -6.3999  -6.3132
    -3.0148  -0.9260   0.7072   0.7072   0.8612   1.0092   1.5538   1.9913
     1.9913   3.3940   3.3940   3.6011   5.0353   5.9296   5.9457   7.4115
     7.4116   7.6377

     occupation numbers
     1.0000   1.0000   1.0000   1.0000   1.0000   1.0000   1.0000   1.0000
     1.0000   1.0000   1.0000   1.0000   1.0000   1.0000   1.0000   1.0000
     1.0000   1.0000   1.0000   1.0000   1.0000   1.0000   1.0000   1.0000
     1.0000   1.0000   1.0000   1.0000  -0.0000  -0.0000  -0.0000  -0.0000
    -0.0000  -0.0000

     the Fermi energy is     4.6469 ev

!    total energy              =    -691.01294977 Ry
     estimated scf accuracy    <       0.00000011 Ry
     smearing contrib. (-TS)   =       0.00000000 Ry
     internal energy E=F+TS    =    -691.01294977 Ry

     The total energy is F=E-TS. E is the sum of the following terms:
     one-electron contribution =    -322.12297454 Ry
     hartree contribution      =     191.16793368 Ry
     xc contribution           =    -140.85586480 Ry
     ewald contribution        =    -197.33664316 Ry
     one-center paw contrib.   =    -221.86540094 Ry
      -> PAW hartree energy AE =     278.36750002 Ry
      -> PAW hartree energy PS =    -273.94093019 Ry
      -> PAW xc energy AE      =    -301.39585374 Ry
      -> PAW xc energy PS      =      75.10388296 Ry
      -> total E_H with PAW    =     195.59450351 Ry
      -> total E_XC with PAW   =    -367.14783558 Ry

     convergence has been achieved in   9 iterations

     Forces acting on atoms (cartesian axes, Ry/au):

     atom    1 type  1   force =    -0.00002817    0.00002545   -0.00002926
     atom    2 type  1   force =    -0.00002817    0.00002545    0.00002926
     atom    3 type  2   force =     0.00004023   -0.00006426   -0.00002353
     atom    4 type  2   force =     0.00004023   -0.00006426    0.00002353
     atom    5 type  3   force =    -0.00684776    0.00907190   -0.01135112
     atom    6 type  3   force =     0.00683570   -0.00903309   -0.01135078
     atom    7 type  3   force =    -0.00684776    0.00907190    0.01135112
     atom    8 type  3   force =     0.00683570   -0.00903309    0.01135078
     The non-local contrib.  to forces
     atom    1 type  1   force =    -0.00002184   -0.00001660   -0.00000406
     atom    2 type  1   force =    -0.00002184   -0.00001660    0.00000406
     atom    3 type  2   force =    -0.00001496   -0.00006102   -0.00001561
     atom    4 type  2   force =    -0.00001496   -0.00006102    0.00001561
     atom    5 type  3   force =    -0.09310811    0.12339099   -0.15461372
     atom    6 type  3   force =     0.09315913   -0.12337495   -0.15463649
     atom    7 type  3   force =    -0.09310811    0.12339099    0.15461372
     atom    8 type  3   force =     0.09315913   -0.12337495    0.15463649
     The ionic contribution  to forces
     atom    1 type  1   force =    -0.00000000    0.00000000   -0.00000000
     atom    2 type  1   force =     0.00000000   -0.00000000   -0.00000000
     atom    3 type  2   force =    -0.00000000   -0.00000000   -0.00000000
     atom    4 type  2   force =    -0.00000000    0.00000000   -0.00000000
     atom    5 type  3   force =    -1.71541436    2.27307519   -2.84772141
     atom    6 type  3   force =     1.71541436   -2.27307519   -2.84772141
     atom    7 type  3   force =    -1.71541436    2.27307519    2.84772141
     atom    8 type  3   force =     1.71541436   -2.27307519    2.84772141
     The local contribution  to forces
     atom    1 type  1   force =     0.00001979   -0.00000449   -0.00002314
     atom    2 type  1   force =    -0.00003636   -0.00001991   -0.00001542
     atom    3 type  2   force =     0.00006571   -0.00014064    0.00009940
     atom    4 type  2   force =     0.00000794    0.00029619    0.00003217
     atom    5 type  3   force =     1.81420666   -2.40386016    3.01174487
     atom    6 type  3   force =    -1.81431563    2.40391237    3.01164653
     atom    7 type  3   force =     1.81409195   -2.40402454   -3.01156466
     atom    8 type  3   force =    -1.81406024    2.40394950   -3.01170511
     The core correction contribution to forces
     atom    1 type  1   force =     0.00000000    0.00000000    0.00000000
     atom    2 type  1   force =     0.00000000    0.00000000    0.00000000
     atom    3 type  2   force =    -0.00000062   -0.00000201    0.00000065
     atom    4 type  2   force =     0.00000124    0.00000394    0.00000056
     atom    5 type  3   force =    -0.01244261    0.01649814   -0.02066747
     atom    6 type  3   force =     0.01244311   -0.01649875   -0.02067847
     atom    7 type  3   force =    -0.01245246    0.01649385    0.02066891
     atom    8 type  3   force =     0.01246159   -0.01649021    0.02066243
     The Hubbard contrib.    to forces
     atom    1 type  1   force =     0.00000000    0.00000000    0.00000000
     atom    2 type  1   force =     0.00000000    0.00000000    0.00000000
     atom    3 type  2   force =     0.00000000    0.00000000    0.00000000
     atom    4 type  2   force =     0.00000000    0.00000000    0.00000000
     atom    5 type  3   force =     0.00000000    0.00000000    0.00000000
     atom    6 type  3   force =     0.00000000    0.00000000    0.00000000
     atom    7 type  3   force =     0.00000000    0.00000000    0.00000000
     atom    8 type  3   force =     0.00000000    0.00000000    0.00000000
     The SCF correction term to forces
     atom    1 type  1   force =    -0.00003554    0.00005247    0.00002180
     atom    2 type  1   force =     0.00005609    0.00001655    0.00006448
     atom    3 type  2   force =     0.00003747    0.00028319   -0.00012043
     atom    4 type  2   force =     0.00001529   -0.00048664   -0.00003727
     atom    5 type  3   force =    -0.00013821   -0.00008544   -0.00010907
     atom    6 type  3   force =     0.00024255    0.00002993    0.00011793
     atom    7 type  3   force =     0.00010074    0.00015012   -0.00010394
     atom    8 type  3   force =    -0.00023030   -0.00010820    0.00011443

     Total force =     0.032100     Total SCF correction =     0.000761

     Computing stress (Cartesian axis) and pressure

          total   stress  (Ry/bohr**3)                   (kbar)     P=        9.22
  -0.00011257  -0.00027728   0.00000000          -16.56      -40.79        0.00
  -0.00027728   0.00004560   0.00000000          -40.79        6.71        0.00
   0.00000000   0.00000000   0.00025490            0.00        0.00       37.50

     kinetic stress (kbar)   3222.56    -29.60     -0.00
                              -29.60   3239.46     -0.00
                               -0.00     -0.00   3261.79

     local   stress (kbar)   1557.30   -360.98      0.01
                             -360.98   1763.23     -0.03
                                0.01     -0.03   2035.65

     nonloc. stress (kbar)  -2542.98     -6.99      0.00
                               -6.99  -2539.02      0.00
                                0.00      0.00  -2533.72

     hartree stress (kbar)   5759.73    200.69     -0.01
                              200.69   5645.24      0.03
                               -0.01      0.03   5493.79

     exc-cor stress (kbar)   4148.41     -0.16      0.00
                               -0.16   4148.50      0.00
                                0.00      0.00   4148.62

     corecor stress (kbar)  -6445.85     -0.36     -0.00
                               -0.36  -6445.64      0.00
                               -0.00      0.00  -6445.37

     ewald   stress (kbar)  -5715.73    156.62     -0.00
                              156.62  -5805.07     -0.00
                               -0.00     -0.00  -5923.26

     hubbard stress (kbar)      0.00      0.00      0.00
                                0.00      0.00      0.00
                                0.00      0.00      0.00

     DFT-D   stress (kbar)      0.00      0.00      0.00
                                0.00      0.00      0.00
                                0.00      0.00      0.00

     XDM     stress (kbar)      0.00      0.00      0.00
                                0.00      0.00      0.00
                                0.00      0.00      0.00

     dft-nl  stress (kbar)      0.00      0.00      0.00
                                0.00      0.00      0.00
                                0.00      0.00      0.00

     TS-vdW  stress (kbar)      0.00      0.00      0.00
                                0.00      0.00      0.00
                                0.00      0.00      0.00

[...]

                                0.00      0.00      0.00

     Writing all to output data dir new_calculations/myprefix.save/

     General routines

     Parallel routines

     PAW routines

   This run was terminated on:   7:15: 3  21May2023

   JOB DONE.