     Program PWSCF v.7.0 starts on 21May2023 at 10:45:53

     Reading input from espresso_26631.pwi
Warning: card &CELL ignored
Warning: card / ignored

     Current dimensions of program PWSCF are:
     Max number of different atomic species (ntypx) = 10
     Max number of k-points (npk) =  40000
     Max angular momentum in pseudopotentials (lmaxx) =  4

     gamma-point specific algorithms are used
     Message from routine setup:
     using ibrav=0 with symmetry is DISCOURAGED, use correct ibrav instead

     Subspace diagonalization in iterative solution of the eigenvalue problem:
     a serial algorithm will be used

     Using Slab Decomposition

     bravais-lattice index     =            0
     lattice parameter (alat)  =      14.9460  a.u.
     unit-cell volume          =    1300.4707 (a.u.)^3
     number of atoms/cell      =           10
     number of atomic types    =            3
     number of electrons       =        54.00
     number of Kohn-Sham states=           32
     kinetic-energy cutoff     =      30.0000  Ry
     charge density cutoff     =     240.0000  Ry
     scf convergence threshold =      1.0E-06
     mixing beta               =       0.7000
     number of iterations used =            8  plain     mixing
     Exchange-correlation=  SLA  PW   PBX  PBC
                           (   1   4   3   4   0   0   0)

     celldm(1)=  14.945990  celldm(2)=   0.000000  celldm(3)=   0.000000
     celldm(4)=   0.000000  celldm(5)=   0.000000  celldm(6)=   0.000000

     crystal axes: (cart. coord. in units of alat)
               a(1) = (   1.000000   0.000000   0.000000 )
               a(2) = (   0.457553   0.889182   0.000000 )
               a(3) = (  -0.582097  -0.685029   0.438062 )

     reciprocal axes: (cart. coord. in units 2 pi/alat)
               b(1) = (  1.000000 -0.514577  0.524119 )
               b(2) = (  0.000000  1.124629  1.758663 )
               b(3) = (  0.000000  0.000000  2.282782 )

     PseudoPot. # 1 for Li read from file:
     /home/pragov/projects/rrg-bengioy-ad/pragov/crystal_structure_design/SSSP/li_pbe_v1.4.uspp.F.UPF
     MD5 check sum: e912e257baa3777c20ea3d68f190483c
     Pseudo is Ultrasoft, Zval =  3.0
     Generated by new atomic code, or converted to UPF format
     Using radial grid of  751 points,  5 beta functions with:
                l(1) =   0
                l(2) =   0
                l(3) =   0
                l(4) =   1
                l(5) =   1
     Q(r) pseudized with 10 coefficients,  rinner =    1.150   1.150   1.150

     PseudoPot. # 2 for Bi read from file:
     /home/pragov/projects/rrg-bengioy-ad/pragov/crystal_structure_design/SSSP/Bi_pbe_v1.uspp.F.UPF
     MD5 check sum: cceb9f28ec65b6d7ff33140f5b0b1758
     Pseudo is Ultrasoft + core correction, Zval = 15.0
     Generated by new atomic code, or converted to UPF format
     Using radial grid of  899 points,  6 beta functions with:
                l(1) =   0
                l(2) =   0
                l(3) =   1
                l(4) =   1
                l(5) =   2
                l(6) =   2
     Q(r) pseudized with  6 coefficients,  rinner =    1.000   1.000   1.000
                                                       1.000   1.000

     PseudoPot. # 3 for S  read from file:
     /home/pragov/projects/rrg-bengioy-ad/pragov/crystal_structure_design/SSSP/s_pbe_v1.4.uspp.F.UPF
     MD5 check sum: 88d86576ff6df21479756cfb9bdac1df
     Pseudo is Ultrasoft + core correction, Zval =  6.0
     Generated by new atomic code, or converted to UPF format
     Using radial grid of  907 points,  6 beta functions with:
                l(1) =   0
                l(2) =   0
                l(3) =   1
                l(4) =   1
                l(5) =   2
                l(6) =   2
     Q(r) pseudized with  8 coefficients,  rinner =    1.300   1.300   1.300
                                                       1.300   1.300

     atomic species   valence    mass     pseudopotential
        Li             3.00     6.94000     Li( 1.00)
        Bi            15.00   208.98040     Bi( 1.00)
        S              6.00    32.06000     S ( 1.00)

      2 Sym. Ops., with inversion, found

                                    s                        frac. trans.

      isym =  1     identity

 cryst.   s( 1) = (     1          0          0      )
                  (     0          1          0      )
                  (     0          0          1      )

 cart.    s( 1) = (  1.0000000  0.0000000  0.0000000 )
                  (  0.0000000  1.0000000  0.0000000 )
                  (  0.0000000  0.0000000  1.0000000 )

      isym =  2     inversion

 cryst.   s( 2) = (    -1          0          0      )
                  (     0         -1          0      )
                  (     0          0         -1      )

 cart.    s( 2) = ( -1.0000000 -0.0000000 -0.0000000 )
                  (  0.0000000 -1.0000000 -0.0000000 )
                  (  0.0000000  0.0000000 -1.0000000 )

   Cartesian axes

     site n.     atom                  positions (alat units)
         1           Li  tau(   1) = (   0.5948175  -0.3843601   0.3482370  )
         2           Li  tau(   2) = (   0.3482963   0.0197372   0.0898251  )
         3           Li  tau(   3) = (   0.5271597   0.1844161   0.3482370  )
         4           Li  tau(   4) = (   0.2806384   0.5885134   0.0898251  )
         5           Li  tau(   5) = (   0.7287764   0.4445912   0.0000000  )
         6           Bi  tau(   6) = (  -0.0622720   0.1020767   0.2190310  )
         7           S   tau(   7) = (   0.1148619  -0.1882823   0.1204027  )
         8           S   tau(   8) = (   0.2491400   0.2920540   0.2190310  )
         9           S   tau(   9) = (   0.6263160  -0.0879007   0.2190310  )
        10           S   tau(  10) = (   0.3030412  -0.4967468   0.3176594  )

   Crystallographic axes

     site n.     atom                  positions (cryst. coord.)
         1           Li  tau(   1) = (  0.9751180  0.1801690  0.7949490  )
         2           Li  tau(   2) = (  0.3852190  0.1801690  0.2050510  )
         3           Li  tau(   3) = (  0.6147810  0.8198310  0.7949490  )
         4           Li  tau(   4) = (  0.0248820  0.8198310  0.2050510  )
         5           Li  tau(   5) = (  0.5000000  0.5000000  0.0000000  )
         6           Bi  tau(   6) = (  0.0000000  0.5000000  0.5000000  )
         7           S   tau(   7) = (  0.2748530 -0.0000000  0.2748530  )
         8           S   tau(   8) = (  0.2136540  0.7136540  0.5000000  )
         9           S   tau(   9) = (  0.7863460  0.2863460  0.5000000  )
        10           S   tau(  10) = (  0.7251470 -0.0000000  0.7251470  )

     number of k points=     1  Methfessel-Paxton smearing, width (Ry)=  0.0010
                       cart. coord. in units 2pi/alat
        k(    1) = (   0.0000000   0.0000000   0.0000000), wk =   2.0000000

                       cryst. coord.
        k(    1) = (   0.0000000   0.0000000   0.0000000), wk =   2.0000000

     Check: negative core charge=   -0.000003

     Initial potential from superposition of free atoms

     starting charge      50.7461, renormalised to      54.0000

     negative rho (up, down):  4.375E-02 0.000E+00
     Starting wfcs are   50 randomized atomic wfcs

     Self-consistent Calculation

     iteration #  1     ecut=    30.00 Ry     beta= 0.70
     Davidson diagonalization with overlap

     ethr =  1.00E-02,  avg # of iterations =  5.0

     negative rho (up, down):  3.722E-02 0.000E+00

     total energy              =    -353.36864484 Ry
     estimated scf accuracy    <       1.99693091 Ry

[...]

     total energy              =    -354.29446124 Ry
     estimated scf accuracy    <       0.00000434 Ry

     iteration # 10     ecut=    30.00 Ry     beta= 0.70
     Davidson diagonalization with overlap

     ethr =  8.03E-09,  avg # of iterations =  2.0

[...]

     End of self-consistent calculation

          k = 0.0000 0.0000 0.0000 (  1790 PWs)   bands (ev):

   -41.6766 -41.1155 -41.1096 -41.0936 -41.0897 -18.5412 -18.4978 -18.4639
   -18.4336 -18.4297  -8.7347  -6.9033  -6.8941  -6.8128  -4.6407   0.2514
     1.2955   1.9561   2.5036   2.7515   2.9915   3.0206   3.0378   3.3981
     3.5193   3.6232   3.6297   6.2930   6.7380   7.2158   8.0103   9.3057

     occupation numbers
     1.0000   1.0000   1.0000   1.0000   1.0000   1.0000   1.0000   1.0000
     1.0000   1.0000   1.0000   1.0000   1.0000   1.0000   1.0000   1.0000
     1.0000   1.0000   1.0000   1.0000   1.0000   1.0000   1.0000   1.0000
     1.0000   1.0000   1.0000  -0.0000  -0.0000  -0.0000  -0.0000  -0.0000

     the Fermi energy is     4.6366 ev

!    total energy              =    -354.29446115 Ry
     estimated scf accuracy    <       0.00000083 Ry
     smearing contrib. (-TS)   =       0.00000000 Ry
     internal energy E=F+TS    =    -354.29446115 Ry

     The total energy is F=E-TS. E is the sum of the following terms:
     one-electron contribution =    -142.33696497 Ry
     hartree contribution      =      85.76728120 Ry
     xc contribution           =    -116.02046828 Ry
     ewald contribution        =    -181.70430910 Ry

     convergence has been achieved in  10 iterations

     negative rho (up, down):  4.081E-02 0.000E+00

     Forces acting on atoms (cartesian axes, Ry/au):

     atom    1 type  1   force =    -0.00628018   -0.00484237   -0.00068691
     atom    2 type  1   force =    -0.00522660   -0.00621996   -0.00061934
     atom    3 type  1   force =     0.00522660    0.00621996    0.00061934
     atom    4 type  1   force =     0.00628018    0.00484237    0.00068691
     atom    5 type  1   force =     0.00000000    0.00000000    0.00000000
     atom    6 type  2   force =     0.00000000    0.00000000    0.00000000
     atom    7 type  3   force =    -0.00216027    0.00514855   -0.00064481
     atom    8 type  3   force =    -0.03200464   -0.02092261   -0.00051575
     atom    9 type  3   force =     0.03200464    0.02092261    0.00051575
     atom   10 type  3   force =     0.00216027   -0.00514855    0.00064481
     The non-local contrib.  to forces
     atom    1 type  1   force =     0.02566269   -0.00950459    0.01216933
     atom    2 type  1   force =     0.00459271    0.02445031   -0.01082892
     atom    3 type  1   force =    -0.00459271   -0.02445031    0.01082892
     atom    4 type  1   force =    -0.02566269    0.00950459   -0.01216933
     atom    5 type  1   force =     0.00000000    0.00000000    0.00000000
     atom    6 type  2   force =     0.00000000    0.00000000    0.00000000
     atom    7 type  3   force =    -0.01952664    0.03124861   -0.01736758
     atom    8 type  3   force =    -0.00294493   -0.00117001    0.00027119
     atom    9 type  3   force =     0.00294493    0.00117001   -0.00027119
     atom   10 type  3   force =     0.01952664   -0.03124861    0.01736758
     The ionic contribution  to forces
     atom    1 type  1   force =     0.53683129    1.51219799   -0.55211625
     atom    2 type  1   force =     1.59027529   -0.21456867    0.55211942
     atom    3 type  1   force =    -1.59027529    0.21456867   -0.55211942
     atom    4 type  1   force =    -0.53683129   -1.51219799    0.55211625
     atom    5 type  1   force =     0.00000000   -0.00000000   -0.00000000
     atom    6 type  2   force =     0.00000000    0.00000000    0.00000000
     atom    7 type  3   force =     2.65480116   -4.35177530    2.78286792
     atom    8 type  3   force =     3.78526747    2.30919967    0.00000778
     atom    9 type  3   force =    -3.78526747   -2.30919967   -0.00000778
     atom   10 type  3   force =    -2.65480116    4.35177530   -2.78286792
     The local contribution  to forces
     atom    1 type  1   force =    -0.56883010   -1.50739101    0.53916804
     atom    2 type  1   force =    -1.59994000    0.18379404   -0.54179621
     atom    3 type  1   force =     1.59995191   -0.18385894    0.54181726
     atom    4 type  1   force =     0.56872261    1.50733600   -0.53918597
     atom    5 type  1   force =     0.00004060    0.00000975    0.00002345
     atom    6 type  2   force =    -0.00004799    0.00047615   -0.00022780
     atom    7 type  3   force =    -2.63758522    4.32531667   -2.76592718
     atom    8 type  3   force =    -3.81380783   -2.32808810   -0.00074015
     atom    9 type  3   force =     3.81346811    2.32838810    0.00046102
     atom   10 type  3   force =     2.63775111   -4.32535667    2.76593110
     The core correction contribution to forces
     atom    1 type  1   force =     0.00000000    0.00000000    0.00000000
     atom    2 type  1   force =     0.00000000    0.00000000    0.00000000
     atom    3 type  1   force =     0.00000000    0.00000000    0.00000000
     atom    4 type  1   force =     0.00000000    0.00000000    0.00000000
     atom    5 type  1   force =     0.00000000    0.00000000    0.00000000
     atom    6 type  2   force =     0.00000073    0.00000387   -0.00000286
     atom    7 type  3   force =     0.00086129   -0.00066997    0.00043745
     atom    8 type  3   force =    -0.00015154   -0.00034946   -0.00019872
     atom    9 type  3   force =     0.00015001    0.00036365    0.00019096
     atom   10 type  3   force =    -0.00086211    0.00066294   -0.00043748
     The Hubbard contrib.    to forces
     atom    1 type  1   force =     0.00000000    0.00000000    0.00000000
     atom    2 type  1   force =     0.00000000    0.00000000    0.00000000
     atom    3 type  1   force =     0.00000000    0.00000000    0.00000000
     atom    4 type  1   force =     0.00000000    0.00000000    0.00000000
     atom    5 type  1   force =     0.00000000    0.00000000    0.00000000
     atom    6 type  2   force =     0.00000000    0.00000000    0.00000000
     atom    7 type  3   force =     0.00000000    0.00000000    0.00000000
     atom    8 type  3   force =     0.00000000    0.00000000    0.00000000
     atom    9 type  3   force =     0.00000000    0.00000000    0.00000000
     atom   10 type  3   force =     0.00000000    0.00000000    0.00000000
     The SCF correction term to forces
     atom    1 type  1   force =     0.00007086   -0.00015110    0.00007865
     atom    2 type  1   force =    -0.00014015    0.00010594   -0.00010658
     atom    3 type  1   force =     0.00015714   -0.00003791    0.00009964
     atom    4 type  1   force =     0.00006646    0.00019342   -0.00008736
     atom    5 type  1   force =    -0.00006082   -0.00002551   -0.00001725
     atom    6 type  2   force =    -0.00007687   -0.00045862    0.00022752
     atom    7 type  3   force =    -0.00074862    0.00094887   -0.00064901
     atom    8 type  3   force =    -0.00038164   -0.00035106    0.00006662
     atom    9 type  3   force =     0.00069525    0.00036417    0.00006520
     atom   10 type  3   force =     0.00050803   -0.00106117    0.00065793

     Total force =     0.056985     Total SCF correction =     0.002242

     Computing stress (Cartesian axis) and pressure

     negative rho (up, down):  4.081E-02 0.000E+00
          total   stress  (Ry/bohr**3)                   (kbar)     P=       72.63
   0.00014880  -0.00018956  -0.00019192           21.89      -27.89      -28.23
  -0.00018956   0.00035882   0.00032196          -27.89       52.78       47.36
  -0.00019192   0.00032196   0.00097359          -28.23       47.36      143.22

     kinetic stress (kbar)   4651.21    -20.49    -43.86
                              -20.49   4673.99     72.44
                              -43.86     72.44   4797.75

     local   stress (kbar)   -932.84    790.94   1468.17
                              790.94  -1745.27  -2405.87
                             1468.17  -2405.87  -5851.49

     nonloc. stress (kbar)   4342.23    -10.88    -10.42
                              -10.88   4352.21     16.78
                              -10.42     16.78   4384.66

     hartree stress (kbar)   2469.17   -268.19   -639.56
                             -268.19   2745.17   1048.41
                             -639.56   1048.41   4487.38

     exc-cor stress (kbar)   4636.21     -0.86      0.56
                               -0.86   4637.08     -0.91
                                0.56     -0.91   4636.24

     corecor stress (kbar)  -7168.88      0.94      1.21
                                0.94  -7169.72     -1.92
                                1.21     -1.92  -7173.39

     ewald   stress (kbar)  -7975.20   -519.36   -804.32
                             -519.36  -7440.68   1318.44
                             -804.32   1318.44  -5137.93

     hubbard stress (kbar)      0.00      0.00      0.00
                                0.00      0.00      0.00
                                0.00      0.00      0.00

     DFT-D   stress (kbar)      0.00      0.00      0.00
                                0.00      0.00      0.00
                                0.00      0.00      0.00

     XDM     stress (kbar)      0.00      0.00      0.00
                                0.00      0.00      0.00
                                0.00      0.00      0.00

     dft-nl  stress (kbar)      0.00      0.00      0.00
                                0.00      0.00      0.00
                                0.00      0.00      0.00

     TS-vdW  stress (kbar)      0.00      0.00      0.00
                                0.00      0.00      0.00
                                0.00      0.00      0.00

[...]

                                0.00      0.00      0.00

     Writing all to output data dir new_calculations/myprefix.save/

     General routines

     Parallel routines

   This run was terminated on:  10:46:16  21May2023

   JOB DONE.