     Program PWSCF v.7.0 starts on 21May2023 at  2:20:19

     Reading input from espresso_9892.pwi
Warning: card &CELL ignored
Warning: card / ignored

     Current dimensions of program PWSCF are:
     Max number of different atomic species (ntypx) = 10
     Max number of k-points (npk) =  40000
     Max angular momentum in pseudopotentials (lmaxx) =  4
     file Ba.pbe-spn-kjpaw_psl.1.0.0.UPF: wavefunction(s)  5S 6S renormalized
     file O.pbe-n-kjpaw_psl.0.1.UPF: wavefunction(s)  2P renormalized

     gamma-point specific algorithms are used
     Message from routine setup:
     using ibrav=0 with symmetry is DISCOURAGED, use correct ibrav instead

     Subspace diagonalization in iterative solution of the eigenvalue problem:
     a serial algorithm will be used

     Using Slab Decomposition

     bravais-lattice index     =            0
     lattice parameter (alat)  =      11.6078  a.u.
     unit-cell volume          =    1105.9601 (a.u.)^3
     number of atoms/cell      =           10
     number of atomic types    =            4
     number of electrons       =        84.00
     number of Kohn-Sham states=           50
     kinetic-energy cutoff     =      30.0000  Ry
     charge density cutoff     =     240.0000  Ry
     scf convergence threshold =      1.0E-06
     mixing beta               =       0.7000
     number of iterations used =            8  plain     mixing
     Exchange-correlation= SLA  PW   PBX  PBC
                           (   1   4   3   4   0   0   0)

     celldm(1)=  11.607842  celldm(2)=   0.000000  celldm(3)=   0.000000
     celldm(4)=   0.000000  celldm(5)=   0.000000  celldm(6)=   0.000000

     crystal axes: (cart. coord. in units of alat)
               a(1) = (   1.000000   0.000000   0.000000 )
               a(2) = (   0.500000   0.866025   0.000000 )
               a(3) = (   0.500000   0.288675   0.816497 )

     reciprocal axes: (cart. coord. in units 2 pi/alat)
               b(1) = (  1.000000 -0.577350 -0.408248 )
               b(2) = (  0.000000  1.154701 -0.408248 )
               b(3) = (  0.000000  0.000000  1.224745 )

     PseudoPot. # 1 for Ba read from file:
     /home/pragov/projects/rrg-bengioy-ad/pragov/crystal_structure_design/SSSP/Ba.pbe-spn-kjpaw_psl.1.0.0.UPF
     MD5 check sum: c432291d3e53af55f19d5e8866385beb
     Pseudo is Projector augmented-wave + core cor, Zval = 10.0
     Generated using "atomic" code by A. Dal Corso  v.5.1
     Shape of augmentation charge: PSQ
     Using radial grid of 1251 points,  7 beta functions with:
                l(1) =   0
                l(2) =   0
                l(3) =   0
                l(4) =   1
                l(5) =   1
                l(6) =   2
                l(7) =   2
     Q(r) pseudized with 0 coefficients

     PseudoPot. # 2 for Ta read from file:
     /home/pragov/projects/rrg-bengioy-ad/pragov/crystal_structure_design/SSSP/Ta_pbe_v1.uspp.F.UPF
     MD5 check sum: f8bbe9446314a3b8ea5d9f3e3836c939
     Pseudo is Ultrasoft + core correction, Zval = 13.0
     Generated by new atomic code, or converted to UPF format
     Using radial grid of  921 points,  7 beta functions with:
                l(1) =   0
                l(2) =   0
                l(3) =   1
                l(4) =   1
                l(5) =   2
                l(6) =   2
                l(7) =   3
     Q(r) pseudized with  6 coefficients,  rinner =    1.300   1.300   1.300
                                                       1.300   1.300   1.300
                                                       1.300

     PseudoPot. # 3 for Bi read from file:
     /home/pragov/projects/rrg-bengioy-ad/pragov/crystal_structure_design/SSSP/Bi_pbe_v1.uspp.F.UPF
     MD5 check sum: cceb9f28ec65b6d7ff33140f5b0b1758
     Pseudo is Ultrasoft + core correction, Zval = 15.0
     Generated by new atomic code, or converted to UPF format
     Using radial grid of  899 points,  6 beta functions with:
                l(1) =   0
                l(2) =   0
                l(3) =   1
                l(4) =   1
                l(5) =   2
                l(6) =   2
     Q(r) pseudized with  6 coefficients,  rinner =    1.000   1.000   1.000
                                                       1.000   1.000

     PseudoPot. # 4 for O  read from file:
     /home/pragov/projects/rrg-bengioy-ad/pragov/crystal_structure_design/SSSP/O.pbe-n-kjpaw_psl.0.1.UPF
     MD5 check sum: 0234752ac141de4415c5fc33072bef88
     Pseudo is Projector augmented-wave + core cor, Zval =  6.0
     Generated using "atomic" code by A. Dal Corso  v.5.0.99 svn rev. 10869
     Shape of augmentation charge: BESSEL
     Using radial grid of 1095 points,  4 beta functions with:
                l(1) =   0
                l(2) =   0
                l(3) =   1
                l(4) =   1
     Q(r) pseudized with 0 coefficients

     atomic species   valence    mass     pseudopotential
        Ba            10.00   137.32700     Ba( 1.00)
        Ta            13.00   180.94788     Ta( 1.00)
        Bi            15.00   208.98040     Bi( 1.00)
        O              6.00    15.99900     O ( 1.00)

     12 Sym. Ops., with inversion, found

                                    s                        frac. trans.

      isym =  1     identity

 cryst.   s( 1) = (     1          0          0      )
                  (     0          1          0      )
                  (     0          0          1      )

 cart.    s( 1) = (  1.0000000  0.0000000  0.0000000 )
                  (  0.0000000  1.0000000 -0.0000000 )
                  (  0.0000000  0.0000000  1.0000000 )

      isym =  2     180 deg rotation - cart. axis [1,0,0]

[...]

      isym =  3     120 deg rotation - cryst. axis [0,0,1]

[...]

      isym =  6     180 deg rotation - cryst. axis [1,1,0]

[...]

      isym =  7     inversion

[...]

      isym =  8     inv. 180 deg rotation - cart. axis [1,0,0]

[...]

      isym =  9     inv. 120 deg rotation - cryst. axis [0,0,1]

 cryst.   s( 9) = (     1         -1          0      )
                  (     1          0          0      )
                  (     1          0         -1      )

 cart.    s( 9) = (  0.5000000  0.8660254 -0.0000000 )
                  ( -0.8660254  0.5000000 -0.0000000 )
                  (  0.0000000  0.0000000 -1.0000000 )

[...]

 cryst.   s(10) = (     0          1          0      )
                  (    -1          1          0      )
                  (     0          1         -1      )

 cart.    s(10) = (  0.5000000 -0.8660254  0.0000000 )
                  (  0.8660254  0.5000000 -0.0000000 )
                  (  0.0000000  0.0000000 -1.0000000 )

[...]

      isym = 12     inv. 180 deg rotation - cryst. axis [1,1,0]

 cryst.   s(12) = (     1         -1          0      )
                  (     0         -1          0      )
                  (     0         -1          1      )

 cart.    s(12) = (  0.5000000 -0.8660254  0.0000000 )
                  ( -0.8660254 -0.5000000  0.0000000 )
                  (  0.0000000  0.0000000  1.0000000 )

   Cartesian axes

     site n.     atom                  positions (alat units)
         1           Ba  tau(   1) = (   0.5000000   0.2886751   0.2041241  )
         2           Ba  tau(   2) = (   1.5000000   0.8660254   0.6123724  )
         3           Ta  tau(   3) = (   1.0000000   0.5773503   0.4082483  )
         4           Bi  tau(   4) = (   0.0000000   0.0000000   0.0000000  )
         5           O   tau(   5) = (   1.0000000   0.8438309   0.5966786  )
         6           O   tau(   6) = (   1.2307790   0.7105906   0.2198180  )
         7           O   tau(   7) = (   1.2307790   0.4441100   0.5966786  )
         8           O   tau(   8) = (   1.0000000   0.3108696   0.2198180  )
         9           O   tau(   9) = (   0.7692210   0.4441100   0.5966786  )
        10           O   tau(  10) = (   0.7692210   0.7105906   0.2198180  )

   Crystallographic axes

     site n.     atom                  positions (cryst. coord.)
         1           Ba  tau(   1) = (  0.2500000  0.2500000  0.2500000  )
         2           Ba  tau(   2) = (  0.7500000  0.7500000  0.7500000  )
         3           Ta  tau(   3) = (  0.5000000  0.5000000  0.5000000  )
         4           Bi  tau(   4) = (  0.0000000  0.0000000  0.0000000  )
         5           O   tau(   5) = (  0.2692210  0.7307790  0.7307790  )
         6           O   tau(   6) = (  0.7307790  0.7307790  0.2692210  )
         7           O   tau(   7) = (  0.7307790  0.2692210  0.7307790  )
         8           O   tau(   8) = (  0.7307790  0.2692210  0.2692210  )
         9           O   tau(   9) = (  0.2692210  0.2692210  0.7307790  )
        10           O   tau(  10) = (  0.2692210  0.7307790  0.2692210  )

     number of k points=     1  Methfessel-Paxton smearing, width (Ry)=  0.0010
                       cart. coord. in units 2pi/alat
        k(    1) = (   0.0000000   0.0000000   0.0000000), wk =   2.0000000

                       cryst. coord.
        k(    1) = (   0.0000000   0.0000000   0.0000000), wk =   2.0000000

     Check: negative core charge=   -0.000008

     Initial potential from superposition of free atoms

     starting charge      82.9648, renormalised to      84.0000

     negative rho (up, down):  1.348E-01 0.000E+00
     Starting wfcs are   56 randomized atomic wfcs
     Checking if some PAW data can be deallocated...

     Self-consistent Calculation

     iteration #  1     ecut=    30.00 Ry     beta= 0.70
     Davidson diagonalization with overlap

     ethr =  1.00E-02,  avg # of iterations =  5.0

     negative rho (up, down):  1.311E-01 0.000E+00

     total energy              =   -1448.17136710 Ry
     estimated scf accuracy    <       3.06671773 Ry

[...]

     total energy              =   -1449.72318651 Ry
     estimated scf accuracy    <       0.00000425 Ry

     iteration # 17     ecut=    30.00 Ry     beta= 0.70
     Davidson diagonalization with overlap

     ethr =  5.06E-09,  avg # of iterations =  2.0

[...]

     End of self-consistent calculation

          k = 0.0000 0.0000 0.0000 (  1560 PWs)   bands (ev):

   -57.3593 -23.9049 -23.9049 -23.9049 -17.1752 -17.1047 -11.8053 -11.8053
   -11.7336 -11.7336 -11.7336  -7.2839  -6.1710  -6.1709  -6.0447  -6.0446
    -6.0445  -2.5023  -2.5023  -2.5023  -2.2407  -2.2407  -2.2407   0.3255
     6.5474   6.5474   6.5475   6.6448   6.6449   6.9172   6.9172   6.9172
     8.8430   8.8431   8.8431   8.9885   9.1586   9.1586   9.1587   9.7841
     9.7842   9.7842  13.4226  13.7062  13.7062  13.7063  13.8255  13.8259
    13.8259  14.9117

     occupation numbers
     1.0000   1.0000   1.0000   1.0000   1.0000   1.0000   1.0000   1.0000
     1.0000   1.0000   1.0000   1.0000   1.0000   1.0000   1.0000   1.0000
     1.0000   1.0000   1.0000   1.0000   1.0000   1.0000   1.0000   1.0000
     1.0000   1.0000   1.0000   1.0000   1.0000   1.0000   1.0000   1.0000
     1.0000   1.0000   1.0000   1.0000   1.0000   1.0000   1.0000   1.0000
     1.0000   1.0000  -0.0000  -0.0000  -0.0000  -0.0000  -0.0000  -0.0000
    -0.0000  -0.0000

     the Fermi energy is    10.5138 ev

!    total energy              =   -1449.72318632 Ry
     estimated scf accuracy    <       0.00000091 Ry
     smearing contrib. (-TS)   =       0.00000000 Ry
     internal energy E=F+TS    =   -1449.72318632 Ry

     The total energy is F=E-TS. E is the sum of the following terms:
     one-electron contribution =    -159.53133887 Ry
     hartree contribution      =     134.79949259 Ry
     xc contribution           =    -192.67035384 Ry
     ewald contribution        =    -425.28798657 Ry
     one-center paw contrib.   =    -807.03299962 Ry
      -> PAW hartree energy AE =     236.25402464 Ry
      -> PAW hartree energy PS =    -235.35307338 Ry
      -> PAW xc energy AE      =    -891.67844122 Ry
      -> PAW xc energy PS      =      83.74449034 Ry
      -> total E_H with PAW    =     135.70044385 Ry
      -> total E_XC with PAW   =   -1000.60430472 Ry

     convergence has been achieved in  17 iterations

     negative rho (up, down):  1.333E-01 0.000E+00

     Forces acting on atoms (cartesian axes, Ry/au):

     atom    1 type  1   force =    -0.00000000    0.00000000    0.00001458
     atom    2 type  1   force =    -0.00000000    0.00000000   -0.00001458
     atom    3 type  2   force =     0.00000000    0.00000000    0.00000000
     atom    4 type  3   force =     0.00000000    0.00000000   -0.00000000
     atom    5 type  4   force =     0.00000000   -0.03427142   -0.02423366
     atom    6 type  4   force =    -0.02967992   -0.01713571    0.02423366
     atom    7 type  4   force =    -0.02967992    0.01713571   -0.02423366
     atom    8 type  4   force =     0.00000000    0.03427142    0.02423366
     atom    9 type  4   force =     0.02967992    0.01713571   -0.02423366
     atom   10 type  4   force =     0.02967992   -0.01713571    0.02423366
     The non-local contrib.  to forces
     atom    1 type  1   force =     0.00000000    0.00000000   -0.00006895
     atom    2 type  1   force =     0.00000000   -0.00000000    0.00006895
     atom    3 type  2   force =     0.00000000    0.00000000    0.00000000
     atom    4 type  3   force =     0.00000000    0.00000000    0.00000000
     atom    5 type  4   force =     0.00000000   -0.06774303   -0.04790551
     atom    6 type  4   force =    -0.05866718   -0.03387151    0.04790551
     atom    7 type  4   force =    -0.05866718    0.03387151   -0.04790551
     atom    8 type  4   force =     0.00000000    0.06774303    0.04790551
     atom    9 type  4   force =     0.05866718    0.03387151   -0.04790551
     atom   10 type  4   force =     0.05866718   -0.03387151    0.04790551
     The ionic contribution  to forces
     atom    1 type  1   force =    -0.00000000   -0.00000000   -0.00000000
     atom    2 type  1   force =     0.00000000    0.00000000   -0.00000000
     atom    3 type  2   force =    -0.00000000   -0.00000000   -0.00000000
     atom    4 type  3   force =    -0.00000000    0.00000000    0.00000000
     atom    5 type  4   force =    -0.00000000    3.24736639    2.29623479
     atom    6 type  4   force =     2.81230179    1.62368319   -2.29623479
     atom    7 type  4   force =     2.81230179   -1.62368319    2.29623479
     atom    8 type  4   force =    -0.00000000   -3.24736639   -2.29623479
     atom    9 type  4   force =    -2.81230179   -1.62368319    2.29623479
     atom   10 type  4   force =    -2.81230179    1.62368319   -2.29623479
     The local contribution  to forces
     atom    1 type  1   force =     0.00019941    0.00014799    0.00018139
     atom    2 type  1   force =    -0.00155789    0.00034271    0.00003583
     atom    3 type  2   force =     0.00004115   -0.00005718    0.00008387
     atom    4 type  3   force =    -0.00004925    0.00009197   -0.00012238
     atom    5 type  4   force =     0.00002409   -3.21307401   -2.27198579
     atom    6 type  4   force =    -2.78263789   -1.60655478    2.27204290
     atom    7 type  4   force =    -2.78259363    1.60653584   -2.27198031
     atom    8 type  4   force =    -0.00001067    3.21306075    2.27199820
     atom    9 type  4   force =     2.78259372    1.60651913   -2.27198186
     atom   10 type  4   force =     2.78269453   -1.60659500    2.27207244
     The core correction contribution to forces
     atom    1 type  1   force =     0.00000344    0.00000253    0.00000252
     atom    2 type  1   force =    -0.00003674    0.00000926    0.00000188
     atom    3 type  2   force =     0.00000097   -0.00000099    0.00000191
     atom    4 type  3   force =    -0.00000131    0.00000156   -0.00000179
     atom    5 type  4   force =     0.00000003   -0.00059174   -0.00041843
     atom    6 type  4   force =    -0.00051285   -0.00029610    0.00041871
     atom    7 type  4   force =    -0.00051226    0.00029574   -0.00041833
     atom    8 type  4   force =    -0.00000009    0.00059184    0.00041830
     atom    9 type  4   force =     0.00051231    0.00029590   -0.00041838
     atom   10 type  4   force =     0.00051336   -0.00029634    0.00041913
     The Hubbard contrib.    to forces
     atom    1 type  1   force =     0.00000000    0.00000000    0.00000000
     atom    2 type  1   force =     0.00000000    0.00000000    0.00000000
     atom    3 type  2   force =     0.00000000    0.00000000    0.00000000
     atom    4 type  3   force =     0.00000000    0.00000000    0.00000000
     atom    5 type  4   force =     0.00000000    0.00000000    0.00000000
     atom    6 type  4   force =     0.00000000    0.00000000    0.00000000
     atom    7 type  4   force =     0.00000000    0.00000000    0.00000000
     atom    8 type  4   force =     0.00000000    0.00000000    0.00000000
     atom    9 type  4   force =     0.00000000    0.00000000    0.00000000
     atom   10 type  4   force =     0.00000000    0.00000000    0.00000000
     The SCF correction term to forces
     atom    1 type  1   force =    -0.00003930   -0.00001955   -0.00000002
     atom    2 type  1   force =     0.00020304   -0.00004332   -0.00002087
     atom    3 type  2   force =    -0.00006059    0.00007522   -0.00011747
     atom    4 type  3   force =     0.00004689   -0.00009592    0.00012470
     atom    5 type  4   force =    -0.00002452   -0.00021472   -0.00014830
     atom    6 type  4   force =    -0.00017829   -0.00010774    0.00011174
     atom    7 type  4   force =    -0.00018271    0.00010055   -0.00014933
     atom    8 type  4   force =     0.00000652    0.00023548    0.00013365
     atom    9 type  4   force =     0.00018861    0.00012942   -0.00015329
     atom   10 type  4   force =     0.00014925   -0.00008548    0.00010858

     Total force =     0.102814     Total SCF correction =     0.000690

     Computing stress (Cartesian axis) and pressure

     negative rho (up, down):  1.333E-01 0.000E+00
          total   stress  (Ry/bohr**3)                   (kbar)     P=     -154.27
  -0.00104871  -0.00000000  -0.00000000         -154.27       -0.00       -0.00
   0.00000000  -0.00104871   0.00000000            0.00     -154.27        0.00
  -0.00000000   0.00000000  -0.00104871           -0.00        0.00     -154.27

     kinetic stress (kbar)  17178.92     -0.00     -0.00
                                0.00  17178.92     -0.00
                                0.00     -0.00  17178.92

     local   stress (kbar)  -3825.82     -0.01      0.02
                               -0.01  -3825.84     -0.01
                                0.02     -0.01  -3825.83

     nonloc. stress (kbar)   4572.91     -0.00     -0.00
                               -0.00   4572.91     -0.00
                               -0.00     -0.00   4572.91

     hartree stress (kbar)   5976.60      0.01     -0.02
                                0.01   5976.62      0.01
                               -0.02      0.01   5976.61

     exc-cor stress (kbar)   8770.93     -0.00      0.00
                               -0.00   8770.93     -0.00
                                0.00     -0.00   8770.93

     corecor stress (kbar) -13971.80      0.00     -0.00
                                0.00 -13971.80      0.00
                               -0.00      0.00 -13971.80

     ewald   stress (kbar) -18856.02      0.00     -0.00
                                0.00 -18856.02      0.00
                               -0.00      0.00 -18856.02

     hubbard stress (kbar)      0.00      0.00      0.00
                                0.00      0.00      0.00
                                0.00      0.00      0.00

     DFT-D   stress (kbar)      0.00      0.00      0.00
                                0.00      0.00      0.00
                                0.00      0.00      0.00

     XDM     stress (kbar)      0.00      0.00      0.00
                                0.00      0.00      0.00
                                0.00      0.00      0.00

     dft-nl  stress (kbar)      0.00      0.00      0.00
                                0.00      0.00      0.00
                                0.00      0.00      0.00

     TS-vdW  stress (kbar)      0.00      0.00      0.00
                                0.00      0.00      0.00
                                0.00      0.00      0.00

[...]

                                0.00      0.00      0.00

     Writing all to output data dir new_calculations/myprefix.save/

     General routines

     Parallel routines

     PAW routines

   This run was terminated on:   2:20:40  21May2023

   JOB DONE.