     Program PWSCF v.7.0 starts on 21May2023 at 17:33: 5

     Reading input from espresso_21139.pwi
Warning: card &CELL ignored
Warning: card / ignored

     Current dimensions of program PWSCF are:
     Max number of different atomic species (ntypx) = 10
     Max number of k-points (npk) =  40000
     Max angular momentum in pseudopotentials (lmaxx) =  4
     file O.pbe-n-kjpaw_psl.0.1.UPF: wavefunction(s)  2P renormalized

     gamma-point specific algorithms are used
     Message from routine setup:
     using ibrav=0 with symmetry is DISCOURAGED, use correct ibrav instead

     Subspace diagonalization in iterative solution of the eigenvalue problem:
     a serial algorithm will be used

     Using Slab Decomposition

     bravais-lattice index     =            0
     lattice parameter (alat)  =       8.9547  a.u.
     unit-cell volume          =    1217.1638 (a.u.)^3
     number of atoms/cell      =           18
     number of atomic types    =            4
     number of electrons       =        80.00
     number of Kohn-Sham states=           48
     kinetic-energy cutoff     =      30.0000  Ry
     charge density cutoff     =     240.0000  Ry
     scf convergence threshold =      1.0E-06
     mixing beta               =       0.7000
     number of iterations used =            8  plain     mixing
     Exchange-correlation=  SLA  PW   PBX  PBC
                           (   1   4   3   4   0   0   0)

     celldm(1)=   8.954715  celldm(2)=   0.000000  celldm(3)=   0.000000
     celldm(4)=   0.000000  celldm(5)=   0.000000  celldm(6)=   0.000000

     crystal axes: (cart. coord. in units of alat)
               a(1) = (   1.000000   0.000000   0.000000 )
               a(2) = (   0.021350   1.295689   0.000000 )
               a(3) = (  -0.205050  -0.237544   1.308257 )

     reciprocal axes: (cart. coord. in units 2 pi/alat)
               b(1) = (  1.000000 -0.016478  0.153743 )
               b(2) = (  0.000000  0.771790  0.140136 )
               b(3) = (  0.000000  0.000000  0.764376 )

     PseudoPot. # 1 for B  read from file:
     /home/pragov/projects/rrg-bengioy-ad/pragov/crystal_structure_design/SSSP/b_pbe_v1.4.uspp.F.UPF
     MD5 check sum: cc6de2960df11db49a60e589f9ebb39b
     Pseudo is Ultrasoft + core correction, Zval =  3.0
     Generated by new atomic code, or converted to UPF format
     Using radial grid of  781 points,  4 beta functions with:
                l(1) =   0
                l(2) =   0
                l(3) =   1
                l(4) =   1
     Q(r) pseudized with  8 coefficients,  rinner =    1.100   1.100   1.100

     PseudoPot. # 2 for H  read from file:
     /home/pragov/projects/rrg-bengioy-ad/pragov/crystal_structure_design/SSSP/H.pbe-rrkjus_psl.1.0.0.UPF
     MD5 check sum: f52b6d4d1c606e5624b1dc7b2218f220
     Pseudo is Ultrasoft, Zval =  1.0
     Generated using "atomic" code by A. Dal Corso  v.5.1
     Using radial grid of  929 points,  2 beta functions with:
                l(1) =   0
                l(2) =   0
     Q(r) pseudized with 0 coefficients

     PseudoPot. # 3 for O  read from file:
     /home/pragov/projects/rrg-bengioy-ad/pragov/crystal_structure_design/SSSP/O.pbe-n-kjpaw_psl.0.1.UPF
     MD5 check sum: 0234752ac141de4415c5fc33072bef88
     Pseudo is Projector augmented-wave + core cor, Zval =  6.0
     Generated using "atomic" code by A. Dal Corso  v.5.0.99 svn rev. 10869
     Shape of augmentation charge: BESSEL
     Using radial grid of 1095 points,  4 beta functions with:
                l(1) =   0
                l(2) =   0
                l(3) =   1
                l(4) =   1
     Q(r) pseudized with 0 coefficients

     PseudoPot. # 4 for F  read from file:
     /home/pragov/projects/rrg-bengioy-ad/pragov/crystal_structure_design/SSSP/f_pbe_v1.4.uspp.F.UPF
     MD5 check sum: 4c38b6a325caf53ec0e86aed9459de46
     Pseudo is Ultrasoft, Zval =  7.0
     Generated by new atomic code, or converted to UPF format
     Using radial grid of  799 points,  4 beta functions with:
                l(1) =   0
                l(2) =   0
                l(3) =   1
                l(4) =   1
     Q(r) pseudized with  8 coefficients,  rinner =    0.950   0.950   0.950

     atomic species   valence    mass     pseudopotential
        B              3.00    10.81000     B ( 1.00)
        H              1.00     1.00800     H ( 1.00)
        O              6.00    15.99900     O ( 1.00)
        F              7.00    18.99840     F ( 1.00)

      2 Sym. Ops., with inversion, found

                                    s                        frac. trans.

      isym =  1     identity

 cryst.   s( 1) = (     1          0          0      )
                  (     0          1          0      )
                  (     0          0          1      )

 cart.    s( 1) = (  1.0000000 -0.0000000  0.0000000 )
                  (  0.0000000  1.0000000 -0.0000000 )
                  (  0.0000000  0.0000000  1.0000000 )

      isym =  2     inversion

 cryst.   s( 2) = (    -1          0          0      )
                  (     0         -1          0      )
                  (     0          0         -1      )

 cart.    s( 2) = ( -1.0000000  0.0000000 -0.0000000 )
                  (  0.0000000 -1.0000000  0.0000000 )
                  (  0.0000000  0.0000000 -1.0000000 )

   Cartesian axes

     site n.     atom                  positions (alat units)
         1           B   tau(   1) = (   0.2724953   0.0713646   1.0443501  )
         2           B   tau(   2) = (   0.5438051   0.9867798   0.2639068  )
         3           H   tau(   3) = (   0.1364487   0.3439219   0.2144442  )
         4           H   tau(   4) = (   0.6798516   0.7142226   1.0938127  )
         5           H   tau(   5) = (   0.1647636   0.2919808   0.5613037  )
         6           H   tau(   6) = (   0.6515367   0.7661637   0.7469532  )
         7           H   tau(   7) = (   0.9002694   0.1441711   0.3822361  )
         8           H   tau(   8) = (  -0.0839691   0.9139734   0.9260209  )
         9           O   tau(   9) = (   0.0303940   0.3115282   0.3963966  )
        10           O   tau(  10) = (   0.7859063   0.7466163   0.9118603  )
        11           F   tau(  11) = (   0.0845088   0.1915184   1.2445370  )
        12           F   tau(  12) = (   0.7317915   0.8666260   0.0637200  )
        13           F   tau(  13) = (   0.1291343  -0.1464273   0.8890993  )
        14           F   tau(  14) = (   0.6871660   1.2045717   0.4191577  )
        15           F   tau(  15) = (   0.3442658   0.2865321   0.8426169  )
        16           F   tau(  16) = (   0.4720345   0.7716123   0.4656401  )
        17           F   tau(  17) = (   0.5128487  -0.0350317   1.1719876  )
        18           F   tau(  18) = (   0.3034516   1.0931761   0.1362694  )

   Crystallographic axes

     site n.     atom                  positions (cryst. coord.)
         1           B   tau(   1) = (  0.4318810  0.2014300  0.7982760  )
         2           B   tau(   2) = (  0.5681190  0.7985700  0.2017240  )
         3           H   tau(   3) = (  0.1637510  0.2954870  0.1639160  )
         4           H   tau(   4) = (  0.8362490  0.7045130  0.8360840  )
         5           H   tau(   5) = (  0.2462490  0.3040070  0.4290470  )
         6           H   tau(   6) = (  0.7537510  0.6959930  0.5709530  )
         7           H   tau(   7) = (  0.9566600  0.1648350  0.2921720  )
         8           H   tau(   8) = (  0.0433400  0.8351650  0.7078280  )
         9           O   tau(   9) = (  0.0862040  0.2959840  0.3029960  )
        10           O   tau(  10) = (  0.9137960  0.7040160  0.6970040  )
        11           F   tau(  11) = (  0.2726920  0.3222170  0.9512940  )
        12           F   tau(  12) = (  0.7273080  0.6777830  0.0487060  )
        13           F   tau(  13) = (  0.2682400  0.0115840  0.6796060  )
        14           F   tau(  14) = (  0.7317600  0.9884160  0.3203940  )
        15           F   tau(  15) = (  0.4690910  0.3392240  0.6440760  )
        16           F   tau(  16) = (  0.5309090  0.6607760  0.3559240  )
        17           F   tau(  17) = (  0.6936110  0.1372010  0.8958390  )
        18           F   tau(  18) = (  0.3063890  0.8627990  0.1041610  )

     number of k points=     1  Methfessel-Paxton smearing, width (Ry)=  0.0010
                       cart. coord. in units 2pi/alat
        k(    1) = (   0.0000000   0.0000000   0.0000000), wk =   2.0000000

                       cryst. coord.
        k(    1) = (   0.0000000   0.0000000   0.0000000), wk =   2.0000000

     Check: negative core charge=   -0.000006

     Initial potential from superposition of free atoms

     starting charge      79.9994, renormalised to      80.0000
     Starting wfcs are   54 randomized atomic wfcs
     Checking if some PAW data can be deallocated...

     Self-consistent Calculation

     iteration #  1     ecut=    30.00 Ry     beta= 0.70
     Davidson diagonalization with overlap

     ethr =  1.00E-02,  avg # of iterations =  5.0

     total energy              =    -492.42594869 Ry
     estimated scf accuracy    <       1.19812131 Ry

[...]

     total energy              =    -492.86799257 Ry
     estimated scf accuracy    <       0.00001819 Ry

     iteration #  7     ecut=    30.00 Ry     beta= 0.70
     Davidson diagonalization with overlap

     ethr =  2.27E-08,  avg # of iterations =  3.0

     End of self-consistent calculation

          k = 0.0000 0.0000 0.0000 (  1684 PWs)   bands (ev):

   -24.3176 -24.1552 -22.9647 -22.9554 -22.8955 -22.8929 -22.6972 -22.6962
   -21.6172 -21.5766  -9.1972  -8.9973  -8.9103  -8.7844  -7.9512  -7.2810
    -6.4540  -6.2938  -6.1796  -5.9919  -5.8954  -5.8157  -4.3085  -4.2798
    -3.9399  -3.8581  -3.7327  -3.4875  -3.4782  -3.3634  -3.2517  -3.1767
    -3.0808  -2.9772  -2.6437  -2.6178  -2.4235  -2.3713  -2.3154  -2.2769
     5.3729   8.4103   9.3937   9.6801   9.8532  10.5975  10.7875  11.2705

     occupation numbers
     1.0000   1.0000   1.0000   1.0000   1.0000   1.0000   1.0000   1.0000
     1.0000   1.0000   1.0000   1.0000   1.0000   1.0000   1.0000   1.0000
     1.0000   1.0000   1.0000   1.0000   1.0000   1.0000   1.0000   1.0000
     1.0000   1.0000   1.0000   1.0000   1.0000   1.0000   1.0000   1.0000
     1.0000   1.0000   1.0000   1.0000   1.0000   1.0000   1.0000   1.0000
    -0.0000  -0.0000  -0.0000  -0.0000  -0.0000  -0.0000  -0.0000  -0.0000

     the Fermi energy is     2.4415 ev

!    total energy              =    -492.86799629 Ry
     estimated scf accuracy    <       0.00000040 Ry
     smearing contrib. (-TS)   =       0.00000000 Ry
     internal energy E=F+TS    =    -492.86799629 Ry

     The total energy is F=E-TS. E is the sum of the following terms:
     one-electron contribution =    -320.33055475 Ry
     hartree contribution      =     196.44856282 Ry
     xc contribution           =    -100.08739381 Ry
     ewald contribution        =    -249.89649416 Ry
     one-center paw contrib.   =     -19.00211640 Ry
      -> PAW hartree energy AE =      66.21773708 Ry
      -> PAW hartree energy PS =     -65.97236397 Ry
      -> PAW xc energy AE      =     -35.37986133 Ry
      -> PAW xc energy PS      =      16.13237182 Ry
      -> total E_H with PAW    =     196.69393593 Ry
      -> total E_XC with PAW   =    -119.33488332 Ry

     convergence has been achieved in   7 iterations

     Forces acting on atoms (cartesian axes, Ry/au):

     atom    1 type  1   force =     0.00222976    0.00085035   -0.00215902
     atom    2 type  1   force =    -0.00222976   -0.00085035    0.00215902
     atom    3 type  2   force =     0.00511126   -0.00040389   -0.01186772
     atom    4 type  2   force =    -0.00511126    0.00040389    0.01186772
     atom    5 type  2   force =     0.00413206   -0.00166035    0.00939205
     atom    6 type  2   force =    -0.00413206    0.00166035   -0.00939205
     atom    7 type  2   force =    -0.00420322   -0.01020960   -0.00217261
     atom    8 type  2   force =     0.00420322    0.01020960    0.00217261
     atom    9 type  3   force =    -0.00644396    0.01152098    0.00469138
     atom   10 type  3   force =     0.00644396   -0.01152098   -0.00469138
     atom   11 type  4   force =     0.00495509    0.00151892   -0.00568741
     atom   12 type  4   force =    -0.00495509   -0.00151892    0.00568741
     atom   13 type  4   force =     0.00290061    0.00588024    0.00328887
     atom   14 type  4   force =    -0.00290061   -0.00588024   -0.00328887
     atom   15 type  4   force =    -0.00245134   -0.00709848    0.00525797
     atom   16 type  4   force =     0.00245134    0.00709848   -0.00525797
     atom   17 type  4   force =    -0.00986340   -0.00160951   -0.00636365
     atom   18 type  4   force =     0.00986340    0.00160951    0.00636365
     The non-local contrib.  to forces
     atom    1 type  1   force =    -0.04393761    0.02110233   -0.03829989
     atom    2 type  1   force =     0.04393761   -0.02110233    0.03829989
     atom    3 type  2   force =    -0.04659999   -0.01709481    0.08273360
     atom    4 type  2   force =     0.04659999    0.01709481   -0.08273360
     atom    5 type  2   force =    -0.05925462    0.00617926   -0.07455070
     atom    6 type  2   force =     0.05925462   -0.00617926    0.07455070
     atom    7 type  2   force =     0.06234403    0.07597348    0.00660817
     atom    8 type  2   force =    -0.06234403   -0.07597348   -0.00660817
     atom    9 type  3   force =     0.91990386   -1.32085038   -0.24449714
     atom   10 type  3   force =    -0.91990386    1.32085038    0.24449714
     atom   11 type  4   force =     1.00061568   -0.94493376   -0.87326926
     atom   12 type  4   force =    -1.00061568    0.94493376    0.87326926
     atom   13 type  4   force =     0.54581466    1.03133804    0.97583127
     atom   14 type  4   force =    -0.54581466   -1.03133804   -0.97583127
     atom   15 type  4   force =    -0.67550984   -1.26428129    0.83337693
     atom   16 type  4   force =     0.67550984    1.26428129   -0.83337693
     atom   17 type  4   force =    -1.65428405    0.72379665   -0.87071577
     atom   18 type  4   force =     1.65428405   -0.72379665    0.87071577
     The ionic contribution  to forces
     atom    1 type  1   force =    -0.04443028    0.44276767   -0.34614936
     atom    2 type  1   force =     0.04443028   -0.44276767    0.34614936
     atom    3 type  2   force =     0.87410258    0.53078194   -1.45438290
     atom    4 type  2   force =    -0.87410258   -0.53078194    1.45438290
     atom    5 type  2   force =     1.20534792    0.16877859    1.46667975
     atom    6 type  2   force =    -1.20534792   -0.16877859   -1.46667975
     atom    7 type  2   force =    -1.31621588   -1.37114094    0.01124189
     atom    8 type  2   force =     1.31621588    1.37114095   -0.01124189
     atom    9 type  3   force =    -2.54139828    4.11905509    1.73344283
     atom   10 type  3   force =     2.54139828   -4.11905509   -1.73344283
     atom   11 type  4   force =    -5.87005181    5.18027450    4.60744554
     atom   12 type  4   force =     5.87005181   -5.18027450   -4.60744554
     atom   13 type  4   force =    -3.82948373   -6.15428003   -5.85757837
     atom   14 type  4   force =     3.82948373    6.15428003    5.85757837
     atom   15 type  4   force =     3.35468897    7.83282700   -5.65361660
     atom   16 type  4   force =    -3.35468897   -7.83282700    5.65361660
     atom   17 type  4   force =     8.32639569   -1.99047435    3.34329683
     atom   18 type  4   force =    -8.32639569    1.99047435   -3.34329683
     The local contribution  to forces
     atom    1 type  1   force =     0.08778463   -0.46189977    0.38006303
     atom    2 type  1   force =    -0.08778536    0.46190153   -0.38006170
     atom    3 type  2   force =    -0.82238064   -0.51407306    1.35975690
     atom    4 type  2   force =     0.82238406    0.51407336   -1.35976233
     atom    5 type  2   force =    -1.14194824   -0.17659376   -1.38272840
     atom    6 type  2   force =     1.14195279    0.17659294    1.38273352
     atom    7 type  2   force =     1.24965539    1.28495114   -0.02002393
     atom    8 type  2   force =    -1.24965789   -1.28495654    0.02002334
     atom    9 type  3   force =     1.62395388   -2.79934016   -1.48647853
     atom   10 type  3   force =    -1.62395394    2.79933326    1.48647264
     atom   11 type  4   force =     4.87406105   -4.23356728   -3.73945714
     atom   12 type  4   force =    -4.87406128    4.23356849    3.73945896
     atom   13 type  4   force =     3.28633138    5.12843260    4.88480033
     atom   14 type  4   force =    -3.28633193   -5.12844739   -4.88480342
     atom   15 type  4   force =    -2.68141280   -6.57517594    4.82518007
     atom   16 type  4   force =     2.68140557    6.57518006   -4.82518096
     atom   17 type  4   force =    -6.68145376    1.26500163   -2.47871931
     atom   18 type  4   force =     6.68145293   -1.26500122    2.47872664
     The core correction contribution to forces
     atom    1 type  1   force =     0.00284235   -0.00108951    0.00227877
     atom    2 type  1   force =    -0.00284231    0.00108960   -0.00227845
     atom    3 type  2   force =     0.00000000    0.00000000    0.00000000
     atom    4 type  2   force =     0.00000000    0.00000000    0.00000000
     atom    5 type  2   force =     0.00000000    0.00000000    0.00000000
     atom    6 type  2   force =     0.00000000    0.00000000    0.00000000
     atom    7 type  2   force =     0.00000000    0.00000000    0.00000000
     atom    8 type  2   force =     0.00000000    0.00000000    0.00000000
     atom    9 type  3   force =    -0.00890349    0.01273377    0.00227171
     atom   10 type  3   force =     0.00890341   -0.01273378   -0.00227177
     atom   11 type  4   force =     0.00000000    0.00000000    0.00000000
     atom   12 type  4   force =     0.00000000    0.00000000    0.00000000
     atom   13 type  4   force =     0.00000000    0.00000000    0.00000000
     atom   14 type  4   force =     0.00000000    0.00000000    0.00000000
     atom   15 type  4   force =     0.00000000    0.00000000    0.00000000
     atom   16 type  4   force =     0.00000000    0.00000000    0.00000000
     atom   17 type  4   force =     0.00000000    0.00000000    0.00000000
     atom   18 type  4   force =     0.00000000    0.00000000    0.00000000
     The Hubbard contrib.    to forces
     atom    1 type  1   force =     0.00000000    0.00000000    0.00000000
     atom    2 type  1   force =     0.00000000    0.00000000    0.00000000
     atom    3 type  2   force =     0.00000000    0.00000000    0.00000000
     atom    4 type  2   force =     0.00000000    0.00000000    0.00000000
     atom    5 type  2   force =     0.00000000    0.00000000    0.00000000
     atom    6 type  2   force =     0.00000000    0.00000000    0.00000000
     atom    7 type  2   force =     0.00000000    0.00000000    0.00000000
     atom    8 type  2   force =     0.00000000    0.00000000    0.00000000
     atom    9 type  3   force =     0.00000000    0.00000000    0.00000000
     atom   10 type  3   force =     0.00000000    0.00000000    0.00000000
     atom   11 type  4   force =     0.00000000    0.00000000    0.00000000
     atom   12 type  4   force =     0.00000000    0.00000000    0.00000000
     atom   13 type  4   force =     0.00000000    0.00000000    0.00000000
     atom   14 type  4   force =     0.00000000    0.00000000    0.00000000
     atom   15 type  4   force =     0.00000000    0.00000000    0.00000000
     atom   16 type  4   force =     0.00000000    0.00000000    0.00000000
     atom   17 type  4   force =     0.00000000    0.00000000    0.00000000
     atom   18 type  4   force =     0.00000000    0.00000000    0.00000000
     The SCF correction term to forces
     atom    1 type  1   force =    -0.00002828   -0.00003002   -0.00004884
     atom    2 type  1   force =     0.00003108    0.00002887    0.00005266
     atom    3 type  2   force =    -0.00001039   -0.00001803    0.00002447
     atom    4 type  2   force =     0.00000757    0.00001761   -0.00001946
     atom    5 type  2   force =    -0.00001263   -0.00002437   -0.00000882
     atom    6 type  2   force =     0.00000880    0.00002534    0.00000324
     atom    7 type  2   force =     0.00001268    0.00000581    0.00000118
     atom    8 type  2   force =    -0.00001129   -0.00000224   -0.00000073
     atom    9 type  3   force =    -0.00000160   -0.00007674   -0.00005111
     atom   10 type  3   force =    -0.00000160    0.00008485    0.00004981
     atom   11 type  4   force =     0.00032984   -0.00025637   -0.00040498
     atom   12 type  4   force =    -0.00033025    0.00025149    0.00040628
     atom   13 type  4   force =     0.00023794    0.00039279    0.00023756
     atom   14 type  4   force =    -0.00023811   -0.00037168   -0.00023065
     atom   15 type  4   force =    -0.00021643   -0.00046997    0.00031739
     atom   16 type  4   force =     0.00022613    0.00046239   -0.00031685
     atom   17 type  4   force =    -0.00052050    0.00006659   -0.00022749
     atom   18 type  4   force =     0.00052290   -0.00006694    0.00021599

     Total force =     0.043494     Total SCF correction =     0.001615

     Computing stress (Cartesian axis) and pressure

          total   stress  (Ry/bohr**3)                   (kbar)     P=     -191.36
  -0.00124290   0.00007109   0.00000132         -182.84       10.46        0.19
   0.00007109  -0.00134353  -0.00000601           10.46     -197.64       -0.88
   0.00000132  -0.00000601  -0.00131612            0.19       -0.88     -193.61

     kinetic stress (kbar)  15438.35   -256.94    -60.13
                             -256.94  15641.39     95.27
                              -60.13     95.27  15234.73

     local   stress (kbar)  -9951.85  -3391.21   -440.15
                            -3391.21  -9807.86   1344.49
                             -440.15   1344.49 -13595.96

     nonloc. stress (kbar)   1424.66     -2.53     -3.10
                               -2.53   1430.38      4.72
                               -3.10      4.72   1413.40

     hartree stress (kbar)   7408.67   1283.44    120.60
                             1283.44   7540.39   -473.80
                              120.60   -473.80   8793.49

     exc-cor stress (kbar)  -3492.56      6.03      1.44
                                6.03  -3498.16     -2.75
                                1.44     -2.75  -3488.05

     corecor stress (kbar)   -288.11      1.06     -0.25
                                1.06   -287.57      0.05
                               -0.25      0.05   -287.21

     ewald   stress (kbar) -10722.00   2370.61    381.79
                             2370.61 -11216.22   -968.86
                              381.79   -968.86  -8264.00

     hubbard stress (kbar)      0.00      0.00      0.00
                                0.00      0.00      0.00
                                0.00      0.00      0.00

     DFT-D   stress (kbar)      0.00      0.00      0.00
                                0.00      0.00      0.00
                                0.00      0.00      0.00

     XDM     stress (kbar)      0.00      0.00      0.00
                                0.00      0.00      0.00
                                0.00      0.00      0.00

     dft-nl  stress (kbar)      0.00      0.00      0.00
                                0.00      0.00      0.00
                                0.00      0.00      0.00

     TS-vdW  stress (kbar)      0.00      0.00      0.00
                                0.00      0.00      0.00
                                0.00      0.00      0.00

[...]

                                0.00      0.00      0.00

     Writing all to output data dir new_calculations/myprefix.save/

     General routines

     Parallel routines

     PAW routines

   This run was terminated on:  17:33:17  21May2023

   JOB DONE.