     Program PWSCF v.7.0 starts on 21May2023 at  3:52: 3

     Reading input from espresso_13882.pwi
Warning: card &CELL ignored
Warning: card / ignored

     Current dimensions of program PWSCF are:
     Max number of different atomic species (ntypx) = 10
     Max number of k-points (npk) =  40000
     Max angular momentum in pseudopotentials (lmaxx) =  4

     gamma-point specific algorithms are used
     Message from routine setup:
     using ibrav=0 with symmetry is DISCOURAGED, use correct ibrav instead

     Subspace diagonalization in iterative solution of the eigenvalue problem:
     a serial algorithm will be used

     Using Slab Decomposition

     bravais-lattice index     =            0
     lattice parameter (alat)  =      11.8389  a.u.
     unit-cell volume          =     722.4808 (a.u.)^3
     number of atoms/cell      =            4
     number of atomic types    =            2
     number of electrons       =        53.00
     number of Kohn-Sham states=           32
     kinetic-energy cutoff     =      30.0000  Ry
     charge density cutoff     =     240.0000  Ry
     scf convergence threshold =      1.0E-06
     mixing beta               =       0.7000
     number of iterations used =            8  plain     mixing
     Exchange-correlation= SLA  PW   PBE  PBE
                           (   1   4   3   4   0   0   0)

     celldm(1)=  11.838869  celldm(2)=   0.000000  celldm(3)=   0.000000
     celldm(4)=   0.000000  celldm(5)=   0.000000  celldm(6)=   0.000000

     crystal axes: (cart. coord. in units of alat)
               a(1) = (   1.000000   0.000000   0.000000 )
               a(2) = (   0.496677   0.867935   0.000000 )
               a(3) = (  -0.748339  -0.433968   0.501659 )

     reciprocal axes: (cart. coord. in units 2 pi/alat)
               b(1) = (  1.000000 -0.572251  0.996694 )
               b(2) = (  0.000000  1.152160  0.996694 )
               b(3) = (  0.000000  0.000000  1.993387 )

     PseudoPot. # 1 for Y  read from file:
     /home/pragov/projects/rrg-bengioy-ad/pragov/crystal_structure_design/SSSP/Y_pbe_v1.uspp.F.UPF
     MD5 check sum: 2cf71db95cafeb975fc457bd7f14888e
     Pseudo is Ultrasoft + core correction, Zval = 11.0
     Generated by new atomic code, or converted to UPF format
     Using radial grid of  885 points,  6 beta functions with:
                l(1) =   0
                l(2) =   0
                l(3) =   1
                l(4) =   1
                l(5) =   2
                l(6) =   2
     Q(r) pseudized with  6 coefficients,  rinner =    1.200   1.200   1.200
                                                       1.200   1.200

     PseudoPot. # 2 for Sn read from file:
     /home/pragov/projects/rrg-bengioy-ad/pragov/crystal_structure_design/SSSP/Sn_pbe_v1.uspp.F.UPF
     MD5 check sum: 4cf58ce39ec5d5d420df3dd08604eb00
     Pseudo is Ultrasoft + core correction, Zval = 14.0
     Generated by new atomic code, or converted to UPF format
     Using radial grid of  891 points,  6 beta functions with:
                l(1) =   0
                l(2) =   0
                l(3) =   1
                l(4) =   1
                l(5) =   2
                l(6) =   2
     Q(r) pseudized with  6 coefficients,  rinner =    1.200   1.200   1.200
                                                       1.200   1.200

     atomic species   valence    mass     pseudopotential
        Y             11.00    88.90584     Y ( 1.00)
        Sn            14.00   118.71000     Sn( 1.00)

      4 Sym. Ops., with inversion, found

                                    s                        frac. trans.

      isym =  1     identity

 cryst.   s( 1) = (     1          0          0      )
                  (     0          1          0      )
                  (     0          0          1      )

 cart.    s( 1) = (  1.0000000 -0.0000000 -0.0000000 )
                  (  0.0000000  1.0000000  0.0000000 )
                  (  0.0000000  0.0000000  1.0000000 )

      isym =  2     180 deg rotation - cart. axis [0,0,1]

[...]

      isym =  3     inversion

[...]

      isym =  4     inv. 180 deg rotation - cart. axis [0,0,1]

 cryst.   s( 4) = (     1          0          0      )
                  (     0          1          0      )
                  (    -1         -1         -1      )

 cart.    s( 4) = (  1.0000000 -0.0000000  0.0000000 )
                  (  0.0000000  1.0000000  0.0000000 )
                  (  0.0000000  0.0000000 -1.0000000 )

   Cartesian axes

     site n.     atom                  positions (alat units)
         1           Y   tau(   1) = (   0.0000000   0.0000000   0.0000000  )
         2           Sn  tau(   2) = (   0.7483386   0.4339677   0.0000000  )
         3           Sn  tau(   3) = (   0.2483386   0.4339677   0.2508293  )
         4           Sn  tau(   4) = (   0.5000000   0.0000000   0.2508293  )

   Crystallographic axes

     site n.     atom                  positions (cryst. coord.)
         1           Y   tau(   1) = (  0.0000000  0.0000000  0.0000000  )
         2           Sn  tau(   2) = (  0.5000000  0.5000000  0.0000000  )
         3           Sn  tau(   3) = (  0.2500000  0.7500000  0.5000000  )
         4           Sn  tau(   4) = (  0.7500000  0.2500000  0.5000000  )

     number of k points=     1  Methfessel-Paxton smearing, width (Ry)=  0.0010
                       cart. coord. in units 2pi/alat
        k(    1) = (   0.0000000   0.0000000   0.0000000), wk =   2.0000000

                       cryst. coord.
        k(    1) = (   0.0000000   0.0000000   0.0000000), wk =   2.0000000

     Check: negative core charge=   -0.000003

     Initial potential from superposition of free atoms

     starting charge      49.9954, renormalised to      53.0000

     negative rho (up, down):  4.602E-02 0.000E+00
     Starting wfcs are   40 randomized atomic wfcs

     Self-consistent Calculation

     iteration #  1     ecut=    30.00 Ry     beta= 0.70
     Davidson diagonalization with overlap

     ethr =  1.00E-02,  avg # of iterations =  2.0

     negative rho (up, down):  4.067E-02 0.000E+00

     total energy              =    -576.32133846 Ry
     estimated scf accuracy    <       2.23636775 Ry

[...]

     total energy              =    -577.05700278 Ry
     estimated scf accuracy    <       0.00001314 Ry

     iteration # 15     ecut=    30.00 Ry     beta= 0.70
     Davidson diagonalization with overlap

     ethr =  1.34E-08,  avg # of iterations =  1.0

[...]

     End of self-consistent calculation

          k = 0.0000 0.0000 0.0000 (  1033 PWs)   bands (ev):

   -31.6659 -11.7807 -11.6441 -11.6340 -11.3429 -11.2655 -11.2337 -11.2234
   -11.2226  -9.1633  -9.0754  -8.9798  -8.9582  -8.9562  -8.8789  -8.8693
    -8.8655  -8.8196  -8.7408   1.0472   4.8485   7.7529   8.5359   9.6883
     9.6887  10.2645  11.1427  11.1429  13.1839  13.7319  14.3758  14.5824

     occupation numbers
     1.0000   1.0000   1.0000   1.0000   1.0000   1.0000   1.0000   1.0000
     1.0000   1.0000   1.0000   1.0000   1.0000   1.0000   1.0000   1.0000
     1.0000   1.0000   1.0000   1.0000   1.0000   1.0000   1.0000   1.0000
     1.0000   1.0000   0.2528   0.2472  -0.0000  -0.0000  -0.0000  -0.0000

     the Fermi energy is    11.1386 ev

!    total energy              =    -577.05700263 Ry
     estimated scf accuracy    <       0.00000067 Ry
     smearing contrib. (-TS)   =      -0.00041259 Ry
     internal energy E=F+TS    =    -577.05659004 Ry

     The total energy is F=E-TS. E is the sum of the following terms:
     one-electron contribution =    -176.40730345 Ry
     hartree contribution      =     124.14685637 Ry
     xc contribution           =    -164.85294439 Ry
     ewald contribution        =    -359.94319856 Ry

     convergence has been achieved in  15 iterations

     negative rho (up, down):  4.066E-02 0.000E+00

     Forces acting on atoms (cartesian axes, Ry/au):

     atom    1 type  1   force =     0.00000000    0.00000000    0.00000000
     atom    2 type  2   force =     0.00000000    0.00000000    0.00000000
     atom    3 type  2   force =     0.00000000    0.00000000   -0.00014827
     atom    4 type  2   force =     0.00000000    0.00000000    0.00014827
     The non-local contrib.  to forces
     atom    1 type  1   force =     0.00000000    0.00000000    0.00000000
     atom    2 type  2   force =     0.00000000    0.00000000    0.00000000
     atom    3 type  2   force =     0.00000000    0.00000000    0.00001083
     atom    4 type  2   force =     0.00000000    0.00000000   -0.00001083
     The ionic contribution  to forces
     atom    1 type  1   force =    -0.00000000   -0.00000000   -0.00000000
     atom    2 type  2   force =    -0.00000000    0.00000000   -0.00000000
     atom    3 type  2   force =     0.00000000    0.00000000    0.00000000
     atom    4 type  2   force =     0.00000000   -0.00000000    0.00000000
     The local contribution  to forces
     atom    1 type  1   force =     0.00001938    0.00001342   -0.00000238
     atom    2 type  2   force =     0.00003337    0.00001498   -0.00000035
     atom    3 type  2   force =    -0.00016931    0.00001163   -0.00015966
     atom    4 type  2   force =     0.00010079   -0.00005022    0.00015844
     The core correction contribution to forces
     atom    1 type  1   force =     0.00000015    0.00000012   -0.00000013
     atom    2 type  2   force =     0.00000049    0.00000018    0.00000003
     atom    3 type  2   force =    -0.00001196    0.00000235   -0.00000604
     atom    4 type  2   force =     0.00001065   -0.00000310    0.00000589
     The Hubbard contrib.    to forces
     atom    1 type  1   force =     0.00000000    0.00000000    0.00000000
     atom    2 type  2   force =     0.00000000    0.00000000    0.00000000
     atom    3 type  2   force =     0.00000000    0.00000000    0.00000000
     atom    4 type  2   force =     0.00000000    0.00000000    0.00000000
     The SCF correction term to forces
     atom    1 type  1   force =    -0.00001956   -0.00001233    0.00000110
     atom    2 type  2   force =    -0.00003657   -0.00001656    0.00000029
     atom    3 type  2   force =     0.00012473    0.00007189    0.00000547
     atom    4 type  2   force =    -0.00004355   -0.00002755   -0.00000638

     Total force =     0.000210     Total SCF correction =     0.000160
     SCF correction compared to forces is large: reduce conv_thr to get better values

     Computing stress (Cartesian axis) and pressure

     negative rho (up, down):  4.066E-02 0.000E+00
          total   stress  (Ry/bohr**3)                   (kbar)     P=       43.90
  -0.00046528  -0.00081355  -0.00000000          -68.44     -119.68       -0.00
  -0.00081355   0.00043063  -0.00000000         -119.68       63.35       -0.00
  -0.00000000  -0.00000000   0.00092996           -0.00       -0.00      136.80

     kinetic stress (kbar)  11542.92   -103.25      0.00
                             -103.25  11659.41      0.00
                                0.00      0.00  11722.42

     local   stress (kbar)   3983.73   1552.67      0.47
                             1552.67   2202.86      0.45
                                0.47      0.45   1296.48

     nonloc. stress (kbar)   8058.39     10.28      0.00
                               10.28   8046.64      0.00
                                0.00      0.00   8044.32

     hartree stress (kbar)   7911.37   -536.33     -0.14
                             -536.33   8526.01      0.30
                               -0.14      0.30   8840.29

     exc-cor stress (kbar)  13943.63     -1.11     -0.00
                               -1.11  13944.95     -0.00
                               -0.00     -0.00  13945.65

     corecor stress (kbar) -20083.16     -0.57      0.01
                               -0.57 -20083.03      0.14
                                0.01      0.14 -20082.77

     ewald   stress (kbar) -25425.33  -1041.36      0.00
                            -1041.36 -24233.49      0.00
                                0.00      0.00 -23629.60

     hubbard stress (kbar)      0.00      0.00      0.00
                                0.00      0.00      0.00
                                0.00      0.00      0.00

     DFT-D   stress (kbar)      0.00      0.00      0.00
                                0.00      0.00      0.00
                                0.00      0.00      0.00

     XDM     stress (kbar)      0.00      0.00      0.00
                                0.00      0.00      0.00
                                0.00      0.00      0.00

     dft-nl  stress (kbar)      0.00      0.00      0.00
                                0.00      0.00      0.00
                                0.00      0.00      0.00

     TS-vdW  stress (kbar)      0.00      0.00      0.00
                                0.00      0.00      0.00
                                0.00      0.00      0.00

[...]

                                0.00      0.00      0.00

     Writing all to output data dir new_calculations/myprefix.save/

     General routines

     Parallel routines

   This run was terminated on:   3:52:12  21May2023

   JOB DONE.