     Program PWSCF v.7.0 starts on 21May2023 at  6:53:22

     Reading input from espresso_6894.pwi
Warning: card &CELL ignored
Warning: card / ignored

     Current dimensions of program PWSCF are:
     Max number of different atomic species (ntypx) = 10
     Max number of k-points (npk) =  40000
     Max angular momentum in pseudopotentials (lmaxx) =  4

     gamma-point specific algorithms are used
     Message from routine setup:
     using ibrav=0 with symmetry is DISCOURAGED, use correct ibrav instead

     Subspace diagonalization in iterative solution of the eigenvalue problem:
     a serial algorithm will be used

     Using Slab Decomposition

     bravais-lattice index     =            0
     lattice parameter (alat)  =      13.6207  a.u.
     unit-cell volume          =    1315.8773 (a.u.)^3
     number of atoms/cell      =            8
     number of atomic types    =            3
     number of electrons       =        66.00
     number of Kohn-Sham states=           40
     kinetic-energy cutoff     =      30.0000  Ry
     charge density cutoff     =     240.0000  Ry
     scf convergence threshold =      1.0E-06
     mixing beta               =       0.7000
     number of iterations used =            8  plain     mixing
     Exchange-correlation=  SLA  PW   PBX  PBC
                           (   1   4   3   4   0   0   0)

     celldm(1)=  13.620662  celldm(2)=   0.000000  celldm(3)=   0.000000
     celldm(4)=   0.000000  celldm(5)=   0.000000  celldm(6)=   0.000000

     crystal axes: (cart. coord. in units of alat)
               a(1) = (   1.000000   0.000000   0.000000 )
               a(2) = (   0.371063   0.928608   0.000000 )
               a(3) = (  -0.685532  -0.464304   0.560775 )

     reciprocal axes: (cart. coord. in units 2 pi/alat)
               b(1) = (  1.000000 -0.399591  0.891623 )
               b(2) = (  0.000000  1.076881  0.891623 )
               b(3) = (  0.000000  0.000000  1.783247 )

     PseudoPot. # 1 for Na read from file:
     /home/pragov/projects/rrg-bengioy-ad/pragov/crystal_structure_design/SSSP/na_pbe_v1.5.uspp.F.UPF
     MD5 check sum: 44600605ef58000f06b90626533354dc
     Pseudo is Ultrasoft, Zval =  9.0
     Generated by new atomic code, or converted to UPF format
     Using radial grid of  819 points,  5 beta functions with:
                l(1) =   0
                l(2) =   0
                l(3) =   1
                l(4) =   1
                l(5) =   2
     Q(r) pseudized with  8 coefficients,  rinner =    1.250   1.250   1.250
                                                       1.250   1.250

     PseudoPot. # 2 for Ce read from file:
     /home/pragov/projects/rrg-bengioy-ad/pragov/crystal_structure_design/SSSP/Ce.GGA-PBE-paw-v1.0.UPF
     MD5 check sum: f2b950f613061344c13339c8d844425d
     Pseudo is Projector augmented-wave + core cor, Zval = 12.0
     Generated using ATOMPAW code
     Shape of augmentation charge: BESSEL
     Using radial grid of 1102 points,  8 beta functions with:
                l(1) =   0
                l(2) =   0
                l(3) =   1
                l(4) =   1
                l(5) =   2
                l(6) =   2
                l(7) =   3
                l(8) =   3
     Q(r) pseudized with 0 coefficients

     PseudoPot. # 3 for S  read from file:
     /home/pragov/projects/rrg-bengioy-ad/pragov/crystal_structure_design/SSSP/s_pbe_v1.4.uspp.F.UPF
     MD5 check sum: 88d86576ff6df21479756cfb9bdac1df
     Pseudo is Ultrasoft + core correction, Zval =  6.0
     Generated by new atomic code, or converted to UPF format
     Using radial grid of  907 points,  6 beta functions with:
                l(1) =   0
                l(2) =   0
                l(3) =   1
                l(4) =   1
                l(5) =   2
                l(6) =   2
     Q(r) pseudized with  8 coefficients,  rinner =    1.300   1.300   1.300
                                                       1.300   1.300

     atomic species   valence    mass     pseudopotential
        Na             9.00    22.98977     Na( 1.00)
        Ce            12.00   140.11600     Ce( 1.00)
        S              6.00    32.06000     S ( 1.00)

      4 Sym. Ops., with inversion, found ( 2 have fractional translation)

                                    s                        frac. trans.

      isym =  1     identity

 cryst.   s( 1) = (     1          0          0      )
                  (     0          1          0      )
                  (     0          0          1      )

 cart.    s( 1) = (  1.0000000  0.0000000 -0.0000000 )
                  (  0.0000000  1.0000000  0.0000000 )
                  (  0.0000000  0.0000000  1.0000000 )

      isym =  2     180 deg rotation - cart. axis [0,0,1]

 cryst.   s( 2) = (    -1          0          0      )
                  (     0         -1          0      )
                  (     1          1          1      )

 cart.    s( 2) = ( -1.0000000 -0.0000000  0.0000000 )
                  (  0.0000000 -1.0000000  0.0000000 )
                  (  0.0000000  0.0000000  1.0000000 )

      isym =  3     inversion

 cryst.   s( 3) = (    -1          0          0      )    f =(  0.2500000 )
                  (     0         -1          0      )       ( -0.2500000 )
                  (     0          0         -1      )       ( -0.5000000 )

 cart.    s( 3) = ( -1.0000000 -0.0000000  0.0000000 )    f =(  0.5000000 )
                  (  0.0000000 -1.0000000 -0.0000000 )       (  0.0000000 )
                  (  0.0000000  0.0000000 -1.0000000 )       ( -0.2803874 )

      isym =  4     inv. 180 deg rotation - cart. axis [0,0,1]

 cryst.   s( 4) = (     1          0          0      )    f =(  0.2500000 )
                  (     0          1          0      )       ( -0.2500000 )
                  (    -1         -1         -1      )       ( -0.5000000 )

 cart.    s( 4) = (  1.0000000  0.0000000 -0.0000000 )    f =(  0.5000000 )
                  (  0.0000000  1.0000000 -0.0000000 )       ( -0.0000000 )
                  (  0.0000000  0.0000000 -1.0000000 )       ( -0.2803874 )

   Cartesian axes

     site n.     atom                  positions (alat units)
         1           Na  tau(   1) = (   0.0000000   0.0000000   0.0000000  )
         2           Na  tau(   2) = (   0.5000000   0.0000000   0.2803874  )
         3           Ce  tau(   3) = (   0.1855316   0.4643038   0.2803874  )
         4           Ce  tau(   4) = (   0.6855316   0.4643038   0.0000000  )
         5           S   tau(   5) = (   1.0096907   0.6838536   0.0000000  )
         6           S   tau(   6) = (   0.5096907   0.6838536   0.2803874  )
         7           S   tau(   7) = (   0.3613725   0.2447540   0.0000000  )
         8           S   tau(   8) = (  -0.1386275   0.2447540   0.2803874  )

   Crystallographic axes

     site n.     atom                  positions (cryst. coord.)
         1           Na  tau(   1) = (  0.0000000  0.0000000  0.0000000  )
         2           Na  tau(   2) = (  0.7500000  0.2500000  0.5000000  )
         3           Ce  tau(   3) = (  0.2500000  0.7500000  0.5000000  )
         4           Ce  tau(   4) = (  0.5000000  0.5000000  0.0000000  )
         5           S   tau(   5) = (  0.7364290  0.7364290  0.0000000  )
         6           S   tau(   6) = (  0.4864290  0.9864290  0.5000000  )
         7           S   tau(   7) = (  0.2635710  0.2635710  0.0000000  )
         8           S   tau(   8) = (  0.0135710  0.5135710  0.5000000  )

     number of k points=     1  Methfessel-Paxton smearing, width (Ry)=  0.0010
                       cart. coord. in units 2pi/alat
        k(    1) = (   0.0000000   0.0000000   0.0000000), wk =   2.0000000

                       cryst. coord.
        k(    1) = (   0.0000000   0.0000000   0.0000000), wk =   2.0000000

     Initial potential from superposition of free atoms

     starting charge      65.9733, renormalised to      66.0000
     Starting wfcs are   90 randomized atomic wfcs
     Checking if some PAW data can be deallocated...

     Self-consistent Calculation

     iteration #  1     ecut=    30.00 Ry     beta= 0.70
     Davidson diagonalization with overlap

     ethr =  1.00E-02,  avg # of iterations =  2.0

     total energy              =   -1251.31317274 Ry
     estimated scf accuracy    <       0.68492863 Ry

[...]

     ethr =  3.60E-04,  avg # of iterations =  2.0
     Minimization algorithm failed to find Fermi energy: reverting to bisection
     Possible cause: smearing is larger than the electronic band-gap.

[...]

     c_bands:  2 eigenvalues not converged
     ethr =  5.57E-06,  avg # of iterations = 20.0

[...]

     total energy              =   -1251.66160424 Ry
     estimated scf accuracy    <       0.00000136 Ry

     iteration # 87     ecut=    30.00 Ry     beta= 0.70
     Davidson diagonalization with overlap

     ethr =  2.07E-09,  avg # of iterations =  1.0

     End of self-consistent calculation

          k = 0.0000 0.0000 0.0000 (  1818 PWs)   bands (ev):

   -44.3899 -44.3893 -27.2272 -27.1902 -16.3167 -16.3117 -16.2979 -16.2978
   -16.2966 -16.2966 -10.2396 -10.2395 -10.2367 -10.1363 -10.1362  -9.9061
    -5.1304  -4.7946  -4.4978  -4.4447   4.2293   4.4197   4.4575   4.4575
     4.5888   4.5983   4.5983   5.2752   5.2753   5.5815   5.5815   5.6817
     7.9837   7.9838   7.9838   7.9920   8.1218   8.1219   8.1420   8.2002

     occupation numbers
     1.0000   1.0000   1.0000   1.0000   1.0000   1.0000   1.0000   1.0000
     1.0000   1.0000   1.0000   1.0000   1.0000   1.0000   1.0000   1.0000
     1.0000   1.0000   1.0000   1.0000   1.0000   1.0000   1.0000   1.0000
     1.0000   1.0000   1.0000   1.0000   1.0000   1.0000   1.0000   1.0000
     0.3355   0.3292   0.3282   0.0072  -0.0000  -0.0000  -0.0000  -0.0000

     the Fermi energy is     7.9810 ev

!    total energy              =   -1251.66160423 Ry
     estimated scf accuracy    <       0.00000011 Ry
     smearing contrib. (-TS)   =      -0.00069762 Ry
     internal energy E=F+TS    =   -1251.66090661 Ry

     The total energy is F=E-TS. E is the sum of the following terms:
     one-electron contribution =    -171.42062551 Ry
     hartree contribution      =     115.56193146 Ry
     xc contribution           =     -83.44799477 Ry
     ewald contribution        =    -295.56568034 Ry
     one-center paw contrib.   =    -816.78853745 Ry
      -> PAW hartree energy AE =      88.34743340 Ry
      -> PAW hartree energy PS =     -87.79439434 Ry
      -> PAW xc energy AE      =    -834.53520082 Ry
      -> PAW xc energy PS      =      17.19362432 Ry
      -> total E_H with PAW    =     116.11497052 Ry
      -> total E_XC with PAW   =    -900.78957127 Ry

     convergence has been achieved in  87 iterations

     Forces acting on atoms (cartesian axes, Ry/au):

     atom    1 type  1   force =     0.00000000    0.00000000   -0.00000323
     atom    2 type  1   force =     0.00000000    0.00000000    0.00000323
     atom    3 type  2   force =     0.00000000    0.00000000    0.00000968
     atom    4 type  2   force =     0.00000000    0.00000000   -0.00000968
     atom    5 type  3   force =    -0.03968534   -0.02687710    0.00000002
     atom    6 type  3   force =    -0.03968534   -0.02687710   -0.00000002
     atom    7 type  3   force =     0.03968534    0.02687710    0.00000002
     atom    8 type  3   force =     0.03968534    0.02687710   -0.00000002
     The non-local contrib.  to forces
     atom    1 type  1   force =     0.00000000    0.00000000    0.00000241
     atom    2 type  1   force =     0.00000000    0.00000000   -0.00000241
     atom    3 type  2   force =     0.00000000    0.00000000   -0.00004116
     atom    4 type  2   force =     0.00000000    0.00000000    0.00004116
     atom    5 type  3   force =     0.03982800    0.02697128    0.00000079
     atom    6 type  3   force =     0.03982800    0.02697128   -0.00000079
     atom    7 type  3   force =    -0.03982800   -0.02697128    0.00000079
     atom    8 type  3   force =    -0.03982800   -0.02697128   -0.00000079
     The ionic contribution  to forces
     atom    1 type  1   force =    -0.00000000   -0.00000000   -0.00000000
     atom    2 type  1   force =    -0.00000000   -0.00000000    0.00000000
     atom    3 type  2   force =     0.00000000    0.00000000   -0.00000000
     atom    4 type  2   force =     0.00000000   -0.00000000    0.00000000
     atom    5 type  3   force =     0.95814012    0.64893887   -0.00000000
     atom    6 type  3   force =     0.95814012    0.64893887    0.00000000
     atom    7 type  3   force =    -0.95814012   -0.64893887    0.00000000
     atom    8 type  3   force =    -0.95814012   -0.64893887   -0.00000000
     The local contribution  to forces
     atom    1 type  1   force =     0.00012424    0.00012348   -0.00001490
     atom    2 type  1   force =    -0.00015754   -0.00007201   -0.00002579
     atom    3 type  2   force =    -0.00115540   -0.00106495    0.00022100
     atom    4 type  2   force =     0.00135993    0.00060811    0.00007142
     atom    5 type  3   force =    -1.03537652   -0.70120261   -0.00002709
     atom    6 type  3   force =    -1.03504983   -0.70104295    0.00004259
     atom    7 type  3   force =     1.03505699    0.70099303    0.00002694
     atom    8 type  3   force =     1.03540036    0.70127506   -0.00003953
     The core correction contribution to forces
     atom    1 type  1   force =     0.00000000    0.00000000    0.00000000
     atom    2 type  1   force =     0.00000000    0.00000000    0.00000000
     atom    3 type  2   force =    -0.00000070   -0.00000068    0.00000013
     atom    4 type  2   force =     0.00000085    0.00000035    0.00000002
     atom    5 type  3   force =    -0.00245909   -0.00166415    0.00000087
     atom    6 type  3   force =    -0.00245996   -0.00166619   -0.00000065
     atom    7 type  3   force =     0.00245936    0.00166517   -0.00000106
     atom    8 type  3   force =     0.00245989    0.00166650    0.00000094
     The Hubbard contrib.    to forces
     atom    1 type  1   force =     0.00000000    0.00000000    0.00000000
     atom    2 type  1   force =     0.00000000    0.00000000    0.00000000
     atom    3 type  2   force =     0.00000000    0.00000000    0.00000000
     atom    4 type  2   force =     0.00000000    0.00000000    0.00000000
     atom    5 type  3   force =     0.00000000    0.00000000    0.00000000
     atom    6 type  3   force =     0.00000000    0.00000000    0.00000000
     atom    7 type  3   force =     0.00000000    0.00000000    0.00000000
     atom    8 type  3   force =     0.00000000    0.00000000    0.00000000
     The SCF correction term to forces
     atom    1 type  1   force =    -0.00013548   -0.00014268    0.00001262
     atom    2 type  1   force =     0.00018288    0.00008203    0.00003479
     atom    3 type  2   force =     0.00054691    0.00051456   -0.00008413
     atom    4 type  2   force =    -0.00064772   -0.00028797   -0.00003613
     atom    5 type  3   force =     0.00018228    0.00008664    0.00003087
     atom    6 type  3   force =    -0.00014182   -0.00007631   -0.00003538
     atom    7 type  3   force =     0.00013010    0.00012698   -0.00002894
     atom    8 type  3   force =    -0.00019782   -0.00014333    0.00003672

     Total force =     0.095860     Total SCF correction =     0.001148

     Computing stress (Cartesian axis) and pressure

          total   stress  (Ry/bohr**3)                   (kbar)     P=       34.32
  -0.00019203  -0.00056067   0.00000000          -28.25      -82.48        0.00
  -0.00056067   0.00025603   0.00000000          -82.48       37.66        0.00
   0.00000000   0.00000000   0.00063586            0.00        0.00       93.54

     kinetic stress (kbar)   8015.67    -26.43     -0.00
                              -26.43   8036.79     -0.00
                               -0.00     -0.00   8054.65

     local   stress (kbar)   5564.70    504.24     -0.01
                              504.24   5161.74      0.01
                               -0.01      0.01   4820.31

     nonloc. stress (kbar)  -3958.65    -11.09      0.00
                              -11.09  -3949.79      0.00
                                0.00      0.00  -3942.30

     hartree stress (kbar)   4137.68   -222.31      0.01
                             -222.31   4315.35     -0.01
                                0.01     -0.01   4465.91

     exc-cor stress (kbar)   -761.42      1.09      0.00
                                1.09   -762.30     -0.00
                                0.00     -0.00   -763.04

     corecor stress (kbar)  -1762.98      0.62     -0.00
                                0.62  -1763.48      0.00
                               -0.00      0.00  -1763.90

     ewald   stress (kbar) -11263.26   -328.60      0.00
                             -328.60 -11000.65      0.00
                                0.00      0.00 -10778.09

     hubbard stress (kbar)      0.00      0.00      0.00
                                0.00      0.00      0.00
                                0.00      0.00      0.00

     DFT-D   stress (kbar)      0.00      0.00      0.00
                                0.00      0.00      0.00
                                0.00      0.00      0.00

     XDM     stress (kbar)      0.00      0.00      0.00
                                0.00      0.00      0.00
                                0.00      0.00      0.00

     dft-nl  stress (kbar)      0.00      0.00      0.00
                                0.00      0.00      0.00
                                0.00      0.00      0.00

     TS-vdW  stress (kbar)      0.00      0.00      0.00
                                0.00      0.00      0.00
                                0.00      0.00      0.00

[...]

                                0.00      0.00      0.00

     Writing all to output data dir new_calculations/myprefix.save/

     General routines

     Parallel routines

     PAW routines

   This run was terminated on:   6:55:50  21May2023

   JOB DONE.