     Program PWSCF v.7.0 starts on 21May2023 at 21:28: 5

     Reading input from espresso_26071.pwi
Warning: card &CELL ignored
Warning: card / ignored

     Current dimensions of program PWSCF are:
     Max number of different atomic species (ntypx) = 10
     Max number of k-points (npk) =  40000
     Max angular momentum in pseudopotentials (lmaxx) =  4

     gamma-point specific algorithms are used
     Message from routine setup:
     using ibrav=0 with symmetry is DISCOURAGED, use correct ibrav instead

     Subspace diagonalization in iterative solution of the eigenvalue problem:
     a serial algorithm will be used

     Using Slab Decomposition

     bravais-lattice index     =            0
     lattice parameter (alat)  =      14.4955  a.u.
     unit-cell volume          =    2153.7188 (a.u.)^3
     number of atoms/cell      =           10
     number of atomic types    =            4
     number of electrons       =        84.00
     number of Kohn-Sham states=           50
     kinetic-energy cutoff     =      30.0000  Ry
     charge density cutoff     =     240.0000  Ry
     scf convergence threshold =      1.0E-06
     mixing beta               =       0.7000
     number of iterations used =            8  plain     mixing
     Exchange-correlation=  SLA  PW   PBX  PBC
                           (   1   4   3   4   0   0   0)

     celldm(1)=  14.495549  celldm(2)=   0.000000  celldm(3)=   0.000000
     celldm(4)=   0.000000  celldm(5)=   0.000000  celldm(6)=   0.000000

     crystal axes: (cart. coord. in units of alat)
               a(1) = (   1.000000   0.000000   0.000000 )
               a(2) = (   0.500000   0.866025   0.000000 )
               a(3) = (   0.500000   0.288675   0.816497 )

     reciprocal axes: (cart. coord. in units 2 pi/alat)
               b(1) = (  1.000000 -0.577350 -0.408248 )
               b(2) = (  0.000000  1.154701 -0.408248 )
               b(3) = (  0.000000  0.000000  1.224745 )

     PseudoPot. # 1 for Rb read from file:
     /home/pragov/projects/rrg-bengioy-ad/pragov/crystal_structure_design/SSSP/Rb_ONCV_PBE-1.0.oncvpsp.upf
     MD5 check sum: 55a5172d6bfbce6759a58e35d43f6aa9
     Pseudo is Norm-conserving, Zval =  9.0
     Generated using ONCVPSP code by D. R. Hamann
     Using radial grid of 2308 points,  6 beta functions with:
                l(1) =   0
                l(2) =   0
                l(3) =   1
                l(4) =   1
                l(5) =   2
                l(6) =   2

     PseudoPot. # 2 for Na read from file:
     /home/pragov/projects/rrg-bengioy-ad/pragov/crystal_structure_design/SSSP/na_pbe_v1.5.uspp.F.UPF
     MD5 check sum: 44600605ef58000f06b90626533354dc
     Pseudo is Ultrasoft, Zval =  9.0
     Generated by new atomic code, or converted to UPF format
     Using radial grid of  819 points,  5 beta functions with:
                l(1) =   0
                l(2) =   0
                l(3) =   1
                l(4) =   1
                l(5) =   2
     Q(r) pseudized with  8 coefficients,  rinner =    1.250   1.250   1.250
                                                       1.250   1.250

     PseudoPot. # 3 for Sb read from file:
     /home/pragov/projects/rrg-bengioy-ad/pragov/crystal_structure_design/SSSP/sb_pbe_v1.4.uspp.F.UPF
     MD5 check sum: 9bc50dfb53373b713f5709b9110fe27f
     Pseudo is Ultrasoft + core correction, Zval = 15.0
     Generated by new atomic code, or converted to UPF format
     Using radial grid of  891 points,  6 beta functions with:
                l(1) =   0
                l(2) =   0
                l(3) =   1
                l(4) =   1
                l(5) =   2
                l(6) =   2
     Q(r) pseudized with  8 coefficients,  rinner =    1.350   1.350   1.350
                                                       1.350   1.350

     PseudoPot. # 4 for Cl read from file:
     /home/pragov/projects/rrg-bengioy-ad/pragov/crystal_structure_design/SSSP/cl_pbe_v1.4.uspp.F.UPF
     MD5 check sum: fc6f6913ecf08c9257cb748ef0700058
     Pseudo is Ultrasoft + core correction, Zval =  7.0
     Generated by new atomic code, or converted to UPF format
     Using radial grid of  909 points,  6 beta functions with:
                l(1) =   0
                l(2) =   0
                l(3) =   1
                l(4) =   1
                l(5) =   2
                l(6) =   2
     Q(r) pseudized with  8 coefficients,  rinner =    1.300   1.300   1.300
                                                       1.300   1.300

     atomic species   valence    mass     pseudopotential
        Rb             9.00    85.46780     Rb( 1.00)
        Na             9.00    22.98977     Na( 1.00)
        Sb            15.00   121.76000     Sb( 1.00)
        Cl             7.00    35.45000     Cl( 1.00)

     12 Sym. Ops., with inversion, found

                                    s                        frac. trans.

      isym =  1     identity

 cryst.   s( 1) = (     1          0          0      )
                  (     0          1          0      )
                  (     0          0          1      )

 cart.    s( 1) = (  1.0000000  0.0000000  0.0000000 )
                  (  0.0000000  1.0000000 -0.0000000 )
                  (  0.0000000  0.0000000  1.0000000 )

      isym =  2     180 deg rotation - cart. axis [1,0,0]

[...]

      isym =  3     120 deg rotation - cryst. axis [0,0,1]

[...]

      isym =  6     180 deg rotation - cryst. axis [1,1,0]

[...]

      isym =  7     inversion

[...]

      isym =  8     inv. 180 deg rotation - cart. axis [1,0,0]

[...]

      isym =  9     inv. 120 deg rotation - cryst. axis [0,0,1]

 cryst.   s( 9) = (     1         -1          0      )
                  (     1          0          0      )
                  (     1          0         -1      )

 cart.    s( 9) = (  0.5000000  0.8660254 -0.0000000 )
                  ( -0.8660254  0.5000000 -0.0000000 )
                  (  0.0000000  0.0000000 -1.0000000 )

[...]

 cryst.   s(10) = (     0          1          0      )
                  (    -1          1          0      )
                  (     0          1         -1      )

 cart.    s(10) = (  0.5000000 -0.8660254  0.0000000 )
                  (  0.8660254  0.5000000 -0.0000000 )
                  (  0.0000000  0.0000000 -1.0000000 )

[...]

      isym = 12     inv. 180 deg rotation - cryst. axis [1,1,0]

 cryst.   s(12) = (     1         -1          0      )
                  (     0         -1          0      )
                  (     0         -1          1      )

 cart.    s(12) = (  0.5000000 -0.8660254  0.0000000 )
                  ( -0.8660254 -0.5000000  0.0000000 )
                  (  0.0000000  0.0000000  1.0000000 )

   Cartesian axes

     site n.     atom                  positions (alat units)
         1           Rb  tau(   1) = (   1.5000000   0.8660254   0.6123724  )
         2           Rb  tau(   2) = (   0.5000000   0.2886751   0.2041241  )
         3           Na  tau(   3) = (   1.0000000   0.5773503   0.4082483  )
         4           Sb  tau(   4) = (   0.0000000   0.0000000   0.0000000  )
         5           Cl  tau(   5) = (   1.0000000   0.2829744   0.2000931  )
         6           Cl  tau(   6) = (   0.7450630   0.4301623   0.6164035  )
         7           Cl  tau(   7) = (   1.0000000   0.8717262   0.6164035  )
         8           Cl  tau(   8) = (   0.7450630   0.7245382   0.2000931  )
         9           Cl  tau(   9) = (   1.2549370   0.4301623   0.6164035  )
        10           Cl  tau(  10) = (   1.2549370   0.7245382   0.2000931  )

   Crystallographic axes

     site n.     atom                  positions (cryst. coord.)
         1           Rb  tau(   1) = (  0.7500000  0.7500000  0.7500000  )
         2           Rb  tau(   2) = (  0.2500000  0.2500000  0.2500000  )
         3           Na  tau(   3) = (  0.5000000  0.5000000  0.5000000  )
         4           Sb  tau(   4) = (  0.0000000  0.0000000  0.0000000  )
         5           Cl  tau(   5) = (  0.7549370  0.2450630  0.2450630  )
         6           Cl  tau(   6) = (  0.2450630  0.2450630  0.7549370  )
         7           Cl  tau(   7) = (  0.2450630  0.7549370  0.7549370  )
         8           Cl  tau(   8) = (  0.2450630  0.7549370  0.2450630  )
         9           Cl  tau(   9) = (  0.7549370  0.2450630  0.7549370  )
        10           Cl  tau(  10) = (  0.7549370  0.7549370  0.2450630  )

     number of k points=     1  Methfessel-Paxton smearing, width (Ry)=  0.0010
                       cart. coord. in units 2pi/alat
        k(    1) = (   0.0000000   0.0000000   0.0000000), wk =   2.0000000

                       cryst. coord.
        k(    1) = (   0.0000000   0.0000000   0.0000000), wk =   2.0000000

     Check: negative core charge=   -0.000002

     Initial potential from superposition of free atoms

     starting charge      82.9441, renormalised to      84.0000

     negative rho (up, down):  9.476E-02 0.000E+00
     Starting wfcs are   48 randomized atomic wfcs +    2 random wfcs

     Self-consistent Calculation

     iteration #  1     ecut=    30.00 Ry     beta= 0.70
     Davidson diagonalization with overlap

     ethr =  1.00E-02,  avg # of iterations =  7.0

     Threshold (ethr) on eigenvalues was too large:
     Diagonalizing with lowered threshold

     Davidson diagonalization with overlap

[...]

     negative rho (up, down):  9.571E-02 0.000E+00

     total energy              =    -578.70827972 Ry
     estimated scf accuracy    <       0.44153853 Ry

[...]

     total energy              =    -578.84814576 Ry
     estimated scf accuracy    <       0.00001637 Ry

     iteration #  7     ecut=    30.00 Ry     beta= 0.70
     Davidson diagonalization with overlap

     ethr =  1.95E-08,  avg # of iterations = 14.0

[...]

     End of self-consistent calculation

          k = 0.0000 0.0000 0.0000 (  2981 PWs)   bands (ev):

   -47.9455 -26.7412 -26.7412 -26.7412 -26.7385 -26.7385 -23.4750 -23.4736
   -19.8597 -19.8597 -19.8597 -11.8539 -11.2699 -11.2698 -11.2698 -11.0592
   -11.0592  -7.5600  -7.5600  -7.5600  -7.5386  -7.5386  -7.5386  -6.0138
    -1.4569  -1.4568  -1.4568  -0.0168  -0.0168  -0.0167   0.5179   0.5180
     0.8901   0.8901   0.8901   0.9862   0.9862   0.9862   1.3952   1.3952
     1.3952   1.4194   5.7517   5.7518   5.7518   6.4647   8.0339   8.2517
     8.2518   8.9797

     occupation numbers
     1.0000   1.0000   1.0000   1.0000   1.0000   1.0000   1.0000   1.0000
     1.0000   1.0000   1.0000   1.0000   1.0000   1.0000   1.0000   1.0000
     1.0000   1.0000   1.0000   1.0000   1.0000   1.0000   1.0000   1.0000
     1.0000   1.0000   1.0000   1.0000   1.0000   1.0000   1.0000   1.0000
     1.0000   1.0000   1.0000   1.0000   1.0000   1.0000   1.0000   1.0000
     1.0000   1.0000  -0.0000  -0.0000  -0.0000  -0.0000  -0.0000  -0.0000
    -0.0000  -0.0000

     the Fermi energy is     1.9661 ev

!    total energy              =    -578.84814794 Ry
     estimated scf accuracy    <       0.00000081 Ry
     smearing contrib. (-TS)   =       0.00000000 Ry
     internal energy E=F+TS    =    -578.84814794 Ry

     The total energy is F=E-TS. E is the sum of the following terms:
     one-electron contribution =    -299.16848619 Ry
     hartree contribution      =     177.46065716 Ry
     xc contribution           =    -130.30209706 Ry
     ewald contribution        =    -326.83822184 Ry

     convergence has been achieved in   7 iterations

     negative rho (up, down):  9.187E-02 0.000E+00

     Forces acting on atoms (cartesian axes, Ry/au):

     atom    1 type  1   force =     0.00000000    0.00000000   -0.00000743
     atom    2 type  1   force =     0.00000000    0.00000000    0.00000743
     atom    3 type  2   force =     0.00000000    0.00000000    0.00000000
     atom    4 type  3   force =    -0.00000000   -0.00000000    0.00000000
     atom    5 type  4   force =     0.00000000   -0.00878260   -0.00620289
     atom    6 type  4   force =    -0.00760596   -0.00439130    0.00620289
     atom    7 type  4   force =     0.00000000    0.00878260    0.00620289
     atom    8 type  4   force =    -0.00760596    0.00439130   -0.00620289
     atom    9 type  4   force =     0.00760596   -0.00439130    0.00620289
     atom   10 type  4   force =     0.00760596    0.00439130   -0.00620289
     The non-local contrib.  to forces
     atom    1 type  1   force =    -0.00000000    0.00000000    0.00000246
     atom    2 type  1   force =     0.00000000   -0.00000000   -0.00000246
     atom    3 type  2   force =    -0.00000000   -0.00000000   -0.00000000
     atom    4 type  3   force =    -0.00000000   -0.00000000    0.00000000
     atom    5 type  4   force =     0.00000000   -0.08784427   -0.06210852
     atom    6 type  4   force =    -0.07607537   -0.04392214    0.06210852
     atom    7 type  4   force =     0.00000000    0.08784427    0.06210852
     atom    8 type  4   force =    -0.07607537    0.04392214   -0.06210852
     atom    9 type  4   force =     0.07607537   -0.04392214    0.06210852
     atom   10 type  4   force =     0.07607537    0.04392214   -0.06210852
     The ionic contribution  to forces
     atom    1 type  1   force =    -0.00000000   -0.00000000    0.00000000
     atom    2 type  1   force =    -0.00000000    0.00000000    0.00000000
     atom    3 type  2   force =     0.00000000   -0.00000000   -0.00000000
     atom    4 type  3   force =    -0.00000000    0.00000000    0.00000000
     atom    5 type  4   force =    -0.00000000    2.80306769    1.98206817
     atom    6 type  4   force =     2.42752783    1.40153385   -1.98206817
     atom    7 type  4   force =    -0.00000000   -2.80306769   -1.98206817
     atom    8 type  4   force =     2.42752783   -1.40153385    1.98206817
     atom    9 type  4   force =    -2.42752783    1.40153385   -1.98206817
     atom   10 type  4   force =    -2.42752783   -1.40153385    1.98206817
     The local contribution  to forces
     atom    1 type  1   force =     0.00006134   -0.00004796    0.00004533
     atom    2 type  1   force =    -0.00006142    0.00004496   -0.00003900
     atom    3 type  2   force =     0.00001521    0.00000993    0.00001026
     atom    4 type  3   force =    -0.00004284    0.00001999   -0.00002291
     atom    5 type  4   force =     0.00008425   -2.72519135   -1.92710713
     atom    6 type  4   force =    -2.36012427   -1.36251473    1.92707935
     atom    7 type  4   force =    -0.00009862    2.72519976    1.92710435
     atom    8 type  4   force =    -2.36010173    1.36259968   -1.92697423
     atom    9 type  4   force =     2.36011339   -1.36260013    1.92699043
     atom   10 type  4   force =     2.36013641    1.36251673   -1.92709576
     The core correction contribution to forces
     atom    1 type  1   force =     0.00000000    0.00000000    0.00000000
     atom    2 type  1   force =     0.00000000    0.00000000    0.00000000
     atom    3 type  2   force =     0.00000000    0.00000000    0.00000000
     atom    4 type  3   force =    -0.00000104    0.00000052   -0.00000064
     atom    5 type  4   force =     0.00000100    0.00218690    0.00154531
     atom    6 type  4   force =     0.00189425    0.00109461   -0.00154595
     atom    7 type  4   force =    -0.00000106   -0.00218712   -0.00154546
     atom    8 type  4   force =     0.00189564   -0.00109428    0.00154850
     atom    9 type  4   force =    -0.00189494    0.00109457   -0.00154773
     atom   10 type  4   force =    -0.00189336   -0.00109407    0.00154541
     The Hubbard contrib.    to forces
     atom    1 type  1   force =     0.00000000    0.00000000    0.00000000
     atom    2 type  1   force =     0.00000000    0.00000000    0.00000000
     atom    3 type  2   force =     0.00000000    0.00000000    0.00000000
     atom    4 type  3   force =     0.00000000    0.00000000    0.00000000
     atom    5 type  4   force =     0.00000000    0.00000000    0.00000000
     atom    6 type  4   force =     0.00000000    0.00000000    0.00000000
     atom    7 type  4   force =     0.00000000    0.00000000    0.00000000
     atom    8 type  4   force =     0.00000000    0.00000000    0.00000000
     atom    9 type  4   force =     0.00000000    0.00000000    0.00000000
     atom   10 type  4   force =     0.00000000    0.00000000    0.00000000
     The SCF correction term to forces
     atom    1 type  1   force =    -0.00007594    0.00005416   -0.00005718
     atom    2 type  1   force =     0.00007716   -0.00005705    0.00004693
     atom    3 type  2   force =    -0.00000183    0.00003230    0.00002959
     atom    4 type  3   force =     0.00006007   -0.00002120    0.00003782
     atom    5 type  4   force =    -0.00008349   -0.00101774   -0.00062077
     atom    6 type  4   force =    -0.00082359   -0.00058246    0.00063163
     atom    7 type  4   force =     0.00009133    0.00099473    0.00061033
     atom    8 type  4   force =    -0.00084057    0.00049763   -0.00071123
     atom    9 type  4   force =     0.00082928   -0.00048397    0.00070733
     atom   10 type  4   force =     0.00082678    0.00058662   -0.00062105

     Total force =     0.026337     Total SCF correction =     0.002923
     SCF correction compared to forces is large: reduce conv_thr to get better values

     Computing stress (Cartesian axis) and pressure

     negative rho (up, down):  9.187E-02 0.000E+00
          total   stress  (Ry/bohr**3)                   (kbar)     P=       -5.93
  -0.00004028   0.00000000  -0.00000000           -5.93        0.00       -0.00
   0.00000000  -0.00004028   0.00000000            0.00       -5.93        0.00
   0.00000000   0.00000000  -0.00004027            0.00        0.00       -5.92

     kinetic stress (kbar)   6796.45      0.00     -0.00
                                0.00   6796.45     -0.00
                                0.00     -0.00   6796.45

     local   stress (kbar)  -1295.37     -0.00     -0.00
                               -0.00  -1295.38      0.01
                               -0.00      0.01  -1295.37

     nonloc. stress (kbar)     46.43      0.00      0.00
                                0.00     46.43     -0.00
                                0.00     -0.00     46.43

     hartree stress (kbar)   4040.35      0.00      0.01
                                0.00   4040.36     -0.00
                                0.01     -0.00   4040.35

     exc-cor stress (kbar)    957.47      0.00     -0.00
                                0.00    957.47      0.00
                               -0.00      0.00    957.47

     corecor stress (kbar)  -3109.94     -0.00      0.00
                               -0.00  -3109.94      0.00
                                0.00      0.00  -3109.94

     ewald   stress (kbar)  -7441.32      0.00     -0.00
                                0.00  -7441.32      0.00
                               -0.00      0.00  -7441.32

     hubbard stress (kbar)      0.00      0.00      0.00
                                0.00      0.00      0.00
                                0.00      0.00      0.00

     DFT-D   stress (kbar)      0.00      0.00      0.00
                                0.00      0.00      0.00
                                0.00      0.00      0.00

     XDM     stress (kbar)      0.00      0.00      0.00
                                0.00      0.00      0.00
                                0.00      0.00      0.00

     dft-nl  stress (kbar)      0.00      0.00      0.00
                                0.00      0.00      0.00
                                0.00      0.00      0.00

     TS-vdW  stress (kbar)      0.00      0.00      0.00
                                0.00      0.00      0.00
                                0.00      0.00      0.00

[...]

                                0.00      0.00      0.00

     Writing all to output data dir new_calculations/myprefix.save/

     General routines

     Parallel routines

   This run was terminated on:  21:28:21  21May2023

   JOB DONE.