     Program PWSCF v.7.0 starts on 21May2023 at 20:30:11

     Reading input from espresso_15663.pwi
Warning: card &CELL ignored
Warning: card / ignored

     Current dimensions of program PWSCF are:
     Max number of different atomic species (ntypx) = 10
     Max number of k-points (npk) =  40000
     Max angular momentum in pseudopotentials (lmaxx) =  4

     gamma-point specific algorithms are used
     Message from routine setup:
     using ibrav=0 with symmetry is DISCOURAGED, use correct ibrav instead

     Subspace diagonalization in iterative solution of the eigenvalue problem:
     a serial algorithm will be used

     Using Slab Decomposition

     bravais-lattice index     =            0
     lattice parameter (alat)  =      14.2662  a.u.
     unit-cell volume          =    2333.0949 (a.u.)^3
     number of atoms/cell      =            9
     number of atomic types    =            4
     number of electrons       =        78.00
     number of Kohn-Sham states=           47
     kinetic-energy cutoff     =      30.0000  Ry
     charge density cutoff     =     240.0000  Ry
     scf convergence threshold =      1.0E-06
     mixing beta               =       0.7000
     number of iterations used =            8  plain     mixing
     Exchange-correlation=  SLA  PW   PBX  PBC
                           (   1   4   3   4   0   0   0)

     celldm(1)=  14.266166  celldm(2)=   0.000000  celldm(3)=   0.000000
     celldm(4)=   0.000000  celldm(5)=   0.000000  celldm(6)=   0.000000

     crystal axes: (cart. coord. in units of alat)
               a(1) = (   1.000000   0.000000   0.000000 )
               a(2) = (   0.371390   0.928477   0.000000 )
               a(3) = (   0.666994   0.451578   0.865445 )

     reciprocal axes: (cart. coord. in units 2 pi/alat)
               b(1) = (  1.000000 -0.399999 -0.561981 )
               b(2) = (  0.000000  1.077033 -0.561981 )
               b(3) = (  0.000000  0.000000  1.155475 )

     PseudoPot. # 1 for Cs read from file:
     /home/pragov/projects/rrg-bengioy-ad/pragov/crystal_structure_design/SSSP/Cs_pbe_v1.uspp.F.UPF
     MD5 check sum: 3476d69cb178dfad3ffaa59df4e07ca4
     Pseudo is Ultrasoft + core correction, Zval =  9.0
     Generated by new atomic code, or converted to UPF format
     Using radial grid of  905 points,  6 beta functions with:
                l(1) =   0
                l(2) =   0
                l(3) =   1
                l(4) =   1
                l(5) =   2
                l(6) =   2
     Q(r) pseudized with  6 coefficients,  rinner =    1.500   1.500   1.500
                                                       1.500   1.500

     PseudoPot. # 2 for Pd read from file:
     /home/pragov/projects/rrg-bengioy-ad/pragov/crystal_structure_design/SSSP/Pd_ONCV_PBE-1.0.oncvpsp.upf
     MD5 check sum: eb77f42b51d86fb18e25f68156a31cf1
     Pseudo is Norm-conserving, Zval = 18.0
     Generated using ONCVPSP code by D. R. Hamann
     Using radial grid of 1410 points,  6 beta functions with:
                l(1) =   0
                l(2) =   0
                l(3) =   1
                l(4) =   1
                l(5) =   2
                l(6) =   2

     PseudoPot. # 3 for I  read from file:
     /home/pragov/projects/rrg-bengioy-ad/pragov/crystal_structure_design/SSSP/I.pbe-n-kjpaw_psl.0.2.UPF
     MD5 check sum: d4ef18d9c8f18dc85e5843bca1e50dc0
     Pseudo is Projector augmented-wave + core cor, Zval =  7.0
     Generated using "atomic" code by A. Dal Corso  v.5.0.99 svn rev. 10869
     Shape of augmentation charge: PSQ
     Using radial grid of 1247 points,  4 beta functions with:
                l(1) =   0
                l(2) =   0
                l(3) =   1
                l(4) =   1
     Q(r) pseudized with 0 coefficients

     PseudoPot. # 4 for Br read from file:
     /home/pragov/projects/rrg-bengioy-ad/pragov/crystal_structure_design/SSSP/br_pbe_v1.4.uspp.F.UPF
     MD5 check sum: d3ffb7b29f6225aa16fe06858fb2a80b
     Pseudo is Ultrasoft + core correction, Zval =  7.0
     Generated by new atomic code, or converted to UPF format
     Using radial grid of  879 points,  6 beta functions with:
                l(1) =   0
                l(2) =   0
                l(3) =   1
                l(4) =   1
                l(5) =   2
                l(6) =   2
     Q(r) pseudized with  8 coefficients,  rinner =    1.100   1.100   1.100
                                                       1.100   1.100

     atomic species   valence    mass     pseudopotential
        Cs             9.00   132.90545     Cs( 1.00)
        Pd            18.00   106.42000     Pd( 1.00)
        I              7.00   126.90447     I ( 1.00)
        Br             7.00    79.90400     Br( 1.00)

      2 Sym. Ops., with inversion, found

                                    s                        frac. trans.

      isym =  1     identity

 cryst.   s( 1) = (     1          0          0      )
                  (     0          1          0      )
                  (     0          0          1      )

 cart.    s( 1) = (  1.0000000 -0.0000000  0.0000000 )
                  (  0.0000000  1.0000000  0.0000000 )
                  (  0.0000000  0.0000000  1.0000000 )

      isym =  2     inversion

 cryst.   s( 2) = (    -1          0          0      )
                  (     0         -1          0      )
                  (     0          0         -1      )

 cart.    s( 2) = ( -1.0000000  0.0000000 -0.0000000 )
                  (  0.0000000 -1.0000000 -0.0000000 )
                  (  0.0000000  0.0000000 -1.0000000 )

   Cartesian axes

     site n.     atom                  positions (alat units)
         1           Cs  tau(   1) = (   0.5210602   0.3527752   0.2387650  )
         2           Cs  tau(   2) = (   1.5173242   1.0272793   0.6266800  )
         3           Pd  tau(   3) = (   0.0000000   0.0000000   0.0000000  )
         4           I   tau(   4) = (   1.1337723   0.7676018   0.3021797  )
         5           I   tau(   5) = (   0.9046120   0.6124526   0.5632654  )
         6           Br  tau(   6) = (   1.0123157   0.2889211   0.1570471  )
         7           Br  tau(   7) = (   1.0260687   1.0911333   0.7083979  )
         8           Br  tau(   8) = (   0.6442206   0.8326094   0.1570471  )
         9           Br  tau(   9) = (   1.3941638   0.5474451   0.7083979  )

   Crystallographic axes

     site n.     atom                  positions (cryst. coord.)
         1           Cs  tau(   1) = (  0.2457690  0.2457690  0.2758870  )
         2           Cs  tau(   2) = (  0.7542310  0.7542310  0.7241130  )
         3           Pd  tau(   3) = (  0.0000000  0.0000000  0.0000000  )
         4           I   tau(   4) = (  0.6569130  0.6569130  0.3491610  )
         5           I   tau(   5) = (  0.3430870  0.3430870  0.6508390  )
         6           Br  tau(   6) = (  0.8084900  0.2229200  0.1814640  )
         7           Br  tau(   7) = (  0.1915100  0.7770800  0.8185360  )
         8           Br  tau(   8) = (  0.2229200  0.8084900  0.1814640  )
         9           Br  tau(   9) = (  0.7770800  0.1915100  0.8185360  )

     number of k points=     1  Methfessel-Paxton smearing, width (Ry)=  0.0010
                       cart. coord. in units 2pi/alat
        k(    1) = (   0.0000000   0.0000000   0.0000000), wk =   2.0000000

                       cryst. coord.
        k(    1) = (   0.0000000   0.0000000   0.0000000), wk =   2.0000000

     Check: negative core charge=   -0.000001

     Initial potential from superposition of free atoms

     starting charge      77.9206, renormalised to      78.0000
     Starting wfcs are   60 randomized atomic wfcs
     Checking if some PAW data can be deallocated...

     Self-consistent Calculation

     iteration #  1     ecut=    30.00 Ry     beta= 0.70
     Davidson diagonalization with overlap

     ethr =  1.00E-02,  avg # of iterations =  3.0

     Threshold (ethr) on eigenvalues was too large:
     Diagonalizing with lowered threshold

     Davidson diagonalization with overlap

[...]

     negative rho (up, down):  2.698E-04 0.000E+00

     total energy              =   -1324.62666995 Ry
     estimated scf accuracy    <       0.34057741 Ry

[...]

     total energy              =   -1324.75247604 Ry
     estimated scf accuracy    <       0.00000499 Ry

     iteration # 10     ecut=    30.00 Ry     beta= 0.70
     Davidson diagonalization with overlap

     ethr =  6.40E-09,  avg # of iterations =  4.0

[...]

     End of self-consistent calculation

          k = 0.0000 0.0000 0.0000 (  3244 PWs)   bands (ev):

   -80.8396 -46.5445 -46.5422 -45.6371 -17.1612 -17.1378 -10.4287 -10.0663
   -10.0598 -10.0032  -8.9421  -7.5524  -4.2637  -4.0069  -3.9973  -3.9861
    -3.9758  -3.8823  -0.8212  -0.2944   0.0897   0.3634   0.5289   0.5841
     0.8738   0.9030   1.6166   2.0441   2.0998   2.4417   2.6284   2.6991
     2.8310   2.9078   2.9241   2.9702   3.3668   3.4024   3.5856   4.3219
     5.0428   7.3703   8.3067   8.7864   8.7880   8.8933   8.8953

     occupation numbers
     1.0000   1.0000   1.0000   1.0000   1.0000   1.0000   1.0000   1.0000
     1.0000   1.0000   1.0000   1.0000   1.0000   1.0000   1.0000   1.0000
     1.0000   1.0000   1.0000   1.0000   1.0000   1.0000   1.0000   1.0000
     1.0000   1.0000   1.0000   1.0000   1.0000   1.0000   1.0000   1.0000
     1.0000   1.0000   1.0000   1.0000   1.0000   1.0000   1.0000  -0.0000
    -0.0000  -0.0000  -0.0000  -0.0000  -0.0000  -0.0000  -0.0000

     the Fermi energy is     4.1091 ev

!    total energy              =   -1324.75247729 Ry
     estimated scf accuracy    <       0.00000015 Ry
     smearing contrib. (-TS)   =       0.00000000 Ry
     internal energy E=F+TS    =   -1324.75247729 Ry

     The total energy is F=E-TS. E is the sum of the following terms:
     one-electron contribution =    -297.54805166 Ry
     hartree contribution      =     175.99229610 Ry
     xc contribution           =    -273.44792307 Ry
     ewald contribution        =    -288.70250808 Ry
     one-center paw contrib.   =    -641.04629058 Ry
      -> PAW hartree energy AE =      18.54721975 Ry
      -> PAW hartree energy PS =     -18.66251368 Ry
      -> PAW xc energy AE      =    -721.66815487 Ry
      -> PAW xc energy PS      =      80.73715822 Ry
      -> total E_H with PAW    =     175.87700217 Ry
      -> total E_XC with PAW   =    -914.37891972 Ry

     convergence has been achieved in  10 iterations

     negative rho (up, down):  2.189E-04 0.000E+00

     Forces acting on atoms (cartesian axes, Ry/au):

     atom    1 type  1   force =     0.00387862    0.00261694    0.00431521
     atom    2 type  1   force =    -0.00387862   -0.00261694   -0.00431521
     atom    3 type  2   force =     0.00000000    0.00000000    0.00000000
     atom    4 type  3   force =    -0.04198000   -0.02842253    0.05521761
     atom    5 type  3   force =     0.04198000    0.02842253   -0.05521761
     atom    6 type  4   force =    -0.00026589   -0.02369819   -0.01819790
     atom    7 type  4   force =     0.00026589    0.02369819    0.01819790
     atom    8 type  4   force =    -0.02210415    0.00855415   -0.01819506
     atom    9 type  4   force =     0.02210415   -0.00855415    0.01819506
     The non-local contrib.  to forces
     atom    1 type  1   force =    -0.00880869   -0.00594681   -0.00917808
     atom    2 type  1   force =     0.00880869    0.00594681    0.00917808
     atom    3 type  2   force =     0.00000000    0.00000000    0.00000000
     atom    4 type  3   force =    -0.06140867   -0.04157392    0.08737243
     atom    5 type  3   force =     0.06140867    0.04157392   -0.08737243
     atom    6 type  4   force =     0.00211325    0.04366171    0.01760289
     atom    7 type  4   force =    -0.00211325   -0.04366171   -0.01760289
     atom    8 type  4   force =     0.04132377   -0.01424992    0.01760064
     atom    9 type  4   force =    -0.04132377    0.01424992   -0.01760064
     The ionic contribution  to forces
     atom    1 type  1   force =    -0.29770720   -0.20155774    0.41099959
     atom    2 type  1   force =     0.29770720    0.20155774   -0.41099959
     atom    3 type  2   force =    -0.00000000   -0.00000000    0.00000000
     atom    4 type  3   force =    -2.12800829   -1.44073288    2.85254795
     atom    5 type  3   force =     2.12800829    1.44073288   -2.85254795
     atom    6 type  4   force =     0.44767674    8.47045958    4.80001593
     atom    7 type  4   force =    -0.44767674   -8.47045958   -4.80001593
     atom    8 type  4   force =     8.03088923   -2.73018644    4.80001593
     atom    9 type  4   force =    -8.03088923    2.73018644   -4.80001593
     The local contribution  to forces
     atom    1 type  1   force =     0.30938719    0.20947848   -0.39800688
     atom    2 type  1   force =    -0.30937407   -0.20940512    0.39803653
     atom    3 type  2   force =    -0.00007158   -0.00018902    0.00042348
     atom    4 type  3   force =     2.13146465    1.44309629   -2.86328581
     atom    5 type  3   force =    -2.13145186   -1.44304098    2.86320263
     atom    6 type  4   force =    -0.45177210   -8.55938445   -4.84513197
     atom    7 type  4   force =     0.45178262    8.55936687    4.84520060
     atom    8 type  4   force =    -8.11495896    2.75938282   -4.84511748
     atom    9 type  4   force =     8.11495823   -2.75941378    4.84519963
     The core correction contribution to forces
     atom    1 type  1   force =     0.00099818    0.00067500    0.00047361
     atom    2 type  1   force =    -0.00099724   -0.00066578   -0.00046101
     atom    3 type  2   force =     0.00000000    0.00000000    0.00000000
     atom    4 type  3   force =     0.01588317    0.01075634   -0.02140944
     atom    5 type  3   force =    -0.01588423   -0.01074989    0.02140045
     atom    6 type  4   force =     0.00173373    0.02180567    0.00943844
     atom    7 type  4   force =    -0.00173585   -0.02180765   -0.00944095
     atom    8 type  4   force =     0.02088870   -0.00648763    0.00943942
     atom    9 type  4   force =    -0.02089318    0.00648681   -0.00943836
     The Hubbard contrib.    to forces
     atom    1 type  1   force =     0.00000000    0.00000000    0.00000000
     atom    2 type  1   force =     0.00000000    0.00000000    0.00000000
     atom    3 type  2   force =     0.00000000    0.00000000    0.00000000
     atom    4 type  3   force =     0.00000000    0.00000000    0.00000000
     atom    5 type  3   force =     0.00000000    0.00000000    0.00000000
     atom    6 type  4   force =     0.00000000    0.00000000    0.00000000
     atom    7 type  4   force =     0.00000000    0.00000000    0.00000000
     atom    8 type  4   force =     0.00000000    0.00000000    0.00000000
     atom    9 type  4   force =     0.00000000    0.00000000    0.00000000
     The SCF correction term to forces
     atom    1 type  1   force =     0.00001429    0.00000101    0.00006500
     atom    2 type  1   force =    -0.00001805   -0.00001759   -0.00003118
     atom    3 type  2   force =     0.00006680    0.00018175   -0.00050486
     atom    4 type  3   force =     0.00009040    0.00003630   -0.00000861
     atom    5 type  3   force =    -0.00009960   -0.00008874    0.00009860
     atom    6 type  4   force =    -0.00001430   -0.00023034   -0.00012390
     atom    7 type  4   force =     0.00001231    0.00027063    0.00005637
     atom    8 type  4   force =    -0.00023427    0.00008921   -0.00013696
     atom    9 type  4   force =     0.00026471   -0.00006965    0.00004698

     Total force =     0.122027     Total SCF correction =     0.000800

     Computing stress (Cartesian axis) and pressure

     negative rho (up, down):  2.189E-04 0.000E+00
          total   stress  (Ry/bohr**3)                   (kbar)     P=      -46.84
  -0.00035222  -0.00000971  -0.00002545          -51.81       -1.43       -3.74
  -0.00000971  -0.00034440  -0.00001722           -1.43      -50.66       -2.53
  -0.00002545  -0.00001722  -0.00025859           -3.74       -2.53      -38.04

     kinetic stress (kbar)   6553.13     33.18    -75.58
                               33.18   6526.58    -51.17
                              -75.58    -51.17   6623.91

     local   stress (kbar)  -3784.47    803.19  -1345.33
                              803.19  -4427.00   -910.82
                            -1345.33   -910.82  -2601.57

     nonloc. stress (kbar)   1257.29     -2.94      7.40
                               -2.94   1259.64      5.01
                                7.40      5.01   1249.05

     hartree stress (kbar)   3776.98   -340.30    567.92
                             -340.30   4049.20    384.50
                              567.92    384.50   3270.40

     exc-cor stress (kbar)  10913.60     -0.60      1.36
                               -0.60  10914.07      0.92
                                1.36      0.92  10912.61

     corecor stress (kbar) -12809.71      3.07     -5.04
                                3.07 -12812.17     -3.41
                               -5.04     -3.41 -12808.92

     ewald   stress (kbar)  -5958.62   -497.03    845.51
                             -497.03  -5560.99    572.44
                              845.51    572.44  -6683.51

     hubbard stress (kbar)      0.00      0.00      0.00
                                0.00      0.00      0.00
                                0.00      0.00      0.00

     DFT-D   stress (kbar)      0.00      0.00      0.00
                                0.00      0.00      0.00
                                0.00      0.00      0.00

     XDM     stress (kbar)      0.00      0.00      0.00
                                0.00      0.00      0.00
                                0.00      0.00      0.00

     dft-nl  stress (kbar)      0.00      0.00      0.00
                                0.00      0.00      0.00
                                0.00      0.00      0.00

     TS-vdW  stress (kbar)      0.00      0.00      0.00
                                0.00      0.00      0.00
                                0.00      0.00      0.00

[...]

                                0.00      0.00      0.00

     Writing all to output data dir new_calculations/myprefix.save/

     General routines

     Parallel routines

     PAW routines

   This run was terminated on:  20:31: 6  21May2023

   JOB DONE.