     Program PWSCF v.7.0 starts on 20May2023 at 10:47:45

     Reading input from espresso_5356.pwi
Warning: card &CELL ignored
Warning: card / ignored

     Current dimensions of program PWSCF are:
     Max number of different atomic species (ntypx) = 10
     Max number of k-points (npk) =  40000
     Max angular momentum in pseudopotentials (lmaxx) =  4
     file Al.pbe-n-kjpaw_psl.1.0.0.UPF: wavefunction(s)  3S 3P renormalized

     gamma-point specific algorithms are used

     Subspace diagonalization in iterative solution of the eigenvalue problem:
     a serial algorithm will be used

     Using Slab Decomposition

     bravais-lattice index     =            0
     lattice parameter (alat)  =      18.8368  a.u.
     unit-cell volume          =    1878.9739 (a.u.)^3
     number of atoms/cell      =           12
     number of atomic types    =            3
     number of electrons       =        64.00
     number of Kohn-Sham states=           38
     kinetic-energy cutoff     =      30.0000  Ry
     charge density cutoff     =     240.0000  Ry
     scf convergence threshold =      1.0E-06
     mixing beta               =       0.7000
     number of iterations used =            8  plain     mixing
     Exchange-correlation= SLA  PW   PBX  PBC
                           (   1   4   3   4   0   0   0)

     celldm(1)=  18.836797  celldm(2)=   0.000000  celldm(3)=   0.000000
     celldm(4)=   0.000000  celldm(5)=   0.000000  celldm(6)=   0.000000

     crystal axes: (cart. coord. in units of alat)
               a(1) = (   1.000000   0.000000   0.000000 )
               a(2) = (   0.827467   0.561515   0.000000 )
               a(3) = (   0.827467   0.254251   0.500655 )

     reciprocal axes: (cart. coord. in units 2 pi/alat)
               b(1) = (  1.000000 -1.473633 -0.904404 )
               b(2) = (  0.000000  1.780897 -0.904404 )
               b(3) = (  0.000000  0.000000  1.997384 )

     PseudoPot. # 1 for Sr read from file:
     /home/pragov/projects/rrg-bengioy-ad/pragov/crystal_structure_design/SSSP/Sr_pbe_v1.uspp.F.UPF
     MD5 check sum: 6b418c05fbe9db5448babca5e47b7a5b
     Pseudo is Ultrasoft + core correction, Zval = 10.0
     Generated by new atomic code, or converted to UPF format
     Using radial grid of  883 points,  6 beta functions with:
                l(1) =   0
                l(2) =   0
                l(3) =   1
                l(4) =   1
                l(5) =   2
                l(6) =   2
     Q(r) pseudized with  6 coefficients,  rinner =    1.400   1.400   1.400
                                                       1.400   1.400

     PseudoPot. # 2 for Ca read from file:
     /home/pragov/projects/rrg-bengioy-ad/pragov/crystal_structure_design/SSSP/Ca_pbe_v1.uspp.F.UPF
     MD5 check sum: 403a4c14b9e4d4dfdc3024c9a3812218
     Pseudo is Ultrasoft + core correction, Zval = 10.0
     Generated by new atomic code, or converted to UPF format
     Using radial grid of  845 points,  6 beta functions with:
                l(1) =   0
                l(2) =   0
                l(3) =   1
                l(4) =   1
                l(5) =   2
                l(6) =   2
     Q(r) pseudized with  8 coefficients,  rinner =    1.500   1.500   1.500
                                                       1.500   1.500

     PseudoPot. # 3 for Al read from file:
     /home/pragov/projects/rrg-bengioy-ad/pragov/crystal_structure_design/SSSP/Al.pbe-n-kjpaw_psl.1.0.0.UPF
     MD5 check sum: cfc449ca30b5f3223ec38ddd88ac046d
     Pseudo is Projector augmented-wave + core cor, Zval =  3.0
     Generated using "atomic" code by A. Dal Corso  v.5.1
     Shape of augmentation charge: PSQ
     Using radial grid of 1135 points,  6 beta functions with:
                l(1) =   0
                l(2) =   0
                l(3) =   1
                l(4) =   1
                l(5) =   2
                l(6) =   2
     Q(r) pseudized with 0 coefficients

     atomic species   valence    mass     pseudopotential
        Sr            10.00    87.62000     Sr( 1.00)
        Ca            10.00    40.07800     Ca( 1.00)
        Al             3.00    26.98154     Al( 1.00)

     No symmetry found

                                    s                        frac. trans.

      isym =  1     identity

 cryst.   s( 1) = (     1          0          0      )
                  (     0          1          0      )
                  (     0          0          1      )

 cart.    s( 1) = (  1.0000000  0.0000000  0.0000000 )
                  (  0.0000000  1.0000000 -0.0000000 )
                  (  0.0000000  0.0000000  1.0000000 )

   Cartesian axes

     site n.     atom                  positions (alat units)
         1           Sr  tau(   1) = (   1.4922107   0.4585026   0.2813941  )
         2           Sr  tau(   2) = (   1.1609334   0.3567130   0.2189234  )
         3           Sr  tau(   3) = (   2.4915888   0.7655754   0.4698521  )
         4           Ca  tau(   4) = (   0.1659758   0.0509984   0.0312989  )
         5           Al  tau(   5) = (   1.9915108   0.6119195   0.3755498  )
         6           Al  tau(   6) = (   0.6631360   0.2037578   0.1250511  )
         7           Al  tau(   7) = (   0.8297148   0.4083648   0.2506233  )
         8           Al  tau(   8) = (   2.1523620   0.8155492   0.5005222  )
         9           Al  tau(   9) = (   0.9158643   0.1279887   0.2506233  )
        10           Al  tau(  10) = (   2.2389509   0.5337430   0.5005222  )
        11           Al  tau(  11) = (   0.9158643   0.2814121   0.0006358  )
        12           Al  tau(  12) = (   2.2389509   0.6879489   0.2492596  )

   Crystallographic axes

     site n.     atom                  positions (cryst. coord.)
         1           Sr  tau(   1) = (  0.5620520  0.5620520  0.5620520  )
         2           Sr  tau(   2) = (  0.4372740  0.4372740  0.4372740  )
         3           Sr  tau(   3) = (  0.9384750  0.9384750  0.9384750  )
         4           Ca  tau(   4) = (  0.0625160  0.0625160  0.0625160  )
         5           Al  tau(   5) = (  0.7501170  0.7501170  0.7501170  )
         6           Al  tau(   6) = (  0.2497750  0.2497750  0.2497750  )
         7           Al  tau(   7) = (  0.0012700  0.5005910  0.5005910  )
         8           Al  tau(   8) = (  0.4978670  0.9997350  0.9997350  )
         9           Al  tau(   9) = (  0.5005910  0.0012700  0.5005910  )
        10           Al  tau(  10) = (  0.9997350  0.4978670  0.9997350  )
        11           Al  tau(  11) = (  0.5005910  0.5005910  0.0012700  )
        12           Al  tau(  12) = (  0.9997350  0.9997350  0.4978670  )

     number of k points=     1  Methfessel-Paxton smearing, width (Ry)=  0.0010
                       cart. coord. in units 2pi/alat
        k(    1) = (   0.0000000   0.0000000   0.0000000), wk =   2.0000000

                       cryst. coord.
        k(    1) = (   0.0000000   0.0000000   0.0000000), wk =   2.0000000

     Check: negative core charge=   -0.000002

     Initial potential from superposition of free atoms

     starting charge      63.8753, renormalised to      64.0000

     negative rho (up, down):  1.906E-01 0.000E+00
     Starting wfcs are   81 randomized atomic wfcs
     Checking if some PAW data can be deallocated...

     Self-consistent Calculation

     iteration #  1     ecut=    30.00 Ry     beta= 0.70
     Davidson diagonalization with overlap

     ethr =  1.00E-02,  avg # of iterations =  3.0

     Threshold (ethr) on eigenvalues was too large:
     Diagonalizing with lowered threshold

     Davidson diagonalization with overlap

[...]

     negative rho (up, down):  1.928E-01 0.000E+00

     total energy              =    -601.55761518 Ry
     estimated scf accuracy    <       0.42259359 Ry

[...]

     total energy              =    -601.74775296 Ry
     estimated scf accuracy    <       0.00000114 Ry

     iteration # 19     ecut=    30.00 Ry     beta= 0.70
     Davidson diagonalization with overlap

     ethr =  1.78E-09,  avg # of iterations =  1.0

[...]

     End of self-consistent calculation

          k = 0.0000 0.0000 0.0000 (  2617 PWs)   bands (ev):

   -33.8906 -28.0309 -27.9158 -27.8593 -14.9458 -14.9209 -14.9209 -10.2218
   -10.2218 -10.1780 -10.1306  -9.9623  -9.9623  -9.9022  -9.9021  -9.8401
    -0.8364   0.4061   1.3324   4.0732   4.0732   4.3304   4.7918   5.0316
     5.0316   5.0559   5.5711   5.5712   5.7854   6.2080   6.2080   6.3072
     6.3072   8.1080   8.1080   8.1798   8.6385   9.6327

     occupation numbers
     1.0000   1.0000   1.0000   1.0000   1.0000   1.0000   1.0000   1.0000
     1.0000   1.0000   1.0000   1.0000   1.0000   1.0000   1.0000   1.0000
     1.0000   1.0000   1.0000   1.0000   1.0000   1.0000   1.0000   1.0000
     1.0000   1.0000   1.0000   1.0000   1.0000   1.0000   1.0000   0.5001
     0.4999  -0.0000  -0.0000  -0.0000  -0.0000  -0.0000

     the Fermi energy is     6.3072 ev

!    total energy              =    -601.74775300 Ry
     estimated scf accuracy    <       0.00000002 Ry
     smearing contrib. (-TS)   =      -0.00056419 Ry
     internal energy E=F+TS    =    -601.74718881 Ry

     The total energy is F=E-TS. E is the sum of the following terms:
     one-electron contribution =     -77.47123837 Ry
     hartree contribution      =      59.79489814 Ry
     xc contribution           =     -87.20098713 Ry
     ewald contribution        =    -219.36918265 Ry
     one-center paw contrib.   =    -277.50067880 Ry
      -> PAW hartree energy AE =      10.23961947 Ry
      -> PAW hartree energy PS =     -10.19876287 Ry
      -> PAW xc energy AE      =    -292.30171073 Ry
      -> PAW xc energy PS      =      14.76017533 Ry
      -> total E_H with PAW    =      59.83575475 Ry
      -> total E_XC with PAW   =    -364.74252253 Ry

     convergence has been achieved in  19 iterations

     negative rho (up, down):  1.960E-01 0.000E+00

     Forces acting on atoms (cartesian axes, Ry/au):

     atom    1 type  1   force =    -0.01365490   -0.00420188   -0.00258225
     atom    2 type  1   force =     0.00891178    0.00274718    0.00169678
     atom    3 type  1   force =     0.01558336    0.00478542    0.00293315
     atom    4 type  2   force =    -0.00692164   -0.00212876   -0.00130104
     atom    5 type  3   force =    -0.00823070   -0.00253140   -0.00155301
     atom    6 type  3   force =     0.00088922    0.00027607    0.00017030
     atom    7 type  3   force =    -0.00004170    0.00351937    0.00215796
     atom    8 type  3   force =    -0.00162354    0.00347039    0.00212650
     atom    9 type  3   force =     0.00194109   -0.00293569    0.00215953
     atom   10 type  3   force =     0.00060311   -0.00378282    0.00212686
     atom   11 type  3   force =     0.00194176    0.00059668   -0.00359825
     atom   12 type  3   force =     0.00060216    0.00018544   -0.00433653
     The non-local contrib.  to forces
     atom    1 type  1   force =    -0.06989243   -0.02147243   -0.01316949
     atom    2 type  1   force =     0.07652902    0.02350932    0.01442569
     atom    3 type  1   force =     0.06086224    0.01869382    0.01148156
     atom    4 type  2   force =    -0.05514013   -0.01694606   -0.01039640
     atom    5 type  3   force =     0.00110681    0.00034130    0.00021221
     atom    6 type  3   force =     0.00160886    0.00049117    0.00030415
     atom    7 type  3   force =    -0.00072065    0.00044156    0.00026838
     atom    8 type  3   force =     0.00177285   -0.00108646   -0.00065721
     atom    9 type  3   force =    -0.00034489   -0.00077293    0.00027195
     atom   10 type  3   force =     0.00085963    0.00189505   -0.00066080
     atom   11 type  3   force =    -0.00034028   -0.00010940   -0.00081194
     atom   12 type  3   force =     0.00085936    0.00026323    0.00198842
     The ionic contribution  to forces
     atom    1 type  1   force =     0.16815500    0.05166797    0.03170947
     atom    2 type  1   force =     0.00737397    0.00226576    0.00139098
     atom    3 type  1   force =    -0.30666309   -0.09422651   -0.05782867
     atom    4 type  2   force =     0.09774417    0.03003326    0.01843170
     atom    5 type  3   force =     0.01238052    0.00380409    0.00233466
     atom    6 type  3   force =    -0.00896942   -0.00275598   -0.00169141
     atom    7 type  3   force =    -0.09818539   -0.01333377   -0.00818325
     atom    8 type  3   force =     0.11305733    0.00486993    0.00298879
     atom    9 type  3   force =    -0.08873226   -0.04409929   -0.00818325
     atom   10 type  3   force =     0.09628572    0.05945365    0.00298879
     atom   11 type  3   force =    -0.08873225   -0.02726422   -0.03561425
     atom   12 type  3   force =     0.09628571    0.02958513    0.05165645
     The local contribution  to forces
     atom    1 type  1   force =    -0.11698196   -0.03597678   -0.02201259
     atom    2 type  1   force =    -0.06957398   -0.02135526   -0.01308402
     atom    3 type  1   force =     0.26577062    0.08164698    0.05005725
     atom    4 type  2   force =    -0.05136832   -0.01579478   -0.00965990
     atom    5 type  3   force =    -0.02158660   -0.00664362   -0.00409272
     atom    6 type  3   force =     0.00843221    0.00260815    0.00160684
     atom    7 type  3   force =     0.09878997    0.01643344    0.01008906
     atom    8 type  3   force =    -0.11628627   -0.00042002   -0.00027877
     atom    9 type  3   force =     0.09097198    0.04187676    0.01008951
     atom   10 type  3   force =    -0.09646272   -0.06495003   -0.00027181
     atom   11 type  3   force =     0.09096175    0.02795604    0.03276702
     atom   12 type  3   force =    -0.09646669   -0.02963676   -0.05777877
     The core correction contribution to forces
     atom    1 type  1   force =     0.00498452    0.00153096    0.00093981
     atom    2 type  1   force =    -0.00541236   -0.00166220   -0.00101978
     atom    3 type  1   force =    -0.00435142   -0.00133652   -0.00082179
     atom    4 type  2   force =     0.00195545    0.00060054    0.00036935
     atom    5 type  3   force =    -0.00010657   -0.00003298   -0.00002036
     atom    6 type  3   force =    -0.00019828   -0.00006051   -0.00003718
     atom    7 type  3   force =     0.00010064   -0.00002931   -0.00001763
     atom    8 type  3   force =    -0.00019631    0.00011767    0.00007114
     atom    9 type  3   force =     0.00006627    0.00008100   -0.00001811
     atom   10 type  3   force =    -0.00009673   -0.00020774    0.00007168
     atom   11 type  3   force =     0.00006596    0.00002076    0.00008039
     atom   12 type  3   force =    -0.00009673   -0.00002947   -0.00021748
     The Hubbard contrib.    to forces
     atom    1 type  1   force =     0.00000000    0.00000000    0.00000000
     atom    2 type  1   force =     0.00000000    0.00000000    0.00000000
     atom    3 type  1   force =     0.00000000    0.00000000    0.00000000
     atom    4 type  2   force =     0.00000000    0.00000000    0.00000000
     atom    5 type  3   force =     0.00000000    0.00000000    0.00000000
     atom    6 type  3   force =     0.00000000    0.00000000    0.00000000
     atom    7 type  3   force =     0.00000000    0.00000000    0.00000000
     atom    8 type  3   force =     0.00000000    0.00000000    0.00000000
     atom    9 type  3   force =     0.00000000    0.00000000    0.00000000
     atom   10 type  3   force =     0.00000000    0.00000000    0.00000000
     atom   11 type  3   force =     0.00000000    0.00000000    0.00000000
     atom   12 type  3   force =     0.00000000    0.00000000    0.00000000
     The SCF correction term to forces
     atom    1 type  1   force =     0.00008179    0.00004842   -0.00004744
     atom    2 type  1   force =    -0.00000305   -0.00001041   -0.00001408
     atom    3 type  1   force =    -0.00003317    0.00000768    0.00004683
     atom    4 type  2   force =    -0.00011099   -0.00002168   -0.00004379
     atom    5 type  3   force =    -0.00002305   -0.00000016    0.00001521
     atom    6 type  3   force =     0.00001767   -0.00000674   -0.00001009
     atom    7 type  3   force =    -0.00002445    0.00000747    0.00000342
     atom    8 type  3   force =     0.00003068   -0.00001069    0.00000455
     atom    9 type  3   force =    -0.00001820   -0.00002120    0.00000144
     atom   10 type  3   force =     0.00001903    0.00002627    0.00000102
     atom   11 type  3   force =    -0.00001160   -0.00000647   -0.00001745
     atom   12 type  3   force =     0.00002234    0.00000334    0.00001687

     Total force =     0.028554     Total SCF correction =     0.000189

     Computing stress (Cartesian axis) and pressure

     negative rho (up, down):  1.960E-01 0.000E+00
          total   stress  (Ry/bohr**3)                   (kbar)     P=      -20.12
  -0.00037937  -0.00011958  -0.00007337          -55.81      -17.59      -10.79
  -0.00011958  -0.00002693  -0.00002254          -17.59       -3.96       -3.32
  -0.00007337  -0.00002254  -0.00000405          -10.79       -3.32       -0.60

     kinetic stress (kbar)   4911.72    -30.00    -18.41
                              -30.00   5000.16     -5.65
                              -18.41     -5.65   5005.90

     local   stress (kbar)  -3039.70    -58.52    -35.92
                              -58.52  -2867.24    -11.05
                              -35.92    -11.05  -2856.01

     nonloc. stress (kbar)   3706.20      0.72      0.44
                                0.72   3704.08      0.14
                                0.44      0.14   3703.94

     hartree stress (kbar)   1610.78     24.81     15.23
                               24.81   1537.67      4.69
                               15.23      4.69   1532.90

     exc-cor stress (kbar)   1480.71     -0.13     -0.08
                               -0.13   1481.09     -0.02
                               -0.08     -0.02   1481.11

     corecor stress (kbar)  -3092.84      0.11      0.07
                                0.11  -3093.18      0.02
                                0.07      0.02  -3093.20

     ewald   stress (kbar)  -5632.67     45.42     27.87
                               45.42  -5766.53      8.56
                               27.87      8.56  -5775.23

     hubbard stress (kbar)      0.00      0.00      0.00
                                0.00      0.00      0.00
                                0.00      0.00      0.00

     DFT-D   stress (kbar)      0.00      0.00      0.00
                                0.00      0.00      0.00
                                0.00      0.00      0.00

     XDM     stress (kbar)      0.00      0.00      0.00
                                0.00      0.00      0.00
                                0.00      0.00      0.00

     dft-nl  stress (kbar)      0.00      0.00      0.00
                                0.00      0.00      0.00
                                0.00      0.00      0.00

     TS-vdW  stress (kbar)      0.00      0.00      0.00
                                0.00      0.00      0.00
                                0.00      0.00      0.00

[...]

                                0.00      0.00      0.00

     Writing all to output data dir new_calculations/myprefix.save/

     General routines

     Parallel routines

     PAW routines

   This run was terminated on:  10:48:38  20May2023

   JOB DONE.