     Program PWSCF v.7.0 starts on 20May2023 at 15:32: 6

     Reading input from espresso_22025.pwi
Warning: card &CELL ignored
Warning: card / ignored

     Current dimensions of program PWSCF are:
     Max number of different atomic species (ntypx) = 10
     Max number of k-points (npk) =  40000
     Max angular momentum in pseudopotentials (lmaxx) =  4
     file Mg.pbe-n-kjpaw_psl.0.3.0.UPF: wavefunction(s)  3S renormalized
     file O.pbe-n-kjpaw_psl.0.1.UPF: wavefunction(s)  2P renormalized

     gamma-point specific algorithms are used
     Message from routine setup:
     using ibrav=0 with symmetry is DISCOURAGED, use correct ibrav instead

     Subspace diagonalization in iterative solution of the eigenvalue problem:
     a serial algorithm will be used

     Using Slab Decomposition

     bravais-lattice index     =            0
     lattice parameter (alat)  =      10.5364  a.u.
     unit-cell volume          =    1594.3588 (a.u.)^3
     number of atoms/cell      =           20
     number of atomic types    =            4
     number of electrons       =       146.00
     number of Kohn-Sham states=           88
     kinetic-energy cutoff     =      30.0000  Ry
     charge density cutoff     =     240.0000  Ry
     scf convergence threshold =      1.0E-06
     mixing beta               =       0.7000
     number of iterations used =            8  plain     mixing
     Exchange-correlation= SLA  PW   PBX  PBC
                           (   1   4   3   4   0   0   0)

     celldm(1)=  10.536427  celldm(2)=   0.000000  celldm(3)=   0.000000
     celldm(4)=   0.000000  celldm(5)=   0.000000  celldm(6)=   0.000000

     crystal axes: (cart. coord. in units of alat)
               a(1) = (   1.000000   0.000000   0.000000 )
               a(2) = (   0.000000   0.979325   0.000000 )
               a(3) = (   0.000000   0.979330   1.391808 )

     reciprocal axes: (cart. coord. in units 2 pi/alat)
               b(1) = (  1.000000  0.000000  0.000000 )
               b(2) = (  0.000000  1.021112 -0.718494 )
               b(3) = (  0.000000  0.000000  0.718490 )

     PseudoPot. # 1 for Ca read from file:
     /home/pragov/projects/rrg-bengioy-ad/pragov/crystal_structure_design/SSSP/Ca_pbe_v1.uspp.F.UPF
     MD5 check sum: 403a4c14b9e4d4dfdc3024c9a3812218
     Pseudo is Ultrasoft + core correction, Zval = 10.0
     Generated by new atomic code, or converted to UPF format
     Using radial grid of  845 points,  6 beta functions with:
                l(1) =   0
                l(2) =   0
                l(3) =   1
                l(4) =   1
                l(5) =   2
                l(6) =   2
     Q(r) pseudized with  8 coefficients,  rinner =    1.500   1.500   1.500
                                                       1.500   1.500

     PseudoPot. # 2 for Mg read from file:
     /home/pragov/projects/rrg-bengioy-ad/pragov/crystal_structure_design/SSSP/Mg.pbe-n-kjpaw_psl.0.3.0.UPF
     MD5 check sum: 24ecedc7f3e3cbe212e682f4413594e4
     Pseudo is Projector augmented-wave + core cor, Zval =  2.0
     Generated using "atomic" code by A. Dal Corso  v.5.0.99 svn rev. 10869
     Shape of augmentation charge: PSQ
     Using radial grid of 1129 points,  4 beta functions with:
                l(1) =   0
                l(2) =   0
                l(3) =   1
                l(4) =   1
     Q(r) pseudized with 0 coefficients

     PseudoPot. # 3 for Re read from file:
     /home/pragov/projects/rrg-bengioy-ad/pragov/crystal_structure_design/SSSP/Re_pbe_v1.2.uspp.F.UPF
     MD5 check sum: 85f993410f3e006da9d71c142b4ad953
     Pseudo is Ultrasoft + core correction, Zval = 15.0
     Generated by new atomic code, or converted to UPF format
     Using radial grid of  981 points,  8 beta functions with:
                l(1) =   0
                l(2) =   0
                l(3) =   1
                l(4) =   1
                l(5) =   2
                l(6) =   2
                l(7) =   3
                l(8) =   3
     Q(r) pseudized with  8 coefficients,  rinner =    1.150   1.150   1.150
                                                       1.150   1.150   1.150
                                                       1.150

     PseudoPot. # 4 for O  read from file:
     /home/pragov/projects/rrg-bengioy-ad/pragov/crystal_structure_design/SSSP/O.pbe-n-kjpaw_psl.0.1.UPF
     MD5 check sum: 0234752ac141de4415c5fc33072bef88
     Pseudo is Projector augmented-wave + core cor, Zval =  6.0
     Generated using "atomic" code by A. Dal Corso  v.5.0.99 svn rev. 10869
     Shape of augmentation charge: BESSEL
     Using radial grid of 1095 points,  4 beta functions with:
                l(1) =   0
                l(2) =   0
                l(3) =   1
                l(4) =   1
     Q(r) pseudized with 0 coefficients

     atomic species   valence    mass     pseudopotential
        Ca            10.00    40.07800     Ca( 1.00)
        Mg             2.00    24.30500     Mg( 1.00)
        Re            15.00   186.20700     Re( 1.00)
        O              6.00    15.99900     O ( 1.00)

      4 Sym. Ops., with inversion, found ( 2 have fractional translation)

                                    s                        frac. trans.

      isym =  1     identity

 cryst.   s( 1) = (     1          0          0      )
                  (     0          1          0      )
                  (     0          0          1      )

 cart.    s( 1) = (  1.0000000  0.0000000  0.0000000 )
                  (  0.0000000  1.0000000  0.0000000 )
                  (  0.0000000  0.0000000  1.0000000 )

      isym =  2     180 deg rotation - cart. axis [1,0,0]

 cryst.   s( 2) = (     1          0          0      )    f =(  0.5000000 )
                  (     0         -1          0      )       (  0.0000000 )
                  (     0          0         -1      )       ( -0.5000000 )

 cart.    s( 2) = (  1.0000000  0.0000000  0.0000000 )    f =(  0.5000000 )
                  (  0.0000000 -1.0000000 -0.0000000 )       ( -0.4896650 )
                  (  0.0000000  0.0000000 -1.0000000 )       ( -0.6959041 )

      isym =  3     inversion

 cryst.   s( 3) = (    -1          0          0      )
                  (     0         -1          0      )
                  (     0          0         -1      )

 cart.    s( 3) = ( -1.0000000  0.0000000  0.0000000 )
                  (  0.0000000 -1.0000000 -0.0000000 )
                  (  0.0000000  0.0000000 -1.0000000 )

      isym =  4     inv. 180 deg rotation - cart. axis [1,0,0]

 cryst.   s( 4) = (    -1          0          0      )    f =( -0.5000000 )
                  (     0          1          0      )       ( -0.0000000 )
                  (     0          0          1      )       (  0.5000000 )

 cart.    s( 4) = ( -1.0000000  0.0000000  0.0000000 )    f =( -0.5000000 )
                  (  0.0000000  1.0000000  0.0000000 )       (  0.4896650 )
                  (  0.0000000  0.0000000  1.0000000 )       (  0.6959041 )

   Cartesian axes

     site n.     atom                  positions (alat units)
         1           Ca  tau(   1) = (   0.0478570   0.9873358   0.3465978  )
         2           Ca  tau(   2) = (   0.4521430   1.4770008   1.0425019  )
         3           Ca  tau(   3) = (   0.9521430   0.9713188   1.0452103  )
         4           Ca  tau(   4) = (   0.5478570   0.4816538   0.3493063  )
         5           Mg  tau(   5) = (   0.5000000   0.0000000   0.0000000  )
         6           Mg  tau(   6) = (   0.0000000   0.4896650   0.6959041  )
         7           Re  tau(   7) = (   0.5000000   0.9793273   0.6959041  )
         8           Re  tau(   8) = (   0.0000000   0.4896623   0.0000000  )
         9           O   tau(   9) = (   0.2150230   0.7914490   0.7601736  )
        10           O   tau(  10) = (   0.2849770   0.3017840   0.0642695  )
        11           O   tau(  11) = (   0.7849770   1.1672055   0.6316345  )
        12           O   tau(  12) = (   0.7150230   1.6568706   1.3275386  )
        13           O   tau(  13) = (   0.6963220   0.6985229   0.7584951  )
        14           O   tau(  14) = (   0.8036780   0.2088579   0.0625910  )
        15           O   tau(  15) = (   0.3036780   1.2601317   0.6333131  )
        16           O   tau(  16) = (   0.1963220   1.7497967   1.3292171  )
        17           O   tau(  17) = (   0.4738510   0.8938348   0.3591798  )
        18           O   tau(  18) = (   0.0261490   1.3834999   1.0550838  )
        19           O   tau(  19) = (   0.5261490   1.0648198   1.0326284  )
        20           O   tau(  20) = (   0.9738510   0.5751547   0.3367243  )

   Crystallographic axes

     site n.     atom                  positions (cryst. coord.)
         1           Ca  tau(   1) = (  0.0478570  0.7591520  0.2490270  )
         2           Ca  tau(   2) = (  0.4521430  0.7591520  0.7490270  )
         3           Ca  tau(   3) = (  0.9521430  0.2408480  0.7509730  )
         4           Ca  tau(   4) = (  0.5478570  0.2408480  0.2509730  )
         5           Mg  tau(   5) = (  0.5000000  0.0000000  0.0000000  )
         6           Mg  tau(   6) = (  0.0000000 -0.0000000  0.5000000  )
         7           Re  tau(   7) = (  0.5000000  0.5000000  0.5000000  )
         8           Re  tau(   8) = (  0.0000000  0.5000000  0.0000000  )
         9           O   tau(   9) = (  0.2150230  0.2619780  0.5461770  )
        10           O   tau(  10) = (  0.2849770  0.2619780  0.0461770  )
        11           O   tau(  11) = (  0.7849770  0.7380220  0.4538230  )
        12           O   tau(  12) = (  0.7150230  0.7380220  0.9538230  )
        13           O   tau(  13) = (  0.6963220  0.1682960  0.5449710  )
        14           O   tau(  14) = (  0.8036780  0.1682960  0.0449710  )
        15           O   tau(  15) = (  0.3036780  0.8317040  0.4550290  )
        16           O   tau(  16) = (  0.1963220  0.8317040  0.9550290  )
        17           O   tau(  17) = (  0.4738510  0.6546370  0.2580670  )
        18           O   tau(  18) = (  0.0261490  0.6546370  0.7580670  )
        19           O   tau(  19) = (  0.5261490  0.3453630  0.7419330  )
        20           O   tau(  20) = (  0.9738510  0.3453630  0.2419330  )

     number of k points=     1  Methfessel-Paxton smearing, width (Ry)=  0.0010
                       cart. coord. in units 2pi/alat
        k(    1) = (   0.0000000   0.0000000   0.0000000), wk =   2.0000000

                       cryst. coord.
        k(    1) = (   0.0000000   0.0000000   0.0000000), wk =   2.0000000

     Check: negative core charge=   -0.000010

     Initial potential from superposition of free atoms

     starting charge     144.9762, renormalised to     146.0000

     negative rho (up, down):  2.540E-01 0.000E+00
     Starting wfcs are  122 randomized atomic wfcs
     Checking if some PAW data can be deallocated...

     Self-consistent Calculation

     iteration #  1     ecut=    30.00 Ry     beta= 0.70
     Davidson diagonalization with overlap

     ethr =  1.00E-02,  avg # of iterations =  2.0

     negative rho (up, down):  2.904E-01 0.000E+00

     total energy              =   -1246.23162677 Ry
[...]
     estimated scf accuracy    <       0.00000220 Ry

     iteration # 19     ecut=    30.00 Ry     beta= 0.70
     Davidson diagonalization with overlap

     ethr =  1.51E-09,  avg # of iterations =  3.0

[...]

     End of self-consistent calculation

          k = 0.0000 0.0000 0.0000 (  2214 PWs)   bands (ev):

   -72.3192 -72.3190 -34.3282 -34.3279 -34.0948 -34.0945 -33.8779 -33.8776
   -29.7337 -29.7258 -29.7186 -29.7126 -11.2124 -11.0884 -11.0517 -11.0269
   -11.0158 -10.9036 -10.8162 -10.8070 -10.7765 -10.7694 -10.7608 -10.7350
    -9.3525  -8.5739  -8.3977  -8.1832  -8.1712  -8.0956  -8.0443  -7.8565
    -7.8218  -7.7721  -7.5805  -7.5307   2.7168   3.1823   3.5441   3.8294
     3.9113   3.9550   4.0969   4.1414   4.1948   4.4000   4.5175   4.5658
     5.1389   5.3847   5.4301   5.5631   5.7234   5.8896   6.1952   6.3220
     6.7358   6.8379   7.1683   7.2373   7.3147   7.3359   7.4447   7.6607
     7.7100   7.7387   7.8145   7.8395   7.8724   7.9083   7.9253   7.9280
    10.5492  10.5635  10.6150  10.7034  10.9474  11.4003  14.1482  14.5483
    14.9444  14.9529  14.9984  15.1175  15.2003  15.2651  15.3452  15.7119

     occupation numbers
     1.0000   1.0000   1.0000   1.0000   1.0000   1.0000   1.0000   1.0000
     1.0000   1.0000   1.0000   1.0000   1.0000   1.0000   1.0000   1.0000
     1.0000   1.0000   1.0000   1.0000   1.0000   1.0000   1.0000   1.0000
     1.0000   1.0000   1.0000   1.0000   1.0000   1.0000   1.0000   1.0000
     1.0000   1.0000   1.0000   1.0000   1.0000   1.0000   1.0000   1.0000
     1.0000   1.0000   1.0000   1.0000   1.0000   1.0000   1.0000   1.0000
     1.0000   1.0000   1.0000   1.0000   1.0000   1.0000   1.0000   1.0000
     1.0000   1.0000   1.0000   1.0000   1.0000   1.0000   1.0000   1.0000
     1.0000   1.0000   1.0000   1.0000   1.0000   1.0000   1.0000   1.0000
     0.8833   0.1167  -0.0000  -0.0000  -0.0000  -0.0000  -0.0000  -0.0000
    -0.0000  -0.0000  -0.0000  -0.0000  -0.0000  -0.0000  -0.0000  -0.0000

     the Fermi energy is    10.5563 ev

!    total energy              =   -1249.21526423 Ry
     estimated scf accuracy    <       0.00000061 Ry
     smearing contrib. (-TS)   =      -0.00019274 Ry
     internal energy E=F+TS    =   -1249.21507148 Ry

     The total energy is F=E-TS. E is the sum of the following terms:
     one-electron contribution =    -337.52325254 Ry
     hartree contribution      =     245.24743308 Ry
     xc contribution           =    -246.04511339 Ry
     ewald contribution        =    -734.09936041 Ry
     one-center paw contrib.   =    -176.79477822 Ry
      -> PAW hartree energy AE =     361.61525789 Ry
      -> PAW hartree energy PS =    -360.31874269 Ry
      -> PAW xc energy AE      =    -272.05409573 Ry
      -> PAW xc energy PS      =      93.96280230 Ry
      -> total E_H with PAW    =     246.54394828 Ry
      -> total E_XC with PAW   =    -424.13640681 Ry

     convergence has been achieved in  19 iterations

     negative rho (up, down):  2.721E-01 0.000E+00

     Forces acting on atoms (cartesian axes, Ry/au):

     atom    1 type  1   force =     0.01440483    0.01377278    0.00536251
     atom    2 type  1   force =    -0.01440483    0.01377278    0.00536251
     atom    3 type  1   force =    -0.01440483   -0.01377278   -0.00536251
     atom    4 type  1   force =     0.01440483   -0.01377278   -0.00536251
     atom    5 type  2   force =     0.00000000    0.00000000   -0.00000000
     atom    6 type  2   force =     0.00000000    0.00000000    0.00000000
     atom    7 type  3   force =     0.00000000    0.00000000   -0.00000000
     atom    8 type  3   force =     0.00000000    0.00000000    0.00000000
     atom    9 type  4   force =     0.01038928    0.02297528    0.02649277
     atom   10 type  4   force =    -0.01038928    0.02297528    0.02649277
     atom   11 type  4   force =    -0.01038928   -0.02297528   -0.02649277
     atom   12 type  4   force =     0.01038928   -0.02297528   -0.02649277
     atom   13 type  4   force =    -0.01101223   -0.00888899    0.00931827
     atom   14 type  4   force =     0.01101223   -0.00888899    0.00931827
     atom   15 type  4   force =     0.01101223    0.00888899   -0.00931827
     atom   16 type  4   force =    -0.01101223    0.00888899   -0.00931827
     atom   17 type  4   force =    -0.00418712   -0.00137135    0.02821282
     atom   18 type  4   force =     0.00418712   -0.00137135    0.02821282
     atom   19 type  4   force =     0.00418712    0.00137135   -0.02821282
     atom   20 type  4   force =    -0.00418712    0.00137135   -0.02821282
     The non-local contrib.  to forces
     atom    1 type  1   force =    -0.00273676    0.01199693   -0.00032967
     atom    2 type  1   force =     0.00273676    0.01199693   -0.00032967
     atom    3 type  1   force =     0.00273676   -0.01199693    0.00032967
     atom    4 type  1   force =    -0.00273676   -0.01199693    0.00032967
     atom    5 type  2   force =     0.00000000    0.00000000   -0.00000000
     atom    6 type  2   force =     0.00000000    0.00000000    0.00000000
     atom    7 type  3   force =     0.00000000    0.00000000    0.00000000
     atom    8 type  3   force =     0.00000000    0.00000000   -0.00000000
     atom    9 type  4   force =     0.54033034    0.23835258   -0.05594889
     atom   10 type  4   force =    -0.54033034    0.23835258   -0.05594889
     atom   11 type  4   force =    -0.54033034   -0.23835258    0.05594889
     atom   12 type  4   force =     0.54033034   -0.23835258    0.05594889
     atom   13 type  4   force =    -0.29968587    0.50352415   -0.10991784
     atom   14 type  4   force =     0.29968587    0.50352415   -0.10991784
     atom   15 type  4   force =     0.29968587   -0.50352415    0.10991784
     atom   16 type  4   force =    -0.29968587   -0.50352415    0.10991784
     atom   17 type  4   force =     0.01809319    0.13660775    0.60599693
     atom   18 type  4   force =    -0.01809319    0.13660775    0.60599693
     atom   19 type  4   force =    -0.01809319   -0.13660775   -0.60599693
     atom   20 type  4   force =     0.01809319   -0.13660775   -0.60599693
     The ionic contribution  to forces
     atom    1 type  1   force =    -1.31406501   -0.37441905    0.13552995
     atom    2 type  1   force =     1.31406501   -0.37441905    0.13552995
     atom    3 type  1   force =     1.31406501    0.37441905   -0.13552995
     atom    4 type  1   force =    -1.31406501    0.37441905   -0.13552995
     atom    5 type  2   force =     0.00000000   -0.00000000   -0.00000000
     atom    6 type  2   force =    -0.00000000   -0.00000000   -0.00000000
     atom    7 type  3   force =     0.00000000   -0.00000000    0.00000000
     atom    8 type  3   force =    -0.00000000   -0.00000000    0.00000000
     atom    9 type  4   force =    -7.55338846   -5.72144469    0.72454216
     atom   10 type  4   force =     7.55338846   -5.72144469    0.72454216
     atom   11 type  4   force =     7.55338846    5.72144469   -0.72454216
     atom   12 type  4   force =    -7.55338846    5.72144469   -0.72454216
     atom   13 type  4   force =     6.45238432   -7.57480490    0.58330469
     atom   14 type  4   force =    -6.45238432   -7.57480490    0.58330469
     atom   15 type  4   force =    -6.45238432    7.57480490   -0.58330469
     atom   16 type  4   force =     6.45238432    7.57480490   -0.58330469
     atom   17 type  4   force =     0.60803980   -1.34281061   -9.60190141
     atom   18 type  4   force =    -0.60803980   -1.34281061   -9.60190141
     atom   19 type  4   force =    -0.60803980    1.34281061    9.60190141
     atom   20 type  4   force =     0.60803980    1.34281061    9.60190141
     The local contribution  to forces
     atom    1 type  1   force =     1.33108211    0.37656258   -0.13086102
     atom    2 type  1   force =    -1.33120002    0.37624666   -0.12933774
     atom    3 type  1   force =    -1.33107506   -0.37657003    0.13085374
     atom    4 type  1   force =     1.33119606   -0.37623769    0.12933808
     atom    5 type  2   force =    -0.00000039   -0.00000139   -0.00000451
     atom    6 type  2   force =     0.00000155    0.00000177    0.00000553
     atom    7 type  3   force =    -0.00002337    0.00000579    0.00001662
     atom    8 type  3   force =     0.00000511    0.00000676   -0.00003871
     atom    9 type  4   force =     7.02823046    5.50758013   -0.64232012
     atom   10 type  4   force =    -7.02867495    5.50807297   -0.64256166
     atom   11 type  4   force =    -7.02823100   -5.50758401    0.64234174
     atom   12 type  4   force =     7.02867598   -5.50807197    0.64253614
     atom   13 type  4   force =    -6.16610574    7.06668910   -0.46500683
     atom   14 type  4   force =     6.16623176    7.06736119   -0.46527999
     atom   15 type  4   force =     6.16611611   -7.06669761    0.46502485
     atom   16 type  4   force =    -6.16623412   -7.06736194    0.46525499
     atom   17 type  4   force =    -0.63005639    1.20609553    9.02915429
     atom   18 type  4   force =     0.63002096    1.20631055    9.03021370
     atom   19 type  4   force =     0.63006209   -1.20609876   -9.02915442
     atom   20 type  4   force =    -0.63001786   -1.20630498   -9.03021276
     The core correction contribution to forces
     atom    1 type  1   force =     0.00005149   -0.00015088    0.00026812
     atom    2 type  1   force =    -0.00005630   -0.00015504    0.00026759
     atom    3 type  1   force =    -0.00005150    0.00015078   -0.00026834
     atom    4 type  1   force =     0.00005637    0.00015517   -0.00026763
     atom    5 type  2   force =     0.00000001    0.00000003   -0.00000004
     atom    6 type  2   force =     0.00000001    0.00000003    0.00000002
     atom    7 type  3   force =    -0.00000216    0.00000080   -0.00000025
     atom    8 type  3   force =     0.00000044   -0.00000042   -0.00000078
     atom    9 type  4   force =    -0.00507642   -0.00181451    0.00041611
     atom   10 type  4   force =     0.00507603   -0.00181538    0.00041688
     atom   11 type  4   force =     0.00507651    0.00181454   -0.00041615
     atom   12 type  4   force =    -0.00507593    0.00181540   -0.00041690
     atom   13 type  4   force =     0.00250874   -0.00470501    0.00114650
     atom   14 type  4   force =    -0.00250949   -0.00470485    0.00114672
     atom   15 type  4   force =    -0.00250864    0.00470494   -0.00114657
     atom   16 type  4   force =     0.00250943    0.00470480   -0.00114666
     atom   17 type  4   force =    -0.00026578   -0.00129313   -0.00561162
     atom   18 type  4   force =     0.00026533   -0.00129411   -0.00561136
     atom   19 type  4   force =     0.00026585    0.00129314    0.00561149
     atom   20 type  4   force =    -0.00026533    0.00129412    0.00561153
     The Hubbard contrib.    to forces
     atom    1 type  1   force =     0.00000000    0.00000000    0.00000000
     atom    2 type  1   force =     0.00000000    0.00000000    0.00000000
     atom    3 type  1   force =     0.00000000    0.00000000    0.00000000
     atom    4 type  1   force =     0.00000000    0.00000000    0.00000000
     atom    5 type  2   force =     0.00000000    0.00000000    0.00000000
     atom    6 type  2   force =     0.00000000    0.00000000    0.00000000
     atom    7 type  3   force =     0.00000000    0.00000000    0.00000000
     atom    8 type  3   force =     0.00000000    0.00000000    0.00000000
     atom    9 type  4   force =     0.00000000    0.00000000    0.00000000
     atom   10 type  4   force =     0.00000000    0.00000000    0.00000000
     atom   11 type  4   force =     0.00000000    0.00000000    0.00000000
     atom   12 type  4   force =     0.00000000    0.00000000    0.00000000
     atom   13 type  4   force =     0.00000000    0.00000000    0.00000000
     atom   14 type  4   force =     0.00000000    0.00000000    0.00000000
     atom   15 type  4   force =     0.00000000    0.00000000    0.00000000
     atom   16 type  4   force =     0.00000000    0.00000000    0.00000000
     atom   17 type  4   force =     0.00000000    0.00000000    0.00000000
     atom   18 type  4   force =     0.00000000    0.00000000    0.00000000
     atom   19 type  4   force =     0.00000000    0.00000000    0.00000000
     atom   20 type  4   force =     0.00000000    0.00000000    0.00000000
     The SCF correction term to forces
     atom    1 type  1   force =     0.00005924   -0.00017558    0.00070150
     atom    2 type  1   force =     0.00003535    0.00006040   -0.00071381
     atom    3 type  1   force =    -0.00006399    0.00018274   -0.00069400
     atom    4 type  1   force =    -0.00003037   -0.00007245    0.00071386
     atom    5 type  2   force =     0.00000045    0.00000132    0.00000402
     atom    6 type  2   force =    -0.00000114   -0.00000131   -0.00000505
     atom    7 type  3   force =     0.00002895   -0.00000262   -0.00001874
     atom    8 type  3   force =    -0.00000472   -0.00000659    0.00004993
     atom    9 type  4   force =     0.00030364    0.00034937   -0.00024038
     atom   10 type  4   force =     0.00016301   -0.00023733    0.00008678
     atom   11 type  4   force =    -0.00030127   -0.00034444    0.00021410
     atom   12 type  4   force =    -0.00015979    0.00023617   -0.00005932
     atom   13 type  4   force =    -0.00013548    0.00039316   -0.00020030
     atom   14 type  4   force =    -0.00003931   -0.00025185    0.00005526
     atom   15 type  4   force =     0.00013286   -0.00038822    0.00017532
     atom   16 type  4   force =     0.00003772    0.00025272   -0.00002629
     atom   17 type  4   force =    -0.00003252    0.00006444    0.00056035
     atom   18 type  4   force =    -0.00000212   -0.00021996   -0.00047124
     atom   19 type  4   force =     0.00003069   -0.00006094   -0.00056499
     atom   20 type  4   force =     0.00000024    0.00021472    0.00047408

     Total force =     0.107072     Total SCF correction =     0.002124

     Computing stress (Cartesian axis) and pressure

     negative rho (up, down):  2.721E-01 0.000E+00
          total   stress  (Ry/bohr**3)                   (kbar)     P=     -350.32
  -0.00216327   0.00000000   0.00000000         -318.23        0.00        0.00
   0.00000000  -0.00223193  -0.00009784            0.00     -328.33      -14.39
   0.00000000  -0.00009784  -0.00274911            0.00      -14.39     -404.41

     kinetic stress (kbar)  24229.43      0.00      0.00
                                0.00  24147.93    -49.11
                                0.00    -49.11  23902.40

     local   stress (kbar)  -3816.92      0.36     -0.10
                                0.36  -4452.61   1075.19
                               -0.10   1075.19  -3834.62

     nonloc. stress (kbar)    376.58      0.00      0.00
                                0.00    375.97      8.75
                                0.00      8.75    402.11

     hartree stress (kbar)   7431.01     -0.16      0.05
                               -0.16   7681.05   -429.60
                                0.05   -429.60   7515.93

     exc-cor stress (kbar)   2139.79     -0.00      0.00
                               -0.00   2139.64     -1.05
                                0.00     -1.05   2137.82

     corecor stress (kbar)  -7901.19      0.01     -0.00
                                0.01  -7898.22      1.73
                               -0.00      1.73  -7894.66

     ewald   stress (kbar) -22776.91      0.00      0.00
                                0.00 -22322.09   -620.30
                                0.00   -620.30 -22633.39

     hubbard stress (kbar)      0.00      0.00      0.00
                                0.00      0.00      0.00
                                0.00      0.00      0.00

     DFT-D   stress (kbar)      0.00      0.00      0.00
                                0.00      0.00      0.00
                                0.00      0.00      0.00

     XDM     stress (kbar)      0.00      0.00      0.00
                                0.00      0.00      0.00
                                0.00      0.00      0.00

     dft-nl  stress (kbar)      0.00      0.00      0.00
                                0.00      0.00      0.00
                                0.00      0.00      0.00

     TS-vdW  stress (kbar)      0.00      0.00      0.00
                                0.00      0.00      0.00
                                0.00      0.00      0.00

[...]

                                0.00      0.00      0.00

     Writing all to output data dir new_calculations/myprefix.save/

     General routines

     Parallel routines

     PAW routines

   This run was terminated on:  15:32:34  20May2023

   JOB DONE.