     Program PWSCF v.7.0 starts on 20May2023 at 22:43:45

     Reading input from espresso_21298.pwi
Warning: card &CELL ignored
Warning: card / ignored

     Current dimensions of program PWSCF are:
     Max number of different atomic species (ntypx) = 10
     Max number of k-points (npk) =  40000
     Max angular momentum in pseudopotentials (lmaxx) =  4
     file O.pbe-n-kjpaw_psl.0.1.UPF: wavefunction(s)  2P renormalized

     gamma-point specific algorithms are used
     Message from routine setup:
     using ibrav=0 with symmetry is DISCOURAGED, use correct ibrav instead

     Subspace diagonalization in iterative solution of the eigenvalue problem:
     a serial algorithm will be used

     Using Slab Decomposition

     bravais-lattice index     =            0
     lattice parameter (alat)  =      13.9333  a.u.
     unit-cell volume          =    3095.3799 (a.u.)^3
     number of atoms/cell      =           20
     number of atomic types    =            3
     number of electrons       =       160.00
     number of Kohn-Sham states=           96
     kinetic-energy cutoff     =      30.0000  Ry
     charge density cutoff     =     240.0000  Ry
     scf convergence threshold =      1.0E-06
     mixing beta               =       0.7000
     number of iterations used =            8  plain     mixing
     Exchange-correlation= SLA  PW   PBX  PBC
                           (   1   4   3   4   0   0   0)

     celldm(1)=  13.933257  celldm(2)=   0.000000  celldm(3)=   0.000000
     celldm(4)=   0.000000  celldm(5)=   0.000000  celldm(6)=   0.000000

     crystal axes: (cart. coord. in units of alat)
               a(1) = (   1.000000   0.000000   0.000000 )
               a(2) = (   0.000000   0.980633   0.000000 )
               a(3) = (   0.000000   0.175358   1.166942 )

     reciprocal axes: (cart. coord. in units 2 pi/alat)
               b(1) = (  1.000000  0.000000  0.000000 )
               b(2) = (  0.000000  1.019749 -0.153239 )
               b(3) = (  0.000000  0.000000  0.856940 )

     PseudoPot. # 1 for La read from file:
     /home/pragov/projects/rrg-bengioy-ad/pragov/crystal_structure_design/SSSP/La.GGA-PBE-paw-v1.0.UPF
     MD5 check sum: 436541e95c1ad8901025bd0b0ed42ae2
     Pseudo is Projector augmented-wave + core cor, Zval = 11.0
     Generated using ATOMPAW code
     Shape of augmentation charge: BESSEL
     Using radial grid of 1101 points,  8 beta functions with:
                l(1) =   0
                l(2) =   0
                l(3) =   1
                l(4) =   1
                l(5) =   2
                l(6) =   2
                l(7) =   3
                l(8) =   3
     Q(r) pseudized with 0 coefficients

     PseudoPot. # 2 for S  read from file:
     /home/pragov/projects/rrg-bengioy-ad/pragov/crystal_structure_design/SSSP/s_pbe_v1.4.uspp.F.UPF
     MD5 check sum: 88d86576ff6df21479756cfb9bdac1df
     Pseudo is Ultrasoft + core correction, Zval =  6.0
     Generated by new atomic code, or converted to UPF format
     Using radial grid of  907 points,  6 beta functions with:
                l(1) =   0
                l(2) =   0
                l(3) =   1
                l(4) =   1
                l(5) =   2
                l(6) =   2
     Q(r) pseudized with  8 coefficients,  rinner =    1.300   1.300   1.300
                                                       1.300   1.300

     PseudoPot. # 3 for O  read from file:
     /home/pragov/projects/rrg-bengioy-ad/pragov/crystal_structure_design/SSSP/O.pbe-n-kjpaw_psl.0.1.UPF
     MD5 check sum: 0234752ac141de4415c5fc33072bef88
     Pseudo is Projector augmented-wave + core cor, Zval =  6.0
     Generated using "atomic" code by A. Dal Corso  v.5.0.99 svn rev. 10869
     Shape of augmentation charge: BESSEL
     Using radial grid of 1095 points,  4 beta functions with:
                l(1) =   0
                l(2) =   0
                l(3) =   1
                l(4) =   1
     Q(r) pseudized with 0 coefficients

     atomic species   valence    mass     pseudopotential
        La            11.00   138.90547     La( 1.00)
        S              6.00    32.06000     S ( 1.00)
        O              6.00    15.99900     O ( 1.00)

      4 Sym. Ops., with inversion, found ( 2 have fractional translation)

                                    s                        frac. trans.

      isym =  1     identity

 cryst.   s( 1) = (     1          0          0      )
                  (     0          1          0      )
                  (     0          0          1      )

 cart.    s( 1) = (  1.0000000  0.0000000  0.0000000 )
                  (  0.0000000  1.0000000 -0.0000000 )
                  (  0.0000000  0.0000000  1.0000000 )

      isym =  2     180 deg rotation - cart. axis [1,0,0]

 cryst.   s( 2) = (     1          0          0      )    f =(  0.5000000 )
                  (     0         -1          0      )       ( -0.5000000 )
                  (     0          0         -1      )       (  0.0000000 )

 cart.    s( 2) = (  1.0000000  0.0000000  0.0000000 )    f =(  0.5000000 )
                  (  0.0000000 -1.0000000  0.0000000 )       ( -0.4903166 )
                  (  0.0000000  0.0000000 -1.0000000 )       (  0.0000000 )

      isym =  3     inversion

 cryst.   s( 3) = (    -1          0          0      )
                  (     0         -1          0      )
                  (     0          0         -1      )

 cart.    s( 3) = ( -1.0000000  0.0000000  0.0000000 )
                  (  0.0000000 -1.0000000  0.0000000 )
                  (  0.0000000  0.0000000 -1.0000000 )

      isym =  4     inv. 180 deg rotation - cart. axis [1,0,0]

 cryst.   s( 4) = (    -1          0          0      )    f =(  0.5000000 )
                  (     0          1          0      )       ( -0.5000000 )
                  (     0          0          1      )       (  0.0000000 )

 cart.    s( 4) = ( -1.0000000  0.0000000  0.0000000 )    f =(  0.5000000 )
                  (  0.0000000  1.0000000 -0.0000000 )       ( -0.4903166 )
                  (  0.0000000  0.0000000  1.0000000 )       (  0.0000000 )

   Cartesian axes

     site n.     atom                  positions (alat units)
         1           La  tau(   1) = (   0.4442140   0.2671584   0.1596365  )
         2           La  tau(   2) = (   0.0557860   0.7574750   0.1596365  )
         3           La  tau(   3) = (   0.8629510   0.3801546   0.4897085  )
         4           La  tau(   4) = (   0.6370490   0.8704713   0.4897085  )
         5           La  tau(   5) = (   0.3629510   0.2855198   0.6772338  )
         6           La  tau(   6) = (   0.1370490   0.7758364   0.6772338  )
         7           La  tau(   7) = (   0.9442140   0.3985160   1.0073058  )
         8           La  tau(   8) = (   0.5557860   0.8888327   1.0073058  )
         9           S   tau(   9) = (   0.7742560   0.4772538   0.0924580  )
        10           S   tau(  10) = (   0.7257440   0.9675704   0.0924580  )
        11           S   tau(  11) = (   0.1446370   0.1184298   0.3773892  )
        12           S   tau(  12) = (   0.3553630   0.6087464   0.3773892  )
        13           S   tau(  13) = (   0.6446370   0.5472446   0.7895532  )
        14           S   tau(  14) = (   0.8553630   1.0375612   0.7895532  )
        15           S   tau(  15) = (   0.2742560   0.1884206   1.0744843  )
        16           S   tau(  16) = (   0.2257440   0.6787372   1.0744843  )
        17           O   tau(  17) = (   0.5848460   0.2137481   0.4465153  )
        18           O   tau(  18) = (   0.9151540   0.7040648   0.4465153  )
        19           O   tau(  19) = (   0.0848460   0.4519262   0.7204270  )
        20           O   tau(  20) = (   0.4151540   0.9422429   0.7204270  )

   Crystallographic axes

     site n.     atom                  positions (cryst. coord.)
         1           La  tau(   1) = (  0.4442140  0.2479720  0.1367990  )
         2           La  tau(   2) = (  0.0557860  0.7479720  0.1367990  )
         3           La  tau(   3) = (  0.8629510  0.3126200  0.4196510  )
         4           La  tau(   4) = (  0.6370490  0.8126200  0.4196510  )
         5           La  tau(   5) = (  0.3629510  0.1873800  0.5803490  )
         6           La  tau(   6) = (  0.1370490  0.6873800  0.5803490  )
         7           La  tau(   7) = (  0.9442140  0.2520280  0.8632010  )
         8           La  tau(   8) = (  0.5557860  0.7520280  0.8632010  )
         9           S   tau(   9) = (  0.7742560  0.4725110  0.0792310  )
        10           S   tau(  10) = (  0.7257440  0.9725110  0.0792310  )
        11           S   tau(  11) = (  0.1446370  0.0629380  0.3234000  )
        12           S   tau(  12) = (  0.3553630  0.5629380  0.3234000  )
        13           S   tau(  13) = (  0.6446370  0.4370620  0.6766000  )
        14           S   tau(  14) = (  0.8553630  0.9370620  0.6766000  )
        15           S   tau(  15) = (  0.2742560  0.0274890  0.9207690  )
        16           S   tau(  16) = (  0.2257440  0.5274890  0.9207690  )
        17           O   tau(  17) = (  0.5848460  0.1495460  0.3826370  )
        18           O   tau(  18) = (  0.9151540  0.6495460  0.3826370  )
        19           O   tau(  19) = (  0.0848460  0.3504540  0.6173630  )
        20           O   tau(  20) = (  0.4151540  0.8504540  0.6173630  )

     number of k points=     1  Methfessel-Paxton smearing, width (Ry)=  0.0010
                       cart. coord. in units 2pi/alat
        k(    1) = (   0.0000000   0.0000000   0.0000000), wk =   2.0000000

                       cryst. coord.
        k(    1) = (   0.0000000   0.0000000   0.0000000), wk =   2.0000000

     Check: negative core charge=   -0.000004

     Initial potential from superposition of free atoms

     starting charge     159.9315, renormalised to     160.0000
     Starting wfcs are  304 randomized atomic wfcs
     Checking if some PAW data can be deallocated...

     Self-consistent Calculation

     iteration #  1     ecut=    30.00 Ry     beta= 0.70
     Davidson diagonalization with overlap

     ethr =  1.00E-02,  avg # of iterations =  2.0

     total energy              =   -4026.70799638 Ry
     estimated scf accuracy    <       3.06992984 Ry

[...]

     c_bands:  1 eigenvalues not converged
     ethr =  5.40E-05,  avg # of iterations = 20.0

[...]

     total energy              =   -4028.34438315 Ry
     estimated scf accuracy    <       0.00000109 Ry

     iteration # 16     ecut=    30.00 Ry     beta= 0.70
     Davidson diagonalization with overlap

     ethr =  6.80E-10,  avg # of iterations =  4.0

     End of self-consistent calculation

          k = 0.0000 0.0000 0.0000 (  4276 PWs)   bands (ev):

   -22.7368 -22.7049 -22.7017 -22.6961 -22.5871 -22.5064 -22.5054 -22.5013
   -10.0470  -9.5153  -9.3780  -9.0158  -7.0006  -6.8794  -6.8104  -6.8071
    -6.6951  -6.6367  -6.5962  -6.5876  -6.5339  -6.4932  -6.4858  -6.4343
    -6.4265  -6.2875  -6.2311  -6.2283  -6.1920  -6.1847  -6.1066  -6.0757
    -5.7418  -5.2451  -5.1035  -4.2675  -2.7178  -2.2385  -2.0534  -1.9850
    -1.9031  -1.8748  -1.7520  -1.6493   4.9378   5.1602   5.2474   5.4724
     5.4870   5.6184   5.7640   5.8593   5.8654   5.9709   6.0621   6.0710
     6.1196   6.3182   6.3769   6.4322   6.5065   6.5849   6.7281   6.8143
     7.1000   7.1365   7.1509   7.1892   7.2480   7.2887   7.3721   7.3934
     7.5715   7.6866   7.7775   7.8053   7.9341   8.1347   8.1920   8.4762
    11.0275  11.3918  11.4080  11.4295  11.7612  11.7619  11.7773  11.8292
    11.8621  11.9070  11.9560  11.9665  12.0035  12.0258  12.0444  12.0466

     occupation numbers
     1.0000   1.0000   1.0000   1.0000   1.0000   1.0000   1.0000   1.0000
     1.0000   1.0000   1.0000   1.0000   1.0000   1.0000   1.0000   1.0000
     1.0000   1.0000   1.0000   1.0000   1.0000   1.0000   1.0000   1.0000
     1.0000   1.0000   1.0000   1.0000   1.0000   1.0000   1.0000   1.0000
     1.0000   1.0000   1.0000   1.0000   1.0000   1.0000   1.0000   1.0000
     1.0000   1.0000   1.0000   1.0000   1.0000   1.0000   1.0000   1.0000
     1.0000   1.0000   1.0000   1.0000   1.0000   1.0000   1.0000   1.0000
     1.0000   1.0000   1.0000   1.0000   1.0000   1.0000   1.0000   1.0000
     1.0000   1.0000   1.0000   1.0000   1.0000   1.0000   1.0000   1.0000
     1.0000   1.0000   1.0000   1.0000   1.0000   1.0000   1.0000   1.0000
    -0.0000  -0.0000  -0.0000  -0.0000  -0.0000  -0.0000  -0.0000  -0.0000
    -0.0000  -0.0000  -0.0000  -0.0000  -0.0000  -0.0000  -0.0000  -0.0000

     the Fermi energy is     9.9917 ev

!    total energy              =   -4028.34438300 Ry
     estimated scf accuracy    <       0.00000030 Ry
     smearing contrib. (-TS)   =       0.00000000 Ry
     internal energy E=F+TS    =   -4028.34438300 Ry

     The total energy is F=E-TS. E is the sum of the following terms:
     one-electron contribution =    -100.48643703 Ry
     hartree contribution      =     143.00080164 Ry
     xc contribution           =    -168.25845461 Ry
     ewald contribution        =    -679.72363396 Ry
     one-center paw contrib.   =   -3222.87665905 Ry
      -> PAW hartree energy AE =     397.39773579 Ry
      -> PAW hartree energy PS =    -397.36128641 Ry
      -> PAW xc energy AE      =   -3311.42884276 Ry
      -> PAW xc energy PS      =      88.51573434 Ry
      -> total E_H with PAW    =     143.03725102 Ry
      -> total E_XC with PAW   =   -3391.17156303 Ry

     convergence has been achieved in  16 iterations

     Forces acting on atoms (cartesian axes, Ry/au):

     atom    1 type  1   force =    -0.00119423    0.00252709   -0.00462526
     atom    2 type  1   force =     0.00119423    0.00252709   -0.00462526
     atom    3 type  1   force =     0.00844412   -0.00607585   -0.00127041
     atom    4 type  1   force =    -0.00844412   -0.00607585   -0.00127041
     atom    5 type  1   force =     0.00844412    0.00607585    0.00127041
     atom    6 type  1   force =    -0.00844412    0.00607585    0.00127041
     atom    7 type  1   force =    -0.00119423   -0.00252709    0.00462526
     atom    8 type  1   force =     0.00119423   -0.00252709    0.00462526
     atom    9 type  2   force =     0.00271586   -0.00338783    0.00029797
     atom   10 type  2   force =    -0.00271586   -0.00338783    0.00029797
     atom   11 type  2   force =    -0.00859812   -0.00168801    0.00718301
     atom   12 type  2   force =     0.00859812   -0.00168801    0.00718301
     atom   13 type  2   force =    -0.00859812    0.00168801   -0.00718301
     atom   14 type  2   force =     0.00859812    0.00168801   -0.00718301
     atom   15 type  2   force =     0.00271586    0.00338783   -0.00029797
     atom   16 type  2   force =    -0.00271586    0.00338783   -0.00029797
     atom   17 type  3   force =    -0.00140994    0.00263598    0.00106866
     atom   18 type  3   force =     0.00140994    0.00263598    0.00106866
     atom   19 type  3   force =    -0.00140994   -0.00263598   -0.00106866
     atom   20 type  3   force =     0.00140994   -0.00263598   -0.00106866
     The non-local contrib.  to forces
     atom    1 type  1   force =    -0.01896663    0.02602961   -0.02005336
     atom    2 type  1   force =     0.01896663    0.02602961   -0.02005336
     atom    3 type  1   force =    -0.03092208   -0.02388098   -0.01441693
     atom    4 type  1   force =     0.03092208   -0.02388098   -0.01441693
     atom    5 type  1   force =    -0.03092208    0.02388098    0.01441693
     atom    6 type  1   force =     0.03092208    0.02388098    0.01441693
     atom    7 type  1   force =    -0.01896663   -0.02602961    0.02005336
     atom    8 type  1   force =     0.01896663   -0.02602961    0.02005336
     atom    9 type  2   force =     0.00105895    0.00415587   -0.00310608
     atom   10 type  2   force =    -0.00105895    0.00415587   -0.00310608
     atom   11 type  2   force =     0.02765872   -0.01083776    0.00695004
     atom   12 type  2   force =    -0.02765872   -0.01083776    0.00695004
     atom   13 type  2   force =     0.02765872    0.01083776   -0.00695004
     atom   14 type  2   force =    -0.02765872    0.01083776   -0.00695004
     atom   15 type  2   force =     0.00105895   -0.00415587    0.00310608
     atom   16 type  2   force =    -0.00105895   -0.00415587    0.00310608
     atom   17 type  3   force =    -0.03583850   -0.02225066    0.00224402
     atom   18 type  3   force =     0.03583850   -0.02225066    0.00224402
     atom   19 type  3   force =    -0.03583850    0.02225066   -0.00224402
     atom   20 type  3   force =     0.03583850    0.02225066   -0.00224402
     The ionic contribution  to forces
     atom    1 type  1   force =    -2.00313330    0.82357378   -6.06863867
     atom    2 type  1   force =     2.00313330    0.82357378   -6.06863867
     atom    3 type  1   force =     0.25862554   -2.72941718   -3.92465043
     atom    4 type  1   force =    -0.25862554   -2.72941718   -3.92465043
     atom    5 type  1   force =     0.25862554    2.72941718    3.92465043
     atom    6 type  1   force =    -0.25862554    2.72941718    3.92465043
     atom    7 type  1   force =    -2.00313330   -0.82357378    6.06863867
     atom    8 type  1   force =     2.00313330   -0.82357378    6.06863867
     atom    9 type  2   force =     0.05126804    0.14037636   -1.40275401
     atom   10 type  2   force =    -0.05126804    0.14037636   -1.40275401
     atom   11 type  2   force =    -1.04828558   -0.02981519   -2.93724131
     atom   12 type  2   force =     1.04828558   -0.02981519   -2.93724131
     atom   13 type  2   force =    -1.04828558    0.02981519    2.93724131
     atom   14 type  2   force =     1.04828558    0.02981519    2.93724131
     atom   15 type  2   force =     0.05126804   -0.14037636    1.40275401
     atom   16 type  2   force =    -0.05126804   -0.14037636    1.40275401
     atom   17 type  3   force =     0.78098168    0.62813613   -1.75539442
     atom   18 type  3   force =    -0.78098168    0.62813613   -1.75539442
     atom   19 type  3   force =     0.78098168   -0.62813613    1.75539442
     atom   20 type  3   force =    -0.78098168   -0.62813613    1.75539442
     The local contribution  to forces
     atom    1 type  1   force =     2.02097328   -0.84711355    6.08430188
     atom    2 type  1   force =    -2.02090726   -0.84710021    6.08413965
     atom    3 type  1   force =    -0.21930664    2.74720616    3.93796152
     atom    4 type  1   force =     0.21924636    2.74744510    3.93789756
     atom    5 type  1   force =    -0.21932688   -2.74727997   -3.93794121
     atom    6 type  1   force =     0.21929791   -2.74738392   -3.93782026
     atom    7 type  1   force =     2.02099632    0.84712255   -6.08430180
     atom    8 type  1   force =    -2.02094129    0.84709994   -6.08420178
     atom    9 type  2   force =    -0.04952133   -0.14758931    1.40607567
     atom   10 type  2   force =     0.04955040   -0.14761297    1.40610032
     atom   11 type  2   force =     1.01352138    0.03824893    2.93781158
     atom   12 type  2   force =    -1.01355879    0.03823433    2.93780085
     atom   13 type  2   force =     1.01357243   -0.03825517   -2.93778592
     atom   14 type  2   force =    -1.01355950   -0.03821845   -2.93781595
     atom   15 type  2   force =    -0.04955364    0.14756953   -1.40608912
     atom   16 type  2   force =     0.04950501    0.14763899   -1.40611347
     atom   17 type  3   force =    -0.74689835   -0.60352074    1.75427213
     atom   18 type  3   force =     0.74694433   -0.60353405    1.75423133
     atom   19 type  3   force =    -0.74689137    0.60355996   -1.75422483
     atom   20 type  3   force =     0.74692120    0.60353188   -1.75421844
     The core correction contribution to forces
     atom    1 type  1   force =    -0.00000145   -0.00000183   -0.00006989
     atom    2 type  1   force =     0.00000143   -0.00000183   -0.00006986
     atom    3 type  1   force =     0.00002620   -0.00001955   -0.00006870
     atom    4 type  1   force =    -0.00002617   -0.00001957   -0.00006871
     atom    5 type  1   force =     0.00002616    0.00001957    0.00006870
     atom    6 type  1   force =    -0.00002619    0.00001955    0.00006871
     atom    7 type  1   force =    -0.00000142    0.00000184    0.00006988
     atom    8 type  1   force =     0.00000143    0.00000183    0.00006989
     atom    9 type  2   force =    -0.00006772   -0.00030866    0.00006784
     atom   10 type  2   force =     0.00006767   -0.00030772    0.00006770
     atom   11 type  2   force =    -0.00149514    0.00070114   -0.00035897
     atom   12 type  2   force =     0.00149391    0.00070089   -0.00035927
     atom   13 type  2   force =    -0.00149376   -0.00070203    0.00035858
     atom   14 type  2   force =     0.00149402   -0.00070037    0.00035796
     atom   15 type  2   force =    -0.00006753    0.00030836   -0.00006829
     atom   16 type  2   force =     0.00006756    0.00030859   -0.00006794
     atom   17 type  3   force =     0.00032822    0.00028175   -0.00005061
     atom   18 type  3   force =    -0.00032862    0.00028139   -0.00005099
     atom   19 type  3   force =     0.00032864   -0.00028086    0.00005078
     atom   20 type  3   force =    -0.00032858   -0.00028144    0.00005041
     The Hubbard contrib.    to forces
     atom    1 type  1   force =     0.00000000    0.00000000    0.00000000
     atom    2 type  1   force =     0.00000000    0.00000000    0.00000000
     atom    3 type  1   force =     0.00000000    0.00000000    0.00000000
     atom    4 type  1   force =     0.00000000    0.00000000    0.00000000
     atom    5 type  1   force =     0.00000000    0.00000000    0.00000000
     atom    6 type  1   force =     0.00000000    0.00000000    0.00000000
     atom    7 type  1   force =     0.00000000    0.00000000    0.00000000
     atom    8 type  1   force =     0.00000000    0.00000000    0.00000000
     atom    9 type  2   force =     0.00000000    0.00000000    0.00000000
     atom   10 type  2   force =     0.00000000    0.00000000    0.00000000
     atom   11 type  2   force =     0.00000000    0.00000000    0.00000000
     atom   12 type  2   force =     0.00000000    0.00000000    0.00000000
     atom   13 type  2   force =     0.00000000    0.00000000    0.00000000
     atom   14 type  2   force =     0.00000000    0.00000000    0.00000000
     atom   15 type  2   force =     0.00000000    0.00000000    0.00000000
     atom   16 type  2   force =     0.00000000    0.00000000    0.00000000
     atom   17 type  3   force =     0.00000000    0.00000000    0.00000000
     atom   18 type  3   force =     0.00000000    0.00000000    0.00000000
     atom   19 type  3   force =     0.00000000    0.00000000    0.00000000
     atom   20 type  3   force =     0.00000000    0.00000000    0.00000000
     The SCF correction term to forces
     atom    1 type  1   force =    -0.00006216    0.00003910   -0.00017127
     atom    2 type  1   force =    -0.00000052    0.00002411    0.00000007
     atom    3 type  1   force =     0.00002059    0.00002064   -0.00007946
     atom    4 type  1   force =     0.00003662   -0.00018666   -0.00002819
     atom    5 type  1   force =     0.00003730    0.00004329    0.00009314
     atom    6 type  1   force =    -0.00001447    0.00013833   -0.00004288
     atom    7 type  1   force =    -0.00009175   -0.00005017    0.00015908
     atom    8 type  1   force =     0.00003623   -0.00002502    0.00006824
     atom    9 type  2   force =    -0.00002590   -0.00003255    0.00000524
     atom   10 type  2   force =    -0.00000400    0.00001349   -0.00001668
     atom   11 type  2   force =    -0.00001641    0.00002286    0.00003152
     atom   12 type  2   force =     0.00002879    0.00002398    0.00003533
     atom   13 type  2   force =    -0.00004380   -0.00002750   -0.00002798
     atom   14 type  2   force =     0.00003133   -0.00002412   -0.00002275
     atom   15 type  2   force =     0.00001764    0.00004373   -0.00001119
     atom   16 type  2   force =     0.00003941   -0.00002668    0.00001784
     atom   17 type  3   force =     0.00000649    0.00002325    0.00001678
     atom   18 type  3   force =    -0.00004874   -0.00000008    0.00002677
     atom   19 type  3   force =     0.00002475   -0.00001638   -0.00004926
     atom   20 type  3   force =    -0.00004875    0.00001627   -0.00003946

     Total force =     0.034434     Total SCF correction =     0.000429

     Computing stress (Cartesian axis) and pressure

          total   stress  (Ry/bohr**3)                   (kbar)     P=      -61.76
  -0.00044492   0.00000000   0.00000000          -65.45        0.00        0.00
   0.00000000  -0.00034725  -0.00001702            0.00      -51.08       -2.50
   0.00000000  -0.00001702  -0.00046723            0.00       -2.50      -68.73

     kinetic stress (kbar)   8720.09      0.00      0.00
                                0.00   8736.13     18.02
                                0.00     18.02   8712.57

     local   stress (kbar)  -5118.34     -0.00     -0.00
                               -0.00  -4813.18    308.73
                               -0.00    308.73  -2966.32

     nonloc. stress (kbar)   6151.58      0.00      0.00
                                0.00   6164.99     -3.31
                                0.00     -3.31   6161.83

     hartree stress (kbar)   2616.69      0.00     -0.00
                                0.00   2549.41   -173.07
                               -0.00   -173.07   1629.89

     exc-cor stress (kbar)   -555.86      0.00      0.00
                                0.00   -556.53      1.27
                                0.00      1.27   -556.75

     corecor stress (kbar)  -1585.88      0.00     -0.00
                                0.00  -1586.57     -0.34
                               -0.00     -0.34  -1585.75

     ewald   stress (kbar) -10293.72      0.00      0.00
                                0.00 -10545.33   -153.80
                                0.00   -153.80 -11464.19

     hubbard stress (kbar)      0.00      0.00      0.00
                                0.00      0.00      0.00
                                0.00      0.00      0.00

     DFT-D   stress (kbar)      0.00      0.00      0.00
                                0.00      0.00      0.00
                                0.00      0.00      0.00

     XDM     stress (kbar)      0.00      0.00      0.00
                                0.00      0.00      0.00
                                0.00      0.00      0.00

     dft-nl  stress (kbar)      0.00      0.00      0.00
                                0.00      0.00      0.00
                                0.00      0.00      0.00

     TS-vdW  stress (kbar)      0.00      0.00      0.00
                                0.00      0.00      0.00
                                0.00      0.00      0.00

[...]

                                0.00      0.00      0.00

     Writing all to output data dir new_calculations/myprefix.save/

     General routines

     Parallel routines

     PAW routines

   This run was terminated on:  22:45:28  20May2023

   JOB DONE.