     Program PWSCF v.7.0 starts on 20May2023 at 22:11:41

     Reading input from espresso_23162.pwi
Warning: card &CELL ignored
Warning: card / ignored

     Current dimensions of program PWSCF are:
     Max number of different atomic species (ntypx) = 10
     Max number of k-points (npk) =  40000
     Max angular momentum in pseudopotentials (lmaxx) =  4

     gamma-point specific algorithms are used

     Subspace diagonalization in iterative solution of the eigenvalue problem:
     a serial algorithm will be used

     Using Slab Decomposition

     bravais-lattice index     =            0
     lattice parameter (alat)  =      26.2816  a.u.
     unit-cell volume          =    1329.3783 (a.u.)^3
     number of atoms/cell      =           14
     number of atomic types    =            4
     number of electrons       =        80.00
     number of Kohn-Sham states=           48
     kinetic-energy cutoff     =      30.0000  Ry
     charge density cutoff     =     240.0000  Ry
     scf convergence threshold =      1.0E-06
     mixing beta               =       0.7000
     number of iterations used =            8  plain     mixing
     Exchange-correlation= PBE
                           (   1   4   3   4   0   0   0)

     celldm(1)=  26.281552  celldm(2)=   0.000000  celldm(3)=   0.000000
     celldm(4)=   0.000000  celldm(5)=   0.000000  celldm(6)=   0.000000

     crystal axes: (cart. coord. in units of alat)
               a(1) = (   1.000000   0.000000   0.000000 )
               a(2) = (   0.925330   0.379163   0.000000 )
               a(3) = (  -0.961567  -0.195157   0.193139 )

     reciprocal axes: (cart. coord. in units 2 pi/alat)
               b(1) = (  1.000000 -2.440457  2.512667 )
               b(2) = (  0.000000  2.637391  2.664951 )
               b(3) = (  0.000000  0.000000  5.177618 )

     PseudoPot. # 1 for Sr read from file:
     /home/pragov/projects/rrg-bengioy-ad/pragov/crystal_structure_design/SSSP/Sr_pbe_v1.uspp.F.UPF
     MD5 check sum: 6b418c05fbe9db5448babca5e47b7a5b
     Pseudo is Ultrasoft + core correction, Zval = 10.0
     Generated by new atomic code, or converted to UPF format
     Using radial grid of  883 points,  6 beta functions with:
                l(1) =   0
                l(2) =   0
                l(3) =   1
                l(4) =   1
                l(5) =   2
                l(6) =   2
     Q(r) pseudized with  6 coefficients,  rinner =    1.400   1.400   1.400
                                                       1.400   1.400

     PseudoPot. # 2 for Li read from file:
     /home/pragov/projects/rrg-bengioy-ad/pragov/crystal_structure_design/SSSP/li_pbe_v1.4.uspp.F.UPF
     MD5 check sum: e912e257baa3777c20ea3d68f190483c
     Pseudo is Ultrasoft, Zval =  3.0
     Generated by new atomic code, or converted to UPF format
     Using radial grid of  751 points,  5 beta functions with:
                l(1) =   0
                l(2) =   0
                l(3) =   0
                l(4) =   1
                l(5) =   1
     Q(r) pseudized with 10 coefficients,  rinner =    1.150   1.150   1.150

     PseudoPot. # 3 for Cu read from file:
     /home/pragov/projects/rrg-bengioy-ad/pragov/crystal_structure_design/SSSP/Cu_pbe_v1.2.uspp.F.UPF
     MD5 check sum: 6e991ff952a84172a2a52a1c1e996048
     Pseudo is Ultrasoft + core correction, Zval = 19.0
     Generated by new atomic code, or converted to UPF format
     Using radial grid of  867 points,  6 beta functions with:
                l(1) =   0
                l(2) =   0
                l(3) =   1
                l(4) =   1
                l(5) =   2
                l(6) =   2
     Q(r) pseudized with  8 coefficients,  rinner =    1.150   1.150   1.150
                                                       1.150   1.150

     PseudoPot. # 4 for N  read from file:
     /home/pragov/projects/rrg-bengioy-ad/pragov/crystal_structure_design/SSSP/N.pbe-n-radius_5.UPF
     MD5 check sum: 16739722b17309cd8fe442a2ace49922
     Pseudo is Ultrasoft + core correction, Zval =  5.0
     Generated using "atomic" code by A. Dal Corso  v.5.1
     Using radial grid of 1085 points,  4 beta functions with:
                l(1) =   0
                l(2) =   0
                l(3) =   1
                l(4) =   1
     Q(r) pseudized with 0 coefficients

     atomic species   valence    mass     pseudopotential
        Sr            10.00    87.62000     Sr( 1.00)
        Li             3.00     6.94000     Li( 1.00)
        Cu            19.00    63.54600     Cu( 1.00)
        N              5.00    14.00700     N ( 1.00)

     No symmetry found

                                    s                        frac. trans.

      isym =  1     identity

 cryst.   s( 1) = (     1          0          0      )
                  (     0          1          0      )
                  (     0          0          1      )

 cart.    s( 1) = (  1.0000000  0.0000000  0.0000000 )
                  (  0.0000000  1.0000000 -0.0000000 )
                  (  0.0000000  0.0000000  1.0000000 )

   Cartesian axes

     site n.     atom                  positions (alat units)
         1           Sr  tau(   1) = (   0.2402831   0.0473199   0.0000000  )
         2           Sr  tau(   2) = (   0.7027925   0.2339744   0.0965695  )
         3           Li  tau(   3) = (   0.9056588   0.2739257   0.0965695  )
         4           Li  tau(   4) = (   0.4388963   0.0864335   0.0000000  )
         5           Li  tau(   5) = (   0.0433681   0.0085406   0.0000000  )
         6           Li  tau(   6) = (   0.5043353   0.1948915   0.0965695  )
         7           Li  tau(   7) = (   1.3405669   0.2640030   0.0000000  )
         8           Li  tau(   8) = (   1.0644726   0.2096307   0.0000000  )
         9           Li  tau(   9) = (   0.6034579   0.0174783   0.0965695  )
        10           Cu  tau(  10) = (   0.8767008   0.0712890   0.0965695  )
        11           N   tau(  11) = (   0.3534780   0.1651826   0.0965695  )
        12           N   tau(  12) = (   1.8162562   0.3576823   0.0000000  )
        13           N   tau(  13) = (   0.5910436   0.1163965   0.0000000  )
        14           N   tau(  14) = (   0.1305160  -0.0756600   0.0965695  )

   Crystallographic axes

     site n.     atom                  positions (cryst. coord.)
         1           Sr  tau(   1) = (  0.1248010  0.1248010  0.0000000  )
         2           Sr  tau(   2) = (  0.3744350  0.8744350  0.5000000  )
         3           Li  tau(   3) = (  0.4798020  0.9798020  0.5000000  )
         4           Li  tau(   4) = (  0.2279590  0.2279590  0.0000000  )
         5           Li  tau(   5) = (  0.0225250  0.0225250  0.0000000  )
         6           Li  tau(   6) = (  0.2713580  0.7713580  0.5000000  )
         7           Li  tau(   7) = (  0.6962790  0.6962790  0.0000000  )
         8           Li  tau(   8) = (  0.5528780  0.5528780  0.0000000  )
         9           Li  tau(   9) = (  0.8034500  0.3034500  0.5000000  )
        10           Cu  tau(  10) = (  0.9453700  0.4453700  0.5000000  )
        11           N   tau(  11) = (  0.1930040  0.6930040  0.5000000  )
        12           N   tau(  12) = (  0.9433480  0.9433480  0.0000000  )
        13           N   tau(  13) = (  0.3069830  0.3069830  0.0000000  )
        14           N   tau(  14) = (  0.5578080  0.0578080  0.5000000  )

     number of k points=     1  Methfessel-Paxton smearing, width (Ry)=  0.0010
                       cart. coord. in units 2pi/alat
        k(    1) = (   0.0000000   0.0000000   0.0000000), wk =   2.0000000

                       cryst. coord.
        k(    1) = (   0.0000000   0.0000000   0.0000000), wk =   2.0000000

     Check: negative core charge=   -0.000004

     Initial potential from superposition of free atoms

     starting charge      75.7775, renormalised to      80.0000

     negative rho (up, down):  1.338E-01 0.000E+00
     Starting wfcs are   90 randomized atomic wfcs

     Self-consistent Calculation

     iteration #  1     ecut=    30.00 Ry     beta= 0.70
     Davidson diagonalization with overlap

     ethr =  1.00E-02,  avg # of iterations =  3.0

     negative rho (up, down):  1.276E-01 0.000E+00

     total energy              =    -621.90712148 Ry
     estimated scf accuracy    <     126.09386573 Ry

[...]

     total energy              =    -726.35100554 Ry
     estimated scf accuracy    <       0.00000189 Ry

     iteration # 33     ecut=    30.00 Ry     beta= 0.70
     Davidson diagonalization with overlap

     ethr =  2.36E-09,  avg # of iterations =  2.0

[...]

     End of self-consistent calculation

          k = 0.0000 0.0000 0.0000 (  1841 PWs)   bands (ev):

  -107.5880 -65.0584 -64.9437 -64.7927 -39.7101 -39.5793 -39.5431 -39.3712
   -38.8358 -38.6018 -38.1361 -28.6708 -28.4028 -11.0687 -10.7824 -10.6867
   -10.5399 -10.3373 -10.3242  -7.6251  -5.8824  -5.8130  -5.4515   2.0615
     2.4668   2.5191   2.5241   2.6269   2.6583   3.3185   3.3405   3.5887
     3.9309   4.1540   4.3172   4.6100   4.7166   4.7172   4.8201   5.0052
     6.0590   7.3412   7.5955   8.2116   8.5761   8.6454   9.2062  10.6498

     occupation numbers
     1.0000   1.0000   1.0000   1.0000   1.0000   1.0000   1.0000   1.0000
     1.0000   1.0000   1.0000   1.0000   1.0000   1.0000   1.0000   1.0000
     1.0000   1.0000   1.0000   1.0000   1.0000   1.0000   1.0000   1.0000
     1.0000   1.0000   1.0000   1.0000   1.0000   1.0000   1.0000   1.0000
     1.0000   1.0000   1.0000   1.0000   1.0000   1.0000   1.0000   1.0000
    -0.0000  -0.0000  -0.0000  -0.0000  -0.0000  -0.0000  -0.0000  -0.0000

     the Fermi energy is     5.2307 ev

!    total energy              =    -726.35100571 Ry
     estimated scf accuracy    <       0.00000028 Ry
     smearing contrib. (-TS)   =       0.00000000 Ry
     internal energy E=F+TS    =    -726.35100571 Ry

     The total energy is F=E-TS. E is the sum of the following terms:
     one-electron contribution =    -689.86808050 Ry
     hartree contribution      =     362.64868459 Ry
     xc contribution           =    -121.31391253 Ry
     ewald contribution        =    -277.81769727 Ry

     convergence has been achieved in  33 iterations

     negative rho (up, down):  1.324E-01 0.000E+00

     Forces acting on atoms (cartesian axes, Ry/au):

     atom    1 type  1   force =     0.00181794    0.00037382   -0.00000856
     atom    2 type  1   force =    -0.01057922   -0.00205280    0.00004846
     atom    3 type  2   force =    -0.02841487   -0.00560065   -0.00000026
     atom    4 type  2   force =    -0.05002998   -0.00983943   -0.00001002
     atom    5 type  2   force =     0.04461716    0.00877010   -0.00002053
     atom    6 type  2   force =     0.04409623    0.00866364    0.00000073
     atom    7 type  2   force =    -0.01825834   -0.00358862   -0.00001014
     atom    8 type  2   force =     0.02719228    0.00532836    0.00001327
     atom    9 type  2   force =     0.01658119    0.00325535   -0.00000888
     atom   10 type  3   force =    -0.01018179   -0.00196886    0.00000104
     atom   11 type  4   force =     0.01204471    0.00236114   -0.00000426
     atom   12 type  4   force =    -0.00794085   -0.00156684   -0.00000470
     atom   13 type  4   force =    -0.00317904   -0.00063365   -0.00000050
     atom   14 type  4   force =    -0.01776542   -0.00350155    0.00000435
     The non-local contrib.  to forces
     atom    1 type  1   force =    -0.01765911   -0.00347477   -0.00001505
     atom    2 type  1   force =    -0.03766591   -0.00744309   -0.00000577
     atom    3 type  2   force =    -0.08288890   -0.01631991    0.00000104
     atom    4 type  2   force =    -0.06986693   -0.01373942   -0.00001216
     atom    5 type  2   force =     0.07864699    0.01548204   -0.00001017
     atom    6 type  2   force =     0.08611712    0.01694663    0.00000303
     atom    7 type  2   force =    -0.00306339   -0.00059144   -0.00000320
     atom    8 type  2   force =    -0.00205050   -0.00042424    0.00000974
     atom    9 type  2   force =     0.00899251    0.00176512   -0.00000364
     atom   10 type  3   force =    -0.00527183   -0.00103581    0.00000091
     atom   11 type  4   force =     0.03513146    0.00691053    0.00001667
     atom   12 type  4   force =     0.12130423    0.02390006    0.00000420
     atom   13 type  4   force =    -0.00706554   -0.00139270    0.00000548
     atom   14 type  4   force =     0.06807923    0.01339264    0.00000279
     The ionic contribution  to forces
     atom    1 type  1   force =    10.69066561    2.10535383    0.00000000
     atom    2 type  1   force =   -22.35513086   -4.40248176   -0.00000000
     atom    3 type  2   force =     4.94496625    0.97383119    0.00000000
     atom    4 type  2   force =    -1.28076830   -0.25222662   -0.00000000
     atom    5 type  2   force =     7.45914198    1.46895747    0.00000000
     atom    6 type  2   force =    -3.60614526   -0.71017203   -0.00000000
     atom    7 type  2   force =     0.41005699    0.08075410    0.00000000
     atom    8 type  2   force =     5.93933936    1.16965691    0.00000000
     atom    9 type  2   force =    -5.46084835   -1.07542584   -0.00000000
     atom   10 type  3   force =     2.40676356    0.47397319    0.00000000
     atom   11 type  4   force =     0.52096706    0.10259604    0.00000000
     atom   12 type  4   force =    -0.64742558   -0.12750001   -0.00000000
     atom   13 type  4   force =    -8.82559780   -1.73805887   -0.00000000
     atom   14 type  4   force =     9.80401535    1.93074239    0.00000000
     The local contribution  to forces
     atom    1 type  1   force =   -10.67337212   -2.10190509    0.00001299
     atom    2 type  1   force =    22.37947768    4.40735897    0.00007062
     atom    3 type  2   force =    -4.89039518   -0.96308317    0.00000275
     atom    4 type  2   force =     1.30037278    0.25609188    0.00000076
     atom    5 type  2   force =    -7.49334265   -1.47569138   -0.00000373
     atom    6 type  2   force =     3.56388611    0.70184681    0.00000003
     atom    7 type  2   force =    -0.42546014   -0.08378685   -0.00000374
     atom    8 type  2   force =    -5.91035363   -1.16396037   -0.00000299
     atom    9 type  2   force =     5.46823504    1.07687875   -0.00000043
     atom   10 type  3   force =    -2.40851726   -0.47434589    0.00000318
     atom   11 type  4   force =    -0.54402607   -0.10713851   -0.00002978
     atom   12 type  4   force =     0.51997407    0.10239424   -0.00000016
     atom   13 type  4   force =     8.82905300    1.73873709   -0.00001123
     atom   14 type  4   force =    -9.88954143   -1.94754675    0.00002580
     The core correction contribution to forces
     atom    1 type  1   force =     0.00116405    0.00022920    0.00000181
     atom    2 type  1   force =     0.00279768    0.00055421    0.00000077
     atom    3 type  2   force =     0.00000000    0.00000000    0.00000000
     atom    4 type  2   force =     0.00000000    0.00000000    0.00000000
     atom    5 type  2   force =     0.00000000    0.00000000    0.00000000
     atom    6 type  2   force =     0.00000000    0.00000000    0.00000000
     atom    7 type  2   force =     0.00000000    0.00000000    0.00000000
     atom    8 type  2   force =     0.00000000    0.00000000    0.00000000
     atom    9 type  2   force =     0.00000000    0.00000000    0.00000000
     atom   10 type  3   force =    -0.00019992   -0.00003937   -0.00000000
     atom   11 type  4   force =    -0.00031435   -0.00006181   -0.00000026
     atom   12 type  4   force =    -0.00113621   -0.00022392   -0.00000005
     atom   13 type  4   force =     0.00005803    0.00001140   -0.00000013
     atom   14 type  4   force =    -0.00072333   -0.00014218    0.00000001
     The Hubbard contrib.    to forces
     atom    1 type  1   force =     0.00000000    0.00000000    0.00000000
     atom    2 type  1   force =     0.00000000    0.00000000    0.00000000
     atom    3 type  2   force =     0.00000000    0.00000000    0.00000000
     atom    4 type  2   force =     0.00000000    0.00000000    0.00000000
     atom    5 type  2   force =     0.00000000    0.00000000    0.00000000
     atom    6 type  2   force =     0.00000000    0.00000000    0.00000000
     atom    7 type  2   force =     0.00000000    0.00000000    0.00000000
     atom    8 type  2   force =     0.00000000    0.00000000    0.00000000
     atom    9 type  2   force =     0.00000000    0.00000000    0.00000000
     atom   10 type  3   force =     0.00000000    0.00000000    0.00000000
     atom   11 type  4   force =     0.00000000    0.00000000    0.00000000
     atom   12 type  4   force =     0.00000000    0.00000000    0.00000000
     atom   13 type  4   force =     0.00000000    0.00000000    0.00000000
     atom   14 type  4   force =     0.00000000    0.00000000    0.00000000
     The SCF correction term to forces
     atom    1 type  1   force =     0.00088405    0.00015009   -0.00000682
     atom    2 type  1   force =    -0.00019329   -0.00006169   -0.00001566
     atom    3 type  2   force =    -0.00023251   -0.00004932   -0.00000256
     atom    4 type  2   force =     0.00009699    0.00001417    0.00000287
     atom    5 type  2   force =     0.00003537    0.00000140   -0.00000514
     atom    6 type  2   force =     0.00010279    0.00002168   -0.00000084
     atom    7 type  2   force =     0.00007273    0.00001502   -0.00000171
     atom    8 type  2   force =     0.00012157    0.00003550    0.00000801
     atom    9 type  2   force =     0.00006653    0.00001675   -0.00000333
     atom   10 type  3   force =    -0.00309180   -0.00054155   -0.00000155
     atom   11 type  4   force =     0.00015115    0.00003433    0.00001060
     atom   12 type  4   force =    -0.00079282   -0.00015778   -0.00000721
     atom   13 type  4   force =     0.00023781    0.00004887    0.00000687
     atom   14 type  4   force =     0.00026929    0.00003178   -0.00002277

     Total force =     0.098524     Total SCF correction =     0.003408

     Computing stress (Cartesian axis) and pressure

     negative rho (up, down):  1.324E-01 0.000E+00
          total   stress  (Ry/bohr**3)                   (kbar)     P=     -138.90
  -0.00145000  -0.00015221  -0.00000470         -213.30      -22.39       -0.69
  -0.00015221  -0.00070709   0.00002383          -22.39     -104.02        3.51
  -0.00000470   0.00002383  -0.00067560           -0.69        3.51      -99.38

     kinetic stress (kbar)  10895.46    -82.49     12.56
                              -82.49  11298.09    -63.80
                               12.56    -63.80  11310.52

     local   stress (kbar)  13841.10   8938.66   1429.40
                             8938.66 -29787.74  -7258.31
                             1429.40  -7258.31 -31983.42

     nonloc. stress (kbar)   5405.48     -4.31     -5.96
                               -4.31   5426.52     30.26
                               -5.96     30.26   5429.19

     hartree stress (kbar)  -1039.63  -4324.39   -600.62
                            -4324.39  20067.36   3049.88
                             -600.62   3049.88  21101.90

     exc-cor stress (kbar)  -1462.74     -0.92     -0.54
                               -0.92  -1458.26      2.73
                               -0.54      2.73  -1457.92

     corecor stress (kbar)  -2418.01      0.61      0.06
                                0.61  -2420.99     -0.30
                                0.06     -0.30  -2421.13

     ewald   stress (kbar) -25434.96  -4549.55   -835.60
                            -4549.55  -3228.99   4243.04
                             -835.60   4243.04  -2078.54

     hubbard stress (kbar)      0.00      0.00      0.00
                                0.00      0.00      0.00
                                0.00      0.00      0.00

     DFT-D   stress (kbar)      0.00      0.00      0.00
                                0.00      0.00      0.00
                                0.00      0.00      0.00

     XDM     stress (kbar)      0.00      0.00      0.00
                                0.00      0.00      0.00
                                0.00      0.00      0.00

     dft-nl  stress (kbar)      0.00      0.00      0.00
                                0.00      0.00      0.00
                                0.00      0.00      0.00

     TS-vdW  stress (kbar)      0.00      0.00      0.00
                                0.00      0.00      0.00
                                0.00      0.00      0.00

[...]

                                0.00      0.00      0.00

     Writing all to output data dir new_calculations/myprefix.save/

     General routines

     Parallel routines

   This run was terminated on:  22:13:53  20May2023

   JOB DONE.