     Program PWSCF v.7.0 starts on 20May2023 at 20:43:35

     Reading input from espresso_9644.pwi
Warning: card &CELL ignored
Warning: card / ignored

     Current dimensions of program PWSCF are:
     Max number of different atomic species (ntypx) = 10
     Max number of k-points (npk) =  40000
     Max angular momentum in pseudopotentials (lmaxx) =  4
     file O.pbe-n-kjpaw_psl.0.1.UPF: wavefunction(s)  2P renormalized

     gamma-point specific algorithms are used
     Message from routine setup:
     using ibrav=0 with symmetry is DISCOURAGED, use correct ibrav instead

     Subspace diagonalization in iterative solution of the eigenvalue problem:
     a serial algorithm will be used

     Using Slab Decomposition

     bravais-lattice index     =            0
     lattice parameter (alat)  =      15.6402  a.u.
     unit-cell volume          =    2305.2034 (a.u.)^3
     number of atoms/cell      =           20
     number of atomic types    =            2
     number of electrons       =       192.00
     number of Kohn-Sham states=          115
     kinetic-energy cutoff     =      30.0000  Ry
     charge density cutoff     =     240.0000  Ry
     scf convergence threshold =      1.0E-06
     mixing beta               =       0.7000
     number of iterations used =            8  plain     mixing
     Exchange-correlation= SLA  PW   PBX  PBC
                           (   1   4   3   4   0   0   0)

     celldm(1)=  15.640218  celldm(2)=   0.000000  celldm(3)=   0.000000
     celldm(4)=   0.000000  celldm(5)=   0.000000  celldm(6)=   0.000000

     crystal axes: (cart. coord. in units of alat)
               a(1) = (   1.000000   0.000000   0.000000 )
               a(2) = (   0.000000   0.716896   0.000000 )
               a(3) = (   0.000000   0.347653   0.840475 )

     reciprocal axes: (cart. coord. in units 2 pi/alat)
               b(1) = (  1.000000  0.000000  0.000000 )
               b(2) = (  0.000000  1.394903 -0.576986 )
               b(3) = (  0.000000  0.000000  1.189803 )

     PseudoPot. # 1 for Bi read from file:
     /home/pragov/projects/rrg-bengioy-ad/pragov/crystal_structure_design/SSSP/Bi_pbe_v1.uspp.F.UPF
     MD5 check sum: cceb9f28ec65b6d7ff33140f5b0b1758
     Pseudo is Ultrasoft + core correction, Zval = 15.0
     Generated by new atomic code, or converted to UPF format
     Using radial grid of  899 points,  6 beta functions with:
                l(1) =   0
                l(2) =   0
                l(3) =   1
                l(4) =   1
                l(5) =   2
                l(6) =   2
     Q(r) pseudized with  6 coefficients,  rinner =    1.000   1.000   1.000
                                                       1.000   1.000

     PseudoPot. # 2 for O  read from file:
     /home/pragov/projects/rrg-bengioy-ad/pragov/crystal_structure_design/SSSP/O.pbe-n-kjpaw_psl.0.1.UPF
     MD5 check sum: 0234752ac141de4415c5fc33072bef88
     Pseudo is Projector augmented-wave + core cor, Zval =  6.0
     Generated using "atomic" code by A. Dal Corso  v.5.0.99 svn rev. 10869
     Shape of augmentation charge: BESSEL
     Using radial grid of 1095 points,  4 beta functions with:
                l(1) =   0
                l(2) =   0
                l(3) =   1
                l(4) =   1
     Q(r) pseudized with 0 coefficients

     atomic species   valence    mass     pseudopotential
        Bi            15.00   208.98040     Bi( 1.00)
        O              6.00    15.99900     O ( 1.00)

      4 Sym. Ops., with inversion, found ( 2 have fractional translation)

                                    s                        frac. trans.

      isym =  1     identity

 cryst.   s( 1) = (     1          0          0      )
                  (     0          1          0      )
                  (     0          0          1      )

 cart.    s( 1) = (  1.0000000  0.0000000  0.0000000 )
                  (  0.0000000  1.0000000 -0.0000000 )
                  (  0.0000000  0.0000000  1.0000000 )

      isym =  2     180 deg rotation - cart. axis [1,0,0]

 cryst.   s( 2) = (     1          0          0      )    f =(  0.5000000 )
                  (     0         -1          0      )       (  0.0000000 )
                  (     0          0         -1      )       (  0.5000000 )

 cart.    s( 2) = (  1.0000000  0.0000000  0.0000000 )    f =(  0.5000000 )
                  (  0.0000000 -1.0000000  0.0000000 )       (  0.1738265 )
                  (  0.0000000  0.0000000 -1.0000000 )       (  0.4202376 )

      isym =  3     inversion

 cryst.   s( 3) = (    -1          0          0      )
                  (     0         -1          0      )
                  (     0          0         -1      )

 cart.    s( 3) = ( -1.0000000  0.0000000  0.0000000 )
                  (  0.0000000 -1.0000000  0.0000000 )
                  (  0.0000000  0.0000000 -1.0000000 )

      isym =  4     inv. 180 deg rotation - cart. axis [1,0,0]

 cryst.   s( 4) = (    -1          0          0      )    f =(  0.5000000 )
                  (     0          1          0      )       ( -0.0000000 )
                  (     0          0          1      )       (  0.5000000 )

 cart.    s( 4) = ( -1.0000000  0.0000000  0.0000000 )    f =(  0.5000000 )
                  (  0.0000000  1.0000000 -0.0000000 )       (  0.1738265 )
                  (  0.0000000  0.0000000  1.0000000 )       (  0.4202376 )

   Cartesian axes

     site n.     atom                  positions (alat units)
         1           Bi  tau(   1) = (   0.5413010   0.2798050   0.6076837  )
         2           Bi  tau(   2) = (   0.0413010   0.9585701   0.6530290  )
         3           Bi  tau(   3) = (   0.4586990   0.7847436   0.2327914  )
         4           Bi  tau(   4) = (   0.9586990   0.1059785   0.1874461  )
         5           Bi  tau(   5) = (   0.6832410   0.4224029   0.1128540  )
         6           Bi  tau(   6) = (   0.1832410   0.4683192   0.3073836  )
         7           Bi  tau(   7) = (   0.3167590   0.6421457   0.7276212  )
         8           Bi  tau(   8) = (   0.8167590   0.5962294   0.5330915  )
         9           O   tau(   9) = (   0.5331050   0.5365324   0.8304811  )
        10           O   tau(  10) = (   0.0331050   0.7018427   0.4302317  )
        11           O   tau(  11) = (   0.4668950   0.5280162   0.0099941  )
        12           O   tau(  12) = (   0.9668950   0.3627059   0.4102435  )
        13           O   tau(  13) = (   0.5498620   0.3005578   0.3166213  )
        14           O   tau(  14) = (   0.0498620   0.5901644   0.1036163  )
        15           O   tau(  15) = (   0.4501380   0.7639908   0.5238539  )
        16           O   tau(  16) = (   0.9501380   0.4743842   0.7368588  )
        17           O   tau(  17) = (   0.7017970   0.6598359   0.2473703  )
        18           O   tau(  18) = (   0.2017970   0.2308862   0.1728672  )
        19           O   tau(  19) = (   0.2982030   0.4047127   0.5931048  )
        20           O   tau(  20) = (   0.7982030   0.8336624   0.6676079  )

   Crystallographic axes

     site n.     atom                  positions (cryst. coord.)
         1           Bi  tau(   1) = (  0.5413010  0.0396760  0.7230240  )
         2           Bi  tau(   2) = (  0.0413010  0.9603240  0.7769760  )
         3           Bi  tau(   3) = (  0.4586990  0.9603240  0.2769760  )
         4           Bi  tau(   4) = (  0.9586990  0.0396760  0.2230240  )
         5           Bi  tau(   5) = (  0.6832410  0.5240960  0.1342740  )
         6           Bi  tau(   6) = (  0.1832410  0.4759040  0.3657260  )
         7           Bi  tau(   7) = (  0.3167590  0.4759040  0.8657260  )
         8           Bi  tau(   8) = (  0.8167590  0.5240960  0.6342740  )
         9           O   tau(   9) = (  0.5331050  0.2692350  0.9881090  )
        10           O   tau(  10) = (  0.0331050  0.7307650  0.5118910  )
        11           O   tau(  11) = (  0.4668950  0.7307650  0.0118910  )
        12           O   tau(  12) = (  0.9668950  0.2692350  0.4881090  )
        13           O   tau(  13) = (  0.5498620  0.2365630  0.3767170  )
        14           O   tau(  14) = (  0.0498620  0.7634370  0.1232830  )
        15           O   tau(  15) = (  0.4501380  0.7634370  0.6232830  )
        16           O   tau(  16) = (  0.9501380  0.2365630  0.8767170  )
        17           O   tau(  17) = (  0.7017970  0.7776780  0.2943220  )
        18           O   tau(  18) = (  0.2017970  0.2223220  0.2056780  )
        19           O   tau(  19) = (  0.2982030  0.2223220  0.7056780  )
        20           O   tau(  20) = (  0.7982030  0.7776780  0.7943220  )

     number of k points=     1  Methfessel-Paxton smearing, width (Ry)=  0.0010
                       cart. coord. in units 2pi/alat
        k(    1) = (   0.0000000   0.0000000   0.0000000), wk =   2.0000000

                       cryst. coord.
        k(    1) = (   0.0000000   0.0000000   0.0000000), wk =   2.0000000

     Check: negative core charge=   -0.000010

     Initial potential from superposition of free atoms

     starting charge     183.9996, renormalised to     192.0000

     negative rho (up, down):  3.452E-01 0.000E+00
     Starting wfcs are  120 randomized atomic wfcs
     Checking if some PAW data can be deallocated...

     Self-consistent Calculation

     iteration #  1     ecut=    30.00 Ry     beta= 0.70
     Davidson diagonalization with overlap

     ethr =  1.00E-02,  avg # of iterations =  3.0

     negative rho (up, down):  3.079E-01 0.000E+00

     total energy              =   -1979.15468294 Ry
     estimated scf accuracy    <       5.12867685 Ry

[...]

     total energy              =   -1981.49571036 Ry
     estimated scf accuracy    <       0.00000264 Ry

     iteration # 11     ecut=    30.00 Ry     beta= 0.70
     Davidson diagonalization with overlap

     ethr =  1.37E-09,  avg # of iterations =  2.0

[...]

     End of self-consistent calculation

          k = 0.0000 0.0000 0.0000 (  3199 PWs)   bands (ev):

   -13.2486 -13.2137 -13.2019 -13.1988 -13.1805 -13.1658 -13.1643 -13.1377
   -13.0544 -13.0518 -13.0464 -13.0392 -13.0270 -13.0248 -13.0190 -13.0152
   -13.0067 -13.0048 -13.0044 -12.9970 -12.9847 -12.9753 -12.9731 -12.9614
   -12.9501 -12.9216 -12.9126 -12.9122 -12.9117 -12.9110 -12.9042 -12.8921
   -12.8911 -12.8862 -12.8831 -12.8801 -12.8741 -12.8694 -12.8511 -12.8437
    -9.3719  -8.9086  -8.1845  -8.0800  -7.9290  -7.8154  -7.8072  -7.6519
    -7.6118  -7.3746  -7.3208  -7.3190  -1.0139  -0.9960  -0.8354  -0.6868
    -0.1978  -0.1503   0.8642   1.4807   4.0272   4.3656   4.7571   4.8251
     4.9114   5.1262   5.1472   5.4274   5.4352   5.6008   5.8391   6.0640
     6.1830   6.4533   6.5038   6.5358   6.6987   6.7038   6.7865   6.9284
     7.0576   7.1834   7.2572   7.4116   7.4893   7.5336   7.6891   7.9059
     7.9133   8.2579   8.2713   8.2980   8.4923   8.5324   8.5790   8.6631
    11.1662  11.5206  12.4420  12.8612  12.9154  12.9343  13.3924  13.4039
    13.9377  14.1279  14.1286  14.1595  14.2164  14.3145  14.5743  14.8030
    14.9317  15.3746  15.3866

     occupation numbers
     1.0000   1.0000   1.0000   1.0000   1.0000   1.0000   1.0000   1.0000
     1.0000   1.0000   1.0000   1.0000   1.0000   1.0000   1.0000   1.0000
     1.0000   1.0000   1.0000   1.0000   1.0000   1.0000   1.0000   1.0000
     1.0000   1.0000   1.0000   1.0000   1.0000   1.0000   1.0000   1.0000
     1.0000   1.0000   1.0000   1.0000   1.0000   1.0000   1.0000   1.0000
     1.0000   1.0000   1.0000   1.0000   1.0000   1.0000   1.0000   1.0000
     1.0000   1.0000   1.0000   1.0000   1.0000   1.0000   1.0000   1.0000
     1.0000   1.0000   1.0000   1.0000   1.0000   1.0000   1.0000   1.0000
     1.0000   1.0000   1.0000   1.0000   1.0000   1.0000   1.0000   1.0000
     1.0000   1.0000   1.0000   1.0000   1.0000   1.0000   1.0000   1.0000
     1.0000   1.0000   1.0000   1.0000   1.0000   1.0000   1.0000   1.0000
     1.0000   1.0000   1.0000   1.0000   1.0000   1.0000   1.0000   1.0000
    -0.0000  -0.0000  -0.0000  -0.0000  -0.0000  -0.0000  -0.0000  -0.0000
    -0.0000  -0.0000  -0.0000  -0.0000  -0.0000  -0.0000  -0.0000  -0.0000
    -0.0000  -0.0000  -0.0000

     the Fermi energy is    10.1025 ev

!    total energy              =   -1981.49571066 Ry
     estimated scf accuracy    <       0.00000020 Ry
     smearing contrib. (-TS)   =       0.00000000 Ry
     internal energy E=F+TS    =   -1981.49571066 Ry

     The total energy is F=E-TS. E is the sum of the following terms:
     one-electron contribution =    -484.74054053 Ry
     hartree contribution      =     375.79258371 Ry
     xc contribution           =    -606.24222214 Ry
     ewald contribution        =   -1151.91461858 Ry
     one-center paw contrib.   =    -114.39091312 Ry
      -> PAW hartree energy AE =     343.88389694 Ry
      -> PAW hartree energy PS =    -342.73123790 Ry
      -> PAW xc energy AE      =    -204.27382448 Ry
      -> PAW xc energy PS      =      88.73025233 Ry
      -> total E_H with PAW    =     376.94524274 Ry
      -> total E_XC with PAW   =    -721.78579429 Ry

     convergence has been achieved in  11 iterations

     negative rho (up, down):  3.259E-01 0.000E+00

     Forces acting on atoms (cartesian axes, Ry/au):

     atom    1 type  1   force =    -0.00712521    0.00238700   -0.00702760
     atom    2 type  1   force =    -0.00712521   -0.00238700    0.00702760
     atom    3 type  1   force =     0.00712521   -0.00238700    0.00702760
     atom    4 type  1   force =     0.00712521    0.00238700   -0.00702760
     atom    5 type  1   force =    -0.00444547    0.00529583   -0.00017174
     atom    6 type  1   force =    -0.00444547   -0.00529583    0.00017174
     atom    7 type  1   force =     0.00444547   -0.00529583    0.00017174
     atom    8 type  1   force =     0.00444547    0.00529583   -0.00017174
     atom    9 type  2   force =    -0.00224061    0.00280409   -0.00591310
     atom   10 type  2   force =    -0.00224061   -0.00280409    0.00591310
     atom   11 type  2   force =     0.00224061   -0.00280409    0.00591310
     atom   12 type  2   force =     0.00224061    0.00280409   -0.00591310
     atom   13 type  2   force =    -0.01328610    0.00914026    0.00396612
     atom   14 type  2   force =    -0.01328610   -0.00914026   -0.00396612
     atom   15 type  2   force =     0.01328610   -0.00914026   -0.00396612
     atom   16 type  2   force =     0.01328610    0.00914026    0.00396612
     atom   17 type  2   force =     0.01462159   -0.01054663   -0.00686889
     atom   18 type  2   force =     0.01462159    0.01054663    0.00686889
     atom   19 type  2   force =    -0.01462159    0.01054663    0.00686889
     atom   20 type  2   force =    -0.01462159   -0.01054663   -0.00686889
     The non-local contrib.  to forces
     atom    1 type  1   force =    -0.37480761   -0.37793665   -0.01641602
     atom    2 type  1   force =    -0.37480761    0.37793665    0.01641602
     atom    3 type  1   force =     0.37480761    0.37793665    0.01641602
     atom    4 type  1   force =     0.37480761   -0.37793665   -0.01641602
     atom    5 type  1   force =    -0.50972457    0.22759764    0.05672768
     atom    6 type  1   force =    -0.50972457   -0.22759764   -0.05672768
     atom    7 type  1   force =     0.50972457   -0.22759764   -0.05672768
     atom    8 type  1   force =     0.50972457    0.22759764    0.05672768
     atom    9 type  2   force =    -0.73329467    0.22114802    0.15217437
     atom   10 type  2   force =    -0.73329467   -0.22114802   -0.15217437
     atom   11 type  2   force =     0.73329467   -0.22114802   -0.15217437
     atom   12 type  2   force =     0.73329467    0.22114802    0.15217437
     atom   13 type  2   force =     0.02902953   -0.42939313   -0.31394071
     atom   14 type  2   force =     0.02902953    0.42939313    0.31394071
     atom   15 type  2   force =    -0.02902953    0.42939313    0.31394071
     atom   16 type  2   force =    -0.02902953   -0.42939313   -0.31394071
     atom   17 type  2   force =    -0.22993746   -0.11165989   -0.13027000
     atom   18 type  2   force =    -0.22993746    0.11165989    0.13027000
     atom   19 type  2   force =     0.22993746    0.11165989    0.13027000
     atom   20 type  2   force =     0.22993746   -0.11165989   -0.13027000
     The ionic contribution  to forces
     atom    1 type  1   force =     5.62296462    6.43660693   -1.33894681
     atom    2 type  1   force =     5.62296462   -6.43660693    1.33894681
     atom    3 type  1   force =    -5.62296462   -6.43660693    1.33894681
     atom    4 type  1   force =    -5.62296462    6.43660693   -1.33894681
     atom    5 type  1   force =     9.34087416   -2.59227745    1.20474857
     atom    6 type  1   force =     9.34087416    2.59227746   -1.20474857
     atom    7 type  1   force =    -9.34087416    2.59227745   -1.20474857
     atom    8 type  1   force =    -9.34087416   -2.59227746    1.20474857
     atom    9 type  2   force =     5.21403305   -2.60898609   -2.15117389
     atom   10 type  2   force =     5.21403305    2.60898609    2.15117389
     atom   11 type  2   force =    -5.21403305    2.60898609    2.15117389
     atom   12 type  2   force =    -5.21403305   -2.60898609   -2.15117389
     atom   13 type  2   force =     0.81727879    3.81362854    2.92431767
     atom   14 type  2   force =     0.81727879   -3.81362854   -2.92431767
     atom   15 type  2   force =    -0.81727879   -3.81362854   -2.92431767
     atom   16 type  2   force =    -0.81727879    3.81362854    2.92431767
     atom   17 type  2   force =     1.09393597    0.94410440    1.18318768
     atom   18 type  2   force =     1.09393597   -0.94410440   -1.18318768
     atom   19 type  2   force =    -1.09393597   -0.94410440   -1.18318768
     atom   20 type  2   force =    -1.09393597    0.94410440    1.18318768
     The local contribution  to forces
     atom    1 type  1   force =    -5.27136579   -6.07466931    1.35091149
     atom    2 type  1   force =    -5.27201895    6.07440702   -1.35044563
     atom    3 type  1   force =     5.27188280    6.07457012   -1.35095929
     atom    4 type  1   force =     5.27158331   -6.07452672    1.35050782
     atom    5 type  1   force =    -8.85785087    2.37964735   -1.26085348
     atom    6 type  1   force =    -8.85787061   -2.37965035    1.26032654
     atom    7 type  1   force =     8.85792268   -2.37949160    1.26100669
     atom    8 type  1   force =     8.85769357    2.37975546   -1.26055198
     atom    9 type  2   force =    -4.49095254    2.39310570    1.99462671
     atom   10 type  2   force =    -4.49100374   -2.39308619   -1.99456306
     atom   11 type  2   force =     4.49103128   -2.39313436   -1.99452005
     atom   12 type  2   force =     4.49093446    2.39308055    1.99450160
     atom   13 type  2   force =    -0.85932140   -3.37940019   -2.60993017
     atom   14 type  2   force =    -0.85934546    3.37936337    2.60983286
     atom   15 type  2   force =     0.85939998    3.37936215    2.60987990
     atom   16 type  2   force =     0.85930453   -3.37939349   -2.60974527
     atom   17 type  2   force =    -0.85147748   -0.84415407   -1.06103432
     atom   18 type  2   force =    -0.85149152    0.84418805    1.06092904
     atom   19 type  2   force =     0.85145982    0.84414028    1.06104063
     atom   20 type  2   force =     0.85149676   -0.84415382   -1.06090059
     The core correction contribution to forces
     atom    1 type  1   force =     0.01646459    0.01822975   -0.00208297
     atom    2 type  1   force =     0.01646216   -0.01823170    0.00208567
     atom    3 type  1   force =    -0.01646270   -0.01823061    0.00208138
     atom    4 type  1   force =    -0.01646344    0.01823144   -0.00208451
     atom    5 type  1   force =     0.02202067   -0.00943789   -0.00118770
     atom    6 type  1   force =     0.02201969    0.00943819    0.00118275
     atom    7 type  1   force =    -0.02202089    0.00943984    0.00118739
     atom    8 type  1   force =    -0.02202013   -0.00943676   -0.00118750
     atom    9 type  2   force =     0.00790592   -0.00219433   -0.00154667
     atom   10 type  2   force =     0.00790715    0.00219413    0.00154679
     atom   11 type  2   force =    -0.00790674    0.00219421    0.00154610
     atom   12 type  2   force =    -0.00790640   -0.00219409   -0.00154645
     atom   13 type  2   force =    -0.00028697    0.00449947    0.00322843
     atom   14 type  2   force =    -0.00028598   -0.00449976   -0.00322763
     atom   15 type  2   force =     0.00028641   -0.00449989   -0.00322779
     atom   16 type  2   force =     0.00028699    0.00449952    0.00322792
     atom   17 type  2   force =     0.00220840    0.00095865    0.00124254
     atom   18 type  2   force =     0.00220849   -0.00095825   -0.00124203
     atom   19 type  2   force =    -0.00220867   -0.00095874   -0.00124220
     atom   20 type  2   force =    -0.00220818    0.00095865    0.00124188
     The Hubbard contrib.    to forces
     atom    1 type  1   force =     0.00000000    0.00000000    0.00000000
     atom    2 type  1   force =     0.00000000    0.00000000    0.00000000
     atom    3 type  1   force =     0.00000000    0.00000000    0.00000000
     atom    4 type  1   force =     0.00000000    0.00000000    0.00000000
     atom    5 type  1   force =     0.00000000    0.00000000    0.00000000
     atom    6 type  1   force =     0.00000000    0.00000000    0.00000000
     atom    7 type  1   force =     0.00000000    0.00000000    0.00000000
     atom    8 type  1   force =     0.00000000    0.00000000    0.00000000
     atom    9 type  2   force =     0.00000000    0.00000000    0.00000000
     atom   10 type  2   force =     0.00000000    0.00000000    0.00000000
     atom   11 type  2   force =     0.00000000    0.00000000    0.00000000
     atom   12 type  2   force =     0.00000000    0.00000000    0.00000000
     atom   13 type  2   force =     0.00000000    0.00000000    0.00000000
     atom   14 type  2   force =     0.00000000    0.00000000    0.00000000
     atom   15 type  2   force =     0.00000000    0.00000000    0.00000000
     atom   16 type  2   force =     0.00000000    0.00000000    0.00000000
     atom   17 type  2   force =     0.00000000    0.00000000    0.00000000
     atom   18 type  2   force =     0.00000000    0.00000000    0.00000000
     atom   19 type  2   force =     0.00000000    0.00000000    0.00000000
     atom   20 type  2   force =     0.00000000    0.00000000    0.00000000
     The SCF correction term to forces
     atom    1 type  1   force =    -0.00038730    0.00016292   -0.00050457
     atom    2 type  1   force =     0.00027423    0.00011154    0.00001644
     atom    3 type  1   force =    -0.00015543   -0.00004598    0.00054134
     atom    4 type  1   force =     0.00017330    0.00001922   -0.00008645
     atom    5 type  1   force =     0.00022270   -0.00023336    0.00038136
     atom    6 type  1   force =     0.00027603    0.00023444    0.00014144
     atom    7 type  1   force =    -0.00030102    0.00007758   -0.00056697
     atom    8 type  1   force =    -0.00007636   -0.00034414    0.00008520
     atom    9 type  2   force =     0.00002138   -0.00028343   -0.00001185
     atom   10 type  2   force =     0.00015634    0.00024045   -0.00004704
     atom   11 type  2   force =    -0.00016519    0.00029719   -0.00013915
     atom   12 type  2   force =    -0.00003697   -0.00024033    0.00014596
     atom   13 type  2   force =    -0.00001898   -0.00020314    0.00033074
     atom   14 type  2   force =     0.00007823    0.00022617   -0.00017764
     atom   15 type  2   force =    -0.00010858    0.00022711   -0.00023116
     atom   16 type  2   force =     0.00002777   -0.00020362    0.00009353
     atom   17 type  2   force =    -0.00011170    0.00020578    0.00003762
     atom   18 type  2   force =    -0.00008352   -0.00022591    0.00011271
     atom   19 type  2   force =     0.00011883   -0.00020018   -0.00001267
     atom   20 type  2   force =     0.00010179    0.00020549   -0.00014795

     Total force =     0.058294     Total SCF correction =     0.001694

     Computing stress (Cartesian axis) and pressure

     negative rho (up, down):  3.259E-01 0.000E+00
          total   stress  (Ry/bohr**3)                   (kbar)     P=     -249.36
  -0.00163372   0.00000000   0.00000000         -240.33        0.00        0.00
   0.00000000  -0.00172655  -0.00003555            0.00     -253.98       -5.23
   0.00000000  -0.00003555  -0.00172501            0.00       -5.23     -253.76

     kinetic stress (kbar)  13540.05      0.00      0.00
                                0.00  13430.26     36.38
                                0.00     36.38  13452.24

     local   stress (kbar)   -148.55     -0.01      0.01
                               -0.01  -7664.66     16.03
                                0.01     16.03  -7750.24

     nonloc. stress (kbar)  14765.73      0.00      0.00
                                0.00  14797.85    -15.53
                                0.00    -15.53  14750.62

     hartree stress (kbar)   5974.27      0.01     -0.01
                                0.01   8893.57     16.03
                               -0.01     16.03   9113.12

     exc-cor stress (kbar)  17920.90      0.00     -0.00
                                0.00  17925.74     -0.24
                               -0.00     -0.24  17925.01

     corecor stress (kbar) -24722.06     -0.00      0.00
                               -0.00 -24722.97      0.35
                                0.00      0.35 -24720.27

     ewald   stress (kbar) -27570.67     -0.00     -0.00
                               -0.00 -22913.78    -58.24
                               -0.00    -58.24 -23024.24

     hubbard stress (kbar)      0.00      0.00      0.00
                                0.00      0.00      0.00
                                0.00      0.00      0.00

     DFT-D   stress (kbar)      0.00      0.00      0.00
                                0.00      0.00      0.00
                                0.00      0.00      0.00

     XDM     stress (kbar)      0.00      0.00      0.00
                                0.00      0.00      0.00
                                0.00      0.00      0.00

     dft-nl  stress (kbar)      0.00      0.00      0.00
                                0.00      0.00      0.00
                                0.00      0.00      0.00

     TS-vdW  stress (kbar)      0.00      0.00      0.00
                                0.00      0.00      0.00
                                0.00      0.00      0.00

[...]

                                0.00      0.00      0.00

     Writing all to output data dir new_calculations/myprefix.save/

     General routines

     Parallel routines

     PAW routines

   This run was terminated on:  20:44: 6  20May2023

   JOB DONE.