     Program PWSCF v.7.0 starts on 21May2023 at 20:39:30

     Reading input from espresso_15669.pwi
Warning: card &CELL ignored
Warning: card / ignored

     Current dimensions of program PWSCF are:
     Max number of different atomic species (ntypx) = 10
     Max number of k-points (npk) =  40000
     Max angular momentum in pseudopotentials (lmaxx) =  4
     file Fe.pbe-spn-kjpaw_psl.0.2.1.UPF: wavefunction(s)  3D renormalized

     gamma-point specific algorithms are used

     Subspace diagonalization in iterative solution of the eigenvalue problem:
     a serial algorithm will be used

     Using Slab Decomposition

     bravais-lattice index     =            0
     lattice parameter (alat)  =      11.3843  a.u.
     unit-cell volume          =    1415.4229 (a.u.)^3
     number of atoms/cell      =           11
     number of atomic types    =            4
     number of electrons       =        68.00
     number of Kohn-Sham states=           41
     kinetic-energy cutoff     =      30.0000  Ry
     charge density cutoff     =     240.0000  Ry
     scf convergence threshold =      1.0E-06
     mixing beta               =       0.7000
     number of iterations used =            8  plain     mixing
     Exchange-correlation=  SLA  PW   PBX  PBC
                           (   1   4   3   4   0   0   0)

     celldm(1)=  11.384301  celldm(2)=   0.000000  celldm(3)=   0.000000
     celldm(4)=   0.000000  celldm(5)=   0.000000  celldm(6)=   0.000000

     crystal axes: (cart. coord. in units of alat)
               a(1) = (   1.000000   0.000000   0.000000 )
               a(2) = (  -0.500389   0.865800   0.000000 )
               a(3) = (   0.002955   0.005122   1.108024 )

     reciprocal axes: (cart. coord. in units 2 pi/alat)
               b(1) = (  1.000000  0.577950 -0.005339 )
               b(2) = (  0.000000  1.155001 -0.005339 )
               b(3) = (  0.000000  0.000000  0.902507 )

     PseudoPot. # 1 for Li read from file:
     /home/pragov/projects/rrg-bengioy-ad/pragov/crystal_structure_design/SSSP/li_pbe_v1.4.uspp.F.UPF
     MD5 check sum: e912e257baa3777c20ea3d68f190483c
     Pseudo is Ultrasoft, Zval =  3.0
     Generated by new atomic code, or converted to UPF format
     Using radial grid of  751 points,  5 beta functions with:
                l(1) =   0
                l(2) =   0
                l(3) =   0
                l(4) =   1
                l(5) =   1
     Q(r) pseudized with 10 coefficients,  rinner =    1.150   1.150   1.150

     PseudoPot. # 2 for Fe read from file:
     /home/pragov/projects/rrg-bengioy-ad/pragov/crystal_structure_design/SSSP/Fe.pbe-spn-kjpaw_psl.0.2.1.UPF
     MD5 check sum: e86618425769142926afa95317d90200
     Pseudo is Projector augmented-wave + core cor, Zval = 16.0
     Generated using "atomic" code by A. Dal Corso  v.5.0.99 svn rev. 10869
     Shape of augmentation charge: PSQ
     Using radial grid of 1191 points,  6 beta functions with:
                l(1) =   0
                l(2) =   0
                l(3) =   1
                l(4) =   1
                l(5) =   2
                l(6) =   2
     Q(r) pseudized with 0 coefficients

     PseudoPot. # 3 for P  read from file:
     /home/pragov/projects/rrg-bengioy-ad/pragov/crystal_structure_design/SSSP/P.pbe-n-rrkjus_psl.1.0.0.UPF
     MD5 check sum: 8b930f418f0a4573dca56cd030ffe088
     Pseudo is Ultrasoft + core correction, Zval =  5.0
     Generated using "atomic" code by A. Dal Corso  v.5.1
     Using radial grid of 1147 points,  6 beta functions with:
                l(1) =   0
                l(2) =   0
                l(3) =   1
                l(4) =   1
                l(5) =   2
                l(6) =   2
     Q(r) pseudized with 0 coefficients

     PseudoPot. # 4 for S  read from file:
     /home/pragov/projects/rrg-bengioy-ad/pragov/crystal_structure_design/SSSP/s_pbe_v1.4.uspp.F.UPF
     MD5 check sum: 88d86576ff6df21479756cfb9bdac1df
     Pseudo is Ultrasoft + core correction, Zval =  6.0
     Generated by new atomic code, or converted to UPF format
     Using radial grid of  907 points,  6 beta functions with:
                l(1) =   0
                l(2) =   0
                l(3) =   1
                l(4) =   1
                l(5) =   2
                l(6) =   2
     Q(r) pseudized with  8 coefficients,  rinner =    1.300   1.300   1.300
                                                       1.300   1.300

     atomic species   valence    mass     pseudopotential
        Li             3.00     6.94000     Li( 1.00)
        Fe            16.00    55.84500     Fe( 1.00)
        P              5.00    30.97376     P ( 1.00)
        S              6.00    32.06000     S ( 1.00)

     No symmetry found

                                    s                        frac. trans.

      isym =  1     identity

 cryst.   s( 1) = (     1          0          0      )
                  (     0          1          0      )
                  (     0          0          1      )

 cart.    s( 1) = (  1.0000000 -0.0000000 -0.0000000 )
                  (  0.0000000  1.0000000 -0.0000000 )
                  (  0.0000000  0.0000000  1.0000000 )

   Cartesian axes

     site n.     atom                  positions (alat units)
         1           Li  tau(   1) = (   0.4960852   0.2907843   0.0000000  )
         2           Li  tau(   2) = (   0.4981751   0.2929919   0.5540122  )
         3           Fe  tau(   3) = (   0.0064196   0.5733460   0.0000000  )
         4           P   tau(   4) = (   0.9955490   0.0025735   0.1845714  )
         5           P   tau(   5) = (   0.9985001   0.0076875   0.9234530  )
         6           S   tau(   6) = (   0.3184012   0.5887911   0.2658106  )
         7           S   tau(   7) = (   0.1521150   0.3006253   0.8422137  )
         8           S   tau(   8) = (  -0.1601230   0.2935133   0.2624245  )
         9           S   tau(   9) = (   0.1683182   0.8626857   0.8455999  )
        10           S   tau(  10) = (  -0.3295080   0.5906693   0.8414614  )
        11           S   tau(  11) = (  -0.1737181   0.8606456   0.2665630  )

   Crystallographic axes

     site n.     atom                  positions (cryst. coord.)
         1           Li  tau(   1) = (  0.6641440  0.3358560  0.0000000  )
         2           Li  tau(   2) = (  0.6645520  0.3354480  0.5000000  )
         3           Fe  tau(   3) = (  0.3377850  0.6622150  0.0000000  )
         4           P   tau(   4) = (  0.9960510  0.0019870  0.1665770  )
         5           P   tau(   5) = (  0.9980130  0.0039490  0.8334230  )
         6           S   tau(   6) = (  0.6572740  0.6786350  0.2398960  )
         7           S   tau(   7) = (  0.3213650  0.3427260  0.7601040  )
         8           S   tau(   8) = (  0.0081120  0.3376070  0.2368400  )
         9           S   tau(   9) = (  0.6623930  0.9918880  0.7631600  )
        10           S   tau(  10) = (  0.0073770  0.6777310  0.7594250  )
        11           S   tau(  11) = (  0.3222690  0.9926230  0.2405750  )

     number of k points=     1  Methfessel-Paxton smearing, width (Ry)=  0.0010
                       cart. coord. in units 2pi/alat
        k(    1) = (   0.0000000   0.0000000   0.0000000), wk =   2.0000000

                       cryst. coord.
        k(    1) = (   0.0000000   0.0000000   0.0000000), wk =   2.0000000

     Check: negative core charge=   -0.000041

     Initial potential from superposition of free atoms

     starting charge      67.0975, renormalised to      68.0000
     Starting wfcs are   55 randomized atomic wfcs
     Checking if some PAW data can be deallocated...

     Self-consistent Calculation

     iteration #  1     ecut=    30.00 Ry     beta= 0.70
     Davidson diagonalization with overlap

     ethr =  1.00E-02,  avg # of iterations =  3.0

     total energy              =    -530.45517178 Ry
     estimated scf accuracy    <       1.06718013 Ry

[...]

     negative rho (up, down):  6.381E-06 0.000E+00

[...]

     total energy              =    -531.04175207 Ry
     estimated scf accuracy    <       0.00000566 Ry

     iteration # 13     ecut=    30.00 Ry     beta= 0.70
     Davidson diagonalization with overlap

     ethr =  8.32E-09,  avg # of iterations =  4.0

[...]

     End of self-consistent calculation

          k = 0.0000 0.0000 0.0000 (  1959 PWs)   bands (ev):

   -80.7322 -46.4081 -46.3922 -46.2422 -40.5102 -39.8206 -10.6379  -9.3853
    -7.3989  -7.3593  -7.1532  -7.1124  -4.7934  -2.9043  -1.0555  -0.2408
    -0.2123   0.0511   0.0743   1.8908   2.6567   2.7011   2.7223   2.7374
     3.1944   3.2138   3.4896   3.9503   3.9601   4.0448   4.1672   5.1478
     5.2130   5.3503   6.9003   6.9344   8.0271   8.2804   9.1204   9.1337
     9.4187

     occupation numbers
     1.0000   1.0000   1.0000   1.0000   1.0000   1.0000   1.0000   1.0000
     1.0000   1.0000   1.0000   1.0000   1.0000   1.0000   1.0000   1.0000
     1.0000   1.0000   1.0000   1.0000   1.0000   1.0000   1.0000   1.0000
     1.0000   1.0000   1.0000   1.0000   1.0000   1.0000   1.0000   1.0000
     1.0000   1.0000  -0.0000  -0.0000  -0.0000  -0.0000  -0.0000  -0.0000
    -0.0000

     the Fermi energy is     6.7290 ev

!    total energy              =    -531.04175310 Ry
     estimated scf accuracy    <       0.00000021 Ry
     smearing contrib. (-TS)   =       0.00000000 Ry
     internal energy E=F+TS    =    -531.04175310 Ry

     The total energy is F=E-TS. E is the sum of the following terms:
     one-electron contribution =    -278.84740455 Ry
     hartree contribution      =     163.07901915 Ry
     xc contribution           =    -101.19393886 Ry
     ewald contribution        =    -238.01353107 Ry
     one-center paw contrib.   =     -76.06589777 Ry
      -> PAW hartree energy AE =     209.99260118 Ry
      -> PAW hartree energy PS =    -209.20963980 Ry
      -> PAW xc energy AE      =    -111.21599103 Ry
      -> PAW xc energy PS      =      34.36713188 Ry
      -> total E_H with PAW    =     163.86198053 Ry
      -> total E_XC with PAW   =    -178.04279802 Ry

     convergence has been achieved in  13 iterations

     negative rho (up, down):  5.716E-06 0.000E+00

     Forces acting on atoms (cartesian axes, Ry/au):

     atom    1 type  1   force =    -0.00043881    0.00028191   -0.00007386
     atom    2 type  1   force =    -0.00072596    0.00043164    0.00011873
     atom    3 type  2   force =    -0.01701156    0.00979691   -0.00001501
     atom    4 type  3   force =     0.00659965   -0.00239211   -0.00824657
     atom    5 type  3   force =     0.00538817   -0.00450399    0.00824407
     atom    6 type  4   force =     0.00700952    0.01169394   -0.00374839
     atom    7 type  4   force =    -0.00663001   -0.01193176    0.00374489
     atom    8 type  4   force =     0.01092860    0.00091050   -0.00452663
     atom    9 type  4   force =     0.00465118   -0.00990472    0.00451239
     atom   10 type  4   force =     0.00440944    0.01888924    0.00553128
     atom   11 type  4   force =    -0.01418020   -0.01327155   -0.00554090
     The non-local contrib.  to forces
     atom    1 type  1   force =    -0.00353536    0.00207739   -0.00006985
     atom    2 type  1   force =     0.00031900   -0.00016134    0.00011244
     atom    3 type  2   force =    -0.01063211    0.00609409   -0.00003730
     atom    4 type  3   force =     0.00638494   -0.00216074    0.10561350
     atom    5 type  3   force =     0.00508994   -0.00442239   -0.10563411
     atom    6 type  4   force =     0.11096016    0.20847643   -0.14940441
     atom    7 type  4   force =    -0.12500794   -0.20039158    0.14938370
     atom    8 type  4   force =     0.13048489   -0.19459897   -0.12854943
     atom    9 type  4   force =     0.23378923   -0.01554278    0.12854390
     atom   10 type  4   force =    -0.11148715    0.22040931    0.14031418
     atom   11 type  4   force =    -0.24662514   -0.01380920   -0.14032906
     The ionic contribution  to forces
     atom    1 type  1   force =     0.05808305   -0.03351685   -0.00000000
     atom    2 type  1   force =     0.02137711   -0.01233567    0.00000000
     atom    3 type  2   force =    -0.89016016    0.51366734   -0.00000000
     atom    4 type  3   force =     0.19242252   -0.14893100    3.14190805
     atom    5 type  3   force =     0.22523072   -0.09207600   -3.14190805
     atom    6 type  4   force =     2.27760312   -1.69483147    7.22084306
     atom    7 type  4   force =     2.60707440   -1.12387400   -7.22084306
     atom    8 type  4   force =    -2.76284652   -0.68152185    6.91575222
     atom    9 type  4   force =    -0.79243733    2.73310007   -6.91575222
     atom   10 type  4   force =    -1.61320438   -1.71412240   -6.54851608
     atom   11 type  4   force =     0.67685748    2.25444183    6.54851608
     The local contribution  to forces
     atom    1 type  1   force =    -0.05498408    0.03174350   -0.00003912
     atom    2 type  1   force =    -0.02241819    0.01294616    0.00005157
     atom    3 type  2   force =     0.88856881   -0.51274358   -0.00021407
     atom    4 type  3   force =    -0.19162621    0.14832636   -3.25055989
     atom    5 type  3   force =    -0.22435853    0.09168498    3.25054777
     atom    6 type  4   force =    -2.37618052    1.50881524   -7.08342038
     atom    7 type  4   force =    -2.49535248    1.30237124    7.08342675
     atom    8 type  4   force =     2.65008136    0.86745425   -6.79870094
     atom    9 type  4   force =     0.57502088   -2.72854848    6.79867452
     atom   10 type  4   force =     1.72362063    1.52403530    6.42144868
     atom   11 type  4   force =    -0.45710141   -2.25488526   -6.42145850
     The core correction contribution to forces
     atom    1 type  1   force =     0.00000000    0.00000000    0.00000000
     atom    2 type  1   force =     0.00000000    0.00000000    0.00000000
     atom    3 type  2   force =    -0.00498888    0.00288066   -0.00000148
     atom    4 type  3   force =    -0.00055554    0.00036507   -0.00541451
     atom    5 type  3   force =    -0.00059518    0.00029794    0.00541550
     atom    6 type  4   force =    -0.00533455   -0.01045324    0.00794837
     atom    7 type  4   force =     0.00638396    0.00984972   -0.00794629
     atom    8 type  4   force =    -0.00658578    0.00946500    0.00669083
     atom    9 type  4   force =    -0.01149222    0.00096084   -0.00669047
     atom   10 type  4   force =     0.00548892   -0.01115904   -0.00744633
     atom   11 type  4   force =     0.01240865    0.00083442    0.00744729
     The Hubbard contrib.    to forces
     atom    1 type  1   force =     0.00000000    0.00000000    0.00000000
     atom    2 type  1   force =     0.00000000    0.00000000    0.00000000
     atom    3 type  2   force =     0.00000000    0.00000000    0.00000000
     atom    4 type  3   force =     0.00000000    0.00000000    0.00000000
     atom    5 type  3   force =     0.00000000    0.00000000    0.00000000
     atom    6 type  4   force =     0.00000000    0.00000000    0.00000000
     atom    7 type  4   force =     0.00000000    0.00000000    0.00000000
     atom    8 type  4   force =     0.00000000    0.00000000    0.00000000
     atom    9 type  4   force =     0.00000000    0.00000000    0.00000000
     atom   10 type  4   force =     0.00000000    0.00000000    0.00000000
     atom   11 type  4   force =     0.00000000    0.00000000    0.00000000
     The SCF correction term to forces
     atom    1 type  1   force =    -0.00001349   -0.00000644    0.00003557
     atom    2 type  1   force =    -0.00001496   -0.00000182   -0.00004482
     atom    3 type  2   force =     0.00018971   -0.00008591    0.00023830
     atom    4 type  3   force =    -0.00003713    0.00002388    0.00020674
     atom    5 type  3   force =     0.00001015    0.00002718   -0.00017657
     atom    6 type  4   force =    -0.00004976   -0.00029734    0.00028543
     atom    7 type  4   force =     0.00026099    0.00012856   -0.00027575
     atom    8 type  4   force =    -0.00021642    0.00012776    0.00028115
     atom    9 type  4   force =    -0.00024045    0.00014131   -0.00026289
     atom   10 type  4   force =    -0.00001964   -0.00025825   -0.00026871
     atom   11 type  4   force =     0.00026915    0.00016234    0.00028375

     Total force =     0.046009     Total SCF correction =     0.001059

     Computing stress (Cartesian axis) and pressure

     negative rho (up, down):  5.716E-06 0.000E+00
          total   stress  (Ry/bohr**3)                   (kbar)     P=      -75.44
  -0.00049373  -0.00000410   0.00000253          -72.63       -0.60        0.37
  -0.00000410  -0.00049843   0.00000436           -0.60      -73.32        0.64
   0.00000253   0.00000436  -0.00054623            0.37        0.64      -80.35

     kinetic stress (kbar)   7633.27     -6.42     -0.82
                               -6.42   7625.87     -1.42
                               -0.82     -1.42   7903.59

     local   stress (kbar)  -6953.67   -276.68     -8.70
                             -276.68  -7273.49    -15.08
                               -8.70    -15.08   5029.69

     nonloc. stress (kbar)    470.61     -1.22      0.56
                               -1.22    469.18      0.96
                                0.56      0.96    485.34

     hartree stress (kbar)   7316.51    108.63      3.39
                              108.63   7442.06      5.88
                                3.39      5.88   2190.25

     exc-cor stress (kbar)    933.47      0.12     -0.05
                                0.12    933.60     -0.09
                               -0.05     -0.09    928.95

     corecor stress (kbar)  -3540.98      0.26     -0.01
                                0.26  -3540.68     -0.02
                               -0.01     -0.02  -3543.10

     ewald   stress (kbar)  -5931.83    174.72      6.01
                              174.72  -5729.87     10.42
                                6.01     10.42 -13075.07

     hubbard stress (kbar)      0.00      0.00      0.00
                                0.00      0.00      0.00
                                0.00      0.00      0.00

     DFT-D   stress (kbar)      0.00      0.00      0.00
                                0.00      0.00      0.00
                                0.00      0.00      0.00

     XDM     stress (kbar)      0.00      0.00      0.00
                                0.00      0.00      0.00
                                0.00      0.00      0.00

     dft-nl  stress (kbar)      0.00      0.00      0.00
                                0.00      0.00      0.00
                                0.00      0.00      0.00

     TS-vdW  stress (kbar)      0.00      0.00      0.00
                                0.00      0.00      0.00
                                0.00      0.00      0.00

[...]

                                0.00      0.00      0.00

     Writing all to output data dir new_calculations/myprefix.save/

     General routines

     Parallel routines

     PAW routines

   This run was terminated on:  20:40:10  21May2023

   JOB DONE.