     Program PWSCF v.7.0 starts on 21May2023 at  6:10:32

     Reading input from espresso_13983.pwi
Warning: card &CELL ignored
Warning: card / ignored

     Current dimensions of program PWSCF are:
     Max number of different atomic species (ntypx) = 10
     Max number of k-points (npk) =  40000
     Max angular momentum in pseudopotentials (lmaxx) =  4
     file Mg.pbe-n-kjpaw_psl.0.3.0.UPF: wavefunction(s)  3S renormalized
     file In.pbe-dn-rrkjus_psl.0.2.2.UPF: wavefunction(s)  5S renormalized

     gamma-point specific algorithms are used

     Subspace diagonalization in iterative solution of the eigenvalue problem:
     a serial algorithm will be used

     Using Slab Decomposition

     bravais-lattice index     =            0
     lattice parameter (alat)  =      14.2040  a.u.
     unit-cell volume          =    1983.4358 (a.u.)^3
     number of atoms/cell      =           14
     number of atomic types    =            4
     number of electrons       =       106.00
     number of Kohn-Sham states=           64
     kinetic-energy cutoff     =      30.0000  Ry
     charge density cutoff     =     240.0000  Ry
     scf convergence threshold =      1.0E-06
     mixing beta               =       0.7000
     number of iterations used =            8  plain     mixing
     Exchange-correlation=  SLA  PW   PBX  PBC
                           (   1   4   3   4   0   0   0)

     celldm(1)=  14.203976  celldm(2)=   0.000000  celldm(3)=   0.000000
     celldm(4)=   0.000000  celldm(5)=   0.000000  celldm(6)=   0.000000

     crystal axes: (cart. coord. in units of alat)
               a(1) = (   1.000000   0.000000   0.000000 )
               a(2) = (   0.499995   0.859532   0.000000 )
               a(3) = (   0.500020   0.300707   0.805242 )

     reciprocal axes: (cart. coord. in units 2 pi/alat)
               b(1) = (  1.000000 -0.581706 -0.403726 )
               b(2) = (  0.000000  1.163424 -0.434465 )
               b(3) = (  0.000000  0.000000  1.241863 )

     PseudoPot. # 1 for Mg read from file:
     /home/pragov/projects/rrg-bengioy-ad/pragov/crystal_structure_design/SSSP/Mg.pbe-n-kjpaw_psl.0.3.0.UPF
     MD5 check sum: 24ecedc7f3e3cbe212e682f4413594e4
     Pseudo is Projector augmented-wave + core cor, Zval =  2.0
     Generated using "atomic" code by A. Dal Corso  v.5.0.99 svn rev. 10869
     Shape of augmentation charge: PSQ
     Using radial grid of 1129 points,  4 beta functions with:
                l(1) =   0
                l(2) =   0
                l(3) =   1
                l(4) =   1
     Q(r) pseudized with 0 coefficients

     PseudoPot. # 2 for Cr read from file:
     /home/pragov/projects/rrg-bengioy-ad/pragov/crystal_structure_design/SSSP/cr_pbe_v1.5.uspp.F.UPF
     MD5 check sum: 0d52af634a40206e4dee301ad30da4bf
     Pseudo is Ultrasoft + core correction, Zval = 14.0
     Generated by new atomic code, or converted to UPF format
     Using radial grid of  857 points,  6 beta functions with:
                l(1) =   0
                l(2) =   0
                l(3) =   1
                l(4) =   1
                l(5) =   2
                l(6) =   2
     Q(r) pseudized with  8 coefficients,  rinner =    0.950   0.950   0.950
                                                       0.950   0.950

     PseudoPot. # 3 for In read from file:
     /home/pragov/projects/rrg-bengioy-ad/pragov/crystal_structure_design/SSSP/In.pbe-dn-rrkjus_psl.0.2.2.UPF
     MD5 check sum: 25e7c42c3b55b68f4bf926be2e7201a4
     Pseudo is Ultrasoft + core correction, Zval = 13.0
     Generated using "atomic" code by A. Dal Corso  v.5.0.99 svn rev. 10869
     Using radial grid of 1241 points,  6 beta functions with:
                l(1) =   0
                l(2) =   0
                l(3) =   1
                l(4) =   1
                l(5) =   2
                l(6) =   2
     Q(r) pseudized with 0 coefficients

     PseudoPot. # 4 for S  read from file:
     /home/pragov/projects/rrg-bengioy-ad/pragov/crystal_structure_design/SSSP/s_pbe_v1.4.uspp.F.UPF
     MD5 check sum: 88d86576ff6df21479756cfb9bdac1df
     Pseudo is Ultrasoft + core correction, Zval =  6.0
     Generated by new atomic code, or converted to UPF format
     Using radial grid of  907 points,  6 beta functions with:
                l(1) =   0
                l(2) =   0
                l(3) =   1
                l(4) =   1
                l(5) =   2
                l(6) =   2
     Q(r) pseudized with  8 coefficients,  rinner =    1.300   1.300   1.300
                                                       1.300   1.300

     atomic species   valence    mass     pseudopotential
        Mg             2.00    24.30500     Mg( 1.00)
        Cr            14.00    51.99610     Cr( 1.00)
        In            13.00   114.81800     In( 1.00)
        S              6.00    32.06000     S ( 1.00)

     No symmetry found

                                    s                        frac. trans.

      isym =  1     identity

 cryst.   s( 1) = (     1          0          0      )
                  (     0          1          0      )
                  (     0          0          1      )

 cart.    s( 1) = (  1.0000000  0.0000000 -0.0000000 )
                  (  0.0000000  1.0000000 -0.0000000 )
                  (  0.0000000  0.0000000  1.0000000 )

   Cartesian axes

     site n.     atom                  positions (alat units)
         1           Mg  tau(   1) = (   1.7500304   1.0143228   0.7040103  )
         2           Mg  tau(   2) = (   0.2500194   0.1458916   0.1012874  )
         3           Cr  tau(   3) = (   1.2498403   0.7305681   0.8051253  )
         4           Cr  tau(   4) = (   1.2499881   1.0098837   0.4026428  )
         5           In  tau(   5) = (   1.0000371   0.5801054   0.4026025  )
         6           In  tau(   6) = (   0.5000381   0.5801016   0.4026500  )
         7           S   tau(   7) = (   1.4680719   0.8691697   0.6032391  )
         8           S   tau(   8) = (   0.7500565   0.4200887   0.5814565  )
         9           S   tau(   9) = (   0.7500182   0.6916502   0.1901410  )
        10           S   tau(  10) = (   0.9680488   0.2910634   0.2019893  )
        11           S   tau(  11) = (   1.2500176   0.4685713   0.6151067  )
        12           S   tau(  12) = (   1.0319434   0.8691714   0.6032206  )
        13           S   tau(  13) = (   0.5319513   0.2910557   0.2020216  )
        14           S   tau(  14) = (   1.2500548   0.7401400   0.2238243  )

   Crystallographic axes

     site n.     atom                  positions (cryst. coord.)
         1           Mg  tau(   1) = (  0.8757650  0.8742200  0.8742840  )
         2           Mg  tau(   2) = (  0.1242610  0.1257280  0.1257850  )
         3           Cr  tau(   3) = (  0.4998140  0.5001620  0.9998550  )
         4           Cr  tau(   4) = (  0.4999750  0.9999890  0.5000270  )
         5           In  tau(   5) = (  0.5000450  0.4999920  0.4999770  )
         6           In  tau(   6) = (  0.0000290  0.4999670  0.5000360  )
         7           S   tau(   7) = (  0.7189270  0.7491270  0.7491400  )
         8           S   tau(   8) = (  0.2709390  0.2361190  0.7220890  )
         9           S   tau(   9) = (  0.2709160  0.7220730  0.2361290  )
        10           S   tau(  10) = (  0.7171870  0.2508730  0.2508430  )
        11           S   tau(  11) = (  0.7291120  0.2779050  0.7638780  )
        12           S   tau(  12) = (  0.2828050  0.7491370  0.7491170  )
        13           S   tau(  13) = (  0.2810810  0.2508500  0.2508830  )
        14           S   tau(  14) = (  0.7291470  0.7638530  0.2779590  )

     number of k points=     1  Methfessel-Paxton smearing, width (Ry)=  0.0010
                       cart. coord. in units 2pi/alat
        k(    1) = (   0.0000000   0.0000000   0.0000000), wk =   2.0000000

                       cryst. coord.
        k(    1) = (   0.0000000   0.0000000   0.0000000), wk =   2.0000000

     Check: negative core charge=   -0.000003

     Initial potential from superposition of free atoms

     starting charge     103.9904, renormalised to     106.0000

     negative rho (up, down):  3.470E-03 0.000E+00
     Starting wfcs are   78 randomized atomic wfcs
     Checking if some PAW data can be deallocated...

     Self-consistent Calculation

     iteration #  1     ecut=    30.00 Ry     beta= 0.70
     Davidson diagonalization with overlap

     ethr =  1.00E-02,  avg # of iterations =  3.0

     negative rho (up, down):  7.401E-04 0.000E+00

     total energy              =    -892.33774451 Ry
     estimated scf accuracy    <      11.19840059 Ry

[...]

     total energy              =    -900.88139236 Ry
     estimated scf accuracy    <       0.00000284 Ry

     iteration # 24     ecut=    30.00 Ry     beta= 0.70
     Davidson diagonalization with overlap

     ethr =  2.68E-09,  avg # of iterations =  1.0

[...]

     End of self-consistent calculation

          k = 0.0000 0.0000 0.0000 (  2763 PWs)   bands (ev):

   -65.1432 -65.1428 -36.7050 -36.6905 -36.3807 -36.3776 -36.2612 -36.2580
    -7.8639  -7.6606  -7.4345  -7.4150  -7.3619  -7.3334  -7.2542  -7.2534
    -7.2398  -7.2275  -6.7804  -5.8007  -5.6284  -5.3282  -5.1941  -4.9043
    -4.8605  -4.7612   0.3775   0.3837   1.4223   1.4715   1.8828   2.2051
     2.2112   3.6497   3.8941   3.9166   3.9610   3.9684   4.0179   4.2348
     4.4889   4.5787   4.6369   5.0795   5.1464   5.4121   5.6781   5.7972
     5.8180   5.9372   6.3488   6.5781   6.7911   6.8443   6.9680   7.1621
     7.9952   8.1522   8.8564   8.9086   8.9956   9.0824   9.8660  10.0192

     occupation numbers
     1.0000   1.0000   1.0000   1.0000   1.0000   1.0000   1.0000   1.0000
     1.0000   1.0000   1.0000   1.0000   1.0000   1.0000   1.0000   1.0000
     1.0000   1.0000   1.0000   1.0000   1.0000   1.0000   1.0000   1.0000
     1.0000   1.0000   1.0000   1.0000   1.0000   1.0000   1.0000   1.0000
     1.0000   1.0000   1.0000   1.0000   1.0000   1.0000   1.0000   1.0000
     1.0000   1.0000   1.0000   1.0000   1.0000   1.0000   1.0000   1.0000
     1.0000   1.0000   1.0000   1.0000   1.0092  -0.0092  -0.0000  -0.0000
    -0.0000  -0.0000  -0.0000  -0.0000  -0.0000  -0.0000  -0.0000  -0.0000

     the Fermi energy is     6.8177 ev

!    total energy              =    -900.88139232 Ry
     estimated scf accuracy    <       0.00000018 Ry
     smearing contrib. (-TS)   =       0.00008190 Ry
     internal energy E=F+TS    =    -900.88147422 Ry

     The total energy is F=E-TS. E is the sum of the following terms:
     one-electron contribution =    -493.18063699 Ry
     hartree contribution      =     298.66666567 Ry
     xc contribution           =    -211.26260263 Ry
     ewald contribution        =    -432.55154897 Ry
     one-center paw contrib.   =     -62.55335130 Ry
      -> PAW hartree energy AE =       1.27992951 Ry
      -> PAW hartree energy PS =      -1.27721193 Ry
      -> PAW xc energy AE      =     -65.01829549 Ry
      -> PAW xc energy PS      =       2.46222660 Ry
      -> total E_H with PAW    =     298.66938325 Ry
      -> total E_XC with PAW   =    -273.81867152 Ry

     convergence has been achieved in  24 iterations

     negative rho (up, down):  3.407E-03 0.000E+00

     Forces acting on atoms (cartesian axes, Ry/au):

     atom    1 type  1   force =    -0.00005746   -0.00696148   -0.00482846
     atom    2 type  1   force =    -0.00005491    0.00701240    0.00483688
     atom    3 type  2   force =     0.00047252    0.00010549    0.00009455
     atom    4 type  2   force =     0.00070160   -0.00011815    0.00018188
     atom    5 type  3   force =    -0.00010050   -0.00007250   -0.00010592
     atom    6 type  3   force =     0.00005277    0.00004542   -0.00001350
     atom    7 type  4   force =    -0.00893910   -0.02310133   -0.01616838
     atom    8 type  4   force =    -0.00004975   -0.07525951   -0.03666447
     atom    9 type  4   force =    -0.00012715   -0.06070511   -0.05767636
     atom   10 type  4   force =    -0.00912204    0.02309207    0.01609863
     atom   11 type  4   force =    -0.00012659    0.06074552    0.05755096
     atom   12 type  4   force =     0.00860682   -0.02325130   -0.01610224
     atom   13 type  4   force =     0.00878871    0.02324160    0.01603850
     atom   14 type  4   force =    -0.00004492    0.07522688    0.03675794
     The non-local contrib.  to forces
     atom    1 type  1   force =    -0.00010452   -0.01535741   -0.01061401
     atom    2 type  1   force =    -0.00008622    0.01540838    0.01058308
     atom    3 type  2   force =     0.00003573    0.00010677   -0.00012648
     atom    4 type  2   force =    -0.00034150   -0.00000240   -0.00004095
     atom    5 type  3   force =     0.00009564   -0.00005087    0.00002632
     atom    6 type  3   force =    -0.00000667   -0.00004336   -0.00002046
     atom    7 type  4   force =     0.01586374   -0.06994816   -0.04852771
     atom    8 type  4   force =    -0.00016000    0.07527390   -0.02788978
     atom    9 type  4   force =    -0.00001784    0.00002841    0.08022978
     atom   10 type  4   force =     0.01600940    0.06998370    0.04859685
     atom   11 type  4   force =     0.00001437   -0.00034877   -0.08032942
     atom   12 type  4   force =    -0.01602341   -0.07001262   -0.04855747
     atom   13 type  4   force =    -0.01616801    0.07006655    0.04862242
     atom   14 type  4   force =    -0.00018810   -0.07532435    0.02789504
     The ionic contribution  to forces
     atom    1 type  1   force =    -0.00088336   -0.28330499   -0.19653048
     atom    2 type  1   force =    -0.00079196    0.28401991    0.19670638
     atom    3 type  2   force =     0.00030956   -0.00559950    0.02032741
     atom    4 type  2   force =     0.00359901    0.00618684   -0.00909218
     atom    5 type  3   force =    -0.00182697   -0.00614171   -0.00959351
     atom    6 type  3   force =     0.00170536    0.00083998    0.00453287
     atom    7 type  4   force =     9.11372338    3.55762124    2.47135114
     atom    8 type  4   force =     0.00077042    1.82574917    8.95074251
     atom    9 type  4   force =     0.00313634    9.02220971   -1.41961675
     atom   10 type  4   force =     9.10275274   -3.55515138   -2.47728815
     atom   11 type  4   force =     0.00266105   -9.02453042    1.42560065
     atom   12 type  4   force =    -9.11837789    3.56196398    2.46384927
     atom   13 type  4   force =    -9.10750528   -3.56038782   -2.46871133
     atom   14 type  4   force =     0.00072760   -1.82347501   -8.95227783
     The local contribution  to forces
     atom    1 type  1   force =     0.00091579    0.28953965    0.20081187
     atom    2 type  1   force =     0.00081061   -0.29022410   -0.20096415
     atom    3 type  2   force =     0.00009702    0.00550989   -0.02027541
     atom    4 type  2   force =    -0.00256289   -0.00637574    0.00930268
     atom    5 type  3   force =     0.00178982    0.00609571    0.00954256
     atom    6 type  3   force =    -0.00179931   -0.00077795   -0.00444404
     atom    7 type  4   force =    -9.13766523   -3.51456928   -2.44176565
     atom    8 type  4   force =    -0.00066142   -1.97226817   -8.96103537
     atom    9 type  4   force =    -0.00324437   -9.08290026    1.28607838
     atom   10 type  4   force =    -9.12699581    3.51204373    2.44755116
     atom   11 type  4   force =    -0.00280837    9.08559066   -1.29210808
     atom   12 type  4   force =     9.14213186   -3.51901115   -2.43417798
     atom   13 type  4   force =     9.13156433    3.51735060    2.43888063
     atom   14 type  4   force =    -0.00060555    1.97002265    8.96267720
     The core correction contribution to forces
     atom    1 type  1   force =     0.00001204    0.00217129    0.00150132
     atom    2 type  1   force =     0.00000983   -0.00217700   -0.00149832
     atom    3 type  2   force =     0.00002157   -0.00001548    0.00001163
     atom    4 type  2   force =     0.00001832   -0.00001122    0.00002047
     atom    5 type  3   force =     0.00000098   -0.00000318   -0.00000010
     atom    6 type  3   force =    -0.00000261    0.00000094   -0.00000137
     atom    7 type  4   force =    -0.00099088    0.00384679    0.00266834
     atom    8 type  4   force =     0.00000859   -0.00426381    0.00137923
     atom    9 type  4   force =     0.00000085   -0.00018898   -0.00447435
     atom   10 type  4   force =    -0.00099745   -0.00384966   -0.00267113
     atom   11 type  4   force =    -0.00000105    0.00020773    0.00447936
     atom   12 type  4   force =     0.00100056    0.00384978    0.00267118
     atom   13 type  4   force =     0.00100713   -0.00385344   -0.00267398
     atom   14 type  4   force =     0.00001006    0.00426631   -0.00137904
     The Hubbard contrib.    to forces
     atom    1 type  1   force =     0.00000000    0.00000000    0.00000000
     atom    2 type  1   force =     0.00000000    0.00000000    0.00000000
     atom    3 type  2   force =     0.00000000    0.00000000    0.00000000
     atom    4 type  2   force =     0.00000000    0.00000000    0.00000000
     atom    5 type  3   force =     0.00000000    0.00000000    0.00000000
     atom    6 type  3   force =     0.00000000    0.00000000    0.00000000
     atom    7 type  4   force =     0.00000000    0.00000000    0.00000000
     atom    8 type  4   force =     0.00000000    0.00000000    0.00000000
     atom    9 type  4   force =     0.00000000    0.00000000    0.00000000
     atom   10 type  4   force =     0.00000000    0.00000000    0.00000000
     atom   11 type  4   force =     0.00000000    0.00000000    0.00000000
     atom   12 type  4   force =     0.00000000    0.00000000    0.00000000
     atom   13 type  4   force =     0.00000000    0.00000000    0.00000000
     atom   14 type  4   force =     0.00000000    0.00000000    0.00000000
     The SCF correction term to forces
     atom    1 type  1   force =     0.00000038   -0.00000602   -0.00000191
     atom    2 type  1   force =     0.00000063   -0.00001078    0.00000513
     atom    3 type  2   force =     0.00000643    0.00010783    0.00015265
     atom    4 type  2   force =    -0.00001354    0.00008839   -0.00001290
     atom    5 type  3   force =    -0.00016217    0.00003157   -0.00008594
     atom    6 type  3   force =     0.00015381    0.00002982   -0.00008525
     atom    7 type  4   force =     0.00012770   -0.00004789    0.00010075
     atom    8 type  4   force =    -0.00000955    0.00025342    0.00013419
     atom    9 type  4   force =    -0.00000433    0.00015003    0.00010183
     atom   10 type  4   force =     0.00010687    0.00006970   -0.00009486
     atom   11 type  4   force =     0.00000521   -0.00016966   -0.00009630
     atom   12 type  4   force =    -0.00012651   -0.00003728    0.00010801
     atom   13 type  4   force =    -0.00011167    0.00006973   -0.00008400
     atom   14 type  4   force =     0.00000886   -0.00025871   -0.00016218

     Total force =     0.177980     Total SCF correction =     0.000681

     Computing stress (Cartesian axis) and pressure

     negative rho (up, down):  3.407E-03 0.000E+00
          total   stress  (Ry/bohr**3)                   (kbar)     P=       -9.56
   0.00022940  -0.00000002  -0.00000009           33.75       -0.00       -0.01
  -0.00000002  -0.00026434  -0.00014036           -0.00      -38.89      -20.65
  -0.00000009  -0.00014036  -0.00015993           -0.01      -20.65      -23.53

     kinetic stress (kbar)   9943.99     -0.00     -0.02
                               -0.00   9849.18     55.60
                               -0.02     55.60   9807.67

     local   stress (kbar)  -3944.45      0.16     -0.20
                                0.16  -8965.26   1622.63
                               -0.20   1622.63 -10176.24

     nonloc. stress (kbar)   4391.07     -0.00     -0.00
                               -0.00   4393.15     15.76
                               -0.00     15.76   4381.40

     hartree stress (kbar)   5630.71     -0.08      0.10
                               -0.08   7970.52   -776.43
                                0.10   -776.43   8549.92

     exc-cor stress (kbar)   3883.13      0.00      0.00
                                0.00   3882.97      0.90
                                0.00      0.90   3882.30

     corecor stress (kbar)  -7142.21      0.00     -0.00
                                0.00  -7143.34     -1.49
                               -0.00     -1.49  -7142.23

     ewald   stress (kbar) -12728.50     -0.07      0.11
                               -0.07 -10026.12   -937.62
                                0.11   -937.62  -9326.35

     hubbard stress (kbar)      0.00      0.00      0.00
                                0.00      0.00      0.00
                                0.00      0.00      0.00

     DFT-D   stress (kbar)      0.00      0.00      0.00
                                0.00      0.00      0.00
                                0.00      0.00      0.00

     XDM     stress (kbar)      0.00      0.00      0.00
                                0.00      0.00      0.00
                                0.00      0.00      0.00

     dft-nl  stress (kbar)      0.00      0.00      0.00
                                0.00      0.00      0.00
                                0.00      0.00      0.00

     TS-vdW  stress (kbar)      0.00      0.00      0.00
                                0.00      0.00      0.00
                                0.00      0.00      0.00

[...]

                                0.00      0.00      0.00

     Writing all to output data dir new_calculations/myprefix.save/

     General routines

     Parallel routines

     PAW routines

   This run was terminated on:   6:11:16  21May2023

   JOB DONE.