     Program PWSCF v.7.0 starts on 20May2023 at 10:46: 9

     Reading input from espresso_16274.pwi
Warning: card &CELL ignored
Warning: card / ignored

     Current dimensions of program PWSCF are:
     Max number of different atomic species (ntypx) = 10
     Max number of k-points (npk) =  40000
     Max angular momentum in pseudopotentials (lmaxx) =  4
     file O.pbe-n-kjpaw_psl.0.1.UPF: wavefunction(s)  2P renormalized

     gamma-point specific algorithms are used
     Message from routine setup:
     using ibrav=0 with symmetry is DISCOURAGED, use correct ibrav instead

     Subspace diagonalization in iterative solution of the eigenvalue problem:
     a serial algorithm will be used

     Using Slab Decomposition

     bravais-lattice index     =            0
     lattice parameter (alat)  =       9.5116  a.u.
     unit-cell volume          =    1955.5365 (a.u.)^3
     number of atoms/cell      =           20
     number of atomic types    =            3
     number of electrons       =       128.00
     number of Kohn-Sham states=           77
     kinetic-energy cutoff     =      30.0000  Ry
     charge density cutoff     =     240.0000  Ry
     scf convergence threshold =      1.0E-06
     mixing beta               =       0.7000
     number of iterations used =            8  plain     mixing
     Exchange-correlation= SLA  PW   PBX  PBC
                           (   1   4   3   4   0   0   0)

     celldm(1)=   9.511642  celldm(2)=   0.000000  celldm(3)=   0.000000
     celldm(4)=   0.000000  celldm(5)=   0.000000  celldm(6)=   0.000000

     crystal axes: (cart. coord. in units of alat)
               a(1) = (   1.000000   0.000000   0.000000 )
               a(2) = (  -0.419441   1.357875   0.000000 )
               a(3) = (  -0.083408  -0.066547   1.673553 )

     reciprocal axes: (cart. coord. in units 2 pi/alat)
               b(1) = (  1.000000  0.308895  0.062122 )
               b(2) = (  0.000000  0.736445  0.029284 )
               b(3) = (  0.000000  0.000000  0.597531 )

     PseudoPot. # 1 for Hf read from file:
     /home/pragov/projects/rrg-bengioy-ad/pragov/crystal_structure_design/SSSP/Hf-sp.oncvpsp.upf
     MD5 check sum: 417ed15784afe83d2e06dacf143de3f8
     Pseudo is Norm-conserving + core correction, Zval = 12.0
     Generated using ONCVPSP code by D. R. Hamann
     Using radial grid of 1656 points,  8 beta functions with:
                l(1) =   0
                l(2) =   0
                l(3) =   1
                l(4) =   1
                l(5) =   2
                l(6) =   2
                l(7) =   3
                l(8) =   3

     PseudoPot. # 2 for P  read from file:
     /home/pragov/projects/rrg-bengioy-ad/pragov/crystal_structure_design/SSSP/P.pbe-n-rrkjus_psl.1.0.0.UPF
     MD5 check sum: 8b930f418f0a4573dca56cd030ffe088
     Pseudo is Ultrasoft + core correction, Zval =  5.0
     Generated using "atomic" code by A. Dal Corso  v.5.1
     Using radial grid of 1147 points,  6 beta functions with:
                l(1) =   0
                l(2) =   0
                l(3) =   1
                l(4) =   1
                l(5) =   2
                l(6) =   2
     Q(r) pseudized with 0 coefficients

     PseudoPot. # 3 for O  read from file:
     /home/pragov/projects/rrg-bengioy-ad/pragov/crystal_structure_design/SSSP/O.pbe-n-kjpaw_psl.0.1.UPF
     MD5 check sum: 0234752ac141de4415c5fc33072bef88
     Pseudo is Projector augmented-wave + core cor, Zval =  6.0
     Generated using "atomic" code by A. Dal Corso  v.5.0.99 svn rev. 10869
     Shape of augmentation charge: BESSEL
     Using radial grid of 1095 points,  4 beta functions with:
                l(1) =   0
                l(2) =   0
                l(3) =   1
                l(4) =   1
     Q(r) pseudized with 0 coefficients

     atomic species   valence    mass     pseudopotential
        Hf            12.00   178.49000     Hf( 1.00)
        P              5.00    30.97376     P ( 1.00)
        O              6.00    15.99900     O ( 1.00)

      2 Sym. Ops., with inversion, found

                                    s                        frac. trans.

      isym =  1     identity

 cryst.   s( 1) = (     1          0          0      )
                  (     0          1          0      )
                  (     0          0          1      )

 cart.    s( 1) = (  1.0000000  0.0000000 -0.0000000 )
                  (  0.0000000  1.0000000  0.0000000 )
                  (  0.0000000  0.0000000  1.0000000 )

      isym =  2     inversion

 cryst.   s( 2) = (    -1          0          0      )
                  (     0         -1          0      )
                  (     0          0         -1      )

 cart.    s( 2) = ( -1.0000000 -0.0000000  0.0000000 )
                  (  0.0000000 -1.0000000 -0.0000000 )
                  (  0.0000000  0.0000000 -1.0000000 )

   Cartesian axes

     site n.     atom                  positions (alat units)
         1           Hf  tau(   1) = (   0.0000000   0.0000000   0.0000000  )
         2           Hf  tau(   2) = (   0.2485753   0.6456640   0.8367767  )
         3           P   tau(   3) = (   0.4048943   0.1332112   1.2752092  )
         4           P   tau(   4) = (  -0.2508853   0.9735093   1.1563384  )
         5           P   tau(   5) = (   0.7480359   0.3178187   0.5172150  )
         6           P   tau(   6) = (   0.0922563   1.1581168   0.3983442  )
         7           O   tau(   7) = (   0.2240978   0.1603597   1.5194928  )
         8           O   tau(   8) = (  -0.3511144   0.9830335   1.4445159  )
         9           O   tau(   9) = (   0.6833619   0.0394761   1.3518278  )
        10           O   tau(  10) = (  -0.0174357   0.7835370   1.1219201  )
        11           O   tau(  11) = (   0.4126284   0.3832204   1.1063828  )
        12           O   tau(  12) = (  -0.1440885   1.2685300   1.0832828  )
        13           O   tau(  13) = (   0.5263271   0.9223544   0.9575537  )
        14           O   tau(  14) = (  -0.0291765   0.3689736   0.7159997  )
        15           O   tau(  15) = (   0.6412391   0.0227980   0.5902707  )
        16           O   tau(  16) = (   0.0845222   0.9081076   0.5671706  )
        17           O   tau(  17) = (   0.5145863   0.5077910   0.5516333  )
        18           O   tau(  18) = (  -0.1862113   1.2518519   0.3217256  )
        19           O   tau(  19) = (   0.8482650   0.3082945   0.2290375  )
        20           O   tau(  20) = (   0.2730528   1.1309683   0.1540606  )

   Crystallographic axes

     site n.     atom                  positions (cryst. coord.)
         1           Hf  tau(   1) = (  0.0000000  0.0000000  0.0000000  )
         2           Hf  tau(   2) = (  0.5000000  0.5000000  0.5000000  )
         3           P   tau(   3) = (  0.5252610  0.1354460  0.7619770  )
         4           P   tau(   4) = (  0.1216610  0.7507980  0.6909480  )
         5           P   tau(   5) = (  0.8783390  0.2492020  0.3090520  )
         6           P   tau(   6) = (  0.4747390  0.8645540  0.2380230  )
         7           O   tau(   7) = (  0.3680260  0.1625930  0.9079440  )
         8           O   tau(   8) = (  0.0422760  0.7662510  0.8631430  )
         9           O   tau(   9) = (  0.7795340  0.0686590  0.8077590  )
        10           O   tau(  10) = (  0.2942910  0.6098860  0.6703820  )
        11           O   tau(  11) = (  0.5997340  0.3146200  0.6610980  )
        12           O   tau(  12) = (  0.3150500  0.9659250  0.6472950  )
        13           O   tau(  13) = (  0.8707230  0.7073040  0.5721680  )
        14           O   tau(  14) = (  0.1292770  0.2926960  0.4278320  )
        15           O   tau(  15) = (  0.6849500  0.0340750  0.3527050  )
        16           O   tau(  16) = (  0.4002660  0.6853800  0.3389020  )
        17           O   tau(  17) = (  0.7057090  0.3901140  0.3296180  )
        18           O   tau(  18) = (  0.2204660  0.9313410  0.1922410  )
        19           O   tau(  19) = (  0.9577240  0.2337490  0.1368570  )
        20           O   tau(  20) = (  0.6319740  0.8374070  0.0920560  )

     number of k points=     1  Methfessel-Paxton smearing, width (Ry)=  0.0010
                       cart. coord. in units 2pi/alat
        k(    1) = (   0.0000000   0.0000000   0.0000000), wk =   2.0000000

                       cryst. coord.
        k(    1) = (   0.0000000   0.0000000   0.0000000), wk =   2.0000000

     Check: negative core charge=   -0.000012

     Initial potential from superposition of free atoms

     starting charge     127.9956, renormalised to     128.0000
     Starting wfcs are   92 randomized atomic wfcs
     Checking if some PAW data can be deallocated...

     Self-consistent Calculation

     iteration #  1     ecut=    30.00 Ry     beta= 0.70
     Davidson diagonalization with overlap

     ethr =  1.00E-02,  avg # of iterations =  4.0

     total energy              =    -863.76705529 Ry
     estimated scf accuracy    <       4.79493171 Ry

[...]

     c_bands:  1 eigenvalues not converged
     ethr =  1.53E-05,  avg # of iterations = 20.0

[...]

     total energy              =    -865.91861252 Ry
     estimated scf accuracy    <       0.00000582 Ry

     iteration # 10     ecut=    30.00 Ry     beta= 0.70
     Davidson diagonalization with overlap

     ethr =  4.55E-09,  avg # of iterations =  2.0

     End of self-consistent calculation

          k = 0.0000 0.0000 0.0000 (  2713 PWs)   bands (ev):

   -57.7549 -57.6837 -26.5985 -26.5617 -26.5397 -26.5316 -26.5023 -26.4843
   -18.2440 -18.0625 -16.9585 -16.7887 -15.7310 -15.5053 -15.2954 -15.0325
   -14.9756 -14.9525 -14.8512 -14.7088 -14.7038 -14.6661  -6.7570  -6.4055
    -4.9661  -3.7264  -3.7007  -3.1674  -2.9823  -2.9596  -2.7333  -2.4374
    -2.3495  -2.1239  -1.6011  -1.5314  -1.5290  -0.8949  -0.6530  -0.5577
    -0.3717  -0.3221   0.0136   0.3970   0.4567   0.5307   0.7862   0.8469
     1.0690   1.1342   1.2558   1.2686   1.3525   1.4216   1.6751   1.7726
     1.8153   2.0539   2.0831   2.3739   2.3989   2.5349   2.5888   2.6915
     8.1985   8.2422   8.4293   8.5124   8.5477   8.7229   8.9521  10.5058
    10.9874  11.2162  11.8461  11.9318  11.9575

     occupation numbers
     1.0000   1.0000   1.0000   1.0000   1.0000   1.0000   1.0000   1.0000
     1.0000   1.0000   1.0000   1.0000   1.0000   1.0000   1.0000   1.0000
     1.0000   1.0000   1.0000   1.0000   1.0000   1.0000   1.0000   1.0000
     1.0000   1.0000   1.0000   1.0000   1.0000   1.0000   1.0000   1.0000
     1.0000   1.0000   1.0000   1.0000   1.0000   1.0000   1.0000   1.0000
     1.0000   1.0000   1.0000   1.0000   1.0000   1.0000   1.0000   1.0000
     1.0000   1.0000   1.0000   1.0000   1.0000   1.0000   1.0000   1.0000
     1.0000   1.0000   1.0000   1.0000   1.0000   1.0000   1.0000   1.0000
    -0.0000  -0.0000  -0.0000  -0.0000  -0.0000  -0.0000  -0.0000  -0.0000
    -0.0000  -0.0000  -0.0000  -0.0000  -0.0000

     the Fermi energy is     3.3455 ev

!    total energy              =    -865.91861402 Ry
     estimated scf accuracy    <       0.00000013 Ry
     smearing contrib. (-TS)   =       0.00000000 Ry
     internal energy E=F+TS    =    -865.91861402 Ry

     The total energy is F=E-TS. E is the sum of the following terms:
     one-electron contribution =    -445.43835552 Ry
     hartree contribution      =     279.28770069 Ry
     xc contribution           =    -180.48372747 Ry
     ewald contribution        =    -386.10022489 Ry
     one-center paw contrib.   =    -133.18400683 Ry
      -> PAW hartree energy AE =     445.85403785 Ry
      -> PAW hartree energy PS =    -444.25884245 Ry
      -> PAW xc energy AE      =    -245.09361062 Ry
      -> PAW xc energy PS      =     110.31440838 Ry
      -> total E_H with PAW    =     280.88289609 Ry
      -> total E_XC with PAW   =    -315.26292971 Ry

     convergence has been achieved in  10 iterations

     Forces acting on atoms (cartesian axes, Ry/au):

     atom    1 type  1   force =     0.00000000    0.00000000    0.00000000
     atom    2 type  1   force =     0.00000000    0.00000000    0.00000000
     atom    3 type  2   force =    -0.00203246   -0.00801462    0.00210644
     atom    4 type  2   force =     0.00386181    0.00917710    0.01210853
     atom    5 type  2   force =    -0.00386181   -0.00917710   -0.01210853
     atom    6 type  2   force =     0.00203246    0.00801462   -0.00210644
     atom    7 type  3   force =    -0.00974937    0.01429414    0.02190801
     atom    8 type  3   force =    -0.00372924    0.00061727    0.00825208
     atom    9 type  3   force =     0.00348182   -0.00869861   -0.00922115
     atom   10 type  3   force =     0.01369718   -0.02127033    0.01193286
     atom   11 type  3   force =    -0.00821238    0.01259651   -0.01492338
     atom   12 type  3   force =     0.00063902    0.00005384   -0.01102032
     atom   13 type  3   force =    -0.01606624    0.01033248   -0.02983622
     atom   14 type  3   force =     0.01606624   -0.01033248    0.02983622
     atom   15 type  3   force =    -0.00063902   -0.00005384    0.01102032
     atom   16 type  3   force =     0.00821238   -0.01259651    0.01492338
     atom   17 type  3   force =    -0.01369718    0.02127033   -0.01193286
     atom   18 type  3   force =    -0.00348182    0.00869861    0.00922115
     atom   19 type  3   force =     0.00372924   -0.00061727   -0.00825208
     atom   20 type  3   force =     0.00974937   -0.01429414   -0.02190801
     The non-local contrib.  to forces
     atom    1 type  1   force =     0.00000000    0.00000000    0.00000000
     atom    2 type  1   force =     0.00000000    0.00000000    0.00000000
     atom    3 type  2   force =    -0.03252092   -0.07664177   -0.09593201
     atom    4 type  2   force =     0.04360621    0.12362147   -0.03788542
     atom    5 type  2   force =    -0.04360621   -0.12362147    0.03788542
     atom    6 type  2   force =     0.03252092    0.07664177    0.09593201
     atom    7 type  3   force =     0.58916078   -0.62097023   -1.33111363
     atom    8 type  3   force =     0.39091779    0.51415882   -1.44288556
     atom    9 type  3   force =    -1.41934352    0.45507658    0.09933669
     atom   10 type  3   force =    -1.05730303    1.05725090   -0.31834007
     atom   11 type  3   force =    -0.37101902   -1.21061596    0.62642765
     atom   12 type  3   force =     0.15550197   -0.42167701    1.57047498
     atom   13 type  3   force =     0.96262201   -0.19985117    1.13011314
     atom   14 type  3   force =    -0.96262201    0.19985117   -1.13011314
     atom   15 type  3   force =    -0.15550197    0.42167701   -1.57047498
     atom   16 type  3   force =     0.37101902    1.21061596   -0.62642765
     atom   17 type  3   force =     1.05730303   -1.05725090    0.31834007
     atom   18 type  3   force =     1.41934352   -0.45507658   -0.09933669
     atom   19 type  3   force =    -0.39091779   -0.51415882    1.44288556
     atom   20 type  3   force =    -0.58916078    0.62097023    1.33111363
     The ionic contribution  to forces
     atom    1 type  1   force =     0.00000000   -0.00000000   -0.00000000
     atom    2 type  1   force =     0.00000000   -0.00000000    0.00000000
     atom    3 type  2   force =     0.76547129    2.58587117    0.90493584
     atom    4 type  2   force =    -0.01803746   -1.90658601    1.46737742
     atom    5 type  2   force =     0.01803746    1.90658601   -1.46737742
     atom    6 type  2   force =    -0.76547129   -2.58587117   -0.90493584
     atom    7 type  3   force =    -0.11070157    9.86178692    5.11808467
     atom    8 type  3   force =    -0.67764276  -10.05794644    6.25674820
     atom    9 type  3   force =     3.72507943    1.80741347   -2.83517319
     atom   10 type  3   force =     1.99564652   -4.76823586    7.59814935
     atom   11 type  3   force =     2.99210951    3.35843663    3.43864481
     atom   12 type  3   force =    -0.61023092    1.79096544   -6.35459204
     atom   13 type  3   force =    -1.43531467    3.21892496   -2.94619079
     atom   14 type  3   force =     1.43531467   -3.21892496    2.94619079
     atom   15 type  3   force =     0.61023092   -1.79096544    6.35459204
     atom   16 type  3   force =    -2.99210951   -3.35843663   -3.43864481
     atom   17 type  3   force =    -1.99564652    4.76823585   -7.59814935
     atom   18 type  3   force =    -3.72507943   -1.80741347    2.83517319
     atom   19 type  3   force =     0.67764276   10.05794644   -6.25674820
     atom   20 type  3   force =     0.11070157   -9.86178692   -5.11808466
     The local contribution  to forces
     atom    1 type  1   force =    -0.00002220    0.00005759    0.00000544
     atom    2 type  1   force =     0.00000959   -0.00000270    0.00001671
     atom    3 type  2   force =    -0.73787165   -2.52343056   -0.81337822
     atom    4 type  2   force =    -0.01843528    1.80130123   -1.41970474
     atom    5 type  2   force =     0.01844060   -1.80129406    1.41970122
     atom    6 type  2   force =     0.73786365    2.52342856    0.81336873
     atom    7 type  3   force =    -0.48331651   -9.23206073   -3.77675168
     atom    8 type  3   force =     0.28631852    9.54902060   -4.81807344
     atom    9 type  3   force =    -2.31436977   -2.26705759    2.72766720
     atom   10 type  3   force =    -0.93352872    3.69890757   -7.27091502
     atom   11 type  3   force =    -2.63270540   -2.14550369   -4.07481551
     atom   12 type  3   force =     0.45684505   -1.37329578    4.78792090
     atom   13 type  3   force =     0.46477069   -3.01069135    1.79610686
     atom   14 type  3   force =    -0.46476772    3.01069456   -1.79608744
     atom   15 type  3   force =    -0.45685899    1.37326677   -4.78791072
     atom   16 type  3   force =     2.63270425    2.14551631    4.07480402
     atom   17 type  3   force =     0.93350501   -3.69889015    7.27094033
     atom   18 type  3   force =     2.31439435    2.26705823   -2.72766003
     atom   19 type  3   force =    -0.28629865   -9.54903565    4.81799190
     atom   20 type  3   force =     0.48330065    9.23207045    3.77675988
     The core correction contribution to forces
     atom    1 type  1   force =    -0.00000047    0.00000150    0.00000030
     atom    2 type  1   force =     0.00000054    0.00000009    0.00000053
     atom    3 type  2   force =     0.00286670    0.00616507    0.00642038
     atom    4 type  2   force =    -0.00325898   -0.00913442    0.00227385
     atom    5 type  2   force =     0.00325847    0.00913477   -0.00227290
     atom    6 type  2   force =    -0.00286744   -0.00616532   -0.00642082
     atom    7 type  3   force =    -0.00515635    0.00546643    0.01190587
     atom    8 type  3   force =    -0.00349920   -0.00448808    0.01273944
     atom    9 type  3   force =     0.01245215   -0.00424403   -0.00089732
     atom   10 type  3   force =     0.00917944   -0.00940319    0.00287103
     atom   11 type  3   force =     0.00330176    0.01056200   -0.00547650
     atom   12 type  3   force =    -0.00149795    0.00410787   -0.01496733
     atom   13 type  3   force =    -0.00843245    0.00182696   -0.01009349
     atom   14 type  3   force =     0.00843239   -0.00182696    0.01009347
     atom   15 type  3   force =     0.00149798   -0.00410783    0.01496742
     atom   16 type  3   force =    -0.00330175   -0.01056207    0.00547652
     atom   17 type  3   force =    -0.00917953    0.00940328   -0.00287085
     atom   18 type  3   force =    -0.01245219    0.00424399    0.00089731
     atom   19 type  3   force =     0.00349911    0.00448804   -0.01273947
     atom   20 type  3   force =     0.00515638   -0.00546643   -0.01190586
     The Hubbard contrib.    to forces
     atom    1 type  1   force =     0.00000000    0.00000000    0.00000000
     atom    2 type  1   force =     0.00000000    0.00000000    0.00000000
     atom    3 type  2   force =     0.00000000    0.00000000    0.00000000
     atom    4 type  2   force =     0.00000000    0.00000000    0.00000000
     atom    5 type  2   force =     0.00000000    0.00000000    0.00000000
     atom    6 type  2   force =     0.00000000    0.00000000    0.00000000
     atom    7 type  3   force =     0.00000000    0.00000000    0.00000000
     atom    8 type  3   force =     0.00000000    0.00000000    0.00000000
     atom    9 type  3   force =     0.00000000    0.00000000    0.00000000
     atom   10 type  3   force =     0.00000000    0.00000000    0.00000000
     atom   11 type  3   force =     0.00000000    0.00000000    0.00000000
     atom   12 type  3   force =     0.00000000    0.00000000    0.00000000
     atom   13 type  3   force =     0.00000000    0.00000000    0.00000000
     atom   14 type  3   force =     0.00000000    0.00000000    0.00000000
     atom   15 type  3   force =     0.00000000    0.00000000    0.00000000
     atom   16 type  3   force =     0.00000000    0.00000000    0.00000000
     atom   17 type  3   force =     0.00000000    0.00000000    0.00000000
     atom   18 type  3   force =     0.00000000    0.00000000    0.00000000
     atom   19 type  3   force =     0.00000000    0.00000000    0.00000000
     atom   20 type  3   force =     0.00000000    0.00000000    0.00000000
     The SCF correction term to forces
     atom    1 type  1   force =     0.00002578   -0.00006548   -0.00000642
     atom    2 type  1   force =    -0.00001106    0.00000233   -0.00001638
     atom    3 type  2   force =     0.00001718    0.00002027    0.00005743
     atom    4 type  2   force =    -0.00001658   -0.00002267    0.00005695
     atom    5 type  2   force =     0.00000399    0.00002013   -0.00003531
     atom    6 type  2   force =    -0.00001833   -0.00002041   -0.00005353
     atom    7 type  3   force =     0.00026568    0.00007070   -0.00021927
     atom    8 type  3   force =     0.00017214   -0.00012474   -0.00027133
     atom    9 type  3   force =    -0.00034150    0.00011049   -0.00015882
     atom   10 type  3   force =    -0.00029797    0.00021065    0.00017156
     atom   11 type  3   force =     0.00010248   -0.00028469    0.00029418
     atom   12 type  3   force =     0.00002258   -0.00004609    0.00014788
     atom   13 type  3   force =     0.00028603    0.00012449    0.00022653
     atom   14 type  3   force =    -0.00029324   -0.00012486   -0.00024898
     atom   15 type  3   force =    -0.00000524    0.00007622   -0.00014872
     atom   16 type  3   force =    -0.00009792    0.00026771   -0.00028670
     atom   17 type  3   force =     0.00031989   -0.00022737   -0.00018907
     atom   18 type  3   force =     0.00030692   -0.00011604    0.00014309
     atom   19 type  3   force =    -0.00020044    0.00014561    0.00036336
     atom   20 type  3   force =    -0.00024704   -0.00008252    0.00020692

     Total force =     0.089009     Total SCF correction =     0.001381

     Computing stress (Cartesian axis) and pressure

          total   stress  (Ry/bohr**3)                   (kbar)     P=     -369.31
  -0.00255029  -0.00001455   0.00000125         -375.16       -2.14        0.18
  -0.00001455  -0.00247894  -0.00003925           -2.14     -364.67       -5.77
   0.00000125  -0.00003925  -0.00250230            0.18       -5.77     -368.10

     kinetic stress (kbar)  16206.85     34.14      0.61
                               34.14  16268.62     15.94
                                0.61     15.94  16180.09

     local   stress (kbar) -20728.57    468.56   1242.61
                              468.56  -7589.26  -2586.28
                             1242.61  -2586.28 -13798.41

     nonloc. stress (kbar)   3920.08    -16.24     -3.11
                              -16.24   3878.57     -4.43
                               -3.11     -4.43   3893.48

     hartree stress (kbar)   9929.38   -112.58   -490.48
                             -112.58   4280.35   1158.14
                             -490.48   1158.14   6799.67

     exc-cor stress (kbar)   -604.14     -1.47     -0.55
                               -1.47   -607.97     -0.23
                               -0.55     -0.23   -604.29

     corecor stress (kbar)  -3163.96      1.42      0.36
                                1.42  -3160.82      0.54
                                0.36      0.54  -3163.22

     ewald   stress (kbar)  -5934.79   -375.97   -749.26
                             -375.97 -13434.15   1410.55
                             -749.26   1410.55  -9675.42

     hubbard stress (kbar)      0.00      0.00      0.00
                                0.00      0.00      0.00
                                0.00      0.00      0.00

     DFT-D   stress (kbar)      0.00      0.00      0.00
                                0.00      0.00      0.00
                                0.00      0.00      0.00

     XDM     stress (kbar)      0.00      0.00      0.00
                                0.00      0.00      0.00
                                0.00      0.00      0.00

     dft-nl  stress (kbar)      0.00      0.00      0.00
                                0.00      0.00      0.00
                                0.00      0.00      0.00

     TS-vdW  stress (kbar)      0.00      0.00      0.00
                                0.00      0.00      0.00
                                0.00      0.00      0.00

[...]

                                0.00      0.00      0.00

     Writing all to output data dir new_calculations/myprefix.save/

     General routines

     Parallel routines

     PAW routines

   This run was terminated on:  10:46:39  20May2023

   JOB DONE.