     Program PWSCF v.7.0 starts on 21May2023 at  2:43: 0

     Reading input from espresso_11768.pwi
Warning: card &CELL ignored
Warning: card / ignored

     Current dimensions of program PWSCF are:
     Max number of different atomic species (ntypx) = 10
     Max number of k-points (npk) =  40000
     Max angular momentum in pseudopotentials (lmaxx) =  4
     file K.pbe-spn-kjpaw_psl.1.0.0.UPF: wavefunction(s)  3S renormalized
     file In.pbe-dn-rrkjus_psl.0.2.2.UPF: wavefunction(s)  5S renormalized

     gamma-point specific algorithms are used
     Message from routine setup:
     using ibrav=0 with symmetry is DISCOURAGED, use correct ibrav instead

     Subspace diagonalization in iterative solution of the eigenvalue problem:
     a serial algorithm will be used

     Using Slab Decomposition

     bravais-lattice index     =            0
     lattice parameter (alat)  =      16.7993  a.u.
     unit-cell volume          =    4543.6796 (a.u.)^3
     number of atoms/cell      =           20
     number of atomic types    =            3
     number of electrons       =       164.00
     number of Kohn-Sham states=           98
     kinetic-energy cutoff     =      30.0000  Ry
     charge density cutoff     =     240.0000  Ry
     scf convergence threshold =      1.0E-06
     mixing beta               =       0.7000
     number of iterations used =            8  plain     mixing
     Exchange-correlation= PBE
                           (   1   4   3   4   0   0   0)

     celldm(1)=  16.799333  celldm(2)=   0.000000  celldm(3)=   0.000000
     celldm(4)=   0.000000  celldm(5)=   0.000000  celldm(6)=   0.000000

     crystal axes: (cart. coord. in units of alat)
               a(1) = (   1.000000   0.000000   0.000000 )
               a(2) = (  -0.480944   0.883354   0.000000 )
               a(3) = (  -0.334365  -0.012695   1.084917 )

     reciprocal axes: (cart. coord. in units 2 pi/alat)
               b(1) = (  1.000000  0.544452  0.314565 )
               b(2) = (  0.000000  1.132048  0.013246 )
               b(3) = (  0.000000  0.000000  0.921729 )

     PseudoPot. # 1 for K  read from file:
     /home/pragov/projects/rrg-bengioy-ad/pragov/crystal_structure_design/SSSP/K.pbe-spn-kjpaw_psl.1.0.0.UPF
     MD5 check sum: 7d58810084cac21f60fbe77ea2b688fd
     Pseudo is Projector augmented-wave + core cor, Zval =  9.0
     Generated using "atomic" code by A. Dal Corso  v.5.1
     Shape of augmentation charge: PSQ
     Using radial grid of 1165 points,  6 beta functions with:
                l(1) =   0
                l(2) =   0
                l(3) =   1
                l(4) =   1
                l(5) =   2
                l(6) =   2
     Q(r) pseudized with 0 coefficients

     PseudoPot. # 2 for In read from file:
     /home/pragov/projects/rrg-bengioy-ad/pragov/crystal_structure_design/SSSP/In.pbe-dn-rrkjus_psl.0.2.2.UPF
     MD5 check sum: 25e7c42c3b55b68f4bf926be2e7201a4
     Pseudo is Ultrasoft + core correction, Zval = 13.0
     Generated using "atomic" code by A. Dal Corso  v.5.0.99 svn rev. 10869
     Using radial grid of 1241 points,  6 beta functions with:
                l(1) =   0
                l(2) =   0
                l(3) =   1
                l(4) =   1
                l(5) =   2
                l(6) =   2
     Q(r) pseudized with 0 coefficients

     PseudoPot. # 3 for P  read from file:
     /home/pragov/projects/rrg-bengioy-ad/pragov/crystal_structure_design/SSSP/P.pbe-n-rrkjus_psl.1.0.0.UPF
     MD5 check sum: 8b930f418f0a4573dca56cd030ffe088
     Pseudo is Ultrasoft + core correction, Zval =  5.0
     Generated using "atomic" code by A. Dal Corso  v.5.1
     Using radial grid of 1147 points,  6 beta functions with:
                l(1) =   0
                l(2) =   0
                l(3) =   1
                l(4) =   1
                l(5) =   2
                l(6) =   2
     Q(r) pseudized with 0 coefficients

     atomic species   valence    mass     pseudopotential
        K              9.00    39.09830     K ( 1.00)
        In            13.00   114.81800     In( 1.00)
        P              5.00    30.97376     P ( 1.00)

      2 Sym. Ops., with inversion, found

                                    s                        frac. trans.

      isym =  1     identity

 cryst.   s( 1) = (     1          0          0      )
                  (     0          1          0      )
                  (     0          0          1      )

 cart.    s( 1) = (  1.0000000  0.0000000 -0.0000000 )
                  (  0.0000000  1.0000000  0.0000000 )
                  (  0.0000000  0.0000000  1.0000000 )

      isym =  2     inversion

 cryst.   s( 2) = (    -1          0          0      )
                  (     0         -1          0      )
                  (     0          0         -1      )

 cart.    s( 2) = ( -1.0000000 -0.0000000  0.0000000 )
                  (  0.0000000 -1.0000000 -0.0000000 )
                  (  0.0000000  0.0000000 -1.0000000 )

   Cartesian axes

     site n.     atom                  positions (alat units)
         1           K   tau(   1) = (   0.0738446   0.4496496   0.1499171  )
         2           K   tau(   2) = (  -0.0226372   0.7470908   0.6598131  )
         3           K   tau(   3) = (  -0.1212243   0.7608920   1.0782993  )
         4           K   tau(   4) = (  -0.1270382   0.1601295   0.6629583  )
         5           K   tau(   5) = (  -0.2293738   0.4807420   0.4296880  )
         6           K   tau(   6) = (  -0.3665796   0.6811063   0.1146497  )
         7           K   tau(   7) = (   0.5512702   0.1895534   0.9702676  )
         8           K   tau(   8) = (   0.4140644   0.3899176   0.6552293  )
         9           K   tau(   9) = (   0.3117288   0.7105302   0.4219591  )
        10           K   tau(  10) = (   0.3059150   0.1097677   0.0066180  )
        11           K   tau(  11) = (   0.2073278   0.1235689   0.4251042  )
        12           K   tau(  12) = (   0.1108460   0.4210100   0.9350002  )
        13           In  tau(  13) = (  -0.4081232   0.7169360   0.8134884  )
        14           In  tau(  14) = (   0.5928138   0.1537236   0.2714290  )
        15           P   tau(  15) = (  -0.0275095   0.7805671   0.2797199  )
        16           P   tau(  16) = (  -0.1206717   0.1470246   0.2578859  )
        17           P   tau(  17) = (  -0.2495965   0.4765140   0.8225789  )
        18           P   tau(  18) = (   0.4342871   0.3941457   0.2623384  )
        19           P   tau(  19) = (   0.3053623   0.7236350   0.8270314  )
        20           P   tau(  20) = (   0.2122001   0.0900926   0.8051974  )

   Crystallographic axes

     site n.     atom                  positions (cryst. coord.)
         1           K   tau(   1) = (  0.3658160  0.5110110  0.1381830  )
         2           K   tau(   2) = (  0.5916720  0.8544830  0.6081690  )
         3           K   tau(   3) = (  0.6322400  0.8756500  0.9939000  )
         4           K   tau(   4) = (  0.1686880  0.1900560  0.6110680  )
         5           K   tau(   5) = (  0.1675320  0.5499150  0.3960560  )
         6           K   tau(   6) = (  0.0403150  0.7725640  0.1056760  )
         7           K   tau(   7) = (  0.9596850  0.2274360  0.8943240  )
         8           K   tau(   8) = (  0.8324680  0.4500850  0.6039440  )
         9           K   tau(   9) = (  0.8313120  0.8099440  0.3889320  )
        10           K   tau(  10) = (  0.3677600  0.1243500  0.0061000  )
        11           K   tau(  11) = (  0.4083280  0.1455170  0.3918310  )
        12           K   tau(  12) = (  0.6341840  0.4889890  0.8618170  )
        13           In  tau(  13) = (  0.2381090  0.8223820  0.7498160  )
        14           In  tau(  14) = (  0.7618910  0.1776180  0.2501840  )
        15           P   tau(  15) = (  0.4854620  0.8873450  0.2578260  )
        16           P   tau(  16) = (  0.0404980  0.1698550  0.2377010  )
        17           P   tau(  17) = (  0.2685970  0.5503330  0.7581950  )
        18           P   tau(  18) = (  0.7314030  0.4496670  0.2418050  )
        19           P   tau(  19) = (  0.9595020  0.8301450  0.7622990  )
        20           P   tau(  20) = (  0.5145380  0.1126550  0.7421740  )

     number of k points=     1  Methfessel-Paxton smearing, width (Ry)=  0.0010
                       cart. coord. in units 2pi/alat
        k(    1) = (   0.0000000   0.0000000   0.0000000), wk =   2.0000000

                       cryst. coord.
        k(    1) = (   0.0000000   0.0000000   0.0000000), wk =   2.0000000

     Check: negative core charge=   -0.000003

     Initial potential from superposition of free atoms

     starting charge     163.7656, renormalised to     164.0000
     Starting wfcs are  138 randomized atomic wfcs
     Checking if some PAW data can be deallocated...

     Self-consistent Calculation

     iteration #  1     ecut=    30.00 Ry     beta= 0.70
     Davidson diagonalization with overlap

     ethr =  1.00E-02,  avg # of iterations =  6.0

     total energy              =   -1729.34259778 Ry
     estimated scf accuracy    <       2.35419996 Ry

[...]

     total energy              =   -1730.46799163 Ry
     estimated scf accuracy    <       0.00000306 Ry

     iteration # 11     ecut=    30.00 Ry     beta= 0.70
     Davidson diagonalization with overlap

     ethr =  1.86E-09,  avg # of iterations =  3.0

     End of self-consistent calculation

          k = 0.0000 0.0000 0.0000 (  6304 PWs)   bands (ev):

   -26.6338 -26.6302 -26.5708 -26.5625 -26.5012 -26.4943 -26.4157 -26.4154
   -26.2169 -26.2042 -26.0260 -26.0170 -10.3189 -10.3048 -10.2805 -10.2561
   -10.1992 -10.1763 -10.1640 -10.1287 -10.1275 -10.0866 -10.0766 -10.0722
   -10.0685 -10.0260 -10.0165 -10.0055  -9.9796  -9.9712  -9.9136  -9.9058
    -9.9043  -9.8857  -9.8269  -9.8121  -9.7952  -9.7899  -9.7693  -9.7255
    -9.7143  -9.6693  -9.6517  -9.6513  -9.6079  -9.6009  -9.5671  -9.5604
    -9.5558  -9.5522  -9.5387  -9.5341  -9.5312  -9.5249  -9.5192  -9.4797
    -9.4685  -9.4585  -4.4547  -4.2952  -3.7375  -3.7167  -3.5900  -3.5772
     0.3103   0.3329   2.4910   2.6333   2.7558   2.7838   2.8200   3.3322
     3.6666   3.7156   3.8901   3.9537   3.9816   4.0280   4.0936   4.1296
     4.1761   4.1923   4.9294   5.7347   6.1180   6.3500   6.9863   7.0673
     7.3631   7.3681   7.6266   7.6984   7.8406   7.8672   7.9512   8.0634
     8.1679   8.2963

     occupation numbers
     1.0000   1.0000   1.0000   1.0000   1.0000   1.0000   1.0000   1.0000
     1.0000   1.0000   1.0000   1.0000   1.0000   1.0000   1.0000   1.0000
     1.0000   1.0000   1.0000   1.0000   1.0000   1.0000   1.0000   1.0000
     1.0000   1.0000   1.0000   1.0000   1.0000   1.0000   1.0000   1.0000
     1.0000   1.0000   1.0000   1.0000   1.0000   1.0000   1.0000   1.0000
     1.0000   1.0000   1.0000   1.0000   1.0000   1.0000   1.0000   1.0000
     1.0000   1.0000   1.0000   1.0000   1.0000   1.0000   1.0000   1.0000
     1.0000   1.0000   1.0000   1.0000   1.0000   1.0000   1.0000   1.0000
     1.0000   1.0000   1.0000   1.0000   1.0000   1.0000   1.0000   1.0000
     1.0000   1.0000   1.0000   1.0000   1.0000   1.0000   1.0000   1.0000
     1.0000   1.0000  -0.0000  -0.0000  -0.0000  -0.0000  -0.0000  -0.0000
    -0.0000  -0.0000  -0.0000  -0.0000  -0.0000  -0.0000  -0.0000  -0.0000
    -0.0000  -0.0000

     the Fermi energy is     4.5822 ev

!    total energy              =   -1730.46799249 Ry
     estimated scf accuracy    <       0.00000038 Ry
     smearing contrib. (-TS)   =       0.00000000 Ry
     internal energy E=F+TS    =   -1730.46799249 Ry

     The total energy is F=E-TS. E is the sum of the following terms:
     one-electron contribution =    -458.69865318 Ry
     hartree contribution      =     291.51591579 Ry
     xc contribution           =    -256.68522480 Ry
     ewald contribution        =    -641.59390768 Ry
     one-center paw contrib.   =    -665.00612262 Ry
      -> PAW hartree energy AE =     453.39709755 Ry
      -> PAW hartree energy PS =    -450.87422310 Ry
      -> PAW xc energy AE      =    -794.72559887 Ry
      -> PAW xc energy PS      =     127.19660179 Ry
      -> total E_H with PAW    =     294.03879024 Ry
      -> total E_XC with PAW   =    -924.21422187 Ry

     convergence has been achieved in  11 iterations

     Forces acting on atoms (cartesian axes, Ry/au):

     atom    1 type  1   force =     0.00166411    0.00033738    0.00168938
     atom    2 type  1   force =    -0.00062393   -0.00037419    0.00189693
     atom    3 type  1   force =     0.00079753   -0.00029451    0.00032201
     atom    4 type  1   force =     0.00257346    0.00005329    0.00224033
     atom    5 type  1   force =    -0.00074204   -0.00062474   -0.00100917
     atom    6 type  1   force =     0.00244376    0.00131164   -0.00061663
     atom    7 type  1   force =    -0.00244376   -0.00131164    0.00061663
     atom    8 type  1   force =     0.00074204    0.00062474    0.00100917
     atom    9 type  1   force =    -0.00257346   -0.00005329   -0.00224033
     atom   10 type  1   force =    -0.00079753    0.00029451   -0.00032201
     atom   11 type  1   force =     0.00062393    0.00037419   -0.00189693
     atom   12 type  1   force =    -0.00166411   -0.00033738   -0.00168938
     atom   13 type  2   force =     0.00097711   -0.00074911   -0.00322009
     atom   14 type  2   force =    -0.00097711    0.00074911    0.00322009
     atom   15 type  3   force =    -0.00712423   -0.01162658    0.00132866
     atom   16 type  3   force =     0.01042929   -0.00031548   -0.00107533
     atom   17 type  3   force =     0.00267620   -0.00859221    0.00066268
     atom   18 type  3   force =    -0.00267620    0.00859221   -0.00066268
     atom   19 type  3   force =    -0.01042929    0.00031548    0.00107533
     atom   20 type  3   force =     0.00712423    0.01162658   -0.00132866
     The non-local contrib.  to forces
     atom    1 type  1   force =     0.00201373    0.00194449   -0.01759644
     atom    2 type  1   force =     0.04005749   -0.01599347   -0.01043555
     atom    3 type  1   force =     0.06460082   -0.02942907   -0.00106123
     atom    4 type  1   force =    -0.01977769    0.04019676   -0.02688313
     atom    5 type  1   force =     0.02299870    0.03309579    0.00358672
     atom    6 type  1   force =     0.00896041    0.00990018    0.01419640
     atom    7 type  1   force =    -0.00896041   -0.00990018   -0.01419640
     atom    8 type  1   force =    -0.02299870   -0.03309579   -0.00358672
     atom    9 type  1   force =     0.01977769   -0.04019676    0.02688313
     atom   10 type  1   force =    -0.06460082    0.02942907    0.00106123
     atom   11 type  1   force =    -0.04005749    0.01599347    0.01043555
     atom   12 type  1   force =    -0.00201373   -0.00194449    0.01759644
     atom   13 type  2   force =     0.01382684   -0.00156058   -0.01502210
     atom   14 type  2   force =    -0.01382684    0.00156058    0.01502210
     atom   15 type  3   force =     0.04795511    0.08991424    0.00172359
     atom   16 type  3   force =    -0.11889383   -0.00230152   -0.00448235
     atom   17 type  3   force =    -0.07320665    0.09663110    0.00512617
     atom   18 type  3   force =     0.07320665   -0.09663110   -0.00512617
     atom   19 type  3   force =     0.11889383    0.00230152    0.00448235
     atom   20 type  3   force =    -0.04795511   -0.08991424   -0.00172359
     The ionic contribution  to forces
     atom    1 type  1   force =    -0.43201368   -0.82244238    0.68787873
     atom    2 type  1   force =     2.02262239   -0.74736307   -0.61252713
     atom    3 type  1   force =     2.84284783   -1.57289816    0.02565297
     atom    4 type  1   force =    -0.79742695    1.97853158   -0.58008089
     atom    5 type  1   force =     1.41408392    0.92843554    0.40170300
     atom    6 type  1   force =    -0.70071340   -0.77452623    0.28495008
     atom    7 type  1   force =     0.70071340    0.77452623   -0.28495008
     atom    8 type  1   force =    -1.41408392   -0.92843554   -0.40170300
     atom    9 type  1   force =     0.79742695   -1.97853158    0.58008089
     atom   10 type  1   force =    -2.84284783    1.57289816   -0.02565297
     atom   11 type  1   force =    -2.02262239    0.74736307    0.61252713
     atom   12 type  1   force =     0.43201368    0.82244238   -0.68787873
     atom   13 type  2   force =    -0.99496906   -2.04720772   -1.31359747
     atom   14 type  2   force =     0.99496906    2.04720772    1.31359746
     atom   15 type  3   force =    -1.59458361   -3.14860392    0.77701218
     atom   16 type  3   force =     3.44052351    0.24351796   -0.23634647
     atom   17 type  3   force =     1.66014212   -2.85170908    0.18297349
     atom   18 type  3   force =    -1.66014212    2.85170908   -0.18297349
     atom   19 type  3   force =    -3.44052351   -0.24351796    0.23634647
     atom   20 type  3   force =     1.59458361    3.14860392   -0.77701218
     The local contribution  to forces
     atom    1 type  1   force =     0.43163577    0.82079085   -0.66978278
     atom    2 type  1   force =    -2.06163775    0.76178530    0.62437702
     atom    3 type  1   force =    -2.90362606    1.60037265   -0.02426369
     atom    4 type  1   force =     0.81883042   -2.01681898    0.60787760
     atom    5 type  1   force =    -1.43654749   -0.96075399   -0.40585851
     atom    6 type  1   force =     0.69449548    0.76646817   -0.29931608
     atom    7 type  1   force =    -0.69398678   -0.76622507    0.29928041
     atom    8 type  1   force =     1.43676902    0.96093816    0.40614487
     atom    9 type  1   force =    -0.81873400    2.01710856   -0.60768308
     atom   10 type  1   force =     2.90350361   -1.60054099    0.02434199
     atom   11 type  1   force =     2.06128312   -0.76212490   -0.62433087
     atom   12 type  1   force =    -0.43217671   -0.82069358    0.66930463
     atom   13 type  2   force =     0.98337682    2.04752597    1.32497060
     atom   14 type  2   force =    -0.98319916   -2.04790051   -1.32545424
     atom   15 type  3   force =     1.54151928    3.05085829   -0.77742190
     atom   16 type  3   force =    -3.31624619   -0.24171333    0.23932744
     atom   17 type  3   force =    -1.58743769    2.75076065   -0.18693278
     atom   18 type  3   force =     1.58745143   -2.75079691    0.18685975
     atom   19 type  3   force =     3.31640401    0.24169524   -0.23941865
     atom   20 type  3   force =    -1.54172020   -3.05097028    0.77727021
     The core correction contribution to forces
     atom    1 type  1   force =    -0.00009657    0.00000608    0.00090115
     atom    2 type  1   force =    -0.00174074    0.00082721    0.00055647
     atom    3 type  1   force =    -0.00322838    0.00149564    0.00005539
     atom    4 type  1   force =     0.00093459   -0.00175683    0.00137424
     atom    5 type  1   force =    -0.00110304   -0.00146188   -0.00021443
     atom    6 type  1   force =    -0.00018537   -0.00046232   -0.00065047
     atom    7 type  1   force =     0.00018493    0.00045926    0.00064368
     atom    8 type  1   force =     0.00109889    0.00146019    0.00021585
     atom    9 type  1   force =    -0.00093062    0.00175394   -0.00136820
     atom   10 type  1   force =     0.00323003   -0.00149510   -0.00005932
     atom   11 type  1   force =     0.00174154   -0.00082297   -0.00054869
     atom   12 type  1   force =     0.00009874   -0.00000838   -0.00090484
     atom   13 type  2   force =    -0.00114547    0.00026506    0.00064151
     atom   14 type  2   force =     0.00113738   -0.00025251   -0.00065487
     atom   15 type  3   force =    -0.00207760   -0.00392864   -0.00017359
     atom   16 type  3   force =     0.00518315    0.00018707    0.00033416
     atom   17 type  3   force =     0.00329846   -0.00427864   -0.00040045
     atom   18 type  3   force =    -0.00330151    0.00428167    0.00039948
     atom   19 type  3   force =    -0.00518251   -0.00018617   -0.00033669
     atom   20 type  3   force =     0.00207444    0.00393011    0.00017206
     The Hubbard contrib.    to forces
     atom    1 type  1   force =     0.00000000    0.00000000    0.00000000
     atom    2 type  1   force =     0.00000000    0.00000000    0.00000000
     atom    3 type  1   force =     0.00000000    0.00000000    0.00000000
     atom    4 type  1   force =     0.00000000    0.00000000    0.00000000
     atom    5 type  1   force =     0.00000000    0.00000000    0.00000000
     atom    6 type  1   force =     0.00000000    0.00000000    0.00000000
     atom    7 type  1   force =     0.00000000    0.00000000    0.00000000
     atom    8 type  1   force =     0.00000000    0.00000000    0.00000000
     atom    9 type  1   force =     0.00000000    0.00000000    0.00000000
     atom   10 type  1   force =     0.00000000    0.00000000    0.00000000
     atom   11 type  1   force =     0.00000000    0.00000000    0.00000000
     atom   12 type  1   force =     0.00000000    0.00000000    0.00000000
     atom   13 type  2   force =     0.00000000    0.00000000    0.00000000
     atom   14 type  2   force =     0.00000000    0.00000000    0.00000000
     atom   15 type  3   force =     0.00000000    0.00000000    0.00000000
     atom   16 type  3   force =     0.00000000    0.00000000    0.00000000
     atom   17 type  3   force =     0.00000000    0.00000000    0.00000000
     atom   18 type  3   force =     0.00000000    0.00000000    0.00000000
     atom   19 type  3   force =     0.00000000    0.00000000    0.00000000
     atom   20 type  3   force =     0.00000000    0.00000000    0.00000000
     The SCF correction term to forces
     atom    1 type  1   force =     0.00014628    0.00004389    0.00029548
     atom    2 type  1   force =     0.00009825    0.00039971   -0.00004979
     atom    3 type  1   force =     0.00022690    0.00016725   -0.00006260
     atom    4 type  1   force =     0.00005117   -0.00014392   -0.00003371
     atom    5 type  1   force =    -0.00024960    0.00002849   -0.00024622
     atom    6 type  1   force =    -0.00011256   -0.00009833    0.00018867
     atom    7 type  1   force =    -0.00039408   -0.00020203   -0.00017576
     atom    8 type  1   force =    -0.00011873   -0.00027361   -0.00008210
     atom    9 type  1   force =    -0.00007539   -0.00023212   -0.00013928
     atom   10 type  1   force =    -0.00005895    0.00000618   -0.00001410
     atom   11 type  1   force =     0.00030273   -0.00000462    0.00004404
     atom   12 type  1   force =     0.00043534   -0.00012775    0.00019988
     atom   13 type  2   force =    -0.00018168    0.00037511   -0.00017850
     atom   14 type  2   force =    -0.00012721    0.00028080    0.00074376
     atom   15 type  3   force =     0.00003171    0.00014284    0.00017493
     atom   16 type  3   force =    -0.00012239   -0.00000029    0.00007062
     atom   17 type  3   force =    -0.00014404    0.00002385   -0.00011393
     atom   18 type  3   force =     0.00008533    0.00004958    0.00016756
     atom   19 type  3   force =    -0.00000613    0.00002821   -0.00001941
     atom   20 type  3   force =     0.00011060   -0.00001353   -0.00004859

     Total force =     0.029100     Total SCF correction =     0.001527

     Computing stress (Cartesian axis) and pressure

          total   stress  (Ry/bohr**3)                   (kbar)     P=       -7.55
  -0.00003337  -0.00000523   0.00000152           -4.91       -0.77        0.22
  -0.00000523  -0.00004160  -0.00000164           -0.77       -6.12       -0.24
   0.00000152  -0.00000164  -0.00007904            0.22       -0.24      -11.63

     kinetic stress (kbar)   7776.24      6.16      1.31
                                6.16   7778.58     -1.52
                                1.31     -1.52   7803.63

     local   stress (kbar)  -4832.71   -269.00   -295.14
                             -269.00  -5026.75   -347.08
                             -295.14   -347.08  -3719.67

     nonloc. stress (kbar)   2517.03     -1.81     -0.35
                               -1.81   2514.98     -0.26
                               -0.35     -0.26   2494.35

     hartree stress (kbar)   3232.41    112.72    133.32
                              112.72   3311.21    165.11
                              133.32    165.11   2894.44

     exc-cor stress (kbar)   1142.15      0.19      0.03
                                0.19   1142.25     -0.11
                                0.03     -0.11   1139.45

     corecor stress (kbar)  -3139.65     -0.03     -0.00
                               -0.03  -3139.60      0.05
                               -0.00      0.05  -3138.90

     ewald   stress (kbar)  -6700.38    150.99    161.05
                              150.99  -6586.79    183.56
                              161.05    183.56  -7484.92

     hubbard stress (kbar)      0.00      0.00      0.00
                                0.00      0.00      0.00
                                0.00      0.00      0.00

     DFT-D   stress (kbar)      0.00      0.00      0.00
                                0.00      0.00      0.00
                                0.00      0.00      0.00

     XDM     stress (kbar)      0.00      0.00      0.00
                                0.00      0.00      0.00
                                0.00      0.00      0.00

     dft-nl  stress (kbar)      0.00      0.00      0.00
                                0.00      0.00      0.00
                                0.00      0.00      0.00

     TS-vdW  stress (kbar)      0.00      0.00      0.00
                                0.00      0.00      0.00
                                0.00      0.00      0.00

[...]

                                0.00      0.00      0.00

     Writing all to output data dir new_calculations/myprefix.save/

     General routines

     Parallel routines

     PAW routines

   This run was terminated on:   2:44:36  21May2023

   JOB DONE.