     Program PWSCF v.7.0 starts on 21May2023 at  3:45:13

     Reading input from espresso_20395.pwi
Warning: card &CELL ignored
Warning: card / ignored

     Current dimensions of program PWSCF are:
     Max number of different atomic species (ntypx) = 10
     Max number of k-points (npk) =  40000
     Max angular momentum in pseudopotentials (lmaxx) =  4
     file O.pbe-n-kjpaw_psl.0.1.UPF: wavefunction(s)  2P renormalized

     gamma-point specific algorithms are used
     Message from routine setup:
     using ibrav=0 with symmetry is DISCOURAGED, use correct ibrav instead

     Subspace diagonalization in iterative solution of the eigenvalue problem:
     a serial algorithm will be used

     Using Slab Decomposition

     bravais-lattice index     =            0
     lattice parameter (alat)  =      10.4008  a.u.
     unit-cell volume          =     859.5601 (a.u.)^3
     number of atoms/cell      =           12
     number of atomic types    =            3
     number of electrons       =       108.00
     number of Kohn-Sham states=           65
     kinetic-energy cutoff     =      30.0000  Ry
     charge density cutoff     =     240.0000  Ry
     scf convergence threshold =      1.0E-06
     mixing beta               =       0.7000
     number of iterations used =            8  plain     mixing
     Exchange-correlation= SLA  PW   PBX  PBC
                           (   1   4   3   4   0   0   0)

     celldm(1)=  10.400825  celldm(2)=   0.000000  celldm(3)=   0.000000
     celldm(4)=   0.000000  celldm(5)=   0.000000  celldm(6)=   0.000000

     crystal axes: (cart. coord. in units of alat)
               a(1) = (   1.000000   0.000000   0.000000 )
               a(2) = (  -0.425832   0.904802   0.000000 )
               a(3) = (  -0.287084  -0.452401   0.844344 )

     reciprocal axes: (cart. coord. in units 2 pi/alat)
               b(1) = (  1.000000  0.470635  0.592176 )
               b(2) = (  0.000000  1.105214  0.592176 )
               b(3) = (  0.000000  0.000000  1.184352 )

     PseudoPot. # 1 for V  read from file:
     /home/pragov/projects/rrg-bengioy-ad/pragov/crystal_structure_design/SSSP/v_pbe_v1.4.uspp.F.UPF
     MD5 check sum: 22b79981416ebb76fdaf5b1b8640f6fb
     Pseudo is Ultrasoft + core correction, Zval = 13.0
     Generated by new atomic code, or converted to UPF format
     Using radial grid of  853 points,  6 beta functions with:
                l(1) =   0
                l(2) =   0
                l(3) =   1
                l(4) =   1
                l(5) =   2
                l(6) =   2
     Q(r) pseudized with  8 coefficients,  rinner =    1.100   1.100   1.100
                                                       1.100   1.100

     PseudoPot. # 2 for Rh read from file:
     /home/pragov/projects/rrg-bengioy-ad/pragov/crystal_structure_design/SSSP/Rh_ONCV_PBE-1.0.oncvpsp.upf
     MD5 check sum: ba07c69523b14cacd10683cd4c4284c1
     Pseudo is Norm-conserving, Zval = 17.0
     Generated using ONCVPSP code by D. R. Hamann
     Using radial grid of 1442 points,  6 beta functions with:
                l(1) =   0
                l(2) =   0
                l(3) =   1
                l(4) =   1
                l(5) =   2
                l(6) =   2

     PseudoPot. # 3 for O  read from file:
     /home/pragov/projects/rrg-bengioy-ad/pragov/crystal_structure_design/SSSP/O.pbe-n-kjpaw_psl.0.1.UPF
     MD5 check sum: 0234752ac141de4415c5fc33072bef88
     Pseudo is Projector augmented-wave + core cor, Zval =  6.0
     Generated using "atomic" code by A. Dal Corso  v.5.0.99 svn rev. 10869
     Shape of augmentation charge: BESSEL
     Using radial grid of 1095 points,  4 beta functions with:
                l(1) =   0
                l(2) =   0
                l(3) =   1
                l(4) =   1
     Q(r) pseudized with 0 coefficients

     atomic species   valence    mass     pseudopotential
        V             13.00    50.94150     V ( 1.00)
        Rh            17.00   102.90550     Rh( 1.00)
        O              6.00    15.99900     O ( 1.00)

      2 Sym. Ops. (no inversion) found ( 1 have fractional translation)

                                    s                        frac. trans.

      isym =  1     identity

 cryst.   s( 1) = (     1          0          0      )
                  (     0          1          0      )
                  (     0          0          1      )

 cart.    s( 1) = (  1.0000000 -0.0000000  0.0000000 )
                  (  0.0000000  1.0000000  0.0000000 )
                  (  0.0000000  0.0000000  1.0000000 )

      isym =  2     inv. 180 deg rotation - cart. axis [0,0,1]

 cryst.   s( 2) = (     1          0          0      )    f =( -0.2500000 )
                  (     0          1          0      )       (  0.2500000 )
                  (    -1         -1         -1      )       (  0.5000000 )

 cart.    s( 2) = (  1.0000000 -0.0000000  0.0000000 )    f =( -0.5000000 )
                  (  0.0000000  1.0000000  0.0000000 )       ( -0.0000000 )
                  (  0.0000000  0.0000000 -1.0000000 )       (  0.4221718 )

   Cartesian axes

     site n.     atom                  positions (alat units)
         1           V   tau(   1) = (  -0.2077864   0.4604846   0.4221718  )
         2           V   tau(   2) = (   0.0051296   0.0080835   0.0000000  )
         3           Rh  tau(   3) = (   0.4980587  -0.0030591   0.4221718  )
         4           Rh  tau(   4) = (   0.2851428   0.4493420   0.0000000  )
         5           O   tau(   5) = (   0.5774033   0.6069798   0.1623056  )
         6           O   tau(   6) = (   0.2744770   0.1180690   0.1684913  )
         7           O   tau(   7) = (  -0.2096803   0.1545778   0.2598661  )
         8           O   tau(   8) = (   0.0615611   0.5704701   0.2536805  )
         9           O   tau(   9) = (  -0.4837641   0.3285061   0.5844774  )
        10           O   tau(  10) = (   0.2028640  -0.1537761   0.5906630  )
        11           O   tau(  11) = (   0.0162349   0.3285061   0.6820379  )
        12           O   tau(  12) = (  -0.2971360  -0.1537761   0.6758522  )

   Crystallographic axes

     site n.     atom                  positions (cryst. coord.)
         1           V   tau(   1) = (  0.2589340  0.7589340  0.5000000  )
         2           V   tau(   2) = (  0.0089340  0.0089340  0.0000000  )
         3           Rh  tau(   3) = (  0.7466190  0.2466190  0.5000000  )
         4           Rh  tau(   4) = (  0.4966190  0.4966190  0.0000000  )
         5           O   tau(   5) = (  0.9591830  0.7669560  0.1922270  )
         6           O   tau(   6) = (  0.4298210  0.2302680  0.1995530  )
         7           O   tau(   7) = (  0.0169560  0.3247280  0.3077730  )
         8           O   tau(   8) = (  0.4802680  0.7807150  0.3004470  )
         9           O   tau(   9) = (  0.0169560  0.7091830  0.6922270  )
        10           O   tau(  10) = (  0.4802680  0.1798210  0.6995530  )
        11           O   tau(  11) = (  0.5747280  0.7669560  0.8077730  )
        12           O   tau(  12) = (  0.0307150  0.2302680  0.8004470  )

     number of k points=     1  Methfessel-Paxton smearing, width (Ry)=  0.0010
                       cart. coord. in units 2pi/alat
        k(    1) = (   0.0000000   0.0000000   0.0000000), wk =   2.0000000

                       cryst. coord.
        k(    1) = (   0.0000000   0.0000000   0.0000000), wk =   2.0000000

     Check: negative core charge=   -0.000018

     Initial potential from superposition of free atoms

     starting charge     107.9967, renormalised to     108.0000

     negative rho (up, down):  1.495E-03 0.000E+00
     Starting wfcs are   72 randomized atomic wfcs
     Checking if some PAW data can be deallocated...

     Self-consistent Calculation

     iteration #  1     ecut=    30.00 Ry     beta= 0.70
     Davidson diagonalization with overlap

     ethr =  1.00E-02,  avg # of iterations =  2.0

     negative rho (up, down):  6.307E-03 0.000E+00

     total energy              =   -1053.73768565 Ry
     estimated scf accuracy    <       5.15139256 Ry

[...]

     total energy              =   -1056.92896542 Ry
     estimated scf accuracy    <       0.00000127 Ry

     iteration # 15     ecut=    30.00 Ry     beta= 0.70
     Davidson diagonalization with overlap

     ethr =  1.17E-09,  avg # of iterations =  2.0

[...]

     End of self-consistent calculation

          k = 0.0000 0.0000 0.0000 (  1185 PWs)   bands (ev):

   -68.2780 -68.2677 -54.8935 -54.8906 -36.2822 -36.2656 -36.2321 -36.2035
   -36.0438 -36.0209 -28.9375 -28.9263 -28.6468 -28.6451 -28.4960 -28.4944
    -8.6242  -7.6176  -7.4463  -7.4456  -6.9988  -6.8190  -6.5777  -6.5764
     3.3791   3.5454   4.7881   4.8370   4.8442   4.9784   5.0749   5.4629
     5.4668   5.4744   5.8816   6.2401   6.2447   7.3325   7.3402   7.9719
     7.9785   8.4667   8.9918   8.9939   9.0666   9.2888   9.3369   9.3477
     9.4408   9.5443   9.8746   9.8840  10.3215  10.5309  11.2966  11.4111
    11.6254  11.7794  11.7813  12.0302  12.9578  13.6903  13.7163  14.0144
    14.3052

     occupation numbers
     1.0000   1.0000   1.0000   1.0000   1.0000   1.0000   1.0000   1.0000
     1.0000   1.0000   1.0000   1.0000   1.0000   1.0000   1.0000   1.0000
     1.0000   1.0000   1.0000   1.0000   1.0000   1.0000   1.0000   1.0000
     1.0000   1.0000   1.0000   1.0000   1.0000   1.0000   1.0000   1.0000
     1.0000   1.0000   1.0000   1.0000   1.0000   1.0000   1.0000   1.0000
     1.0000   1.0000   1.0000   1.0000   1.0000   1.0000   1.0000   1.0000
     1.0000   1.0000   1.0000   1.0000   1.0000   1.0000  -0.0000  -0.0000
    -0.0000  -0.0000  -0.0000  -0.0000  -0.0000  -0.0000  -0.0000  -0.0000
    -0.0000

     the Fermi energy is    11.2047 ev

!    total energy              =   -1056.92896549 Ry
     estimated scf accuracy    <       0.00000018 Ry
     smearing contrib. (-TS)   =       0.00000000 Ry
     internal energy E=F+TS    =   -1056.92896549 Ry

     The total energy is F=E-TS. E is the sum of the following terms:
     one-electron contribution =    -380.69588110 Ry
     hartree contribution      =     244.28966156 Ry
     xc contribution           =    -141.89789886 Ry
     ewald contribution        =    -702.46681923 Ry
     one-center paw contrib.   =     -76.15802786 Ry
      -> PAW hartree energy AE =     238.21833492 Ry
      -> PAW hartree energy PS =    -237.37454646 Ry
      -> PAW xc energy AE      =    -137.51193044 Ry
      -> PAW xc energy PS      =      60.51011411 Ry
      -> total E_H with PAW    =     245.13345003 Ry
      -> total E_XC with PAW   =    -218.89971519 Ry

     convergence has been achieved in  15 iterations

     negative rho (up, down):  3.144E-03 0.000E+00

     Forces acting on atoms (cartesian axes, Ry/au):

     atom    1 type  1   force =     0.00336374    0.00524949   -0.00013596
     atom    2 type  1   force =     0.00336374    0.00524949    0.00013596
     atom    3 type  2   force =     0.02042610    0.03491257    0.00272302
     atom    4 type  2   force =     0.02042610    0.03491257   -0.00272302
     atom    5 type  3   force =    -0.01215698    0.00328802   -0.01452232
     atom    6 type  3   force =    -0.00710619   -0.02080963    0.00282174
     atom    7 type  3   force =    -0.01215698    0.00328802    0.01452232
     atom    8 type  3   force =    -0.00710619   -0.02080963   -0.00282174
     atom    9 type  3   force =     0.00880452   -0.00733640   -0.01326303
     atom   10 type  3   force =    -0.01333120   -0.01530405    0.00210521
     atom   11 type  3   force =     0.00880452   -0.00733640    0.01326303
     atom   12 type  3   force =    -0.01333120   -0.01530405   -0.00210521
     The non-local contrib.  to forces
     atom    1 type  1   force =     0.03542088    0.05579174    0.00013278
     atom    2 type  1   force =     0.03542088    0.05579174   -0.00013278
     atom    3 type  2   force =    -0.03424995   -0.05444260    0.00168575
     atom    4 type  2   force =    -0.03424995   -0.05444260   -0.00168575
     atom    5 type  3   force =    -0.26749662   -0.07034870   -0.18712388
     atom    6 type  3   force =     0.05400870    0.22044287   -0.07226924
     atom    7 type  3   force =    -0.26749662   -0.07034870    0.18712387
     atom    8 type  3   force =     0.05400870    0.22044287    0.07226924
     atom    9 type  3   force =     0.04968595   -0.27127708   -0.18919592
     atom   10 type  3   force =     0.17495845    0.14098442   -0.07167185
     atom   11 type  3   force =     0.04968595   -0.27127708    0.18919592
     atom   12 type  3   force =     0.17495845    0.14098442    0.07167185
     The ionic contribution  to forces
     atom    1 type  1   force =    -1.38059407   -2.17560303   -0.00007265
     atom    2 type  1   force =    -1.38058949   -2.17560593   -0.00007265
     atom    3 type  2   force =     1.21733685    1.91839956    0.00001080
     atom    4 type  2   force =     1.21739135    1.91836497    0.00001080
     atom    5 type  3   force =     2.33478880   -1.30990667    2.67319601
     atom    6 type  3   force =     1.55488596   -0.97801584    1.83688273
     atom    7 type  3   force =     2.33477442   -1.30983661   -2.67314184
     atom    8 type  3   force =     1.55487671   -0.97803068   -1.83687505
     atom    9 type  3   force =    -2.17943420    1.55472210    2.67319601
     atom   10 type  3   force =    -1.54703108    0.99039395    1.83688273
     atom   11 type  3   force =    -2.17936468    1.55473892   -2.67314183
     atom   12 type  3   force =    -1.54704057    0.99037927   -1.83687505
     The local contribution  to forces
     atom    1 type  1   force =     1.34861634    2.12569450   -0.00047180
     atom    2 type  1   force =     1.34767000    2.12440930    0.00161622
     atom    3 type  2   force =    -1.16209890   -1.83061718    0.00014794
     atom    4 type  2   force =    -1.16319616   -1.82631916   -0.00019653
     atom    5 type  3   force =    -2.08303374    1.38028434   -2.50133931
     atom    6 type  3   force =    -1.61462789    0.74077024   -1.76118880
     atom    7 type  3   force =    -2.08235068    1.38398080    2.50283067
     atom    8 type  3   force =    -1.61344443    0.74035649    1.76219547
     atom    9 type  3   force =     2.13854030   -1.29420829   -2.49693248
     atom   10 type  3   force =     1.35940126   -1.14360188   -1.76478292
     atom   11 type  3   force =     2.13754708   -1.29378124    2.50105640
     atom   12 type  3   force =     1.36193403   -1.14229028    1.76145037
     The core correction contribution to forces
     atom    1 type  1   force =     0.00045202    0.00060124   -0.00000956
     atom    2 type  1   force =     0.00041642    0.00073601    0.00004912
     atom    3 type  2   force =     0.00000000    0.00000000    0.00000000
     atom    4 type  2   force =     0.00000000    0.00000000    0.00000000
     atom    5 type  3   force =     0.00323436    0.00193286    0.00166619
     atom    6 type  3   force =    -0.00212502   -0.00319007   -0.00004842
     atom    7 type  3   force =     0.00323477    0.00205887   -0.00154490
     atom    8 type  3   force =    -0.00205572   -0.00325888    0.00005803
     atom    9 type  3   force =     0.00046298    0.00385993    0.00172729
     atom   10 type  3   force =    -0.00203973   -0.00323192   -0.00013489
     atom   11 type  3   force =     0.00043529    0.00381159   -0.00163468
     atom   12 type  3   force =    -0.00197940   -0.00316769    0.00002826
     The Hubbard contrib.    to forces
     atom    1 type  1   force =     0.00000000    0.00000000    0.00000000
     atom    2 type  1   force =     0.00000000    0.00000000    0.00000000
     atom    3 type  2   force =     0.00000000    0.00000000    0.00000000
     atom    4 type  2   force =     0.00000000    0.00000000    0.00000000
     atom    5 type  3   force =     0.00000000    0.00000000    0.00000000
     atom    6 type  3   force =     0.00000000    0.00000000    0.00000000
     atom    7 type  3   force =     0.00000000    0.00000000    0.00000000
     atom    8 type  3   force =     0.00000000    0.00000000    0.00000000
     atom    9 type  3   force =     0.00000000    0.00000000    0.00000000
     atom   10 type  3   force =     0.00000000    0.00000000    0.00000000
     atom   11 type  3   force =     0.00000000    0.00000000    0.00000000
     atom   12 type  3   force =     0.00000000    0.00000000    0.00000000
     The SCF correction term to forces
     atom    1 type  1   force =    -0.00039996   -0.00014636    0.00084154
     atom    2 type  1   force =     0.00017212    0.00003423   -0.00076769
     atom    3 type  2   force =    -0.00015289    0.00041208    0.00085457
     atom    4 type  2   force =    -0.00007050   -0.00032548   -0.00087550
     atom    5 type  3   force =    -0.00005012   -0.00002760   -0.00008630
     atom    6 type  3   force =     0.00003188    0.00003387   -0.00008318
     atom    7 type  3   force =    -0.00006086   -0.00000811    0.00008953
     atom    8 type  3   force =     0.00008637    0.00003435    0.00000191
     atom    9 type  3   force =    -0.00005588   -0.00000186    0.00008745
     atom   10 type  3   force =    -0.00003504    0.00011750    0.00014262
     atom   11 type  3   force =    -0.00003608   -0.00005534   -0.00006740
     atom   12 type  3   force =     0.00006889    0.00002854   -0.00005016

     Total force =     0.080834     Total SCF correction =     0.001848

     Computing stress (Cartesian axis) and pressure

     negative rho (up, down):  3.144E-03 0.000E+00
          total   stress  (Ry/bohr**3)                   (kbar)     P=     -502.85
  -0.00332287  -0.00075609  -0.00000000         -488.81     -111.22       -0.00
  -0.00075609  -0.00399405  -0.00000000         -111.22     -587.54       -0.00
  -0.00000000  -0.00000000  -0.00293802           -0.00       -0.00     -432.20

     kinetic stress (kbar)  39844.30   -454.61      0.00
                             -454.61  39426.05      0.00
                                0.00      0.00  40120.78

     local   stress (kbar)  -9971.64 -14112.22     -4.17
                           -14112.22 -23251.29      4.15
                               -4.17      4.15  -1022.01

     nonloc. stress (kbar)   4850.72     26.73      0.00
                               26.73   4868.76      0.00
                                0.00      0.00   4837.45

     hartree stress (kbar)  13383.55   5403.90      1.24
                             5403.90  18469.64     -0.76
                                1.24     -0.76   9954.53

     exc-cor stress (kbar)  -6137.20      7.91     -0.02
                                7.91  -6129.71      0.02
                               -0.02      0.02  -6142.31

     corecor stress (kbar)  -1463.47      1.22     -0.02
                                1.22  -1462.28      0.02
                               -0.02      0.02  -1464.29

     ewald   stress (kbar) -40995.07   9015.86     -0.01
                             9015.86 -32508.71     -0.02
                               -0.01     -0.02 -46716.35

     hubbard stress (kbar)      0.00      0.00      0.00
                                0.00      0.00      0.00
                                0.00      0.00      0.00

     DFT-D   stress (kbar)      0.00      0.00      0.00
                                0.00      0.00      0.00
                                0.00      0.00      0.00

     XDM     stress (kbar)      0.00      0.00      0.00
                                0.00      0.00      0.00
                                0.00      0.00      0.00

     dft-nl  stress (kbar)      0.00      0.00      0.00
                                0.00      0.00      0.00
                                0.00      0.00      0.00

     TS-vdW  stress (kbar)      0.00      0.00      0.00
                                0.00      0.00      0.00
                                0.00      0.00      0.00

[...]

                                0.00      0.00      0.00

     Writing all to output data dir new_calculations/myprefix.save/

     General routines

     Parallel routines

     PAW routines

   This run was terminated on:   3:45:32  21May2023

   JOB DONE.