     Program PWSCF v.7.0 starts on 21May2023 at  8:29:50

     Reading input from espresso_22625.pwi
Warning: card &CELL ignored
Warning: card / ignored

     Current dimensions of program PWSCF are:
     Max number of different atomic species (ntypx) = 10
     Max number of k-points (npk) =  40000
     Max angular momentum in pseudopotentials (lmaxx) =  4
     file O.pbe-n-kjpaw_psl.0.1.UPF: wavefunction(s)  2P renormalized

     gamma-point specific algorithms are used

     Subspace diagonalization in iterative solution of the eigenvalue problem:
     a serial algorithm will be used

     Using Slab Decomposition

     bravais-lattice index     =            0
     lattice parameter (alat)  =      10.8302  a.u.
     unit-cell volume          =     944.7322 (a.u.)^3
     number of atoms/cell      =           10
     number of atomic types    =            3
     number of electrons       =        96.00
     number of Kohn-Sham states=           58
     kinetic-energy cutoff     =      30.0000  Ry
     charge density cutoff     =     240.0000  Ry
     scf convergence threshold =      1.0E-06
     mixing beta               =       0.7000
     number of iterations used =            8  plain     mixing
     Exchange-correlation= SLA  PW   PBX  PBC
                           (   1   4   3   4   0   0   0)

     celldm(1)=  10.830173  celldm(2)=   0.000000  celldm(3)=   0.000000
     celldm(4)=   0.000000  celldm(5)=   0.000000  celldm(6)=   0.000000

     crystal axes: (cart. coord. in units of alat)
               a(1) = (   1.000000   0.000000   0.000000 )
               a(2) = (   0.464539   0.885552   0.000000 )
               a(3) = (   0.464539   0.280890   0.839824 )

     reciprocal axes: (cart. coord. in units 2 pi/alat)
               b(1) = (  1.000000 -0.524576 -0.377688 )
               b(2) = (  0.000000  1.129239 -0.377688 )
               b(3) = (  0.000000  0.000000  1.190726 )

     PseudoPot. # 1 for La read from file:
     /home/pragov/projects/rrg-bengioy-ad/pragov/crystal_structure_design/SSSP/La.GGA-PBE-paw-v1.0.UPF
     MD5 check sum: 436541e95c1ad8901025bd0b0ed42ae2
     Pseudo is Projector augmented-wave + core cor, Zval = 11.0
     Generated using ATOMPAW code
     Shape of augmentation charge: BESSEL
     Using radial grid of 1101 points,  8 beta functions with:
                l(1) =   0
                l(2) =   0
                l(3) =   1
                l(4) =   1
                l(5) =   2
                l(6) =   2
                l(7) =   3
                l(8) =   3
     Q(r) pseudized with 0 coefficients

     PseudoPot. # 2 for Ag read from file:
     /home/pragov/projects/rrg-bengioy-ad/pragov/crystal_structure_design/SSSP/Ag_ONCV_PBE-1.0.oncvpsp.upf
     MD5 check sum: 94f47bd0669c641108e45594df92fabc
     Pseudo is Norm-conserving, Zval = 19.0
     Generated using ONCVPSP code by D. R. Hamann
     Using radial grid of 1398 points,  6 beta functions with:
                l(1) =   0
                l(2) =   0
                l(3) =   1
                l(4) =   1
                l(5) =   2
                l(6) =   2

     PseudoPot. # 3 for O  read from file:
     /home/pragov/projects/rrg-bengioy-ad/pragov/crystal_structure_design/SSSP/O.pbe-n-kjpaw_psl.0.1.UPF
     MD5 check sum: 0234752ac141de4415c5fc33072bef88
     Pseudo is Projector augmented-wave + core cor, Zval =  6.0
     Generated using "atomic" code by A. Dal Corso  v.5.0.99 svn rev. 10869
     Shape of augmentation charge: BESSEL
     Using radial grid of 1095 points,  4 beta functions with:
                l(1) =   0
                l(2) =   0
                l(3) =   1
                l(4) =   1
     Q(r) pseudized with 0 coefficients

     atomic species   valence    mass     pseudopotential
        La            11.00   138.90547     La( 1.00)
        Ag            19.00   107.86820     Ag( 1.00)
        O              6.00    15.99900     O ( 1.00)

     No symmetry found

                                    s                        frac. trans.

      isym =  1     identity

 cryst.   s( 1) = (     1          0          0      )
                  (     0          1          0      )
                  (     0          0          1      )

 cart.    s( 1) = (  1.0000000  0.0000000 -0.0000000 )
                  (  0.0000000  1.0000000 -0.0000000 )
                  (  0.0000000  0.0000000  1.0000000 )

   Cartesian axes

     site n.     atom                  positions (alat units)
         1           La  tau(   1) = (   0.4975731   0.3008639   0.2166183  )
         2           La  tau(   2) = (   1.4621125   0.8840850   0.6365301  )
         3           Ag  tau(   3) = (   1.9247981   1.1638539   0.8379602  )
         4           Ag  tau(   4) = (   0.9602588   0.5806328   0.4180483  )
         5           O   tau(   5) = (   1.2567118   0.3858782   0.5420172  )
         6           O   tau(   6) = (   0.9609680   0.3504076   0.1221053  )
         7           O   tau(   7) = (   0.7567118   0.3340942   0.6139406  )
         8           O   tau(   8) = (   1.1473803   0.8172395   0.1940287  )
         9           O   tau(   9) = (   0.9255074   0.8101674   0.7134941  )
        10           O   tau(  10) = (   0.6473804   0.7455622   0.2935822  )

   Crystallographic axes

     site n.     atom                  positions (cryst. coord.)
         1           La  tau(   1) = (  0.2579330  0.2579330  0.2579330  )
         2           La  tau(   2) = (  0.7579330  0.7579330  0.7579330  )
         3           Ag  tau(   3) = (  0.9977810  0.9977810  0.9977810  )
         4           Ag  tau(   4) = (  0.4977810  0.4977810  0.4977810  )
         5           O   tau(   5) = (  0.8495760  0.2310350  0.6453940  )
         6           O   tau(   6) = (  0.7310350  0.3495760  0.1453940  )
         7           O   tau(   7) = (  0.3495760  0.1453940  0.7310350  )
         8           O   tau(   8) = (  0.6453940  0.8495760  0.2310350  )
         9           O   tau(   9) = (  0.2310350  0.6453940  0.8495760  )
        10           O   tau(  10) = (  0.1453940  0.7310350  0.3495760  )

     number of k points=     1  Methfessel-Paxton smearing, width (Ry)=  0.0010
                       cart. coord. in units 2pi/alat
        k(    1) = (   0.0000000   0.0000000   0.0000000), wk =   2.0000000

                       cryst. coord.
        k(    1) = (   0.0000000   0.0000000   0.0000000), wk =   2.0000000

     Check: negative core charge=   -0.000012

     Initial potential from superposition of free atoms

     starting charge      95.9824, renormalised to      96.0000
     Starting wfcs are  108 randomized atomic wfcs
     Checking if some PAW data can be deallocated...

     Self-consistent Calculation

     iteration #  1     ecut=    30.00 Ry     beta= 0.70
     Davidson diagonalization with overlap

     ethr =  1.00E-02,  avg # of iterations =  2.0

     negative rho (up, down):  2.308E-07 0.000E+00

     total energy              =   -1739.25289805 Ry
     estimated scf accuracy    <       2.28959492 Ry

[...]

     total energy              =   -1740.54167380 Ry
     estimated scf accuracy    <       0.00000259 Ry

     iteration # 13     ecut=    30.00 Ry     beta= 0.70
     Davidson diagonalization with overlap

     ethr =  2.70E-09,  avg # of iterations =  4.0

     End of self-consistent calculation

          k = 0.0000 0.0000 0.0000 (  1319 PWs)   bands (ev):

   -81.7737 -81.7735 -44.8098 -44.8064 -44.7799 -44.7798 -44.7789 -44.7789
   -19.4063 -19.3082  -6.1850  -6.1849  -6.0927  -5.8167  -5.8165  -5.4395
    -3.2074  -3.0762  -2.8074  -2.8074  -2.3323  -2.3323   5.1993   5.1994
     5.7928   6.4604   6.4604   6.6492   7.1284   7.3273   7.3273   7.8047
     7.8048   7.9633   7.9634   8.3978   9.2060   9.5017   9.6853   9.6854
     9.7261   9.7263  10.2686  10.2687  10.2772  10.5436  10.8395  10.8396
    13.0608  13.0610  15.1373  15.2405  15.4784  15.4785  15.6004  15.6005
    15.6293  15.6932

     occupation numbers
     1.0000   1.0000   1.0000   1.0000   1.0000   1.0000   1.0000   1.0000
     1.0000   1.0000   1.0000   1.0000   1.0000   1.0000   1.0000   1.0000
     1.0000   1.0000   1.0000   1.0000   1.0000   1.0000   1.0000   1.0000
     1.0000   1.0000   1.0000   1.0000   1.0000   1.0000   1.0000   1.0000
     1.0000   1.0000   1.0000   1.0000   1.0000   1.0000   1.0000   1.0000
     1.0000   1.0000   1.0000   1.0000   1.0000   1.0000   1.0000   1.0000
    -0.0000  -0.0000  -0.0000  -0.0000  -0.0000  -0.0000  -0.0000  -0.0000
    -0.0000  -0.0000

     the Fermi energy is    12.7749 ev

!    total energy              =   -1740.54167434 Ry
     estimated scf accuracy    <       0.00000008 Ry
     smearing contrib. (-TS)   =       0.00000000 Ry
     internal energy E=F+TS    =   -1740.54167434 Ry

     The total energy is F=E-TS. E is the sum of the following terms:
     one-electron contribution =    -381.96797854 Ry
     hartree contribution      =     246.91753279 Ry
     xc contribution           =    -116.13931455 Ry
     ewald contribution        =    -635.98094400 Ry
     one-center paw contrib.   =    -853.37097004 Ry
      -> PAW hartree energy AE =     242.31321823 Ry
      -> PAW hartree energy PS =    -241.79566553 Ry
      -> PAW xc energy AE      =    -912.96058407 Ry
      -> PAW xc energy PS      =      59.07206133 Ry
      -> total E_H with PAW    =     247.43508549 Ry
      -> total E_XC with PAW   =    -970.02783729 Ry

     convergence has been achieved in  13 iterations

     Forces acting on atoms (cartesian axes, Ry/au):

     atom    1 type  1   force =     0.02848620    0.01720953    0.01243147
     atom    2 type  1   force =     0.02854579    0.01725765    0.01239829
     atom    3 type  2   force =    -0.03174695   -0.01916971   -0.01379619
     atom    4 type  2   force =    -0.03166391   -0.01911130   -0.01376796
     atom    5 type  3   force =     0.01619243   -0.00561966   -0.02556342
     atom    6 type  3   force =     0.00254074    0.01695184   -0.02559413
     atom    7 type  3   force =     0.01619133   -0.02604303    0.00276799
     atom    8 type  3   force =    -0.01553107    0.02639332    0.00279139
     atom    9 type  3   force =     0.00253282   -0.01888109    0.02415086
     atom   10 type  3   force =    -0.01554738    0.01101245    0.02418169
     The non-local contrib.  to forces
     atom    1 type  1   force =    -0.04343175   -0.02626657   -0.01894537
     atom    2 type  1   force =    -0.04343203   -0.02627465   -0.01890058
     atom    3 type  2   force =     0.03096305    0.01875838    0.01346788
     atom    4 type  2   force =     0.03105689    0.01877048    0.01353435
     atom    5 type  3   force =    -0.01357368    0.01505335    0.05452381
     atom    6 type  3   force =     0.00707799   -0.01893958    0.05443999
     atom    7 type  3   force =    -0.01351626    0.05639046   -0.00302393
     atom    8 type  3   force =     0.04378235   -0.03831486   -0.00304060
     atom    9 type  3   force =     0.00695498    0.04575349   -0.03546724
     atom   10 type  3   force =     0.04368287   -0.01495242   -0.03526457
     The ionic contribution  to forces
     atom    1 type  1   force =    -1.99439881   -1.20594043   -0.86826190
     atom    2 type  1   force =    -1.99440025   -1.20593805   -0.86826190
     atom    3 type  2   force =     2.53912929    1.53531740    1.10541007
     atom    4 type  2   force =     2.53912958    1.53531692    1.10541007
     atom    5 type  3   force =     1.10755871   -0.45094121   -2.56637773
     atom    6 type  3   force =     0.11517248    1.19028129   -2.56637773
     atom    7 type  3   force =     1.10756295   -2.57689005    0.38637644
     atom    8 type  3   force =    -1.76746483    2.17787193    0.38637645
     atom    9 type  3   force =     0.11517261   -2.05630268    1.94285311
     atom   10 type  3   force =    -1.76746174    1.05722487    1.94285312
     The local contribution  to forces
     atom    1 type  1   force =     2.06624451    1.24937000    0.89975313
     atom    2 type  1   force =     2.06649734    1.24956957    0.89950745
     atom    3 type  2   force =    -2.60212412   -1.57333413   -1.13289360
     atom    4 type  2   force =    -2.60137061   -1.57299568   -1.13248711
     atom    5 type  3   force =    -1.07846892    0.43082831    2.48764141
     atom    6 type  3   force =    -0.11943524   -1.15513399    2.48758816
     atom    7 type  3   force =    -1.07837259    2.49582244   -0.38046376
     atom    8 type  3   force =     1.70914633   -2.11444575   -0.38040097
     atom    9 type  3   force =    -0.11939581    1.99269984   -1.88450325
     atom   10 type  3   force =     1.70919281   -1.03143185   -1.88444936
     The core correction contribution to forces
     atom    1 type  1   force =    -0.00005100   -0.00003084   -0.00002210
     atom    2 type  1   force =    -0.00005091   -0.00003077   -0.00002220
     atom    3 type  2   force =     0.00000000    0.00000000    0.00000000
     atom    4 type  2   force =     0.00000000    0.00000000    0.00000000
     atom    5 type  3   force =     0.00057563   -0.00054275   -0.00128963
     atom    6 type  3   force =    -0.00021407    0.00076069   -0.00128838
     atom    7 type  3   force =     0.00057478   -0.00139377   -0.00010559
     atom    8 type  3   force =    -0.00096925    0.00115862   -0.00010514
     atom    9 type  3   force =    -0.00021205   -0.00098255    0.00113366
     atom   10 type  3   force =    -0.00096767    0.00026654    0.00113080
     The Hubbard contrib.    to forces
     atom    1 type  1   force =     0.00000000    0.00000000    0.00000000
     atom    2 type  1   force =     0.00000000    0.00000000    0.00000000
     atom    3 type  2   force =     0.00000000    0.00000000    0.00000000
     atom    4 type  2   force =     0.00000000    0.00000000    0.00000000
     atom    5 type  3   force =     0.00000000    0.00000000    0.00000000
     atom    6 type  3   force =     0.00000000    0.00000000    0.00000000
     atom    7 type  3   force =     0.00000000    0.00000000    0.00000000
     atom    8 type  3   force =     0.00000000    0.00000000    0.00000000
     atom    9 type  3   force =     0.00000000    0.00000000    0.00000000
     atom   10 type  3   force =     0.00000000    0.00000000    0.00000000
     The SCF correction term to forces
     atom    1 type  1   force =     0.00011574    0.00007951   -0.00009588
     atom    2 type  1   force =    -0.00007586   -0.00006631    0.00007194
     atom    3 type  2   force =     0.00027733    0.00009078    0.00021588
     atom    4 type  2   force =    -0.00048728   -0.00020088   -0.00022885
     atom    5 type  3   force =     0.00009320   -0.00001521   -0.00006486
     atom    6 type  3   force =    -0.00006792   -0.00001443    0.00004025
     atom    7 type  3   force =    -0.00006505    0.00003004   -0.00001875
     atom    8 type  3   force =    -0.00003316    0.00012552   -0.00004194
     atom    9 type  3   force =     0.00000559   -0.00004706    0.00013099
     atom   10 type  3   force =    -0.00000116   -0.00009255   -0.00009188

     Total force =     0.106468     Total SCF correction =     0.000766

     Computing stress (Cartesian axis) and pressure

          total   stress  (Ry/bohr**3)                   (kbar)     P=     -677.58
  -0.00455654   0.00006241   0.00004487         -670.29        9.18        6.60
   0.00006241  -0.00462174   0.00002734            9.18     -679.88        4.02
   0.00004487   0.00002734  -0.00464008            6.60        4.02     -682.58

     kinetic stress (kbar)  34102.54    -22.91    -16.49
                              -22.91  34126.61     -9.97
                              -16.49     -9.97  34133.24

     local   stress (kbar) -10998.00   2572.79   1852.31
                             2572.79 -13697.11   1120.14
                             1852.31   1120.14 -14446.38

     nonloc. stress (kbar)   4143.38     36.87     26.55
                               36.87   4104.70     16.05
                               26.55     16.05   4093.96

     hartree stress (kbar)  12066.15   -941.41   -677.75
                             -941.41  13053.70   -409.90
                             -677.75   -409.90  13327.89

     exc-cor stress (kbar)  -5261.84     -4.81     -3.46
                               -4.81  -5256.79     -2.09
                               -3.46     -2.09  -5255.39

     corecor stress (kbar)   -413.44     -0.03     -0.02
                               -0.03   -413.41     -0.01
                               -0.02     -0.01   -413.40

     ewald   stress (kbar) -34309.08  -1631.32  -1174.54
                            -1631.32 -32597.57   -710.20
                            -1174.54   -710.20 -32122.50

     hubbard stress (kbar)      0.00      0.00      0.00
                                0.00      0.00      0.00
                                0.00      0.00      0.00

     DFT-D   stress (kbar)      0.00      0.00      0.00
                                0.00      0.00      0.00
                                0.00      0.00      0.00

     XDM     stress (kbar)      0.00      0.00      0.00
                                0.00      0.00      0.00
                                0.00      0.00      0.00

     dft-nl  stress (kbar)      0.00      0.00      0.00
                                0.00      0.00      0.00
                                0.00      0.00      0.00

     TS-vdW  stress (kbar)      0.00      0.00      0.00
                                0.00      0.00      0.00
                                0.00      0.00      0.00

[...]

                                0.00      0.00      0.00

     Writing all to output data dir new_calculations/myprefix.save/

     General routines

     Parallel routines

     PAW routines

   This run was terminated on:   8:30:14  21May2023

   JOB DONE.