     Program PWSCF v.7.0 starts on 20May2023 at  3:57:27

     Reading input from espresso_11050.pwi
Warning: card &CELL ignored
Warning: card / ignored

     Current dimensions of program PWSCF are:
     Max number of different atomic species (ntypx) = 10
     Max number of k-points (npk) =  40000
     Max angular momentum in pseudopotentials (lmaxx) =  4
     file Pb.pbe-dn-kjpaw_psl.0.2.2.UPF: wavefunction(s)  6S renormalized

     gamma-point specific algorithms are used
     Message from routine setup:
     using ibrav=0 with symmetry is DISCOURAGED, use correct ibrav instead

     Subspace diagonalization in iterative solution of the eigenvalue problem:
     a serial algorithm will be used

     Using Slab Decomposition

     bravais-lattice index     =            0
     lattice parameter (alat)  =       8.3435  a.u.
     unit-cell volume          =    1755.3350 (a.u.)^3
     number of atoms/cell      =            8
     number of atomic types    =            2
     number of electrons       =        80.00
     number of Kohn-Sham states=           48
     kinetic-energy cutoff     =      30.0000  Ry
     charge density cutoff     =     240.0000  Ry
     scf convergence threshold =      1.0E-06
     mixing beta               =       0.7000
     number of iterations used =            8  plain     mixing
     Exchange-correlation= SLA  PW   PBE  PBE
                           (   1   4   3   4   0   0   0)

     celldm(1)=   8.343489  celldm(2)=   0.000000  celldm(3)=   0.000000
     celldm(4)=   0.000000  celldm(5)=   0.000000  celldm(6)=   0.000000

     crystal axes: (cart. coord. in units of alat)
               a(1) = (   1.000000   0.000000   0.000000 )
               a(2) = (   0.000000   1.009347   0.000000 )
               a(3) = (   0.000000   0.000000   2.994171 )

     reciprocal axes: (cart. coord. in units 2 pi/alat)
               b(1) = (  1.000000  0.000000  0.000000 )
               b(2) = (  0.000000  0.990740  0.000000 )
               b(3) = (  0.000000  0.000000  0.333982 )

     PseudoPot. # 1 for Pb read from file:
     /home/pragov/projects/rrg-bengioy-ad/pragov/crystal_structure_design/SSSP/Pb.pbe-dn-kjpaw_psl.0.2.2.UPF
     MD5 check sum: 9d431e6316058b74ade52399a6cf67da
     Pseudo is Projector augmented-wave + core cor, Zval = 14.0
     Generated using "atomic" code by A. Dal Corso  v.5.0.99 svn rev. 10869
     Shape of augmentation charge: PSQ
     Using radial grid of 1281 points,  6 beta functions with:
                l(1) =   0
                l(2) =   0
                l(3) =   1
                l(4) =   1
                l(5) =   2
                l(6) =   2
     Q(r) pseudized with 0 coefficients

     PseudoPot. # 2 for Se read from file:
     /home/pragov/projects/rrg-bengioy-ad/pragov/crystal_structure_design/SSSP/Se_pbe_v1.uspp.F.UPF
     MD5 check sum: 1b3568f3a8ae88f9a2a0ad0698632c85
     Pseudo is Ultrasoft + core correction, Zval =  6.0
     Generated by new atomic code, or converted to UPF format
     Using radial grid of  877 points,  6 beta functions with:
                l(1) =   0
                l(2) =   0
                l(3) =   1
                l(4) =   1
                l(5) =   2
                l(6) =   2
     Q(r) pseudized with  8 coefficients,  rinner =    1.300   1.300   1.300
                                                       1.300   1.300

     atomic species   valence    mass     pseudopotential
        Pb            14.00   207.20000     Pb( 1.00)
        Se             6.00    78.97100     Se( 1.00)

      8 Sym. Ops., with inversion, found ( 6 have fractional translation)

                                    s                        frac. trans.

      isym =  1     identity

 cryst.   s( 1) = (     1          0          0      )
                  (     0          1          0      )
                  (     0          0          1      )

 cart.    s( 1) = (  1.0000000  0.0000000  0.0000000 )
                  (  0.0000000  1.0000000  0.0000000 )
                  (  0.0000000  0.0000000  1.0000000 )

      isym =  2     180 deg rotation - cart. axis [0,0,1]

 cryst.   s( 2) = (    -1          0          0      )    f =(  0.5000000 )
                  (     0         -1          0      )       (  0.5000000 )
                  (     0          0          1      )       ( -0.5000000 )

 cart.    s( 2) = ( -1.0000000  0.0000000  0.0000000 )    f =(  0.5000000 )
                  (  0.0000000 -1.0000000  0.0000000 )       (  0.5046733 )
                  (  0.0000000  0.0000000  1.0000000 )       ( -1.4970857 )

[...]

      isym =  4     180 deg rotation - cart. axis [1,0,0]

[...]

      isym =  5     inversion

 cryst.   s( 5) = (    -1          0          0      )
                  (     0         -1          0      )
                  (     0          0         -1      )

 cart.    s( 5) = ( -1.0000000  0.0000000  0.0000000 )
                  (  0.0000000 -1.0000000  0.0000000 )
                  (  0.0000000  0.0000000 -1.0000000 )

      isym =  6     inv. 180 deg rotation - cart. axis [0,0,1]

[...]

      isym =  8     inv. 180 deg rotation - cart. axis [1,0,0]

 cryst.   s( 8) = (    -1          0          0      )    f =(  0.5000000 )
                  (     0          1          0      )       (  0.0000000 )
                  (     0          0          1      )       ( -0.5000000 )

 cart.    s( 8) = ( -1.0000000  0.0000000  0.0000000 )    f =(  0.5000000 )
                  (  0.0000000  1.0000000  0.0000000 )       (  0.0000000 )
                  (  0.0000000  0.0000000  1.0000000 )       ( -1.4970857 )

   Cartesian axes

     site n.     atom                  positions (alat units)
         1           Pb  tau(   1) = (   0.9102860   0.7570100   0.4204386  )
         2           Pb  tau(   2) = (   0.5897140   0.7570100   1.9175243  )
         3           Pb  tau(   3) = (   0.0897140   0.2523367   2.5737329  )
         4           Pb  tau(   4) = (   0.4102860   0.2523367   1.0766472  )
         5           Se  tau(   5) = (   0.9517540   0.7570100   1.0709972  )
         6           Se  tau(   6) = (   0.5482460   0.7570100   2.5680829  )
         7           Se  tau(   7) = (   0.0482460   0.2523367   1.9231743  )
         8           Se  tau(   8) = (   0.4517540   0.2523367   0.4260886  )

   Crystallographic axes

     site n.     atom                  positions (cryst. coord.)
         1           Pb  tau(   1) = (  0.9102860  0.7500000  0.1404190  )
         2           Pb  tau(   2) = (  0.5897140  0.7500000  0.6404190  )
         3           Pb  tau(   3) = (  0.0897140  0.2500000  0.8595810  )
         4           Pb  tau(   4) = (  0.4102860  0.2500000  0.3595810  )
         5           Se  tau(   5) = (  0.9517540  0.7500000  0.3576940  )
         6           Se  tau(   6) = (  0.5482460  0.7500000  0.8576940  )
         7           Se  tau(   7) = (  0.0482460  0.2500000  0.6423060  )
         8           Se  tau(   8) = (  0.4517540  0.2500000  0.1423060  )

     number of k points=     1  Methfessel-Paxton smearing, width (Ry)=  0.0010
                       cart. coord. in units 2pi/alat
        k(    1) = (   0.0000000   0.0000000   0.0000000), wk =   2.0000000

                       cryst. coord.
        k(    1) = (   0.0000000   0.0000000   0.0000000), wk =   2.0000000

     Initial potential from superposition of free atoms

     starting charge      79.9903, renormalised to      80.0000
     Starting wfcs are   52 randomized atomic wfcs
     Checking if some PAW data can be deallocated...

     Self-consistent Calculation

     iteration #  1     ecut=    30.00 Ry     beta= 0.70
     Davidson diagonalization with overlap

     ethr =  1.00E-02,  avg # of iterations =  2.0

     Threshold (ethr) on eigenvalues was too large:
     Diagonalizing with lowered threshold

     Davidson diagonalization with overlap

[...]

     total energy              =   -3656.59737913 Ry
     estimated scf accuracy    <       0.62506119 Ry

[...]

     c_bands:  2 eigenvalues not converged
     ethr =  1.33E-05,  avg # of iterations = 20.0

[...]

     total energy              =   -3656.88154968 Ry
     estimated scf accuracy    <       0.00001101 Ry

     iteration # 10     ecut=    30.00 Ry     beta= 0.70
     Davidson diagonalization with overlap

     ethr =  1.25E-08,  avg # of iterations =  2.0

     End of self-consistent calculation

          k = 0.0000 0.0000 0.0000 (  2434 PWs)   bands (ev):

   -10.3780 -10.3757 -10.3052 -10.3018 -10.2770 -10.2747 -10.2730 -10.2646
   -10.2537 -10.2522 -10.2501 -10.2493 -10.2462 -10.2417 -10.2404 -10.2376
   -10.2020 -10.2006 -10.1883 -10.1867  -6.3313  -6.1998  -5.3094  -5.1088
    -1.1118  -0.8836  -0.0383  -0.0287   2.6238   3.7947   3.9952   3.9998
     4.1014   4.1459   4.7742   5.0150   5.0471   5.1354   5.7535   5.9897
     7.4974  10.2891  10.3653  10.5833  10.6925  10.7306  10.8008  10.9812

     occupation numbers
     1.0000   1.0000   1.0000   1.0000   1.0000   1.0000   1.0000   1.0000
     1.0000   1.0000   1.0000   1.0000   1.0000   1.0000   1.0000   1.0000
     1.0000   1.0000   1.0000   1.0000   1.0000   1.0000   1.0000   1.0000
     1.0000   1.0000   1.0000   1.0000   1.0000   1.0000   1.0000   1.0000
     1.0000   1.0000   1.0000   1.0000   1.0000   1.0000   1.0000   1.0000
    -0.0000  -0.0000  -0.0000  -0.0000  -0.0000  -0.0000  -0.0000  -0.0000

     the Fermi energy is     7.0614 ev

!    total energy              =   -3656.88155182 Ry
     estimated scf accuracy    <       0.00000032 Ry
     smearing contrib. (-TS)   =       0.00000000 Ry
     internal energy E=F+TS    =   -3656.88155182 Ry

     The total energy is F=E-TS. E is the sum of the following terms:
     one-electron contribution =    -190.71965010 Ry
     hartree contribution      =     149.27092029 Ry
     xc contribution           =    -296.31343330 Ry
     ewald contribution        =    -405.23698083 Ry
     one-center paw contrib.   =   -2913.88240788 Ry
      -> PAW hartree energy AE =     390.05578794 Ry
      -> PAW hartree energy PS =    -389.20742836 Ry
      -> PAW xc energy AE      =   -3089.50408712 Ry
      -> PAW xc energy PS      =     174.77331966 Ry
      -> total E_H with PAW    =     150.11927987 Ry
      -> total E_XC with PAW   =   -3211.04420076 Ry

     convergence has been achieved in  10 iterations

     Forces acting on atoms (cartesian axes, Ry/au):

     atom    1 type  1   force =     0.02251973    0.00000000   -0.00126550
     atom    2 type  1   force =    -0.02251973   -0.00000000   -0.00126550
     atom    3 type  1   force =    -0.02251973    0.00000000    0.00126550
     atom    4 type  1   force =     0.02251973    0.00000000    0.00126550
     atom    5 type  2   force =    -0.03086753   -0.00000000    0.07060035
     atom    6 type  2   force =     0.03086753    0.00000000    0.07060035
     atom    7 type  2   force =     0.03086753    0.00000000   -0.07060035
     atom    8 type  2   force =    -0.03086753    0.00000000   -0.07060035
     The non-local contrib.  to forces
     atom    1 type  1   force =    -0.04355664   -0.00000000    0.15649091
     atom    2 type  1   force =     0.04355664    0.00000000    0.15649091
     atom    3 type  1   force =     0.04355664    0.00000000   -0.15649091
     atom    4 type  1   force =    -0.04355664    0.00000000   -0.15649091
     atom    5 type  2   force =    -0.03012847   -0.00000000   -0.08151201
     atom    6 type  2   force =     0.03012847    0.00000000   -0.08151201
     atom    7 type  2   force =     0.03012847    0.00000000    0.08151201
     atom    8 type  2   force =    -0.03012847    0.00000000    0.08151201
     The ionic contribution  to forces
     atom    1 type  1   force =     0.48938170    0.00000000   -5.96001757
     atom    2 type  1   force =    -0.48938170    0.00000000   -5.96001757
     atom    3 type  1   force =    -0.48938170    0.00000000    5.96001757
     atom    4 type  1   force =     0.48938170    0.00000000    5.96001757
     atom    5 type  2   force =    -0.52466945    0.00000000    3.59109699
     atom    6 type  2   force =     0.52466945   -0.00000000    3.59109699
     atom    7 type  2   force =     0.52466945    0.00000000   -3.59109699
     atom    8 type  2   force =    -0.52466945    0.00000000   -3.59109699
     The local contribution  to forces
     atom    1 type  1   force =    -0.42564830    0.00000488    5.80616822
     atom    2 type  1   force =     0.42567020   -0.00002049    5.80670780
     atom    3 type  1   force =     0.42564333    0.00003556   -5.80761046
     atom    4 type  1   force =    -0.42546254    0.00001271   -5.80562402
     atom    5 type  2   force =     0.51961062   -0.00001066   -3.44739012
     atom    6 type  2   force =    -0.51966451   -0.00001876   -3.44852564
     atom    7 type  2   force =    -0.51965956    0.00001091    3.44799440
     atom    8 type  2   force =     0.51966765    0.00001091    3.44797865
     The core correction contribution to forces
     atom    1 type  1   force =     0.00231563    0.00000115   -0.00402176
     atom    2 type  1   force =    -0.00231050    0.00000077   -0.00402523
     atom    3 type  1   force =    -0.00231285    0.00000076    0.00401747
     atom    4 type  1   force =     0.00231438   -0.00000058    0.00402280
     atom    5 type  2   force =     0.00428443   -0.00000092    0.00882794
     atom    6 type  2   force =    -0.00428957   -0.00000129    0.00882834
     atom    7 type  2   force =    -0.00428542    0.00000152   -0.00883864
     atom    8 type  2   force =     0.00429126    0.00000113   -0.00881720
     The Hubbard contrib.    to forces
     atom    1 type  1   force =     0.00000000    0.00000000    0.00000000
     atom    2 type  1   force =     0.00000000    0.00000000    0.00000000
     atom    3 type  1   force =     0.00000000    0.00000000    0.00000000
     atom    4 type  1   force =     0.00000000    0.00000000    0.00000000
     atom    5 type  2   force =     0.00000000    0.00000000    0.00000000
     atom    6 type  2   force =     0.00000000    0.00000000    0.00000000
     atom    7 type  2   force =     0.00000000    0.00000000    0.00000000
     atom    8 type  2   force =     0.00000000    0.00000000    0.00000000
     The SCF correction term to forces
     atom    1 type  1   force =     0.00002750    0.00000018    0.00015675
     atom    2 type  1   force =    -0.00005342    0.00000290   -0.00048834
     atom    3 type  1   force =    -0.00001109   -0.00004519    0.00153390
     atom    4 type  1   force =    -0.00014233   -0.00004404   -0.00088688
     atom    5 type  2   force =     0.00000867    0.00000690   -0.00040834
     atom    6 type  2   force =     0.00001243    0.00001188    0.00070439
     atom    7 type  2   force =     0.00001426   -0.00000329   -0.00024561
     atom    8 type  2   force =    -0.00001340   -0.00000461   -0.00009652

     Total force =     0.160573     Total SCF correction =     0.002041

     Computing stress (Cartesian axis) and pressure

          total   stress  (Ry/bohr**3)                   (kbar)     P=        6.56
  -0.00023576   0.00000000   0.00000000          -34.68        0.00        0.00
   0.00000000  -0.00010869   0.00000000            0.00      -15.99        0.00
   0.00000000   0.00000000   0.00047829            0.00        0.00       70.36

     kinetic stress (kbar)   8408.93      0.00      0.00
                                0.00   8412.94      0.00
                                0.00      0.00   8479.63

     local   stress (kbar)  -1556.88      0.01     -0.00
                                0.01  -2188.39     -0.00
                               -0.00     -0.00   3016.99

     nonloc. stress (kbar)   2383.74      0.00      0.00
                                0.00   2386.25      0.00
                                0.00      0.00   2336.20

     hartree stress (kbar)   4738.15     -0.00     -0.00
                               -0.00   4973.66      0.00
                               -0.00      0.00   2797.78

     exc-cor stress (kbar)  14622.11     -0.00      0.00
                               -0.00  14622.88      0.00
                                0.00      0.00  14619.23

     corecor stress (kbar) -18024.17     -0.00     -0.00
                               -0.00 -18023.49      0.00
                               -0.00      0.00 -18025.15

     ewald   stress (kbar) -10606.55     -0.00     -0.00
                               -0.00 -10199.83      0.00
                               -0.00      0.00 -13154.32

     hubbard stress (kbar)      0.00      0.00      0.00
                                0.00      0.00      0.00
                                0.00      0.00      0.00

     DFT-D   stress (kbar)      0.00      0.00      0.00
                                0.00      0.00      0.00
                                0.00      0.00      0.00

     XDM     stress (kbar)      0.00      0.00      0.00
                                0.00      0.00      0.00
                                0.00      0.00      0.00

     dft-nl  stress (kbar)      0.00      0.00      0.00
                                0.00      0.00      0.00
                                0.00      0.00      0.00

     TS-vdW  stress (kbar)      0.00      0.00      0.00
                                0.00      0.00      0.00
                                0.00      0.00      0.00

[...]

                                0.00      0.00      0.00

     Writing all to output data dir new_calculations/myprefix.save/

     General routines

     Parallel routines

     PAW routines

   This run was terminated on:   3:57:56  20May2023

   JOB DONE.