     Program PWSCF v.7.0 starts on 21May2023 at  2:42: 7

     Reading input from espresso_15441.pwi
Warning: card &CELL ignored
Warning: card / ignored

     Current dimensions of program PWSCF are:
     Max number of different atomic species (ntypx) = 10
     Max number of k-points (npk) =  40000
     Max angular momentum in pseudopotentials (lmaxx) =  4

     gamma-point specific algorithms are used
     Message from routine setup:
     using ibrav=0 with symmetry is DISCOURAGED, use correct ibrav instead

     Subspace diagonalization in iterative solution of the eigenvalue problem:
     a serial algorithm will be used

     Using Slab Decomposition

     bravais-lattice index     =            0
     lattice parameter (alat)  =      12.3035  a.u.
     unit-cell volume          =    1316.9667 (a.u.)^3
     number of atoms/cell      =           10
     number of atomic types    =            3
     number of electrons       =        83.00
     number of Kohn-Sham states=           50
     kinetic-energy cutoff     =      30.0000  Ry
     charge density cutoff     =     240.0000  Ry
     scf convergence threshold =      1.0E-06
     mixing beta               =       0.7000
     number of iterations used =            8  plain     mixing
     Exchange-correlation=  SLA  PW   PBX  PBC
                           (   1   4   3   4   0   0   0)

     celldm(1)=  12.303536  celldm(2)=   0.000000  celldm(3)=   0.000000
     celldm(4)=   0.000000  celldm(5)=   0.000000  celldm(6)=   0.000000

     crystal axes: (cart. coord. in units of alat)
               a(1) = (   1.000000   0.000000   0.000000 )
               a(2) = (   0.500000   0.866025   0.000000 )
               a(3) = (   0.500000   0.288675   0.816497 )

     reciprocal axes: (cart. coord. in units 2 pi/alat)
               b(1) = (  1.000000 -0.577350 -0.408248 )
               b(2) = (  0.000000  1.154701 -0.408248 )
               b(3) = (  0.000000  0.000000  1.224745 )

     PseudoPot. # 1 for Rb read from file:
     /home/pragov/projects/rrg-bengioy-ad/pragov/crystal_structure_design/SSSP/Rb_ONCV_PBE-1.0.oncvpsp.upf
     MD5 check sum: 55a5172d6bfbce6759a58e35d43f6aa9
     Pseudo is Norm-conserving, Zval =  9.0
     Generated using ONCVPSP code by D. R. Hamann
     Using radial grid of 2308 points,  6 beta functions with:
                l(1) =   0
                l(2) =   0
                l(3) =   1
                l(4) =   1
                l(5) =   2
                l(6) =   2

     PseudoPot. # 2 for Cr read from file:
     /home/pragov/projects/rrg-bengioy-ad/pragov/crystal_structure_design/SSSP/cr_pbe_v1.5.uspp.F.UPF
     MD5 check sum: 0d52af634a40206e4dee301ad30da4bf
     Pseudo is Ultrasoft + core correction, Zval = 14.0
     Generated by new atomic code, or converted to UPF format
     Using radial grid of  857 points,  6 beta functions with:
                l(1) =   0
                l(2) =   0
                l(3) =   1
                l(4) =   1
                l(5) =   2
                l(6) =   2
     Q(r) pseudized with  8 coefficients,  rinner =    0.950   0.950   0.950
                                                       0.950   0.950

     PseudoPot. # 3 for F  read from file:
     /home/pragov/projects/rrg-bengioy-ad/pragov/crystal_structure_design/SSSP/f_pbe_v1.4.uspp.F.UPF
     MD5 check sum: 4c38b6a325caf53ec0e86aed9459de46
     Pseudo is Ultrasoft, Zval =  7.0
     Generated by new atomic code, or converted to UPF format
     Using radial grid of  799 points,  4 beta functions with:
                l(1) =   0
                l(2) =   0
                l(3) =   1
                l(4) =   1
     Q(r) pseudized with  8 coefficients,  rinner =    0.950   0.950   0.950

     atomic species   valence    mass     pseudopotential
        Rb             9.00    85.46780     Rb( 1.00)
        Cr            14.00    51.99610     Cr( 1.00)
        F              7.00    18.99840     F ( 1.00)

     12 Sym. Ops., with inversion, found

                                    s                        frac. trans.

      isym =  1     identity

 cryst.   s( 1) = (     1          0          0      )
                  (     0          1          0      )
                  (     0          0          1      )

 cart.    s( 1) = (  1.0000000  0.0000000  0.0000000 )
                  (  0.0000000  1.0000000  0.0000000 )
                  (  0.0000000  0.0000000  1.0000000 )

      isym =  2     180 deg rotation - cart. axis [1,0,0]

[...]

      isym =  3     120 deg rotation - cryst. axis [0,0,1]

[...]

      isym =  6     180 deg rotation - cryst. axis [1,1,0]

[...]

      isym =  7     inversion

[...]

      isym =  8     inv. 180 deg rotation - cart. axis [1,0,0]

[...]

      isym =  9     inv. 120 deg rotation - cryst. axis [0,0,1]

 cryst.   s( 9) = (     1         -1          0      )
                  (     1          0          0      )
                  (     1          0         -1      )

 cart.    s( 9) = (  0.5000000  0.8660254 -0.0000000 )
                  ( -0.8660254  0.5000000 -0.0000000 )
                  (  0.0000000  0.0000000 -1.0000000 )

[...]

 cryst.   s(10) = (     0          1          0      )
                  (    -1          1          0      )
                  (     0          1         -1      )

 cart.    s(10) = (  0.5000000 -0.8660254  0.0000000 )
                  (  0.8660254  0.5000000 -0.0000000 )
                  (  0.0000000  0.0000000 -1.0000000 )

[...]

      isym = 12     inv. 180 deg rotation - cryst. axis [1,1,0]

 cryst.   s(12) = (     1         -1          0      )
                  (     0         -1          0      )
                  (     0         -1          1      )

 cart.    s(12) = (  0.5000000 -0.8660254  0.0000000 )
                  ( -0.8660254 -0.5000000  0.0000000 )
                  (  0.0000000  0.0000000  1.0000000 )

   Cartesian axes

     site n.     atom                  positions (alat units)
         1           Rb  tau(   1) = (   0.5000000   0.2886751   0.2041241  )
         2           Rb  tau(   2) = (   1.5000000   0.8660254   0.6123724  )
         3           Rb  tau(   3) = (   1.0000000   0.5773503   0.4082483  )
         4           Cr  tau(   4) = (   0.0000000   0.0000000   0.0000000  )
         5           F   tau(   5) = (   1.0000000   0.2443820   0.1728042  )
         6           F   tau(   6) = (   1.0000000   0.9103186   0.6436924  )
         7           F   tau(   7) = (   0.7116410   0.7438344   0.1728042  )
         8           F   tau(   8) = (   1.2883590   0.4108661   0.6436924  )
         9           F   tau(   9) = (   0.7116410   0.4108661   0.6436924  )
        10           F   tau(  10) = (   1.2883590   0.7438344   0.1728042  )

   Crystallographic axes

     site n.     atom                  positions (cryst. coord.)
         1           Rb  tau(   1) = (  0.2500000  0.2500000  0.2500000  )
         2           Rb  tau(   2) = (  0.7500000  0.7500000  0.7500000  )
         3           Rb  tau(   3) = (  0.5000000  0.5000000  0.5000000  )
         4           Cr  tau(   4) = (  0.0000000  0.0000000  0.0000000  )
         5           F   tau(   5) = (  0.7883590  0.2116410  0.2116410  )
         6           F   tau(   6) = (  0.2116410  0.7883590  0.7883590  )
         7           F   tau(   7) = (  0.2116410  0.7883590  0.2116410  )
         8           F   tau(   8) = (  0.7883590  0.2116410  0.7883590  )
         9           F   tau(   9) = (  0.2116410  0.2116410  0.7883590  )
        10           F   tau(  10) = (  0.7883590  0.7883590  0.2116410  )

     number of k points=     1  Methfessel-Paxton smearing, width (Ry)=  0.0010
                       cart. coord. in units 2pi/alat
        k(    1) = (   0.0000000   0.0000000   0.0000000), wk =   2.0000000

                       cryst. coord.
        k(    1) = (   0.0000000   0.0000000   0.0000000), wk =   2.0000000

     Check: negative core charge=   -0.000004

     Initial potential from superposition of free atoms

     starting charge      81.9257, renormalised to      83.0000

     negative rho (up, down):  1.630E-03 0.000E+00
     Starting wfcs are   49 randomized atomic wfcs +    1 random wfcs

     Self-consistent Calculation

     iteration #  1     ecut=    30.00 Ry     beta= 0.70
     Davidson diagonalization with overlap

     ethr =  1.00E-02,  avg # of iterations =  5.0

     Threshold (ethr) on eigenvalues was too large:
     Diagonalizing with lowered threshold

     Davidson diagonalization with overlap

[...]

     negative rho (up, down):  1.649E-03 0.000E+00

     total energy              =    -614.42674616 Ry
     estimated scf accuracy    <       0.78671681 Ry

[...]

     total energy              =    -614.70923553 Ry
     estimated scf accuracy    <       0.00003144 Ry

     iteration # 22     ecut=    30.00 Ry     beta= 0.70
     Davidson diagonalization with overlap

     ethr =  3.79E-08,  avg # of iterations =  1.0

[...]

     End of self-consistent calculation

          k = 0.0000 0.0000 0.0000 (  1848 PWs)   bands (ev):

   -66.8354 -38.1696 -38.1696 -38.1696 -21.9696 -21.9480 -20.9960 -18.0630
   -17.7528 -17.7527 -17.7431 -17.7430 -17.7430  -6.1306  -6.1306  -6.1306
    -6.0537  -6.0537  -6.0537  -5.1953  -5.1953  -5.1953  -0.8993  -0.5005
    -0.5004  -0.0603  -0.0603  -0.0603   0.2842   0.2842   0.2842   1.1018
     1.1018   1.1018   1.2291   1.2291   1.2291   1.5775   1.5775   1.5775
     5.8439   5.8439   5.8440   7.6416   7.6570   7.6570  10.2820  10.2821
    11.0607  11.4044

     occupation numbers
     1.0000   1.0000   1.0000   1.0000   1.0000   1.0000   1.0000   1.0000
     1.0000   1.0000   1.0000   1.0000   1.0000   1.0000   1.0000   1.0000
     1.0000   1.0000   1.0000   1.0000   1.0000   1.0000   1.0000   1.0000
     1.0000   1.0000   1.0000   1.0000   1.0000   1.0000   1.0000   1.0000
     1.0000   1.0000   1.0000   1.0000   1.0000   1.0000   1.0000   1.0000
     0.5014   0.4997   0.4989  -0.0000  -0.0000  -0.0000  -0.0000  -0.0000
    -0.0000  -0.0000

     the Fermi energy is     5.8439 ev

!    total energy              =    -614.70923961 Ry
     estimated scf accuracy    <       0.00000068 Ry
     smearing contrib. (-TS)   =      -0.00084628 Ry
     internal energy E=F+TS    =    -614.70839333 Ry

     The total energy is F=E-TS. E is the sum of the following terms:
     one-electron contribution =    -411.42243816 Ry
     hartree contribution      =     241.86981011 Ry
     xc contribution           =    -101.30728281 Ry
     ewald contribution        =    -343.84848247 Ry

     convergence has been achieved in  22 iterations

     negative rho (up, down):  1.597E-03 0.000E+00

     Forces acting on atoms (cartesian axes, Ry/au):

     atom    1 type  1   force =     0.00000000    0.00000000   -0.00000380
     atom    2 type  1   force =    -0.00000000   -0.00000000    0.00000380
     atom    3 type  1   force =    -0.00000000    0.00000000   -0.00000000
     atom    4 type  2   force =     0.00000000    0.00000000   -0.00000000
     atom    5 type  3   force =     0.00000000   -0.01665776   -0.01174454
     atom    6 type  3   force =     0.00000000    0.01665776    0.01174454
     atom    7 type  3   force =    -0.01442605    0.00832888   -0.01174454
     atom    8 type  3   force =     0.01442605   -0.00832888    0.01174454
     atom    9 type  3   force =    -0.01442605   -0.00832888    0.01174454
     atom   10 type  3   force =     0.01442605    0.00832888   -0.01174454
     The non-local contrib.  to forces
     atom    1 type  1   force =     0.00000000    0.00000000    0.00000007
     atom    2 type  1   force =     0.00000000    0.00000000   -0.00000007
     atom    3 type  1   force =     0.00000000    0.00000000    0.00000000
     atom    4 type  2   force =     0.00000000    0.00000000    0.00000000
     atom    5 type  3   force =     0.00000000   -0.50099978   -0.35422843
     atom    6 type  3   force =     0.00000000    0.50099978    0.35422843
     atom    7 type  3   force =    -0.43387853    0.25049989   -0.35422843
     atom    8 type  3   force =     0.43387853   -0.25049989    0.35422843
     atom    9 type  3   force =    -0.43387853   -0.25049989    0.35422843
     atom   10 type  3   force =     0.43387853    0.25049989   -0.35422843
     The ionic contribution  to forces
     atom    1 type  1   force =    -0.00000000    0.00000000   -0.00000000
     atom    2 type  1   force =    -0.00000000    0.00000000   -0.00000000
     atom    3 type  1   force =    -0.00000000   -0.00000000    0.00000000
     atom    4 type  2   force =     0.00000000    0.00000000    0.00000000
     atom    5 type  3   force =    -0.00000000   11.20161425    7.92073740
     atom    6 type  3   force =    -0.00000000  -11.20161425   -7.92073740
     atom    7 type  3   force =     9.70088250   -5.60080712    7.92073739
     atom    8 type  3   force =    -9.70088250    5.60080712   -7.92073740
     atom    9 type  3   force =     9.70088250    5.60080712   -7.92073740
     atom   10 type  3   force =    -9.70088250   -5.60080712    7.92073739
     The local contribution  to forces
     atom    1 type  1   force =     0.00002487   -0.00002662   -0.00004699
     atom    2 type  1   force =    -0.00002451    0.00002651    0.00004664
     atom    3 type  1   force =    -0.00000037   -0.00000003    0.00000009
     atom    4 type  2   force =     0.00000011    0.00000073    0.00000023
     atom    5 type  3   force =    -0.00009247  -10.71727078   -7.57835227
     atom    6 type  3   force =     0.00009268   10.71727091    7.57835228
     atom    7 type  3   force =    -9.28127067    5.35856563   -7.57836714
     atom    8 type  3   force =     9.28127065   -5.35856557    7.57836731
     atom    9 type  3   force =    -9.28130213   -5.35869144    7.57831852
     atom   10 type  3   force =     9.28130250    5.35869177   -7.57831859
     The core correction contribution to forces
     atom    1 type  1   force =     0.00000000    0.00000000    0.00000000
     atom    2 type  1   force =     0.00000000    0.00000000    0.00000000
     atom    3 type  1   force =     0.00000000    0.00000000    0.00000000
     atom    4 type  2   force =    -0.00000000    0.00000002    0.00000000
     atom    5 type  3   force =     0.00000000    0.00000000    0.00000000
     atom    6 type  3   force =     0.00000000    0.00000000    0.00000000
     atom    7 type  3   force =     0.00000000    0.00000000    0.00000000
     atom    8 type  3   force =     0.00000000    0.00000000    0.00000000
     atom    9 type  3   force =     0.00000000    0.00000000    0.00000000
     atom   10 type  3   force =     0.00000000    0.00000000    0.00000000
     The Hubbard contrib.    to forces
     atom    1 type  1   force =     0.00000000    0.00000000    0.00000000
     atom    2 type  1   force =     0.00000000    0.00000000    0.00000000
     atom    3 type  1   force =     0.00000000    0.00000000    0.00000000
     atom    4 type  2   force =     0.00000000    0.00000000    0.00000000
     atom    5 type  3   force =     0.00000000    0.00000000    0.00000000
     atom    6 type  3   force =     0.00000000    0.00000000    0.00000000
     atom    7 type  3   force =     0.00000000    0.00000000    0.00000000
     atom    8 type  3   force =     0.00000000    0.00000000    0.00000000
     atom    9 type  3   force =     0.00000000    0.00000000    0.00000000
     atom   10 type  3   force =     0.00000000    0.00000000    0.00000000
     The SCF correction term to forces
     atom    1 type  1   force =    -0.00002257    0.00002342    0.00004311
     atom    2 type  1   force =     0.00002245   -0.00002337   -0.00004277
     atom    3 type  1   force =     0.00000029    0.00000011   -0.00000005
     atom    4 type  2   force =    -0.00000013   -0.00000075   -0.00000036
     atom    5 type  3   force =     0.00009370   -0.00000004    0.00009971
     atom    6 type  3   force =    -0.00009382   -0.00000010   -0.00009982
     atom    7 type  3   force =    -0.00016044    0.00007196    0.00011305
     atom    8 type  3   force =     0.00016052   -0.00007207   -0.00011307
     atom    9 type  3   force =    -0.00012766    0.00005543   -0.00006463
     atom   10 type  3   force =     0.00012722   -0.00005586    0.00006479

     Total force =     0.049925     Total SCF correction =     0.000422

     Computing stress (Cartesian axis) and pressure

     negative rho (up, down):  1.597E-03 0.000E+00
          total   stress  (Ry/bohr**3)                   (kbar)     P=      -68.56
  -0.00046647  -0.00000000  -0.00000000          -68.62       -0.00       -0.00
  -0.00000000  -0.00046647   0.00000000           -0.00      -68.62        0.00
   0.00000000   0.00000000  -0.00046524            0.00        0.00      -68.44

     kinetic stress (kbar)  14067.15      0.00     -0.00
                                0.00  14067.15     -0.00
                                0.00     -0.00  14066.60

     local   stress (kbar)  -8228.41      0.30      0.48
                                0.30  -8228.31     -0.67
                                0.48     -0.67  -8226.87

     nonloc. stress (kbar)   1462.09     -0.00     -0.00
                               -0.00   1462.09     -0.00
                               -0.00     -0.00   1461.75

     hartree stress (kbar)   9005.73     -0.07     -0.16
                               -0.07   9005.78      0.24
                               -0.16      0.24   9005.33

     exc-cor stress (kbar)  -3285.37     -0.00     -0.00
                               -0.00  -3285.37      0.00
                               -0.00      0.00  -3285.37

     corecor stress (kbar)   -287.27      0.00      0.00
                                0.00   -287.27     -0.00
                                0.00     -0.00   -287.25

     ewald   stress (kbar) -12802.62     -0.00     -0.00
                               -0.00 -12802.62      0.00
                               -0.00      0.00 -12802.62

     hubbard stress (kbar)      0.00      0.00      0.00
                                0.00      0.00      0.00
                                0.00      0.00      0.00

     DFT-D   stress (kbar)      0.00      0.00      0.00
                                0.00      0.00      0.00
                                0.00      0.00      0.00

     XDM     stress (kbar)      0.00      0.00      0.00
                                0.00      0.00      0.00
                                0.00      0.00      0.00

     dft-nl  stress (kbar)      0.00      0.00      0.00
                                0.00      0.00      0.00
                                0.00      0.00      0.00

     TS-vdW  stress (kbar)      0.00      0.00      0.00
                                0.00      0.00      0.00
                                0.00      0.00      0.00

[...]

                                0.00      0.00      0.00

     Writing all to output data dir new_calculations/myprefix.save/

     General routines

     Parallel routines

   This run was terminated on:   2:42:23  21May2023

   JOB DONE.