     Program PWSCF v.7.0 starts on 21May2023 at  7:45:44

     Reading input from espresso_11957.pwi
Warning: card &CELL ignored
Warning: card / ignored

     Current dimensions of program PWSCF are:
     Max number of different atomic species (ntypx) = 10
     Max number of k-points (npk) =  40000
     Max angular momentum in pseudopotentials (lmaxx) =  4
     file Nb.pbe-spn-kjpaw_psl.0.3.0.UPF: wavefunction(s)  4S 4P renormalized

     gamma-point specific algorithms are used
     Message from routine setup:
     using ibrav=0 with symmetry is DISCOURAGED, use correct ibrav instead

     Subspace diagonalization in iterative solution of the eigenvalue problem:
     a serial algorithm will be used

     Using Slab Decomposition

     bravais-lattice index     =            0
     lattice parameter (alat)  =      16.2368  a.u.
     unit-cell volume          =    3295.1763 (a.u.)^3
     number of atoms/cell      =           20
     number of atomic types    =            3
     number of electrons       =       198.00
     number of Kohn-Sham states=          119
     kinetic-energy cutoff     =      30.0000  Ry
     charge density cutoff     =     240.0000  Ry
     scf convergence threshold =      1.0E-06
     mixing beta               =       0.7000
     number of iterations used =            8  plain     mixing
     Exchange-correlation= SLA  PW   PBE  PBE
                           (   1   4   3   4   0   0   0)

     celldm(1)=  16.236790  celldm(2)=   0.000000  celldm(3)=   0.000000
     celldm(4)=   0.000000  celldm(5)=   0.000000  celldm(6)=   0.000000

     crystal axes: (cart. coord. in units of alat)
               a(1) = (   1.000000   0.000000   0.000000 )
               a(2) = (  -0.333333   0.942809   0.000000 )
               a(3) = (  -0.333333  -0.471405   0.816497 )

     reciprocal axes: (cart. coord. in units 2 pi/alat)
               b(1) = (  1.000000  0.353553  0.612372 )
               b(2) = (  0.000000  1.060660  0.612372 )
               b(3) = (  0.000000  0.000000  1.224745 )

     PseudoPot. # 1 for Nb read from file:
     /home/pragov/projects/rrg-bengioy-ad/pragov/crystal_structure_design/SSSP/Nb.pbe-spn-kjpaw_psl.0.3.0.UPF
     MD5 check sum: 411d72ad547312f8017e2943ceca08cc
     Pseudo is Projector augmented-wave + core cor, Zval = 13.0
     Generated using "atomic" code by A. Dal Corso  v.5.0.99 svn rev. 10869
     Shape of augmentation charge: PSQ
     Using radial grid of 1227 points,  6 beta functions with:
                l(1) =   0
                l(2) =   0
                l(3) =   1
                l(4) =   1
                l(5) =   2
                l(6) =   2
     Q(r) pseudized with 0 coefficients

     PseudoPot. # 2 for Sb read from file:
     /home/pragov/projects/rrg-bengioy-ad/pragov/crystal_structure_design/SSSP/sb_pbe_v1.4.uspp.F.UPF
     MD5 check sum: 9bc50dfb53373b713f5709b9110fe27f
     Pseudo is Ultrasoft + core correction, Zval = 15.0
     Generated by new atomic code, or converted to UPF format
     Using radial grid of  891 points,  6 beta functions with:
                l(1) =   0
                l(2) =   0
                l(3) =   1
                l(4) =   1
                l(5) =   2
                l(6) =   2
     Q(r) pseudized with  8 coefficients,  rinner =    1.350   1.350   1.350
                                                       1.350   1.350

     PseudoPot. # 3 for Te read from file:
     /home/pragov/projects/rrg-bengioy-ad/pragov/crystal_structure_design/SSSP/Te_pbe_v1.uspp.F.UPF
     MD5 check sum: c319670d6894cc26e93307826a071b75
     Pseudo is Ultrasoft + core correction, Zval =  6.0
     Generated by new atomic code, or converted to UPF format
     Using radial grid of  891 points,  5 beta functions with:
                l(1) =   0
                l(2) =   0
                l(3) =   1
                l(4) =   1
                l(5) =   2
     Q(r) pseudized with  6 coefficients,  rinner =    1.800   1.800   1.800
                                                       1.800   1.800

     atomic species   valence    mass     pseudopotential
        Nb            13.00    92.90637     Nb( 1.00)
        Sb            15.00   121.76000     Sb( 1.00)
        Te             6.00   127.60000     Te( 1.00)

      2 Sym. Ops. (no inversion) found

                                    s                        frac. trans.

      isym =  1     identity

 cryst.   s( 1) = (     1          0          0      )
                  (     0          1          0      )
                  (     0          0          1      )

 cart.    s( 1) = (  1.0000000 -0.0000000 -0.0000000 )
                  (  0.0000000  1.0000000 -0.0000000 )
                  (  0.0000000  0.0000000  1.0000000 )

      isym =  2     inv. 180 deg rotation - cart. axis [0,0,1]

 cryst.   s( 2) = (     1          0          0      )
                  (     0          1          0      )
                  (    -1         -1         -1      )

 cart.    s( 2) = (  1.0000000 -0.0000000 -0.0000000 )
                  (  0.0000000  1.0000000 -0.0000000 )
                  (  0.0000000  0.0000000 -1.0000000 )

   Cartesian axes

     site n.     atom                  positions (alat units)
         1           Nb  tau(   1) = (   0.2284727  -0.1615546   0.2798207  )
         2           Nb  tau(   2) = (  -0.2284727   0.1615546   0.2798207  )
         3           Nb  tau(   3) = (  -0.4381940   0.3098499   0.5366759  )
         4           Nb  tau(   4) = (   0.2284727   0.3231091   0.0000000  )
         5           Nb  tau(   5) = (   0.4381940   0.6196999   0.0000000  )
         6           Nb  tau(   6) = (   0.4381940  -0.3098499   0.5366759  )
         7           Sb  tau(   7) = (   0.6702580   0.0000000   0.0000000  )
         8           Sb  tau(   8) = (   0.7765807   0.6319253   0.0000000  )
         9           Sb  tau(   9) = (  -0.2234193  -0.3159627   0.5472634  )
        10           Sb  tau(  10) = (   0.1099140   0.1554419   0.2692332  )
        11           Te  tau(  11) = (  -0.1093027  -0.1545773   0.2677358  )
        12           Te  tau(  12) = (  -0.1666667   0.4714045   0.4082483  )
        13           Te  tau(  13) = (  -0.1093027   0.3091546   0.0000000  )
        14           Te  tau(  14) = (   0.5000000   0.3535534   0.2041241  )
        15           Te  tau(  15) = (   0.5000000   0.0000000   0.4082483  )
        16           Te  tau(  16) = (  -0.1666667   0.1178511   0.6123724  )
        17           Te  tau(  17) = (   0.3279080   0.0000000   0.0000000  )
        18           Te  tau(  18) = (   0.2240307   0.3168272   0.5487608  )
        19           Te  tau(  19) = (   0.1666667  -0.1178511   0.6123724  )
        20           Te  tau(  20) = (   0.1666667   0.5892557   0.2041241  )

   Crystallographic axes

     site n.     atom                  positions (cryst. coord.)
         1           Nb  tau(   1) = (  0.3427090 -0.0000000  0.3427090  )
         2           Nb  tau(   2) = (  0.0000000  0.3427090  0.3427090  )
         3           Nb  tau(   3) = (  0.0000000  0.6572910  0.6572910  )
         4           Nb  tau(   4) = (  0.3427090  0.3427090  0.0000000  )
         5           Nb  tau(   5) = (  0.6572910  0.6572910  0.0000000  )
         6           Nb  tau(   6) = (  0.6572910  0.0000000  0.6572910  )
         7           Sb  tau(   7) = (  0.6702580  0.0000000  0.0000000  )
         8           Sb  tau(   8) = (  1.0000000  0.6702580  0.0000000  )
         9           Sb  tau(   9) = ( -0.0000000 -0.0000000  0.6702580  )
        10           Sb  tau(  10) = (  0.3297420  0.3297420  0.3297420  )
        11           Te  tau(  11) = (  0.0000000  0.0000000  0.3279080  )
        12           Te  tau(  12) = (  0.2500000  0.7500000  0.5000000  )
        13           Te  tau(  13) = ( -0.0000000  0.3279080  0.0000000  )
        14           Te  tau(  14) = (  0.7500000  0.5000000  0.2500000  )
        15           Te  tau(  15) = (  0.7500000  0.2500000  0.5000000  )
        16           Te  tau(  16) = (  0.2500000  0.5000000  0.7500000  )
        17           Te  tau(  17) = (  0.3279080  0.0000000  0.0000000  )
        18           Te  tau(  18) = (  0.6720920  0.6720920  0.6720920  )
        19           Te  tau(  19) = (  0.5000000  0.2500000  0.7500000  )
        20           Te  tau(  20) = (  0.5000000  0.7500000  0.2500000  )

     number of k points=     1  Methfessel-Paxton smearing, width (Ry)=  0.0010
                       cart. coord. in units 2pi/alat
        k(    1) = (   0.0000000   0.0000000   0.0000000), wk =   2.0000000

                       cryst. coord.
        k(    1) = (   0.0000000   0.0000000   0.0000000), wk =   2.0000000

     Check: negative core charge=   -0.000004

     Initial potential from superposition of free atoms

     starting charge     193.9850, renormalised to     198.0000
     Starting wfcs are  136 randomized atomic wfcs
     Checking if some PAW data can be deallocated...

     Self-consistent Calculation

     iteration #  1     ecut=    30.00 Ry     beta= 0.70
     Davidson diagonalization with overlap

     ethr =  1.00E-02,  avg # of iterations = 13.0

     negative rho (up, down):  9.941E+00 0.000E+00

     total energy              =   -3118.53739264 Ry
     estimated scf accuracy    <      33.90215681 Ry

[...]

     total energy              =   -3125.38992916 Ry
     estimated scf accuracy    <       0.00000340 Ry

     iteration # 15     ecut=    30.00 Ry     beta= 0.70
     Davidson diagonalization with overlap

     ethr =  1.71E-09,  avg # of iterations =  3.0

[...]

     End of self-consistent calculation

          k = 0.0000 0.0000 0.0000 (  4595 PWs)   bands (ev):

   -90.2751 -70.5156 -65.4500 -60.2984 -58.4646 -56.9987 -52.0660 -48.1351
   -45.8476 -40.2894 -34.2696 -32.2626 -28.3547 -26.2628 -24.4956 -23.6437
   -23.4167 -22.5488 -21.8641 -21.3298 -21.0135 -20.8290 -20.6908 -20.0213
   -19.1239 -19.1031 -18.3741 -17.7986 -16.8323 -15.7184 -15.3275 -15.0952
   -14.7846 -14.5446 -14.2693 -14.1503 -14.0302 -13.6563 -13.5178 -13.4395
   -13.2973 -12.9797 -12.8744 -12.7115 -12.5309 -12.4674 -12.2257 -11.6656
   -11.4693 -11.1866 -10.3985  -9.9778  -9.6179  -8.3136  -6.4701  -5.4913
    -4.5820  -2.9361  -2.4776  -2.0771  -1.4898  -1.1741  -0.9260  -0.8403
    -0.5478  -0.4043   0.5593   1.0647   1.2712   1.6230   2.2900   2.5904
     2.8307   3.4832   3.9015   3.9302   4.5393   4.6462   4.7740   5.1131
     5.1934   5.4292   5.5722   5.9522   6.0259   6.1390   6.3634   6.6357
     6.7698   6.9595   7.1004   7.3743   7.5618   7.8649   7.9480   8.0819
     8.3869   8.7027   9.0209   9.1244   9.2919   9.5959   9.7600   9.8196
    10.0744  10.1641  10.2826  10.3368  10.5481  10.7446  10.8412  11.0216
    11.0813  11.2697  11.5035  11.6812  11.8524  12.0106  12.1900

     occupation numbers
     1.0000   1.0000   1.0000   1.0000   1.0000   1.0000   1.0000   1.0000
     1.0000   1.0000   1.0000   1.0000   1.0000   1.0000   1.0000   1.0000
     1.0000   1.0000   1.0000   1.0000   1.0000   1.0000   1.0000   1.0000
     1.0000   1.0000   1.0000   1.0000   1.0000   1.0000   1.0000   1.0000
     1.0000   1.0000   1.0000   1.0000   1.0000   1.0000   1.0000   1.0000
     1.0000   1.0000   1.0000   1.0000   1.0000   1.0000   1.0000   1.0000
     1.0000   1.0000   1.0000   1.0000   1.0000   1.0000   1.0000   1.0000
     1.0000   1.0000   1.0000   1.0000   1.0000   1.0000   1.0000   1.0000
     1.0000   1.0000   1.0000   1.0000   1.0000   1.0000   1.0000   1.0000
     1.0000   1.0000   1.0000   1.0000   1.0000   1.0000   1.0000   1.0000
     1.0000   1.0000   1.0000   1.0000   1.0000   1.0000   1.0000   1.0000
     1.0000   1.0000   1.0000   1.0000   1.0000   1.0000   1.0000   1.0000
     1.0000   1.0000   1.0000  -0.0000  -0.0000  -0.0000  -0.0000  -0.0000
    -0.0000  -0.0000  -0.0000  -0.0000  -0.0000  -0.0000  -0.0000  -0.0000
    -0.0000  -0.0000  -0.0000  -0.0000  -0.0000  -0.0000  -0.0000

     the Fermi energy is     9.0727 ev

!    total energy              =   -3125.38992942 Ry
     estimated scf accuracy    <       0.00000069 Ry
     smearing contrib. (-TS)   =       0.00000001 Ry
     internal energy E=F+TS    =   -3125.38992942 Ry

     The total energy is F=E-TS. E is the sum of the following terms:
     one-electron contribution =    -735.14603676 Ry
     hartree contribution      =     430.05237962 Ry
     xc contribution           =    -492.68758836 Ry
     ewald contribution        =   -1079.36122854 Ry
     one-center paw contrib.   =   -1248.24745538 Ry
      -> PAW hartree energy AE =     419.70063815 Ry
      -> PAW hartree energy PS =    -418.35453453 Ry
      -> PAW xc energy AE      =   -1409.72009031 Ry
      -> PAW xc energy PS      =     160.12653131 Ry
      -> total E_H with PAW    =     431.39848324 Ry
      -> total E_XC with PAW   =   -1742.28114735 Ry

     convergence has been achieved in  15 iterations

     negative rho (up, down):  1.211E+01 0.000E+00

     Forces acting on atoms (cartesian axes, Ry/au):

     atom    1 type  1   force =     0.15591300    0.28151354    0.11458415
     atom    2 type  1   force =    -0.31470978   -0.12450773   -0.06877456
     atom    3 type  1   force =     0.15591300    0.28151354   -0.11458415
     atom    4 type  1   force =    -0.70586006   -0.78956285    0.00000000
     atom    5 type  1   force =     0.33779017    0.82242925   -0.00000000
     atom    6 type  1   force =    -0.31470978   -0.12450773    0.06877456
     atom    7 type  2   force =    -0.24827473    0.19754962   -0.00000000
     atom    8 type  2   force =    -0.15882370    0.38763851   -0.00000000
     atom    9 type  2   force =    -0.16512631   -0.06724951    0.07355592
     atom   10 type  2   force =    -0.16512631   -0.06724951   -0.07355592
     atom   11 type  3   force =     0.36301644   -0.06960342   -1.20484160
     atom   12 type  3   force =    -0.09309725    0.23763920   -2.97238128
     atom   13 type  3   force =     0.02490985    0.36236390   -0.00000000
     atom   14 type  3   force =    -0.80595756    0.71516650    0.38407534
     atom   15 type  3   force =    -0.09309725    0.23763920    2.97238128
     atom   16 type  3   force =     0.16299877   -0.98296436   -0.34992218
     atom   17 type  3   force =     2.14418386   -0.96040685   -0.00000000
     atom   18 type  3   force =     0.36301644   -0.06960342    1.20484160
     atom   19 type  3   force =    -0.80595756    0.71516650   -0.38407534
     atom   20 type  3   force =     0.16299877   -0.98296436    0.34992218
     The non-local contrib.  to forces
     atom    1 type  1   force =     0.10417645   -0.14832264   -0.01762314
     atom    2 type  1   force =    -0.04962781   -0.00903250    0.00903667
     atom    3 type  1   force =     0.10417645   -0.14832264    0.01762314
     atom    4 type  1   force =    -0.20708296   -0.19598426    0.00000000
     atom    5 type  1   force =     0.16296435    0.06631969   -0.00000000
     atom    6 type  1   force =    -0.04962781   -0.00903250   -0.00903667
     atom    7 type  2   force =     0.06954066    0.18021686   -0.00000000
     atom    8 type  2   force =     0.09500481   -0.18840126    0.00000000
     atom    9 type  2   force =     0.00377807   -0.18614850   -0.09263595
     atom   10 type  2   force =     0.00377807   -0.18614850    0.09263595
     atom   11 type  3   force =     0.30532217    0.07724544   -0.75563273
     atom   12 type  3   force =     0.08064504    0.03950778   -2.14294909
     atom   13 type  3   force =     0.36292805    0.27940093   -0.00000000
     atom   14 type  3   force =    -0.46953697    0.66658914    0.13878789
     atom   15 type  3   force =     0.08064504    0.03950778    2.14294909
     atom   16 type  3   force =     0.30187432   -0.87888133   -0.15272427
     atom   17 type  3   force =     1.72315866   -0.82473592   -0.00000000
     atom   18 type  3   force =     0.30532217    0.07724544    0.75563273
     atom   19 type  3   force =    -0.46953697    0.66658914   -0.13878789
     atom   20 type  3   force =     0.30187432   -0.87888133    0.15272427
     The ionic contribution  to forces
     atom    1 type  1   force =     2.06544199   -1.46048804    2.52963948
     atom    2 type  1   force =    -2.06544199    1.46048804    2.52963948
     atom    3 type  1   force =     2.06544199   -1.46048804   -2.52963948
     atom    4 type  1   force =     2.06544199    2.92097607   -0.00000000
     atom    5 type  1   force =    -2.06544199   -2.92097608    0.00000000
     atom    6 type  1   force =    -2.06544199    1.46048804   -2.52963949
     atom    7 type  2   force =    -6.61549882    0.00000000    0.00000001
     atom    8 type  2   force =     2.20516628   -6.23715210    0.00000001
     atom    9 type  2   force =     2.20516628    3.11857605   -5.40153216
     atom   10 type  2   force =     2.20516628    3.11857605    5.40153217
     atom   11 type  3   force =    -0.85978816   -1.21592407    2.10604227
     atom   12 type  3   force =     0.00000000   -0.00000000    0.00000000
     atom   13 type  3   force =    -0.85978816    2.43184814   -0.00000000
     atom   14 type  3   force =    -0.00000000   -0.00000000    0.00000000
     atom   15 type  3   force =    -0.00000000    0.00000000    0.00000000
     atom   16 type  3   force =     0.00000000    0.00000000   -0.00000000
     atom   17 type  3   force =     2.57936446   -0.00000000   -0.00000000
     atom   18 type  3   force =    -0.85978816   -1.21592407   -2.10604227
     atom   19 type  3   force =     0.00000000    0.00000000   -0.00000000
     atom   20 type  3   force =     0.00000000   -0.00000000    0.00000000
     The local contribution  to forces
     atom    1 type  1   force =    -1.68351359    1.88926163   -2.04743690
     atom    2 type  1   force =     2.04847164   -1.31010286   -2.91217381
     atom    3 type  1   force =    -2.12980575    1.72422846    2.80547577
     atom    4 type  1   force =    -2.40291125   -3.56225024    0.07061309
     atom    5 type  1   force =     2.30839385    3.55677443    0.38895832
     atom    6 type  1   force =     1.79843322   -2.00001879    2.32862767
     atom    7 type  2   force =     6.44502554   -0.06017045   -0.47509013
     atom    8 type  2   force =    -2.33557064    6.67588672    0.01347452
     atom    9 type  2   force =    -2.35990939   -3.27753839    5.42684261
     atom   10 type  2   force =    -2.08878135   -2.89810930   -5.66445718
     atom   11 type  3   force =     1.00672408    0.86075152   -2.48577995
     atom   12 type  3   force =     0.21560398   -0.59853748   -1.06591721
     atom   13 type  3   force =     0.62584377   -2.42864938    0.04043809
     atom   14 type  3   force =    -0.09428690   -0.02976714    0.41366215
     atom   15 type  3   force =    -0.32857633    0.82723972    0.84224195
     atom   16 type  3   force =    -0.12948698   -0.33929990   -0.47749689
     atom   17 type  3   force =    -1.96923355   -0.28734750    0.08062765
     atom   18 type  3   force =     1.12163026    1.07000822    2.72346425
     atom   19 type  3   force =    -0.39342713   -0.02654048   -0.14496175
     atom   20 type  3   force =     0.10658680   -0.11142495   -0.02957078
     The core correction contribution to forces
     atom    1 type  1   force =     0.02450118    0.03172229    0.07804101
     atom    2 type  1   force =     0.00846115    0.04479812   -0.03457613
     atom    3 type  1   force =     0.00896506   -0.04129341    0.01978497
     atom    4 type  1   force =    -0.03847825   -0.04008022   -0.01499097
     atom    5 type  1   force =     0.05497537    0.03228948    0.05549748
     atom    6 type  1   force =    -0.00706308   -0.06346034   -0.05899603
     atom    7 type  2   force =    -0.02331014   -0.01062425   -0.02859935
     atom    8 type  2   force =     0.00046709    0.04779050    0.00393726
     atom    9 type  2   force =    -0.04120779   -0.02152405   -0.00585146
     atom   10 type  2   force =    -0.01201394    0.02223874   -0.05029750
     atom   11 type  3   force =    -0.01245799    0.05123750    0.03561543
     atom   12 type  3   force =    -0.02385834    0.09605524    0.13085159
     atom   13 type  3   force =     0.01953058   -0.00865335   -0.02479064
     atom   14 type  3   force =     0.01294257   -0.00576030   -0.05079376
     atom   15 type  3   force =     0.03672278   -0.10545810   -0.11840169
     atom   16 type  3   force =     0.01361510    0.03055438    0.05161506
     atom   17 type  3   force =    -0.06536002    0.06327672   -0.01096509
     atom   18 type  3   force =    -0.03406963   -0.02045408   -0.06303267
     atom   19 type  3   force =     0.04932416   -0.01753611    0.01741274
     atom   20 type  3   force =    -0.02124013    0.03513043   -0.00215953
     The Hubbard contrib.    to forces
     atom    1 type  1   force =     0.00000000    0.00000000    0.00000000
     atom    2 type  1   force =     0.00000000    0.00000000    0.00000000
     atom    3 type  1   force =     0.00000000    0.00000000    0.00000000
     atom    4 type  1   force =     0.00000000    0.00000000    0.00000000
     atom    5 type  1   force =     0.00000000    0.00000000    0.00000000
     atom    6 type  1   force =     0.00000000    0.00000000    0.00000000
     atom    7 type  2   force =     0.00000000    0.00000000    0.00000000
     atom    8 type  2   force =     0.00000000    0.00000000    0.00000000
     atom    9 type  2   force =     0.00000000    0.00000000    0.00000000
     atom   10 type  2   force =     0.00000000    0.00000000    0.00000000
     atom   11 type  3   force =     0.00000000    0.00000000    0.00000000
     atom   12 type  3   force =     0.00000000    0.00000000    0.00000000
     atom   13 type  3   force =     0.00000000    0.00000000    0.00000000
     atom   14 type  3   force =     0.00000000    0.00000000    0.00000000
     atom   15 type  3   force =     0.00000000    0.00000000    0.00000000
     atom   16 type  3   force =     0.00000000    0.00000000    0.00000000
     atom   17 type  3   force =     0.00000000    0.00000000    0.00000000
     atom   18 type  3   force =     0.00000000    0.00000000    0.00000000
     atom   19 type  3   force =     0.00000000    0.00000000    0.00000000
     atom   20 type  3   force =     0.00000000    0.00000000    0.00000000
     The SCF correction term to forces
     atom    1 type  1   force =    -0.00024312    0.00017544   -0.00021692
     atom    2 type  1   force =    -0.00010855    0.00042335    0.00111602
     atom    3 type  1   force =    -0.00011474   -0.00020664   -0.00000916
     atom    4 type  1   force =     0.00077036   -0.00060453   -0.00032983
     atom    5 type  1   force =     0.00049855   -0.00035860   -0.00053582
     atom    6 type  1   force =    -0.00027442   -0.00032668   -0.00036413
     atom    7 type  2   force =    -0.00043201   -0.00025287    0.00004741
     atom    8 type  2   force =    -0.00029127    0.00113433   -0.00118106
     atom    9 type  2   force =     0.00133852   -0.00128503    0.00012743
     atom   10 type  2   force =    -0.00036743    0.00010327    0.00042518
     atom   11 type  3   force =     0.00003856    0.00009991    0.00008828
     atom   12 type  3   force =    -0.00032017   -0.00039707    0.00012295
     atom   13 type  3   force =    -0.00000443    0.00003723    0.00023110
     atom   14 type  3   force =     0.00006421   -0.00011202    0.00027001
     atom   15 type  3   force =     0.00014342    0.00059988    0.00008145
     atom   16 type  3   force =    -0.00010500    0.00021567   -0.00031799
     atom   17 type  3   force =    -0.00014574    0.00001953   -0.00033148
     atom   18 type  3   force =     0.00029947   -0.00025331   -0.00000554
     atom   19 type  3   force =    -0.00025817    0.00011012    0.00011252
     atom   20 type  3   force =     0.00007901   -0.00010232   -0.00007370

     Total force =     5.849011     Total SCF correction =     0.003444

     Computing stress (Cartesian axis) and pressure

     negative rho (up, down):  1.211E+01 0.000E+00
          total   stress  (Ry/bohr**3)                   (kbar)     P=     3817.44
   0.00315351  -0.00401863   0.00000000          463.90     -591.16        0.00
  -0.00401863   0.04201113  -0.00000000         -591.16     6180.05       -0.00
   0.00000000  -0.00000000   0.03268662            0.00       -0.00     4808.37

     kinetic stress (kbar)  23919.16   -405.83     -0.00
                             -405.83  28520.16     -0.00
                               -0.00     -0.00  27428.97

     local   stress (kbar)   2958.00    -48.49    204.67
                              -48.49   3507.85   -207.13
                              204.67   -207.13   3269.22

     nonloc. stress (kbar) -12276.28   -120.73      0.00
                             -120.73 -11660.40      0.00
                                0.00      0.00 -11693.67

     hartree stress (kbar)   6397.27    -17.03    -13.22
                              -17.03   6409.62      5.57
                              -13.22      5.57   6391.74

     exc-cor stress (kbar)   8820.97      0.36     -1.23
                                0.36   8818.62      0.83
                               -1.23      0.83   8819.95

     corecor stress (kbar) -13293.42      0.58    -20.05
                                0.58 -13354.00     16.89
                              -20.05     16.89 -13346.03

     ewald   stress (kbar) -16061.81     -0.00     -0.00
                               -0.00 -16061.81     -0.00
                               -0.00     -0.00 -16061.81

     hubbard stress (kbar)      0.00      0.00      0.00
                                0.00      0.00      0.00
                                0.00      0.00      0.00

     DFT-D   stress (kbar)      0.00      0.00      0.00
                                0.00      0.00      0.00
                                0.00      0.00      0.00

     XDM     stress (kbar)      0.00      0.00      0.00
                                0.00      0.00      0.00
                                0.00      0.00      0.00

     dft-nl  stress (kbar)      0.00      0.00      0.00
                                0.00      0.00      0.00
                                0.00      0.00      0.00

     TS-vdW  stress (kbar)      0.00      0.00      0.00
                                0.00      0.00      0.00
                                0.00      0.00      0.00

[...]

                                0.00      0.00      0.00

     Writing all to output data dir new_calculations/myprefix.save/

     General routines

     Parallel routines

     PAW routines

   This run was terminated on:   7:47:55  21May2023

   JOB DONE.