     Program PWSCF v.7.0 starts on 21May2023 at  4:30:22

     Reading input from espresso_5920.pwi
Warning: card &CELL ignored
Warning: card / ignored

     Current dimensions of program PWSCF are:
     Max number of different atomic species (ntypx) = 10
     Max number of k-points (npk) =  40000
     Max angular momentum in pseudopotentials (lmaxx) =  4
     file Al.pbe-n-kjpaw_psl.1.0.0.UPF: wavefunction(s)  3S 3P renormalized

     gamma-point specific algorithms are used
     Message from routine setup:
     using ibrav=0 with symmetry is DISCOURAGED, use correct ibrav instead

     Subspace diagonalization in iterative solution of the eigenvalue problem:
     a serial algorithm will be used

     Using Slab Decomposition

     bravais-lattice index     =            0
     lattice parameter (alat)  =      13.7318  a.u.
     unit-cell volume          =    1830.9024 (a.u.)^3
     number of atoms/cell      =           10
     number of atomic types    =            4
     number of electrons       =        72.00
     number of Kohn-Sham states=           43
     kinetic-energy cutoff     =      30.0000  Ry
     charge density cutoff     =     240.0000  Ry
     scf convergence threshold =      1.0E-06
     mixing beta               =       0.7000
     number of iterations used =            8  plain     mixing
     Exchange-correlation=  SLA  PW   PBX  PBC
                           (   1   4   3   4   0   0   0)

     celldm(1)=  13.731777  celldm(2)=   0.000000  celldm(3)=   0.000000
     celldm(4)=   0.000000  celldm(5)=   0.000000  celldm(6)=   0.000000

     crystal axes: (cart. coord. in units of alat)
               a(1) = (   1.000000   0.000000   0.000000 )
               a(2) = (   0.500000   0.866025   0.000000 )
               a(3) = (   0.500000   0.288675   0.816497 )

     reciprocal axes: (cart. coord. in units 2 pi/alat)
               b(1) = (  1.000000 -0.577350 -0.408248 )
               b(2) = (  0.000000  1.154701 -0.408248 )
               b(3) = (  0.000000  0.000000  1.224745 )

     PseudoPot. # 1 for Rb read from file:
     /home/pragov/projects/rrg-bengioy-ad/pragov/crystal_structure_design/SSSP/Rb_ONCV_PBE-1.0.oncvpsp.upf
     MD5 check sum: 55a5172d6bfbce6759a58e35d43f6aa9
     Pseudo is Norm-conserving, Zval =  9.0
     Generated using ONCVPSP code by D. R. Hamann
     Using radial grid of 2308 points,  6 beta functions with:
                l(1) =   0
                l(2) =   0
                l(3) =   1
                l(4) =   1
                l(5) =   2
                l(6) =   2

     PseudoPot. # 2 for Na read from file:
     /home/pragov/projects/rrg-bengioy-ad/pragov/crystal_structure_design/SSSP/na_pbe_v1.5.uspp.F.UPF
     MD5 check sum: 44600605ef58000f06b90626533354dc
     Pseudo is Ultrasoft, Zval =  9.0
     Generated by new atomic code, or converted to UPF format
     Using radial grid of  819 points,  5 beta functions with:
                l(1) =   0
                l(2) =   0
                l(3) =   1
                l(4) =   1
                l(5) =   2
     Q(r) pseudized with  8 coefficients,  rinner =    1.250   1.250   1.250
                                                       1.250   1.250

     PseudoPot. # 3 for Al read from file:
     /home/pragov/projects/rrg-bengioy-ad/pragov/crystal_structure_design/SSSP/Al.pbe-n-kjpaw_psl.1.0.0.UPF
     MD5 check sum: cfc449ca30b5f3223ec38ddd88ac046d
     Pseudo is Projector augmented-wave + core cor, Zval =  3.0
     Generated using "atomic" code by A. Dal Corso  v.5.1
     Shape of augmentation charge: PSQ
     Using radial grid of 1135 points,  6 beta functions with:
                l(1) =   0
                l(2) =   0
                l(3) =   1
                l(4) =   1
                l(5) =   2
                l(6) =   2
     Q(r) pseudized with 0 coefficients

     PseudoPot. # 4 for Cl read from file:
     /home/pragov/projects/rrg-bengioy-ad/pragov/crystal_structure_design/SSSP/cl_pbe_v1.4.uspp.F.UPF
     MD5 check sum: fc6f6913ecf08c9257cb748ef0700058
     Pseudo is Ultrasoft + core correction, Zval =  7.0
     Generated by new atomic code, or converted to UPF format
     Using radial grid of  909 points,  6 beta functions with:
                l(1) =   0
                l(2) =   0
                l(3) =   1
                l(4) =   1
                l(5) =   2
                l(6) =   2
     Q(r) pseudized with  8 coefficients,  rinner =    1.300   1.300   1.300
                                                       1.300   1.300

     atomic species   valence    mass     pseudopotential
        Rb             9.00    85.46780     Rb( 1.00)
        Na             9.00    22.98977     Na( 1.00)
        Al             3.00    26.98154     Al( 1.00)
        Cl             7.00    35.45000     Cl( 1.00)

     12 Sym. Ops., with inversion, found

                                    s                        frac. trans.

      isym =  1     identity

 cryst.   s( 1) = (     1          0          0      )
                  (     0          1          0      )
                  (     0          0          1      )

 cart.    s( 1) = (  1.0000000  0.0000000  0.0000000 )
                  (  0.0000000  1.0000000  0.0000000 )
                  (  0.0000000  0.0000000  1.0000000 )

      isym =  2     180 deg rotation - cart. axis [1,0,0]

[...]

      isym =  3     120 deg rotation - cryst. axis [0,0,1]

[...]

      isym =  6     180 deg rotation - cryst. axis [1,1,0]

[...]

      isym =  7     inversion

[...]

      isym =  8     inv. 180 deg rotation - cart. axis [1,0,0]

[...]

      isym =  9     inv. 120 deg rotation - cryst. axis [0,0,1]

 cryst.   s( 9) = (     1         -1          0      )
                  (     1          0          0      )
                  (     1          0         -1      )

 cart.    s( 9) = (  0.5000000  0.8660254 -0.0000000 )
                  ( -0.8660254  0.5000000 -0.0000000 )
                  (  0.0000000  0.0000000 -1.0000000 )

[...]

 cryst.   s(10) = (     0          1          0      )
                  (    -1          1          0      )
                  (     0          1         -1      )

 cart.    s(10) = (  0.5000000 -0.8660254  0.0000000 )
                  (  0.8660254  0.5000000 -0.0000000 )
                  (  0.0000000  0.0000000 -1.0000000 )

[...]

      isym = 12     inv. 180 deg rotation - cryst. axis [1,1,0]

 cryst.   s(12) = (     1         -1          0      )
                  (     0         -1          0      )
                  (     0         -1          1      )

 cart.    s(12) = (  0.5000000 -0.8660254  0.0000000 )
                  ( -0.8660254 -0.5000000  0.0000000 )
                  (  0.0000000  0.0000000  1.0000000 )

   Cartesian axes

     site n.     atom                  positions (alat units)
         1           Rb  tau(   1) = (   1.5000000   0.8660254   0.6123724  )
         2           Rb  tau(   2) = (   0.5000000   0.2886751   0.2041241  )
         3           Na  tau(   3) = (   1.0000000   0.5773503   0.4082483  )
         4           Al  tau(   4) = (   0.0000000   0.0000000   0.0000000  )
         5           Cl  tau(   5) = (   1.0000000   0.2642116   0.1868258  )
         6           Cl  tau(   6) = (   0.7288140   0.4207810   0.6296707  )
         7           Cl  tau(   7) = (   1.0000000   0.8904889   0.6296707  )
         8           Cl  tau(   8) = (   0.7288140   0.7339196   0.1868258  )
         9           Cl  tau(   9) = (   1.2711860   0.4207810   0.6296707  )
        10           Cl  tau(  10) = (   1.2711860   0.7339196   0.1868258  )

   Crystallographic axes

     site n.     atom                  positions (cryst. coord.)
         1           Rb  tau(   1) = (  0.7500000  0.7500000  0.7500000  )
         2           Rb  tau(   2) = (  0.2500000  0.2500000  0.2500000  )
         3           Na  tau(   3) = (  0.5000000  0.5000000  0.5000000  )
         4           Al  tau(   4) = (  0.0000000  0.0000000  0.0000000  )
         5           Cl  tau(   5) = (  0.7711860  0.2288140  0.2288140  )
         6           Cl  tau(   6) = (  0.2288140  0.2288140  0.7711860  )
         7           Cl  tau(   7) = (  0.2288140  0.7711860  0.7711860  )
         8           Cl  tau(   8) = (  0.2288140  0.7711860  0.2288140  )
         9           Cl  tau(   9) = (  0.7711860  0.2288140  0.7711860  )
        10           Cl  tau(  10) = (  0.7711860  0.7711860  0.2288140  )

     number of k points=     1  Methfessel-Paxton smearing, width (Ry)=  0.0010
                       cart. coord. in units 2pi/alat
        k(    1) = (   0.0000000   0.0000000   0.0000000), wk =   2.0000000

                       cryst. coord.
        k(    1) = (   0.0000000   0.0000000   0.0000000), wk =   2.0000000

     Initial potential from superposition of free atoms

     starting charge      71.9418, renormalised to      72.0000

     negative rho (up, down):  9.124E-02 0.000E+00
     Starting wfcs are   43 randomized atomic wfcs
     Checking if some PAW data can be deallocated...

     Self-consistent Calculation

     iteration #  1     ecut=    30.00 Ry     beta= 0.70
     Davidson diagonalization with overlap

     ethr =  1.00E-02,  avg # of iterations =  4.0

     Threshold (ethr) on eigenvalues was too large:
     Diagonalizing with lowered threshold

     Davidson diagonalization with overlap

[...]

     negative rho (up, down):  9.473E-02 0.000E+00

     total energy              =    -433.38622827 Ry
     estimated scf accuracy    <       0.38717883 Ry

[...]

     total energy              =    -433.49871079 Ry
     estimated scf accuracy    <       0.00000749 Ry

     iteration #  7     ecut=    30.00 Ry     beta= 0.70
     Davidson diagonalization with overlap

     ethr =  1.04E-08,  avg # of iterations =  2.0

[...]

     End of self-consistent calculation

          k = 0.0000 0.0000 0.0000 (  2515 PWs)   bands (ev):

   -48.3059 -22.6522 -22.6486 -20.2100 -20.2099 -20.2099 -11.5550 -10.8214
   -10.8213 -10.8213 -10.5116 -10.5116  -6.7920  -6.7920  -6.7920  -6.7470
    -6.7470  -6.7470  -2.8156  -0.8052  -0.8051  -0.8051   0.1731   0.1732
     0.1732   1.0859   1.0860   1.4768   1.4768   1.4768   1.7468   1.7468
     1.7468   2.2230   2.2230   2.2231   6.1203   7.5418   8.8357   8.8418
     8.8418   8.8418   8.9303

     occupation numbers
     1.0000   1.0000   1.0000   1.0000   1.0000   1.0000   1.0000   1.0000
     1.0000   1.0000   1.0000   1.0000   1.0000   1.0000   1.0000   1.0000
     1.0000   1.0000   1.0000   1.0000   1.0000   1.0000   1.0000   1.0000
     1.0000   1.0000   1.0000   1.0000   1.0000   1.0000   1.0000   1.0000
     1.0000   1.0000   1.0000   1.0000  -0.0000  -0.0000  -0.0000  -0.0000
    -0.0000  -0.0000  -0.0000

     the Fermi energy is     5.4721 ev

!    total energy              =    -433.49871096 Ry
     estimated scf accuracy    <       0.00000099 Ry
     smearing contrib. (-TS)   =       0.00000000 Ry
     internal energy E=F+TS    =    -433.49871096 Ry

     The total energy is F=E-TS. E is the sum of the following terms:
     one-electron contribution =    -143.82184164 Ry
     hartree contribution      =      98.00428426 Ry
     xc contribution           =     -89.24219234 Ry
     ewald contribution        =    -263.81218214 Ry
     one-center paw contrib.   =     -34.62677909 Ry
      -> PAW hartree energy AE =       1.11226419 Ry
      -> PAW hartree energy PS =      -1.10969023 Ry
      -> PAW xc energy AE      =     -36.39388911 Ry
      -> PAW xc energy PS      =       1.76453605 Ry
      -> total E_H with PAW    =      98.00685823 Ry
      -> total E_XC with PAW   =    -123.87154540 Ry

     convergence has been achieved in   7 iterations

     negative rho (up, down):  9.004E-02 0.000E+00

     Forces acting on atoms (cartesian axes, Ry/au):

     atom    1 type  1   force =    -0.00000000   -0.00000000   -0.00000416
     atom    2 type  1   force =     0.00000000    0.00000000    0.00000416
     atom    3 type  2   force =     0.00000000    0.00000000    0.00000000
     atom    4 type  3   force =     0.00000000   -0.00000000   -0.00000000
     atom    5 type  4   force =     0.00000000   -0.00878846   -0.00619843
     atom    6 type  4   force =    -0.00761103   -0.00439423    0.00619843
     atom    7 type  4   force =    -0.00000000    0.00878846    0.00619843
     atom    8 type  4   force =    -0.00761103    0.00439423   -0.00619843
     atom    9 type  4   force =     0.00761103   -0.00439423    0.00619843
     atom   10 type  4   force =     0.00761103    0.00439423   -0.00619843
     The non-local contrib.  to forces
     atom    1 type  1   force =     0.00000000    0.00000000   -0.00000050
     atom    2 type  1   force =     0.00000000    0.00000000    0.00000050
     atom    3 type  2   force =     0.00000000    0.00000000   -0.00000000
     atom    4 type  3   force =     0.00000000    0.00000000   -0.00000000
     atom    5 type  4   force =     0.00000000   -0.09324781   -0.06594111
     atom    6 type  4   force =    -0.08075497   -0.04662391    0.06594111
     atom    7 type  4   force =     0.00000000    0.09324781    0.06594111
     atom    8 type  4   force =    -0.08075497    0.04662391   -0.06594111
     atom    9 type  4   force =     0.08075497   -0.04662391    0.06594111
     atom   10 type  4   force =     0.08075497    0.04662391   -0.06594111
     The ionic contribution  to forces
     atom    1 type  1   force =    -0.00000000    0.00000000   -0.00000000
     atom    2 type  1   force =    -0.00000000    0.00000000   -0.00000000
     atom    3 type  2   force =    -0.00000000   -0.00000000    0.00000000
     atom    4 type  3   force =     0.00000000   -0.00000000    0.00000000
     atom    5 type  4   force =     0.00000000    0.38006646    0.26874757
     atom    6 type  4   force =     0.32914721    0.19003323   -0.26874757
     atom    7 type  4   force =    -0.00000000   -0.38006646   -0.26874757
     atom    8 type  4   force =     0.32914721   -0.19003323    0.26874757
     atom    9 type  4   force =    -0.32914721    0.19003323   -0.26874757
     atom   10 type  4   force =    -0.32914721   -0.19003323    0.26874757
     The local contribution  to forces
     atom    1 type  1   force =    -0.00000519    0.00001789   -0.00002872
     atom    2 type  1   force =     0.00003309    0.00001666    0.00003585
     atom    3 type  2   force =    -0.00002467   -0.00000390    0.00001793
     atom    4 type  3   force =    -0.00000011    0.00000051   -0.00000804
     atom    5 type  4   force =    -0.00001704   -0.29658893   -0.20970565
     atom    6 type  4   force =    -0.25687346   -0.14828082    0.20966682
     atom    7 type  4   force =    -0.00005897    0.29659714    0.20968126
     atom    8 type  4   force =    -0.25667757    0.14820061   -0.20967863
     atom    9 type  4   force =     0.25677971   -0.14836631    0.20956399
     atom   10 type  4   force =     0.25685345    0.14827429   -0.20967176
     The core correction contribution to forces
     atom    1 type  1   force =     0.00000000    0.00000000    0.00000000
     atom    2 type  1   force =     0.00000000    0.00000000    0.00000000
     atom    3 type  2   force =     0.00000000    0.00000000    0.00000000
     atom    4 type  3   force =     0.00000028   -0.00000010   -0.00000044
     atom    5 type  4   force =     0.00000052    0.00208083    0.00147061
     atom    6 type  4   force =     0.00180043    0.00104014   -0.00147148
     atom    7 type  4   force =    -0.00000167   -0.00208124   -0.00147074
     atom    8 type  4   force =     0.00180447   -0.00104247    0.00147120
     atom    9 type  4   force =    -0.00180116    0.00103567   -0.00147483
     atom   10 type  4   force =    -0.00180245   -0.00104191    0.00147160
     The Hubbard contrib.    to forces
     atom    1 type  1   force =     0.00000000    0.00000000    0.00000000
     atom    2 type  1   force =     0.00000000    0.00000000    0.00000000
     atom    3 type  2   force =     0.00000000    0.00000000    0.00000000
     atom    4 type  3   force =     0.00000000    0.00000000    0.00000000
     atom    5 type  4   force =     0.00000000    0.00000000    0.00000000
     atom    6 type  4   force =     0.00000000    0.00000000    0.00000000
     atom    7 type  4   force =     0.00000000    0.00000000    0.00000000
     atom    8 type  4   force =     0.00000000    0.00000000    0.00000000
     atom    9 type  4   force =     0.00000000    0.00000000    0.00000000
     atom   10 type  4   force =     0.00000000    0.00000000    0.00000000
     The SCF correction term to forces
     atom    1 type  1   force =     0.00000709   -0.00001128    0.00003448
     atom    2 type  1   force =    -0.00004399   -0.00001722   -0.00002278
     atom    3 type  2   force =    -0.00005204   -0.00001409    0.00002141
     atom    4 type  3   force =     0.00000118   -0.00000039    0.00000362
     atom    5 type  4   force =     0.00001207   -0.00111335   -0.00078787
     atom    6 type  4   force =    -0.00095452   -0.00057308    0.00081091
     atom    7 type  4   force =     0.00002033    0.00111712    0.00080142
     atom    8 type  4   force =    -0.00104607    0.00060662   -0.00080382
     atom    9 type  4   force =     0.00101135   -0.00053930    0.00087044
     atom   10 type  4   force =     0.00095754    0.00057044   -0.00081731

     Total force =     0.026343     Total SCF correction =     0.003427
     SCF correction compared to forces is large: reduce conv_thr to get better values

     Computing stress (Cartesian axis) and pressure

     negative rho (up, down):  9.004E-02 0.000E+00
          total   stress  (Ry/bohr**3)                   (kbar)     P=       36.62
   0.00024896  -0.00000000  -0.00000000           36.62       -0.00       -0.00
   0.00000000   0.00024896  -0.00000000            0.00       36.62       -0.00
  -0.00000000  -0.00000000   0.00024894           -0.00       -0.00       36.62

     kinetic stress (kbar)   6218.36     -0.00     -0.00
                               -0.00   6218.36     -0.00
                               -0.00     -0.00   6218.36

     local   stress (kbar)     36.68      0.00     -0.00
                                0.00     36.69      0.00
                               -0.00      0.00     36.69

     nonloc. stress (kbar)    134.60      0.00     -0.00
                                0.00    134.60     -0.00
                               -0.00     -0.00    134.60

     hartree stress (kbar)   2624.74     -0.00      0.00
                               -0.00   2624.74     -0.00
                                0.00     -0.00   2624.74

     exc-cor stress (kbar)    -23.37      0.00      0.00
                                0.00    -23.37     -0.00
                                0.00     -0.00    -23.37

     corecor stress (kbar)  -1889.01      0.00     -0.00
                                0.00  -1889.01     -0.00
                               -0.00     -0.00  -1889.01

     ewald   stress (kbar)  -7065.39      0.00      0.00
                                0.00  -7065.39      0.00
                                0.00      0.00  -7065.39

     hubbard stress (kbar)      0.00      0.00      0.00
                                0.00      0.00      0.00
                                0.00      0.00      0.00

     DFT-D   stress (kbar)      0.00      0.00      0.00
                                0.00      0.00      0.00
                                0.00      0.00      0.00

     XDM     stress (kbar)      0.00      0.00      0.00
                                0.00      0.00      0.00
                                0.00      0.00      0.00

     dft-nl  stress (kbar)      0.00      0.00      0.00
                                0.00      0.00      0.00
                                0.00      0.00      0.00

     TS-vdW  stress (kbar)      0.00      0.00      0.00
                                0.00      0.00      0.00
                                0.00      0.00      0.00

[...]

                                0.00      0.00      0.00

     Writing all to output data dir new_calculations/myprefix.save/

     General routines

     Parallel routines

     PAW routines

   This run was terminated on:   4:30:53  21May2023

   JOB DONE.