     Program PWSCF v.7.0 starts on 21May2023 at  2:56: 6

     Reading input from espresso_22419.pwi
Warning: card &CELL ignored
Warning: card / ignored

     Current dimensions of program PWSCF are:
     Max number of different atomic species (ntypx) = 10
     Max number of k-points (npk) =  40000
     Max angular momentum in pseudopotentials (lmaxx) =  4
     file K.pbe-spn-kjpaw_psl.1.0.0.UPF: wavefunction(s)  3S renormalized

     gamma-point specific algorithms are used
     Message from routine setup:
     using ibrav=0 with symmetry is DISCOURAGED, use correct ibrav instead

     Subspace diagonalization in iterative solution of the eigenvalue problem:
     a serial algorithm will be used

     Using Slab Decomposition

     bravais-lattice index     =            0
     lattice parameter (alat)  =      11.6215  a.u.
     unit-cell volume          =    1079.9364 (a.u.)^3
     number of atoms/cell      =           10
     number of atomic types    =            4
     number of electrons       =        87.00
     number of Kohn-Sham states=           53
     kinetic-energy cutoff     =      30.0000  Ry
     charge density cutoff     =     240.0000  Ry
     scf convergence threshold =      1.0E-06
     mixing beta               =       0.7000
     number of iterations used =            8  plain     mixing
     Exchange-correlation=  SLA  PW   PBX  PBC
                           (   1   4   3   4   0   0   0)

     celldm(1)=  11.621481  celldm(2)=   0.000000  celldm(3)=   0.000000
     celldm(4)=   0.000000  celldm(5)=   0.000000  celldm(6)=   0.000000

     crystal axes: (cart. coord. in units of alat)
               a(1) = (   1.000000   0.000000   0.000000 )
               a(2) = (   0.050756   0.998711   0.000000 )
               a(3) = (  -0.525378  -0.499356   0.688928 )

     reciprocal axes: (cart. coord. in units 2 pi/alat)
               b(1) = (  1.000000 -0.050822  0.725765 )
               b(2) = (  0.000000  1.001291  0.725765 )
               b(3) = (  0.000000  0.000000  1.451530 )

     PseudoPot. # 1 for K  read from file:
     /home/pragov/projects/rrg-bengioy-ad/pragov/crystal_structure_design/SSSP/K.pbe-spn-kjpaw_psl.1.0.0.UPF
     MD5 check sum: 7d58810084cac21f60fbe77ea2b688fd
     Pseudo is Projector augmented-wave + core cor, Zval =  9.0
     Generated using "atomic" code by A. Dal Corso  v.5.1
     Shape of augmentation charge: PSQ
     Using radial grid of 1165 points,  6 beta functions with:
                l(1) =   0
                l(2) =   0
                l(3) =   1
                l(4) =   1
                l(5) =   2
                l(6) =   2
     Q(r) pseudized with 0 coefficients

     PseudoPot. # 2 for Na read from file:
     /home/pragov/projects/rrg-bengioy-ad/pragov/crystal_structure_design/SSSP/na_pbe_v1.5.uspp.F.UPF
     MD5 check sum: 44600605ef58000f06b90626533354dc
     Pseudo is Ultrasoft, Zval =  9.0
     Generated by new atomic code, or converted to UPF format
     Using radial grid of  819 points,  5 beta functions with:
                l(1) =   0
                l(2) =   0
                l(3) =   1
                l(4) =   1
                l(5) =   2
     Q(r) pseudized with  8 coefficients,  rinner =    1.250   1.250   1.250
                                                       1.250   1.250

     PseudoPot. # 3 for Pd read from file:
     /home/pragov/projects/rrg-bengioy-ad/pragov/crystal_structure_design/SSSP/Pd_ONCV_PBE-1.0.oncvpsp.upf
     MD5 check sum: eb77f42b51d86fb18e25f68156a31cf1
     Pseudo is Norm-conserving, Zval = 18.0
     Generated using ONCVPSP code by D. R. Hamann
     Using radial grid of 1410 points,  6 beta functions with:
                l(1) =   0
                l(2) =   0
                l(3) =   1
                l(4) =   1
                l(5) =   2
                l(6) =   2

     PseudoPot. # 4 for F  read from file:
     /home/pragov/projects/rrg-bengioy-ad/pragov/crystal_structure_design/SSSP/f_pbe_v1.4.uspp.F.UPF
     MD5 check sum: 4c38b6a325caf53ec0e86aed9459de46
     Pseudo is Ultrasoft, Zval =  7.0
     Generated by new atomic code, or converted to UPF format
     Using radial grid of  799 points,  4 beta functions with:
                l(1) =   0
                l(2) =   0
                l(3) =   1
                l(4) =   1
     Q(r) pseudized with  8 coefficients,  rinner =    0.950   0.950   0.950

     atomic species   valence    mass     pseudopotential
        K              9.00    39.09830     K ( 1.00)
        Na             9.00    22.98977     Na( 1.00)
        Pd            18.00   106.42000     Pd( 1.00)
        F              7.00    18.99840     F ( 1.00)

      4 Sym. Ops., with inversion, found

                                    s                        frac. trans.

      isym =  1     identity

 cryst.   s( 1) = (     1          0          0      )
                  (     0          1          0      )
                  (     0          0          1      )

 cart.    s( 1) = (  1.0000000  0.0000000  0.0000000 )
                  (  0.0000000  1.0000000 -0.0000000 )
                  (  0.0000000  0.0000000  1.0000000 )

      isym =  2     180 deg rotation - cart. axis [0,0,1]

[...]

      isym =  3     inversion

[...]

      isym =  4     inv. 180 deg rotation - cart. axis [0,0,1]

 cryst.   s( 4) = (     1          0          0      )
                  (     0          1          0      )
                  (    -1         -1         -1      )

 cart.    s( 4) = (  1.0000000  0.0000000  0.0000000 )
                  (  0.0000000  1.0000000  0.0000000 )
                  (  0.0000000  0.0000000 -1.0000000 )

   Cartesian axes

     site n.     atom                  positions (alat units)
         1           K   tau(   1) = (   0.5000000   0.0000000   0.3444641  )
         2           K   tau(   2) = (   0.0253780   0.4993555   0.3444641  )
         3           Na  tau(   3) = (   0.5253780   0.4993555   0.0000000  )
         4           Pd  tau(   4) = (   0.0000000   0.0000000   0.0000000  )
         5           F   tau(   5) = (  -0.0000005  -0.0000005   0.3233891  )
         6           F   tau(   6) = (   0.5253786   0.4993560   0.3655391  )
         7           F   tau(   7) = (   0.2735474   0.7643096   0.0000000  )
         8           F   tau(   8) = (   0.7772087   0.2344015   0.0000000  )
         9           F   tau(   9) = (   0.2594096   0.2465608   0.0000000  )
        10           F   tau(  10) = (   0.7913465   0.7521503   0.0000000  )

   Crystallographic axes

     site n.     atom                  positions (cryst. coord.)
         1           K   tau(   1) = (  0.7500000  0.2500000  0.5000000  )
         2           K   tau(   2) = (  0.2500000  0.7500000  0.5000000  )
         3           Na  tau(   3) = (  0.5000000  0.5000000  0.0000000  )
         4           Pd  tau(   4) = (  0.0000000  0.0000000  0.0000000  )
         5           F   tau(   5) = (  0.2347040  0.2347040  0.4694090  )
         6           F   tau(   6) = (  0.7652960  0.7652960  0.5305910  )
         7           F   tau(   7) = (  0.2347040  0.7652960  0.0000000  )
         8           F   tau(   8) = (  0.7652960  0.2347040  0.0000000  )
         9           F   tau(   9) = (  0.2468790  0.2468790  0.0000000  )
        10           F   tau(  10) = (  0.7531210  0.7531210  0.0000000  )

     number of k points=     1  Methfessel-Paxton smearing, width (Ry)=  0.0010
                       cart. coord. in units 2pi/alat
        k(    1) = (   0.0000000   0.0000000   0.0000000), wk =   2.0000000

                       cryst. coord.
        k(    1) = (   0.0000000   0.0000000   0.0000000), wk =   2.0000000

     Check: negative core charge=   -0.000003

     Initial potential from superposition of free atoms

     starting charge      86.9557, renormalised to      87.0000
     Starting wfcs are   55 randomized atomic wfcs
     Checking if some PAW data can be deallocated...

     Self-consistent Calculation

     iteration #  1     ecut=    30.00 Ry     beta= 0.70
     Davidson diagonalization with overlap

     ethr =  1.00E-02,  avg # of iterations =  7.0

     total energy              =    -865.91091719 Ry
     estimated scf accuracy    <       1.25552218 Ry

[...]

     total energy              =    -866.52416140 Ry
     estimated scf accuracy    <       0.00000227 Ry

     iteration #  9     ecut=    30.00 Ry     beta= 0.70
     Davidson diagonalization with overlap

     ethr =  2.61E-09,  avg # of iterations =  2.0

     End of self-consistent calculation

          k = 0.0000 0.0000 0.0000 (  1496 PWs)   bands (ev):

   -81.9657 -47.5435 -47.5429 -46.8304 -45.3374 -24.5179 -24.5003 -18.3525
   -18.1983 -18.1962 -18.0973 -17.4841 -17.1177 -17.1173 -16.9568 -16.6599
    -8.0663  -8.0587  -8.0587  -8.0152  -7.9640  -7.9640  -2.0087  -1.8079
    -0.9927  -0.3699  -0.3686  -0.3150  -0.3135  -0.2505   0.1439   0.9689
     1.0109   1.0124   1.4714   1.6034   1.8495   1.8496   1.9932   1.9939
     2.8149   2.9382   2.9390   4.9160   5.3210   8.1619  11.4598  11.5605
    11.7022  11.7025  11.8388  13.5194  13.5195

     occupation numbers
     1.0000   1.0000   1.0000   1.0000   1.0000   1.0000   1.0000   1.0000
     1.0000   1.0000   1.0000   1.0000   1.0000   1.0000   1.0000   1.0000
     1.0000   1.0000   1.0000   1.0000   1.0000   1.0000   1.0000   1.0000
     1.0000   1.0000   1.0000   1.0000   1.0000   1.0000   1.0000   1.0000
     1.0000   1.0000   1.0000   1.0000   1.0000   1.0000   1.0000   1.0000
     1.0000   1.0000   1.0000   0.5000  -0.0000  -0.0000  -0.0000  -0.0000
    -0.0000  -0.0000  -0.0000  -0.0000  -0.0000

     the Fermi energy is     4.9160 ev

!    total energy              =    -866.52416157 Ry
     estimated scf accuracy    <       0.00000064 Ry
     smearing contrib. (-TS)   =      -0.00028209 Ry
     internal energy E=F+TS    =    -866.52387948 Ry

     The total energy is F=E-TS. E is the sum of the following terms:
     one-electron contribution =    -465.62855922 Ry
     hartree contribution      =     270.52557776 Ry
     xc contribution           =    -117.95691508 Ry
     ewald contribution        =    -442.62658563 Ry
     one-center paw contrib.   =    -110.83739731 Ry
      -> PAW hartree energy AE =      75.43386405 Ry
      -> PAW hartree energy PS =     -75.01216613 Ry
      -> PAW xc energy AE      =    -132.45217269 Ry
      -> PAW xc energy PS      =      21.19307746 Ry
      -> total E_H with PAW    =     270.94727568 Ry
      -> total E_XC with PAW   =    -229.21601031 Ry

     convergence has been achieved in   9 iterations

     Forces acting on atoms (cartesian axes, Ry/au):

     atom    1 type  1   force =     0.00000000    0.00000000    0.00000097
     atom    2 type  1   force =     0.00000000    0.00000000   -0.00000097
     atom    3 type  2   force =     0.00000000    0.00000000    0.00000000
     atom    4 type  3   force =     0.00000000    0.00000000    0.00000000
     atom    5 type  4   force =     0.00000000    0.00000000   -0.00884870
     atom    6 type  4   force =     0.00000000    0.00000000    0.00884870
     atom    7 type  4   force =    -0.00583100    0.00613538   -0.00000000
     atom    8 type  4   force =     0.00583100   -0.00613538   -0.00000000
     atom    9 type  4   force =    -0.00210786   -0.00200525   -0.00000000
     atom   10 type  4   force =     0.00210786    0.00200525    0.00000000
     The non-local contrib.  to forces
     atom    1 type  1   force =     0.00000000    0.00000000    0.00000101
     atom    2 type  1   force =     0.00000000    0.00000000   -0.00000101
     atom    3 type  2   force =     0.00000000    0.00000000   -0.00000000
     atom    4 type  3   force =     0.00000000    0.00000000   -0.00000000
     atom    5 type  4   force =     0.00000000    0.00000000   -0.74078253
     atom    6 type  4   force =     0.00000000    0.00000000    0.74078253
     atom    7 type  4   force =    -0.50994774    0.53652278   -0.00000000
     atom    8 type  4   force =     0.50994774   -0.53652278    0.00000000
     atom    9 type  4   force =    -0.20040557   -0.19048030   -0.00000000
     atom   10 type  4   force =     0.20040557    0.19048030    0.00000000
     The ionic contribution  to forces
     atom    1 type  1   force =    -0.00001871    0.00001968    0.00000000
     atom    2 type  1   force =     0.00001871   -0.00001968    0.00000000
     atom    3 type  2   force =    -0.00000000   -0.00000000   -0.00000000
     atom    4 type  3   force =     0.00000000   -0.00000000   -0.00000000
     atom    5 type  4   force =    -0.00000865   -0.00000822   10.91655069
     atom    6 type  4   force =     0.00000865    0.00000822  -10.91655069
     atom    7 type  4   force =     7.52079436   -7.91271936    0.00000000
     atom    8 type  4   force =    -7.52079436    7.91271936   -0.00000000
     atom    9 type  4   force =     5.28274336    5.02108373    0.00002139
     atom   10 type  4   force =    -5.28274336   -5.02108372   -0.00002139
     The local contribution  to forces
     atom    1 type  1   force =     0.00002364   -0.00001805   -0.00001610
     atom    2 type  1   force =    -0.00001523    0.00001938   -0.00002398
     atom    3 type  2   force =    -0.00008014    0.00010567   -0.00002363
     atom    4 type  3   force =     0.00038953   -0.00047815    0.00011722
     atom    5 type  4   force =     0.00002188   -0.00001680  -10.18453464
     atom    6 type  4   force =     0.00000918   -0.00002385   10.18451522
     atom    7 type  4   force =    -7.01685305    7.38251104    0.00000350
     atom    8 type  4   force =     7.01678520   -7.38244100    0.00000274
     atom    9 type  4   force =    -5.08445615   -4.83263550   -0.00002356
     atom   10 type  4   force =     5.08448185    4.83262325    0.00002316
     The core correction contribution to forces
     atom    1 type  1   force =     0.00000029   -0.00000001   -0.00000038
     atom    2 type  1   force =     0.00000032   -0.00000016   -0.00000041
     atom    3 type  2   force =     0.00000000    0.00000000    0.00000000
     atom    4 type  3   force =     0.00000000    0.00000000    0.00000000
     atom    5 type  4   force =     0.00000000    0.00000000    0.00000000
     atom    6 type  4   force =     0.00000000    0.00000000    0.00000000
     atom    7 type  4   force =     0.00000000    0.00000000    0.00000000
     atom    8 type  4   force =     0.00000000    0.00000000    0.00000000
     atom    9 type  4   force =     0.00000000    0.00000000    0.00000000
     atom   10 type  4   force =     0.00000000    0.00000000    0.00000000
     The Hubbard contrib.    to forces
     atom    1 type  1   force =     0.00000000    0.00000000    0.00000000
     atom    2 type  1   force =     0.00000000    0.00000000    0.00000000
     atom    3 type  2   force =     0.00000000    0.00000000    0.00000000
     atom    4 type  3   force =     0.00000000    0.00000000    0.00000000
     atom    5 type  4   force =     0.00000000    0.00000000    0.00000000
     atom    6 type  4   force =     0.00000000    0.00000000    0.00000000
     atom    7 type  4   force =     0.00000000    0.00000000    0.00000000
     atom    8 type  4   force =     0.00000000    0.00000000    0.00000000
     atom    9 type  4   force =     0.00000000    0.00000000    0.00000000
     atom   10 type  4   force =     0.00000000    0.00000000    0.00000000
     The SCF correction term to forces
     atom    1 type  1   force =    -0.00000364   -0.00000154    0.00000843
     atom    2 type  1   force =     0.00000096   -0.00000147    0.00001641
     atom    3 type  2   force =     0.00011982   -0.00017187    0.00004222
     atom    4 type  3   force =    -0.00041416    0.00052067   -0.00012533
     atom    5 type  4   force =    -0.00002038    0.00002082   -0.00008825
     atom    6 type  4   force =    -0.00001942    0.00001774    0.00009560
     atom    7 type  4   force =     0.00015308   -0.00015687   -0.00000135
     atom    8 type  4   force =    -0.00012994    0.00013123   -0.00000123
     atom    9 type  4   force =     0.00001208    0.00003354    0.00000617
     atom   10 type  4   force =    -0.00003463   -0.00000786    0.00000205

     Total force =     0.017799     Total SCF correction =     0.000779

     Computing stress (Cartesian axis) and pressure

          total   stress  (Ry/bohr**3)                   (kbar)     P=     -240.63
  -0.00165804  -0.00005477  -0.00000000         -243.91       -8.06       -0.00
  -0.00005477  -0.00165248  -0.00000000           -8.06     -243.09       -0.00
  -0.00000000  -0.00000000  -0.00159679           -0.00       -0.00     -234.90

     kinetic stress (kbar)  23209.72    232.30      0.00
                              232.30  23186.11      0.00
                                0.00      0.00  22964.40

     local   stress (kbar)  -7524.81   2117.32      0.03
                             2117.32  -7740.02      0.03
                                0.03      0.03  -9749.64

     nonloc. stress (kbar)  -2196.50    -10.12     -0.00
                              -10.12  -2195.48     -0.00
                               -0.00     -0.00  -2185.81

     hartree stress (kbar)  11982.79   -782.71     -0.01
                             -782.71  12062.35     -0.01
                               -0.01     -0.01  12804.89

     exc-cor stress (kbar)  -4281.22     -1.62     -0.00
                               -1.62  -4281.06     -0.00
                               -0.00     -0.00  -4279.52

     corecor stress (kbar)   -735.00      0.05     -0.00
                                0.05   -735.01      0.00
                               -0.00      0.00   -735.05

     ewald   stress (kbar) -20698.87  -1563.28     -0.02
                            -1563.28 -20539.98     -0.02
                               -0.02     -0.02 -19054.16

     hubbard stress (kbar)      0.00      0.00      0.00
                                0.00      0.00      0.00
                                0.00      0.00      0.00

     DFT-D   stress (kbar)      0.00      0.00      0.00
                                0.00      0.00      0.00
                                0.00      0.00      0.00

     XDM     stress (kbar)      0.00      0.00      0.00
                                0.00      0.00      0.00
                                0.00      0.00      0.00

     dft-nl  stress (kbar)      0.00      0.00      0.00
                                0.00      0.00      0.00
                                0.00      0.00      0.00

     TS-vdW  stress (kbar)      0.00      0.00      0.00
                                0.00      0.00      0.00
                                0.00      0.00      0.00

[...]

                                0.00      0.00      0.00

     Writing all to output data dir new_calculations/myprefix.save/

     General routines

     Parallel routines

     PAW routines

   This run was terminated on:   2:56:21  21May2023

   JOB DONE.