     Program PWSCF v.7.0 starts on 20May2023 at 11:42: 0

     Reading input from espresso_19261.pwi
Warning: card &CELL ignored
Warning: card / ignored

     Current dimensions of program PWSCF are:
     Max number of different atomic species (ntypx) = 10
     Max number of k-points (npk) =  40000
     Max angular momentum in pseudopotentials (lmaxx) =  4
     file Cd.pbe-dn-rrkjus_psl.0.3.1.UPF: wavefunction(s)  4D renormalized

     gamma-point specific algorithms are used
     Message from routine setup:
     using ibrav=0 with symmetry is DISCOURAGED, use correct ibrav instead

     Subspace diagonalization in iterative solution of the eigenvalue problem:
     a serial algorithm will be used

     Using Slab Decomposition

     bravais-lattice index     =            0
     lattice parameter (alat)  =      11.2432  a.u.
     unit-cell volume          =    1009.4495 (a.u.)^3
     number of atoms/cell      =            8
     number of atomic types    =            2
     number of electrons       =       138.00
     number of Kohn-Sham states=           83
     kinetic-energy cutoff     =      30.0000  Ry
     charge density cutoff     =     240.0000  Ry
     scf convergence threshold =      1.0E-06
     mixing beta               =       0.7000
     number of iterations used =            8  plain     mixing
     Exchange-correlation= PBE
                           (   1   4   3   4   0   0   0)

     celldm(1)=  11.243174  celldm(2)=   0.000000  celldm(3)=   0.000000
     celldm(4)=   0.000000  celldm(5)=   0.000000  celldm(6)=   0.000000

     crystal axes: (cart. coord. in units of alat)
               a(1) = (   1.000000   0.000000   0.000000 )
               a(2) = (  -0.500000   0.866025   0.000000 )
               a(3) = (   0.000000   0.000000   0.820138 )

     reciprocal axes: (cart. coord. in units 2 pi/alat)
               b(1) = (  1.000000  0.577350  0.000000 )
               b(2) = (  0.000000  1.154700  0.000000 )
               b(3) = (  0.000000  0.000000  1.219306 )

     PseudoPot. # 1 for Cd read from file:
     /home/pragov/projects/rrg-bengioy-ad/pragov/crystal_structure_design/SSSP/Cd.pbe-dn-rrkjus_psl.0.3.1.UPF
     MD5 check sum: 558e9f355611b531a870a69ef6ace9e2
     Pseudo is Ultrasoft + core correction, Zval = 12.0
     Generated using "atomic" code by A. Dal Corso  v.5.0.99 svn rev. 10869
     Using radial grid of 1239 points,  6 beta functions with:
                l(1) =   0
                l(2) =   0
                l(3) =   1
                l(4) =   1
                l(5) =   2
                l(6) =   2
     Q(r) pseudized with 0 coefficients

     PseudoPot. # 2 for Ag read from file:
     /home/pragov/projects/rrg-bengioy-ad/pragov/crystal_structure_design/SSSP/Ag_ONCV_PBE-1.0.oncvpsp.upf
     MD5 check sum: 94f47bd0669c641108e45594df92fabc
     Pseudo is Norm-conserving, Zval = 19.0
     Generated using ONCVPSP code by D. R. Hamann
     Using radial grid of 1398 points,  6 beta functions with:
                l(1) =   0
                l(2) =   0
                l(3) =   1
                l(4) =   1
                l(5) =   2
                l(6) =   2

     atomic species   valence    mass     pseudopotential
        Cd            12.00   112.41400     Cd( 1.00)
        Ag            19.00   107.86820     Ag( 1.00)

     24 Sym. Ops., with inversion, found (12 have fractional translation)

                                    s                        frac. trans.

      isym =  1     identity

 cryst.   s( 1) = (     1          0          0      )
                  (     0          1          0      )
                  (     0          0          1      )

 cart.    s( 1) = (  1.0000000 -0.0000000  0.0000000 )
                  (  0.0000000  1.0000000  0.0000000 )
                  (  0.0000000  0.0000000  1.0000000 )

      isym =  2     180 deg rotation - cart. axis [0,0,1]

 cryst.   s( 2) = (    -1          0          0      )    f =(  0.0000000 )
                  (     0         -1          0      )       (  0.0000000 )
                  (     0          0          1      )       ( -0.5000000 )

 cart.    s( 2) = ( -1.0000000  0.0000000  0.0000000 )    f =( -0.0000000 )
                  (  0.0000000 -1.0000000  0.0000000 )       (  0.0000000 )
                  (  0.0000000  0.0000000  1.0000000 )       ( -0.4100692 )

[...]

      isym =  4     180 deg rotation - cart. axis [1,0,0]

[...]

      isym =  5      60 deg rotation - cryst. axis [0,0,1]

[...]

 cryst.   s( 8) = (    -1         -1          0      )
                  (     1          0          0      )
                  (     0          0          1      )

 cart.    s( 8) = ( -0.5000001  0.8660254  0.0000000 )
                  ( -0.8660254 -0.4999999  0.0000000 )
                  (  0.0000000  0.0000000  1.0000000 )

[...]

 cryst.   s( 9) = (     0         -1          0      )    f =(  0.0000000 )
                  (    -1          0          0      )       (  0.0000000 )
                  (     0          0         -1      )       ( -0.5000000 )

 cart.    s( 9) = (  0.4999999 -0.8660254  0.0000000 )    f =(  0.0000000 )
                  ( -0.8660254 -0.4999999  0.0000000 )       (  0.0000000 )
                  (  0.0000000  0.0000000 -1.0000000 )       ( -0.4100692 )

[...]

 cryst.   s(10) = (     1          1          0      )    f =(  0.0000000 )
                  (     0         -1          0      )       ( -0.0000010 )
                  (     0          0         -1      )       ( -0.5000000 )

 cart.    s(10) = (  0.5000001  0.8660253  0.0000000 )    f =(  0.0000005 )
                  (  0.8660254 -0.5000001  0.0000000 )       ( -0.0000009 )
                  (  0.0000000  0.0000000 -1.0000000 )       ( -0.4100692 )

[...]

 cryst.   s(11) = (    -1         -1          0      )
                  (     0          1          0      )
                  (     0          0         -1      )

 cart.    s(11) = ( -0.5000001 -0.8660253  0.0000000 )
                  ( -0.8660254  0.5000001  0.0000000 )
                  (  0.0000000  0.0000000 -1.0000000 )

      isym = 12     180 deg rotation - cryst. axis [1,1,0]

[...]

      isym = 13     inversion

[...]

      isym = 14     inv. 180 deg rotation - cart. axis [0,0,1]

[...]

      isym = 16     inv. 180 deg rotation - cart. axis [1,0,0]

[...]

      isym = 17     inv.  60 deg rotation - cryst. axis [0,0,1]

[...]

 cryst.   s(22) = (    -1         -1          0      )    f =(  0.0000000 )
                  (     0          1          0      )       ( -0.0000010 )
                  (     0          0          1      )       ( -0.5000000 )

 cart.    s(22) = ( -0.5000001 -0.8660253  0.0000000 )    f =(  0.0000005 )
                  ( -0.8660254  0.5000001  0.0000000 )       ( -0.0000009 )
                  (  0.0000000  0.0000000  1.0000000 )       ( -0.4100692 )

[...]

      isym = 24     inv. 180 deg rotation - cryst. axis [1,1,0]

 cryst.   s(24) = (     0         -1          0      )
                  (    -1          0          0      )
                  (     0          0          1      )

 cart.    s(24) = (  0.4999999 -0.8660254  0.0000000 )
                  ( -0.8660254 -0.4999999  0.0000000 )
                  (  0.0000000  0.0000000  1.0000000 )

   Cartesian axes

     site n.     atom                  positions (alat units)
         1           Cd  tau(   1) = (  -0.0000005   0.5773506   0.6151038  )
         2           Cd  tau(   2) = (   0.5000005   0.2886749   0.2050346  )
         3           Ag  tau(   3) = (   0.0000005   0.2867194   0.2050346  )
         4           Ag  tau(   4) = (   0.2516941   0.7226653   0.2050346  )
         5           Ag  tau(   5) = (  -0.2516929   0.7226653   0.2050346  )
         6           Ag  tau(   6) = (   0.4999995   0.5793061   0.6151038  )
         7           Ag  tau(   7) = (   0.2483060   0.1433601   0.6151038  )
         8           Ag  tau(   8) = (   0.7516930   0.1433601   0.6151038  )

   Crystallographic axes

     site n.     atom                  positions (cryst. coord.)
         1           Cd  tau(   1) = (  0.3333330  0.6666670  0.7500000  )
         2           Cd  tau(   2) = (  0.6666670  0.3333330  0.2500000  )
         3           Ag  tau(   3) = (  0.1655380  0.3310750  0.2500000  )
         4           Ag  tau(   4) = (  0.6689250  0.8344620  0.2500000  )
         5           Ag  tau(   5) = (  0.1655380  0.8344620  0.2500000  )
         6           Ag  tau(   6) = (  0.8344620  0.6689250  0.7500000  )
         7           Ag  tau(   7) = (  0.3310750  0.1655380  0.7500000  )
         8           Ag  tau(   8) = (  0.8344620  0.1655380  0.7500000  )

     number of k points=     1  Methfessel-Paxton smearing, width (Ry)=  0.0010
                       cart. coord. in units 2pi/alat
        k(    1) = (   0.0000000   0.0000000   0.0000000), wk =   2.0000000

                       cryst. coord.
        k(    1) = (   0.0000000   0.0000000   0.0000000), wk =   2.0000000

     Check: negative core charge=   -0.000002

     Initial potential from superposition of free atoms

     starting charge     137.9885, renormalised to     138.0000
     Starting wfcs are   78 randomized atomic wfcs +    5 random wfcs

     Self-consistent Calculation

     iteration #  1     ecut=    30.00 Ry     beta= 0.70
     Davidson diagonalization with overlap

     ethr =  1.00E-02,  avg # of iterations =  4.0

     Threshold (ethr) on eigenvalues was too large:
     Diagonalizing with lowered threshold

     Davidson diagonalization with overlap

[...]

     total energy              =   -1966.33039006 Ry
     estimated scf accuracy    <       0.13924818 Ry

[...]

     total energy              =   -1966.34533511 Ry
     estimated scf accuracy    <       0.00000175 Ry

     iteration #  9     ecut=    30.00 Ry     beta= 0.70
     Davidson diagonalization with overlap

     ethr =  1.27E-09,  avg # of iterations =  2.0

     End of self-consistent calculation

          k = 0.0000 0.0000 0.0000 (  1401 PWs)   bands (ev):

   -78.1805 -78.1742 -78.1737 -78.1732 -78.1705 -78.1700 -41.2488 -41.2355
   -41.2223 -41.2172 -41.2167 -41.2073 -41.2068 -41.2029 -41.2027 -41.1832
   -41.1827 -41.1771 -41.1763 -41.1544 -41.1540 -41.1530 -41.1497 -41.1495
     6.5862   6.6263   6.6263   6.6692   6.6692   6.6715   6.6715   6.6852
     6.8748   6.8748   7.3954   8.9336   9.3977   9.5006   9.6799   9.8663
     9.8665   9.8686   9.8688  10.2449  10.2452  10.3491  10.5210  10.5211
    10.5907  10.6573  10.7943  10.7945  11.0251  11.0253  11.3291  11.3295
    11.4382  11.4382  11.4619  11.4622  11.4875  11.4878  11.9379  11.9747
    12.0125  14.4008  14.5873  14.5873  14.6783  15.2843  15.8619  15.8619
    17.2838  20.7424  20.8507  20.8507  21.0957  21.4824  21.4825  22.1885
    23.2061  23.2063  24.1471

     occupation numbers
     1.0000   1.0000   1.0000   1.0000   1.0000   1.0000   1.0000   1.0000
     1.0000   1.0000   1.0000   1.0000   1.0000   1.0000   1.0000   1.0000
     1.0000   1.0000   1.0000   1.0000   1.0000   1.0000   1.0000   1.0000
     1.0000   1.0000   1.0000   1.0000   1.0000   1.0000   1.0000   1.0000
     1.0000   1.0000   1.0000   1.0000   1.0000   1.0000   1.0000   1.0000
     1.0000   1.0000   1.0000   1.0000   1.0000   1.0000   1.0000   1.0000
     1.0000   1.0000   1.0000   1.0000   1.0000   1.0000   1.0000   1.0000
     1.0000   1.0000   1.0000   1.0000   1.0000   1.0000   1.0000   1.0000
     1.0000   1.0000   1.0000   1.0000   1.0000  -0.0000  -0.0000  -0.0000
    -0.0000  -0.0000  -0.0000  -0.0000  -0.0000  -0.0000  -0.0000  -0.0000
    -0.0000  -0.0000  -0.0000

     the Fermi energy is    15.0652 ev

!    total energy              =   -1966.34533522 Ry
     estimated scf accuracy    <       0.00000025 Ry
     smearing contrib. (-TS)   =       0.00000000 Ry
     internal energy E=F+TS    =   -1966.34533522 Ry

     The total energy is F=E-TS. E is the sum of the following terms:
     one-electron contribution =    -803.06225186 Ry
     hartree contribution      =     474.89843353 Ry
     xc contribution           =    -247.79804404 Ry
     ewald contribution        =   -1390.38347286 Ry

     convergence has been achieved in   9 iterations

     Forces acting on atoms (cartesian axes, Ry/au):

     atom    1 type  1   force =     0.00000000   -0.00000000    0.00000000
     atom    2 type  1   force =     0.00000000    0.00000000    0.00000000
     atom    3 type  2   force =     0.00000000   -0.00471233    0.00000000
     atom    4 type  2   force =     0.00408100    0.00235616   -0.00000000
     atom    5 type  2   force =    -0.00408100    0.00235616    0.00000000
     atom    6 type  2   force =    -0.00000000    0.00471233    0.00000000
     atom    7 type  2   force =    -0.00408100   -0.00235616    0.00000000
     atom    8 type  2   force =     0.00408100   -0.00235616   -0.00000000
     The non-local contrib.  to forces
     atom    1 type  1   force =     0.00000000    0.00000000    0.00000000
     atom    2 type  1   force =     0.00000000   -0.00000000   -0.00000000
     atom    3 type  2   force =    -0.00000000    0.11081422    0.00000000
     atom    4 type  2   force =    -0.09596793   -0.05540710   -0.00000000
     atom    5 type  2   force =     0.09596793   -0.05540712    0.00000000
     atom    6 type  2   force =    -0.00000000   -0.11081422    0.00000000
     atom    7 type  2   force =     0.09596793    0.05540710    0.00000000
     atom    8 type  2   force =    -0.09596793    0.05540712    0.00000000
     The ionic contribution  to forces
     atom    1 type  1   force =     0.00000567   -0.00000327   -0.00000000
     atom    2 type  1   force =    -0.00000567    0.00000327   -0.00000000
     atom    3 type  2   force =    -0.00003349    6.68440002   -0.00000000
     atom    4 type  2   force =    -5.78887723   -3.34217056   -0.00000000
     atom    5 type  2   force =     5.78885274   -3.34219598   -0.00000000
     atom    6 type  2   force =     0.00003349   -6.68440002   -0.00000000
     atom    7 type  2   force =     5.78887723    3.34217056   -0.00000000
     atom    8 type  2   force =    -5.78885274    3.34219599   -0.00000000
     The local contribution  to forces
     atom    1 type  1   force =    -0.00035128    0.00021162    0.00001018
     atom    2 type  1   force =    -0.00029775    0.00004862   -0.00000908
     atom    3 type  2   force =     0.00040542   -6.79872137   -0.00001975
     atom    4 type  2   force =     5.88785067    3.39913688   -0.00003100
     atom    5 type  2   force =    -5.88778342    3.39951508   -0.00003902
     atom    6 type  2   force =     0.00044932    6.80019496    0.00002598
     atom    7 type  2   force =    -5.88890336   -3.40048670    0.00002257
     atom    8 type  2   force =     5.88883101   -3.39997174    0.00003858
     The core correction contribution to forces
     atom    1 type  1   force =    -0.00000229    0.00000103   -0.00000017
     atom    2 type  1   force =    -0.00000501    0.00000199    0.00000019
     atom    3 type  2   force =     0.00000000    0.00000000    0.00000000
     atom    4 type  2   force =     0.00000000    0.00000000    0.00000000
     atom    5 type  2   force =     0.00000000    0.00000000    0.00000000
     atom    6 type  2   force =     0.00000000    0.00000000    0.00000000
     atom    7 type  2   force =     0.00000000    0.00000000    0.00000000
     atom    8 type  2   force =     0.00000000    0.00000000    0.00000000
     The Hubbard contrib.    to forces
     atom    1 type  1   force =     0.00000000    0.00000000    0.00000000
     atom    2 type  1   force =     0.00000000    0.00000000    0.00000000
     atom    3 type  2   force =     0.00000000    0.00000000    0.00000000
     atom    4 type  2   force =     0.00000000    0.00000000    0.00000000
     atom    5 type  2   force =     0.00000000    0.00000000    0.00000000
     atom    6 type  2   force =     0.00000000    0.00000000    0.00000000
     atom    7 type  2   force =     0.00000000    0.00000000    0.00000000
     atom    8 type  2   force =     0.00000000    0.00000000    0.00000000
     The SCF correction term to forces
     atom    1 type  1   force =     0.00035750   -0.00023114   -0.00000979
     atom    2 type  1   force =     0.00028604   -0.00002943    0.00000760
     atom    3 type  2   force =    -0.00037629   -0.00124858    0.00003353
     atom    4 type  2   force =     0.00112545    0.00082307    0.00004459
     atom    5 type  2   force =    -0.00117574    0.00046159    0.00005483
     atom    6 type  2   force =    -0.00048653   -0.00034077   -0.00003206
     atom    7 type  2   force =     0.00001026    0.00060228   -0.00002827
     atom    8 type  2   force =     0.00005182    0.00004482   -0.00005244

     Total force =     0.011543     Total SCF correction =     0.002497
     SCF correction compared to forces is large: reduce conv_thr to get better values

     Computing stress (Cartesian axis) and pressure

          total   stress  (Ry/bohr**3)                   (kbar)     P=    -1259.33
  -0.00800201   0.00000000   0.00000000        -1177.14        0.00        0.00
   0.00000000  -0.00800201   0.00000000            0.00    -1177.14        0.00
   0.00000000   0.00000000  -0.00967820            0.00        0.00    -1423.71

     kinetic stress (kbar)  63315.53     -0.00      0.00
                               -0.00  63315.52     -0.00
                                0.00     -0.00  62995.47

     local   stress (kbar)  -4770.31      0.08      0.00
                                0.08  -4770.16      0.00
                                0.00      0.00  -6219.65

     nonloc. stress (kbar)  -5374.60      0.00      0.00
                                0.00  -5374.60      0.00
                                0.00      0.00  -5333.55

     hartree stress (kbar)  22791.16     -0.04      0.00
                               -0.04  22791.06     -0.00
                                0.00     -0.00  23623.78

     exc-cor stress (kbar)  -1883.62      0.00     -0.00
                                0.00  -1883.62     -0.00
                               -0.00     -0.00  -1881.41

     corecor stress (kbar)  -7501.52     -0.00      0.00
                               -0.00  -7501.52      0.00
                                0.00      0.00  -7498.14

     ewald   stress (kbar) -67753.79     -0.04     -0.00
                               -0.04 -67753.83     -0.00
                               -0.00     -0.00 -67110.22

     hubbard stress (kbar)      0.00      0.00      0.00
                                0.00      0.00      0.00
                                0.00      0.00      0.00

     DFT-D   stress (kbar)      0.00      0.00      0.00
                                0.00      0.00      0.00
                                0.00      0.00      0.00

     XDM     stress (kbar)      0.00      0.00      0.00
                                0.00      0.00      0.00
                                0.00      0.00      0.00

     dft-nl  stress (kbar)      0.00      0.00      0.00
                                0.00      0.00      0.00
                                0.00      0.00      0.00

     TS-vdW  stress (kbar)      0.00      0.00      0.00
                                0.00      0.00      0.00
                                0.00      0.00      0.00

[...]

                                0.00      0.00      0.00

     Writing all to output data dir new_calculations/myprefix.save/

     General routines

     Parallel routines

   This run was terminated on:  11:42:15  20May2023

   JOB DONE.