     Program PWSCF v.7.0 starts on 21May2023 at  8: 7: 3

     Reading input from espresso_14210.pwi
Warning: card &CELL ignored
Warning: card / ignored

     Current dimensions of program PWSCF are:
     Max number of different atomic species (ntypx) = 10
     Max number of k-points (npk) =  40000
     Max angular momentum in pseudopotentials (lmaxx) =  4

     gamma-point specific algorithms are used
     Message from routine setup:
     using ibrav=0 with symmetry is DISCOURAGED, use correct ibrav instead

     Subspace diagonalization in iterative solution of the eigenvalue problem:
     a serial algorithm will be used

     Using Slab Decomposition

     bravais-lattice index     =            0
     lattice parameter (alat)  =       6.0890  a.u.
     unit-cell volume          =    2208.0963 (a.u.)^3
     number of atoms/cell      =           12
     number of atomic types    =            4
     number of electrons       =       104.00
     number of Kohn-Sham states=           62
     kinetic-energy cutoff     =      30.0000  Ry
     charge density cutoff     =     240.0000  Ry
     scf convergence threshold =      1.0E-06
     mixing beta               =       0.7000
     number of iterations used =            8  plain     mixing
     Exchange-correlation=  SLA  PW   PBX  PBC
                           (   1   4   3   4   0   0   0)

     celldm(1)=   6.089025  celldm(2)=   0.000000  celldm(3)=   0.000000
     celldm(4)=   0.000000  celldm(5)=   0.000000  celldm(6)=   0.000000

     crystal axes: (cart. coord. in units of alat)
               a(1) = (   1.000000   0.000000   0.000000 )
               a(2) = (  -0.500000   0.866025   0.000000 )
               a(3) = (   0.000000   0.000000  11.293900 )

     reciprocal axes: (cart. coord. in units 2 pi/alat)
               b(1) = (  1.000000  0.577350  0.000000 )
               b(2) = (  0.000000  1.154700  0.000000 )
               b(3) = (  0.000000  0.000000  0.088543 )

     PseudoPot. # 1 for Mo read from file:
     /home/pragov/projects/rrg-bengioy-ad/pragov/crystal_structure_design/SSSP/Mo_ONCV_PBE-1.0.oncvpsp.upf
     MD5 check sum: 1b5d28e075c9ccadda658a603575cd1f
     Pseudo is Norm-conserving, Zval = 14.0
     Generated using ONCVPSP code by D. R. Hamann
     Using radial grid of 1526 points,  6 beta functions with:
                l(1) =   0
                l(2) =   0
                l(3) =   1
                l(4) =   1
                l(5) =   2
                l(6) =   2

     PseudoPot. # 2 for W  read from file:
     /home/pragov/projects/rrg-bengioy-ad/pragov/crystal_structure_design/SSSP/W_pbe_v1.2.uspp.F.UPF
     MD5 check sum: 9c083fa34c2a2ea0f02f1f893e16e1c8
     Pseudo is Ultrasoft + core correction, Zval = 14.0
     Generated by new atomic code, or converted to UPF format
     Using radial grid of  923 points,  8 beta functions with:
                l(1) =   0
                l(2) =   0
                l(3) =   0
                l(4) =   1
                l(5) =   1
                l(6) =   2
                l(7) =   2
                l(8) =   3
     Q(r) pseudized with  6 coefficients,  rinner =    1.350   1.350   1.350
                                                       1.350   1.350   1.350
                                                       1.350

     PseudoPot. # 3 for Se read from file:
     /home/pragov/projects/rrg-bengioy-ad/pragov/crystal_structure_design/SSSP/Se_pbe_v1.uspp.F.UPF
     MD5 check sum: 1b3568f3a8ae88f9a2a0ad0698632c85
     Pseudo is Ultrasoft + core correction, Zval =  6.0
     Generated by new atomic code, or converted to UPF format
     Using radial grid of  877 points,  6 beta functions with:
                l(1) =   0
                l(2) =   0
                l(3) =   1
                l(4) =   1
                l(5) =   2
                l(6) =   2
     Q(r) pseudized with  8 coefficients,  rinner =    1.300   1.300   1.300
                                                       1.300   1.300

     PseudoPot. # 4 for S  read from file:
     /home/pragov/projects/rrg-bengioy-ad/pragov/crystal_structure_design/SSSP/s_pbe_v1.4.uspp.F.UPF
     MD5 check sum: 88d86576ff6df21479756cfb9bdac1df
     Pseudo is Ultrasoft + core correction, Zval =  6.0
     Generated by new atomic code, or converted to UPF format
     Using radial grid of  907 points,  6 beta functions with:
                l(1) =   0
                l(2) =   0
                l(3) =   1
                l(4) =   1
                l(5) =   2
                l(6) =   2
     Q(r) pseudized with  8 coefficients,  rinner =    1.300   1.300   1.300
                                                       1.300   1.300

     atomic species   valence    mass     pseudopotential
        Mo            14.00    95.95000     Mo( 1.00)
        W             14.00   183.84000     W ( 1.00)
        Se             6.00    78.97100     Se( 1.00)
        S              6.00    32.06000     S ( 1.00)

      6 Sym. Ops. (no inversion) found

                                    s                        frac. trans.

      isym =  1     identity

 cryst.   s( 1) = (     1          0          0      )
                  (     0          1          0      )
                  (     0          0          1      )

 cart.    s( 1) = (  1.0000000 -0.0000000  0.0000000 )
                  (  0.0000000  1.0000000  0.0000000 )
                  (  0.0000000  0.0000000  1.0000000 )

      isym =  2     120 deg rotation - cryst. axis [0,0,1]

[...]

      isym =  3     120 deg rotation - cryst. axis [0,0,-1]

[...]

      isym =  4     inv. 180 deg rotation - cart. axis [1,0,0]

[...]

      isym =  5     inv. 180 deg rotation - cryst. axis [0,1,0]

[...]

      isym =  6     inv. 180 deg rotation - cryst. axis [1,1,0]

 cryst.   s( 6) = (     0         -1          0      )
                  (    -1          0          0      )
                  (     0          0          1      )

 cart.    s( 6) = (  0.4999999 -0.8660255  0.0000000 )
                  ( -0.8660255 -0.4999999  0.0000000 )
                  (  0.0000000  0.0000000  1.0000000 )

   Cartesian axes

     site n.     atom                  positions (alat units)
         1           Mo  tau(   1) = (   0.0000000   0.0000000   1.0607570  )
         2           Mo  tau(   2) = (  -0.0000004   0.5773506   3.1824743  )
         3           W   tau(   3) = (   0.0000000   0.0000000   5.3042481  )
         4           W   tau(   4) = (  -0.0000004   0.5773506   7.4263155  )
         5           Se  tau(   5) = (  -0.0000004   0.5773506   4.7704419  )
         6           Se  tau(   6) = (  -0.0000004   0.5773506   5.8380995  )
         7           S   tau(   7) = (   0.0000000   0.0000000   3.6650853  )
         8           S   tau(   8) = (   0.0000000   0.0000000   7.9108013  )
         9           S   tau(   9) = (  -0.0000004   0.5773506   0.5778750  )
        10           S   tau(  10) = (  -0.0000004   0.5773506   1.5435825  )
        11           S   tau(  11) = (   0.0000000   0.0000000   2.6998069  )
        12           S   tau(  12) = (   0.0000000   0.0000000   6.9418637  )

   Crystallographic axes

     site n.     atom                  positions (cryst. coord.)
         1           Mo  tau(   1) = (  0.0000000  0.0000000  0.0939230  )
         2           Mo  tau(   2) = (  0.3333330  0.6666670  0.2817870  )
         3           W   tau(   3) = (  0.0000000  0.0000000  0.4696560  )
         4           W   tau(   4) = (  0.3333330  0.6666670  0.6575510  )
         5           Se  tau(   5) = (  0.3333330  0.6666670  0.4223910  )
         6           Se  tau(   6) = (  0.3333330  0.6666670  0.5169250  )
         7           S   tau(   7) = (  0.0000000  0.0000000  0.3245190  )
         8           S   tau(   8) = (  0.0000000  0.0000000  0.7004490  )
         9           S   tau(   9) = (  0.3333330  0.6666670  0.0511670  )
        10           S   tau(  10) = (  0.3333330  0.6666670  0.1366740  )
        11           S   tau(  11) = (  0.0000000  0.0000000  0.2390500  )
        12           S   tau(  12) = (  0.0000000  0.0000000  0.6146560  )

     number of k points=     1  Methfessel-Paxton smearing, width (Ry)=  0.0010
                       cart. coord. in units 2pi/alat
        k(    1) = (   0.0000000   0.0000000   0.0000000), wk =   2.0000000

                       cryst. coord.
        k(    1) = (   0.0000000   0.0000000   0.0000000), wk =   2.0000000

     Check: negative core charge=   -0.000001

     Initial potential from superposition of free atoms

     starting charge     103.7970, renormalised to     104.0000

     negative rho (up, down):  1.245E-01 0.000E+00
     Starting wfcs are   78 randomized atomic wfcs

     Self-consistent Calculation

     iteration #  1     ecut=    30.00 Ry     beta= 0.70
     Davidson diagonalization with overlap

     ethr =  1.00E-02,  avg # of iterations =  4.0

     negative rho (up, down):  1.333E-01 0.000E+00

     total energy              =     307.00132716 Ry
     estimated scf accuracy    <    1250.16112975 Ry

[...]

     total energy              =    -822.55684587 Ry
     estimated scf accuracy    <       0.00000326 Ry

     iteration # 55     ecut=    30.00 Ry     beta= 0.70
     Davidson diagonalization with overlap

     ethr =  3.14E-09,  avg # of iterations =  2.0

[...]

     End of self-consistent calculation

          k = 0.0000 0.0000 0.0000 (  3084 PWs)   bands (ev):

   -67.2692 -66.0287 -54.3876 -54.3874 -31.5684 -31.5684 -31.4885 -30.4437
   -30.2752 -30.2752 -28.5079 -28.5079 -28.5061 -28.5061 -28.4024 -28.3998
    -9.7139  -9.5213  -9.3226  -9.2824  -8.5587  -8.2921  -8.2136  -8.1522
    -1.0165  -0.5832  -0.3680  -0.1773   2.4944   2.4944   2.5209   2.6009
     2.6009   2.6087   2.6087   2.9110   3.2801   3.4914   3.4914   3.5174
     3.5174   3.5275   3.5275   3.6895   4.2986   4.2986   5.1031   5.1031
     5.3831   5.6078   5.7915   6.0479   7.7586   7.7586   7.7664   7.7664
     7.8235   7.8235   7.8450   7.8450   8.0697   8.0698

     occupation numbers
     1.0000   1.0000   1.0000   1.0000   1.0000   1.0000   1.0000   1.0000
     1.0000   1.0000   1.0000   1.0000   1.0000   1.0000   1.0000   1.0000
     1.0000   1.0000   1.0000   1.0000   1.0000   1.0000   1.0000   1.0000
     1.0000   1.0000   1.0000   1.0000   1.0000   1.0000   1.0000   1.0000
     1.0000   1.0000   1.0000   1.0000   1.0000   1.0000   1.0000   1.0000
     1.0000   1.0000   1.0000   1.0000   1.0000   1.0000   1.0000   1.0000
     1.0000   1.0000   1.0000   1.0000  -0.0000  -0.0000  -0.0000  -0.0000
    -0.0000  -0.0000  -0.0000  -0.0000  -0.0000  -0.0000

     the Fermi energy is     7.0244 ev

!    total energy              =    -822.55684594 Ry
     estimated scf accuracy    <       0.00000027 Ry
     smearing contrib. (-TS)   =       0.00000000 Ry
     internal energy E=F+TS    =    -822.55684594 Ry

     The total energy is F=E-TS. E is the sum of the following terms:
     one-electron contribution =   -3821.04384459 Ry
     hartree contribution      =    1936.52508027 Ry
     xc contribution           =    -224.84349499 Ry
     ewald contribution        =    1286.80541337 Ry

     convergence has been achieved in  55 iterations

     negative rho (up, down):  1.207E-01 0.000E+00

     Forces acting on atoms (cartesian axes, Ry/au):

     atom    1 type  1   force =     0.00000000    0.00000000   -0.00205858
     atom    2 type  1   force =     0.00000000    0.00000000   -0.00232714
     atom    3 type  2   force =     0.00000000    0.00000000    0.00049815
     atom    4 type  2   force =     0.00000000    0.00000000    0.00460722
     atom    5 type  3   force =     0.00000000    0.00000000    0.10596343
     atom    6 type  3   force =    -0.00000000   -0.00000000   -0.10609139
     atom    7 type  4   force =     0.00000000    0.00000000   -0.12487433
     atom    8 type  4   force =     0.00000000    0.00000000   -0.08078801
     atom    9 type  4   force =     0.00000000    0.00000000    0.10279748
     atom   10 type  4   force =     0.00000000    0.00000000   -0.11476018
     atom   11 type  4   force =     0.00000000    0.00000000    0.11438138
     atom   12 type  4   force =    -0.00000000   -0.00000000    0.10265197
     The non-local contrib.  to forces
     atom    1 type  1   force =     0.00000000    0.00000000   -0.00042914
     atom    2 type  1   force =     0.00000000    0.00000000   -0.00038852
     atom    3 type  2   force =    -0.00000000   -0.00000000    0.00043086
     atom    4 type  2   force =     0.00000000    0.00000000    0.00396685
     atom    5 type  3   force =     0.00000000    0.00000000   -0.04414356
     atom    6 type  3   force =     0.00000000    0.00000000    0.04388786
     atom    7 type  4   force =     0.00000000    0.00000000    0.12406949
     atom    8 type  4   force =     0.00000000    0.00000000    0.09605591
     atom    9 type  4   force =     0.00000000   -0.00000000   -0.16431233
     atom   10 type  4   force =     0.00000000    0.00000000    0.14198797
     atom   11 type  4   force =     0.00000000    0.00000000   -0.14413978
     atom   12 type  4   force =     0.00000000    0.00000000   -0.05128475
     The ionic contribution  to forces
     atom    1 type  1   force =    -0.00001051    0.00000607 -106.20963192
     atom    2 type  1   force =     0.00001053   -0.00000608  -35.39507026
     atom    3 type  2   force =    -0.00000768    0.00000444   35.41213294
     atom    4 type  2   force =     0.00001041   -0.00000601  106.19257225
     atom    5 type  3   force =     0.00000388   -0.00000224   -6.89208061
     atom    6 type  3   force =     0.00000388   -0.00000224   37.24461463
     atom    7 type  4   force =    -0.00000530    0.00000306    8.39470616
     atom    8 type  4   force =    -0.00000520    0.00000300   69.01145470
     atom    9 type  4   force =     0.00000525   -0.00000303  -69.06270557
     atom   10 type  4   force =     0.00000528   -0.00000305  -21.96414061
     atom   11 type  4   force =    -0.00000529    0.00000305  -38.72793850
     atom   12 type  4   force =    -0.00000524    0.00000303   21.99608679
     The local contribution  to forces
     atom    1 type  1   force =     0.00000719   -0.00000096  106.20642171
     atom    2 type  1   force =    -0.00001037    0.00001082   35.39365424
     atom    3 type  2   force =     0.00000119   -0.00000842  -35.40943597
     atom    4 type  2   force =     0.00000037    0.00000928 -106.19194874
     atom    5 type  3   force =    -0.00000520    0.00000198    7.03281135
     atom    6 type  3   force =    -0.00000979   -0.00000568  -37.38391683
     atom    7 type  4   force =     0.00000397   -0.00000525   -8.63432342
     atom    8 type  4   force =    -0.00001279   -0.00001289  -69.18041060
     atom    9 type  4   force =    -0.00000544    0.00000427   69.31810351
     atom   10 type  4   force =    -0.00000133    0.00000636   21.71685492
     atom   11 type  4   force =     0.00000300   -0.00000148   38.97608355
     atom   12 type  4   force =    -0.00000252   -0.00000745  -21.84732036
     The core correction contribution to forces
     atom    1 type  1   force =     0.00000000    0.00000000    0.00000000
     atom    2 type  1   force =     0.00000000    0.00000000    0.00000000
     atom    3 type  2   force =    -0.00000003   -0.00000031    0.00002623
     atom    4 type  2   force =     0.00000030   -0.00000028    0.00014612
     atom    5 type  3   force =    -0.00000096    0.00000059    0.00985172
     atom    6 type  3   force =    -0.00000100   -0.00000130   -0.00980560
     atom    7 type  4   force =    -0.00000001    0.00000002   -0.00905249
     atom    8 type  4   force =    -0.00000092   -0.00000058   -0.00795674
     atom    9 type  4   force =     0.00000016    0.00000005    0.01139974
     atom   10 type  4   force =     0.00000013   -0.00000006   -0.01008460
     atom   11 type  4   force =     0.00000010    0.00000004    0.01023487
     atom   12 type  4   force =    -0.00000041   -0.00000013    0.00533708
     The Hubbard contrib.    to forces
     atom    1 type  1   force =     0.00000000    0.00000000    0.00000000
     atom    2 type  1   force =     0.00000000    0.00000000    0.00000000
     atom    3 type  2   force =     0.00000000    0.00000000    0.00000000
     atom    4 type  2   force =     0.00000000    0.00000000    0.00000000
     atom    5 type  3   force =     0.00000000    0.00000000    0.00000000
     atom    6 type  3   force =     0.00000000    0.00000000    0.00000000
     atom    7 type  4   force =     0.00000000    0.00000000    0.00000000
     atom    8 type  4   force =     0.00000000    0.00000000    0.00000000
     atom    9 type  4   force =     0.00000000    0.00000000    0.00000000
     atom   10 type  4   force =     0.00000000    0.00000000    0.00000000
     atom   11 type  4   force =     0.00000000    0.00000000    0.00000000
     atom   12 type  4   force =     0.00000000    0.00000000    0.00000000
     The SCF correction term to forces
     atom    1 type  1   force =     0.00000021   -0.00000222    0.00161619
     atom    2 type  1   force =     0.00000114   -0.00000409   -0.00048717
     atom    3 type  2   force =     0.00000608    0.00001130   -0.00262049
     atom    4 type  2   force =    -0.00000861   -0.00000372   -0.00009384
     atom    5 type  3   force =    -0.00000117   -0.00000059   -0.00044004
     atom    6 type  3   force =     0.00000169    0.00000335   -0.00083604
     atom    7 type  4   force =     0.00000033    0.00000094   -0.00023865
     atom    8 type  4   force =     0.00000435    0.00000227    0.00010414
     atom    9 type  4   force =     0.00000020   -0.00000044    0.00034756
     atom   10 type  4   force =    -0.00000128   -0.00000130    0.00065755
     atom   11 type  4   force =     0.00000051   -0.00000015    0.00017666
     atom   12 type  4   force =     0.00000409    0.00000267   -0.00013137

     Total force =     0.303303     Total SCF correction =     0.003360

     Computing stress (Cartesian axis) and pressure

     negative rho (up, down):  1.207E-01 0.000E+00
          total   stress  (Ry/bohr**3)                   (kbar)     P=      100.29
   0.00142519  -0.00000000   0.00000000          209.65       -0.00        0.00
  -0.00000000   0.00142519   0.00000000           -0.00      209.65        0.00
   0.00000000   0.00000000  -0.00080501            0.00        0.00     -118.42

     kinetic stress (kbar)  10739.21     -0.00      0.00
                               -0.00  10739.21      0.00
                                0.00      0.00  10949.81

     local   stress (kbar)-247088.02      0.01     -0.00
                                0.01-247088.00     -0.00
                               -0.00     -0.00 249582.08

     nonloc. stress (kbar)   1991.68     -0.00      0.00
                               -0.00   1991.68      0.00
                                0.00      0.00   1962.99

     hartree stress (kbar) 124419.87     -0.00      0.00
                               -0.00 124419.86      0.00
                                0.00      0.00-119826.94

     exc-cor stress (kbar)   5647.00     -0.00      0.00
                               -0.00   5647.00     -0.00
                                0.00     -0.00   5657.27

     corecor stress (kbar)  -8387.21      0.00     -0.00
                                0.00  -8387.21      0.00
                               -0.00      0.00  -8397.38

     ewald   stress (kbar) 112887.11     -0.01     -0.00
                               -0.01 112887.10      0.00
                               -0.00      0.00-140046.25

     hubbard stress (kbar)      0.00      0.00      0.00
                                0.00      0.00      0.00
                                0.00      0.00      0.00

     DFT-D   stress (kbar)      0.00      0.00      0.00
                                0.00      0.00      0.00
                                0.00      0.00      0.00

     XDM     stress (kbar)      0.00      0.00      0.00
                                0.00      0.00      0.00
                                0.00      0.00      0.00

     dft-nl  stress (kbar)      0.00      0.00      0.00
                                0.00      0.00      0.00
                                0.00      0.00      0.00

     TS-vdW  stress (kbar)      0.00      0.00      0.00
                                0.00      0.00      0.00
                                0.00      0.00      0.00

[...]

                                0.00      0.00      0.00

     Writing all to output data dir new_calculations/myprefix.save/

     General routines

     Parallel routines

   This run was terminated on:   8: 8:27  21May2023

   JOB DONE.