     Program PWSCF v.7.0 starts on 20May2023 at 22:40:39

     Reading input from espresso_13724.pwi
Warning: card &CELL ignored
Warning: card / ignored

     Current dimensions of program PWSCF are:
     Max number of different atomic species (ntypx) = 10
     Max number of k-points (npk) =  40000
     Max angular momentum in pseudopotentials (lmaxx) =  4

     gamma-point specific algorithms are used
     Message from routine setup:
     using ibrav=0 with symmetry is DISCOURAGED, use correct ibrav instead

     Subspace diagonalization in iterative solution of the eigenvalue problem:
     a serial algorithm will be used

     Using Slab Decomposition

     bravais-lattice index     =            0
     lattice parameter (alat)  =       9.1317  a.u.
     unit-cell volume          =    2008.0463 (a.u.)^3
     number of atoms/cell      =           12
     number of atomic types    =            3
     number of electrons       =       172.00
     number of Kohn-Sham states=          103
     kinetic-energy cutoff     =      30.0000  Ry
     charge density cutoff     =     240.0000  Ry
     scf convergence threshold =      1.0E-06
     mixing beta               =       0.7000
     number of iterations used =            8  plain     mixing
     Exchange-correlation= PBE
                           (   1   4   3   4   0   0   0)

     celldm(1)=   9.131674  celldm(2)=   0.000000  celldm(3)=   0.000000
     celldm(4)=   0.000000  celldm(5)=   0.000000  celldm(6)=   0.000000

     crystal axes: (cart. coord. in units of alat)
               a(1) = (   1.000000   0.000000   0.000000 )
               a(2) = (   0.000000   1.559071   0.000000 )
               a(3) = (   0.000000   0.000000   1.691439 )

     reciprocal axes: (cart. coord. in units 2 pi/alat)
               b(1) = (  1.000000  0.000000  0.000000 )
               b(2) = (  0.000000  0.641407  0.000000 )
               b(3) = (  0.000000  0.000000  0.591212 )

     PseudoPot. # 1 for Ca read from file:
     /home/pragov/projects/rrg-bengioy-ad/pragov/crystal_structure_design/SSSP/Ca_pbe_v1.uspp.F.UPF
     MD5 check sum: 403a4c14b9e4d4dfdc3024c9a3812218
     Pseudo is Ultrasoft + core correction, Zval = 10.0
     Generated by new atomic code, or converted to UPF format
     Using radial grid of  845 points,  6 beta functions with:
                l(1) =   0
                l(2) =   0
                l(3) =   1
                l(4) =   1
                l(5) =   2
                l(6) =   2
     Q(r) pseudized with  8 coefficients,  rinner =    1.500   1.500   1.500
                                                       1.500   1.500

     PseudoPot. # 2 for Bi read from file:
     /home/pragov/projects/rrg-bengioy-ad/pragov/crystal_structure_design/SSSP/Bi_pbe_v1.uspp.F.UPF
     MD5 check sum: cceb9f28ec65b6d7ff33140f5b0b1758
     Pseudo is Ultrasoft + core correction, Zval = 15.0
     Generated by new atomic code, or converted to UPF format
     Using radial grid of  899 points,  6 beta functions with:
                l(1) =   0
                l(2) =   0
                l(3) =   1
                l(4) =   1
                l(5) =   2
                l(6) =   2
     Q(r) pseudized with  6 coefficients,  rinner =    1.000   1.000   1.000
                                                       1.000   1.000

     PseudoPot. # 3 for Pd read from file:
     /home/pragov/projects/rrg-bengioy-ad/pragov/crystal_structure_design/SSSP/Pd_ONCV_PBE-1.0.oncvpsp.upf
     MD5 check sum: eb77f42b51d86fb18e25f68156a31cf1
     Pseudo is Norm-conserving, Zval = 18.0
     Generated using ONCVPSP code by D. R. Hamann
     Using radial grid of 1410 points,  6 beta functions with:
                l(1) =   0
                l(2) =   0
                l(3) =   1
                l(4) =   1
                l(5) =   2
                l(6) =   2

     atomic species   valence    mass     pseudopotential
        Ca            10.00    40.07800     Ca( 1.00)
        Bi            15.00   208.98040     Bi( 1.00)
        Pd            18.00   106.42000     Pd( 1.00)

      8 Sym. Ops., with inversion, found ( 6 have fractional translation)

                                    s                        frac. trans.

      isym =  1     identity

 cryst.   s( 1) = (     1          0          0      )
                  (     0          1          0      )
                  (     0          0          1      )

 cart.    s( 1) = (  1.0000000  0.0000000  0.0000000 )
                  (  0.0000000  1.0000000  0.0000000 )
                  (  0.0000000  0.0000000  1.0000000 )

      isym =  2     180 deg rotation - cart. axis [0,0,1]

 cryst.   s( 2) = (    -1          0          0      )    f =(  0.0000000 )
                  (     0         -1          0      )       (  0.5000000 )
                  (     0          0          1      )       ( -0.5000000 )

 cart.    s( 2) = ( -1.0000000  0.0000000  0.0000000 )    f =(  0.0000000 )
                  (  0.0000000 -1.0000000  0.0000000 )       (  0.7795357 )
                  (  0.0000000  0.0000000  1.0000000 )       ( -0.8457197 )

[...]

      isym =  4     180 deg rotation - cart. axis [1,0,0]

[...]

      isym =  5     inversion

 cryst.   s( 5) = (    -1          0          0      )
                  (     0         -1          0      )
                  (     0          0         -1      )

 cart.    s( 5) = ( -1.0000000  0.0000000  0.0000000 )
                  (  0.0000000 -1.0000000  0.0000000 )
                  (  0.0000000  0.0000000 -1.0000000 )

      isym =  6     inv. 180 deg rotation - cart. axis [0,0,1]

[...]

      isym =  8     inv. 180 deg rotation - cart. axis [1,0,0]

 cryst.   s( 8) = (    -1          0          0      )    f =(  0.5000000 )
                  (     0          1          0      )       (  0.0000000 )
                  (     0          0          1      )       (  0.0000000 )

 cart.    s( 8) = ( -1.0000000  0.0000000  0.0000000 )    f =(  0.5000000 )
                  (  0.0000000  1.0000000  0.0000000 )       (  0.0000000 )
                  (  0.0000000  0.0000000  1.0000000 )       (  0.0000000 )

   Cartesian axes

     site n.     atom                  positions (alat units)
         1           Ca  tau(   1) = (   0.7500000   0.0099578   0.4971428  )
         2           Ca  tau(   2) = (   0.2500000   1.5491136   1.1942967  )
         3           Ca  tau(   3) = (   0.2500000   0.7695779   1.3428626  )
         4           Ca  tau(   4) = (   0.7500000   0.7894935   0.3485769  )
         5           Bi  tau(   5) = (   0.7500000   1.0877844   1.0023267  )
         6           Bi  tau(   6) = (   0.2500000   0.4712870   0.6891127  )
         7           Bi  tau(   7) = (   0.2500000   1.2508227   0.1566070  )
         8           Bi  tau(   8) = (   0.7500000   0.3082487   1.5348325  )
         9           Pd  tau(   9) = (   0.7500000   1.2565242   1.5607555  )
        10           Pd  tau(  10) = (   0.2500000   0.3025472   0.1306840  )
        11           Pd  tau(  11) = (   0.2500000   1.0820828   0.7150357  )
        12           Pd  tau(  12) = (   0.7500000   0.4769885   0.9764037  )

   Crystallographic axes

     site n.     atom                  positions (cryst. coord.)
         1           Ca  tau(   1) = (  0.7500000  0.0063870  0.2939170  )
         2           Ca  tau(   2) = (  0.2500000  0.9936130  0.7060830  )
         3           Ca  tau(   3) = (  0.2500000  0.4936130  0.7939170  )
         4           Ca  tau(   4) = (  0.7500000  0.5063870  0.2060830  )
         5           Bi  tau(   5) = (  0.7500000  0.6977130  0.5925880  )
         6           Bi  tau(   6) = (  0.2500000  0.3022870  0.4074120  )
         7           Bi  tau(   7) = (  0.2500000  0.8022870  0.0925880  )
         8           Bi  tau(   8) = (  0.7500000  0.1977130  0.9074120  )
         9           Pd  tau(   9) = (  0.7500000  0.8059440  0.9227380  )
        10           Pd  tau(  10) = (  0.2500000  0.1940560  0.0772620  )
        11           Pd  tau(  11) = (  0.2500000  0.6940560  0.4227380  )
        12           Pd  tau(  12) = (  0.7500000  0.3059440  0.5772620  )

     number of k points=     1  Methfessel-Paxton smearing, width (Ry)=  0.0010
                       cart. coord. in units 2pi/alat
        k(    1) = (   0.0000000   0.0000000   0.0000000), wk =   2.0000000

                       cryst. coord.
        k(    1) = (   0.0000000   0.0000000   0.0000000), wk =   2.0000000

     Check: negative core charge=   -0.000005

     Initial potential from superposition of free atoms

     starting charge     167.9766, renormalised to     172.0000

     negative rho (up, down):  1.689E-01 0.000E+00
     Starting wfcs are  116 randomized atomic wfcs

     Self-consistent Calculation

     iteration #  1     ecut=    30.00 Ry     beta= 0.70
     Davidson diagonalization with overlap

     ethr =  1.00E-02,  avg # of iterations =  6.0

     Threshold (ethr) on eigenvalues was too large:
     Diagonalizing with lowered threshold

     Davidson diagonalization with overlap

[...]

     negative rho (up, down):  1.683E-01 0.000E+00

     total energy              =   -2052.40971906 Ry
     estimated scf accuracy    <       1.51676737 Ry

[...]

     total energy              =   -2053.03610060 Ry
     estimated scf accuracy    <       0.00000392 Ry

     iteration # 14     ecut=    30.00 Ry     beta= 0.70
     Davidson diagonalization with overlap

     ethr =  9.06E-10,  avg # of iterations =  2.0

[...]

     End of self-consistent calculation

          k = 0.0000 0.0000 0.0000 (  2769 PWs)   bands (ev):

   -73.6714 -73.6710 -73.6706 -73.6702 -39.2110 -39.2101 -39.2095 -39.2087
   -39.0975 -39.0967 -39.0958 -39.0950 -38.8628 -38.8618 -38.8614 -38.8602
   -29.0868 -29.0844 -29.0801 -29.0780 -10.5487 -10.5468 -10.5436 -10.5315
   -10.5235 -10.5181 -10.5118 -10.5087 -10.5077 -10.5062 -10.4998 -10.4958
   -10.4932 -10.4766 -10.4677 -10.4676 -10.4664 -10.4630 -10.4478 -10.4364
   -10.2402 -10.2013 -10.1460 -10.1364 -10.1344 -10.1032 -10.0766 -10.0743
   -10.0291 -10.0032  -9.9835  -9.9815   0.3563   0.9938   1.1635   1.2192
     7.3013   7.6653   7.7406   7.8283   7.8441   7.9452   8.0934   8.4195
     8.4597   8.4621   8.4935   8.8334   8.9479   8.9811   9.1257   9.1343
     9.1790   9.2909   9.3000   9.3814   9.5407   9.5438   9.6961  10.3497
    10.5482  10.8641  10.9149  11.6594  11.8592  12.4484  12.5400  12.8544
    13.2244  13.5108  13.7316  13.7944  14.2609  14.4012  14.4820  14.5283
    14.9727  14.9930  14.9976  15.1930  15.2141  15.5821  15.9923

     occupation numbers
     1.0000   1.0000   1.0000   1.0000   1.0000   1.0000   1.0000   1.0000
     1.0000   1.0000   1.0000   1.0000   1.0000   1.0000   1.0000   1.0000
     1.0000   1.0000   1.0000   1.0000   1.0000   1.0000   1.0000   1.0000
     1.0000   1.0000   1.0000   1.0000   1.0000   1.0000   1.0000   1.0000
     1.0000   1.0000   1.0000   1.0000   1.0000   1.0000   1.0000   1.0000
     1.0000   1.0000   1.0000   1.0000   1.0000   1.0000   1.0000   1.0000
     1.0000   1.0000   1.0000   1.0000   1.0000   1.0000   1.0000   1.0000
     1.0000   1.0000   1.0000   1.0000   1.0000   1.0000   1.0000   1.0000
     1.0000   1.0000   1.0000   1.0000   1.0000   1.0000   1.0000   1.0000
     1.0000   1.0000   1.0000   1.0000   1.0000   1.0000   1.0000   1.0000
     1.0000   1.0000   1.0000   1.0000   1.0000   1.0000  -0.0000  -0.0000
    -0.0000  -0.0000  -0.0000  -0.0000  -0.0000  -0.0000  -0.0000  -0.0000
    -0.0000  -0.0000  -0.0000  -0.0000  -0.0000  -0.0000  -0.0000

     the Fermi energy is    12.4942 ev

!    total energy              =   -2053.03610097 Ry
     estimated scf accuracy    <       0.00000015 Ry
     smearing contrib. (-TS)   =       0.00000015 Ry
     internal energy E=F+TS    =   -2053.03610112 Ry

     The total energy is F=E-TS. E is the sum of the following terms:
     one-electron contribution =    -872.37225304 Ry
     hartree contribution      =     512.47260079 Ry
     xc contribution           =    -405.67990861 Ry
     ewald contribution        =   -1287.45654026 Ry

     convergence has been achieved in  14 iterations

     negative rho (up, down):  1.751E-01 0.000E+00

     Forces acting on atoms (cartesian axes, Ry/au):

     atom    1 type  1   force =     0.00000000   -0.00081546   -0.02136036
     atom    2 type  1   force =     0.00000000    0.00081546    0.02136036
     atom    3 type  1   force =     0.00000000    0.00081546   -0.02136036
     atom    4 type  1   force =    -0.00000000   -0.00081546    0.02136036
     atom    5 type  2   force =     0.00000000   -0.03311268    0.03388017
     atom    6 type  2   force =    -0.00000000    0.03311268   -0.03388017
     atom    7 type  2   force =     0.00000000    0.03311268    0.03388017
     atom    8 type  2   force =     0.00000000   -0.03311268   -0.03388017
     atom    9 type  3   force =     0.00000000    0.01906351   -0.01441357
     atom   10 type  3   force =    -0.00000000   -0.01906351    0.01441357
     atom   11 type  3   force =     0.00000000   -0.01906351   -0.01441357
     atom   12 type  3   force =     0.00000000    0.01906351    0.01441357
     The non-local contrib.  to forces
     atom    1 type  1   force =    -0.00000000   -0.01120356   -0.01536605
     atom    2 type  1   force =     0.00000000    0.01120356    0.01536605
     atom    3 type  1   force =     0.00000000    0.01120356   -0.01536605
     atom    4 type  1   force =     0.00000000   -0.01120356    0.01536605
     atom    5 type  2   force =     0.00000000   -0.08363530   -0.11428734
     atom    6 type  2   force =     0.00000000    0.08363530    0.11428734
     atom    7 type  2   force =     0.00000000    0.08363530   -0.11428734
     atom    8 type  2   force =     0.00000000   -0.08363530    0.11428734
     atom    9 type  3   force =     0.00000000   -0.09853270    0.19181877
     atom   10 type  3   force =     0.00000000    0.09853270   -0.19181877
     atom   11 type  3   force =     0.00000000    0.09853270    0.19181877
     atom   12 type  3   force =     0.00000000   -0.09853270   -0.19181877
     The ionic contribution  to forces
     atom    1 type  1   force =    -0.00000000   -0.57238640    4.52979486
     atom    2 type  1   force =     0.00000000    0.57238640   -4.52979486
     atom    3 type  1   force =    -0.00000000    0.57238640    4.52979486
     atom    4 type  1   force =     0.00000000   -0.57238640   -4.52979486
     atom    5 type  2   force =    -0.00000000    6.88694798    1.55497676
     atom    6 type  2   force =    -0.00000000   -6.88694798   -1.55497676
     atom    7 type  2   force =     0.00000000   -6.88694798    1.55497676
     atom    8 type  2   force =     0.00000000    6.88694798   -1.55497676
     atom    9 type  3   force =     0.00000000   -7.85716173   -1.88051518
     atom   10 type  3   force =    -0.00000000    7.85716173    1.88051518
     atom   11 type  3   force =    -0.00000000    7.85716173   -1.88051518
     atom   12 type  3   force =     0.00000000   -7.85716173    1.88051518
     The local contribution  to forces
     atom    1 type  1   force =    -0.00000450    0.58266259   -4.53602346
     atom    2 type  1   force =     0.00000351   -0.58264713    4.53617352
     atom    3 type  1   force =     0.00000475   -0.58237479   -4.53586765
     atom    4 type  1   force =    -0.00000621    0.58246605    4.53599105
     atom    5 type  2   force =    -0.00001251   -6.84079654   -1.41040401
     atom    6 type  2   force =     0.00000331    6.84109696    1.41086592
     atom    7 type  2   force =     0.00000241    6.84009509   -1.41121517
     atom    8 type  2   force =     0.00000174   -6.84022571    1.41059679
     atom    9 type  3   force =     0.00000398    7.97419181    1.67406862
     atom   10 type  3   force =    -0.00000104   -7.97399054   -1.67440317
     atom   11 type  3   force =     0.00002854   -7.97529956    1.67402810
     atom   12 type  3   force =     0.00000447    7.97499697   -1.67452269
     The core correction contribution to forces
     atom    1 type  1   force =    -0.00000006    0.00025348    0.00027494
     atom    2 type  1   force =     0.00000006   -0.00025291   -0.00027483
     atom    3 type  1   force =     0.00000005   -0.00025086    0.00027754
     atom    4 type  1   force =    -0.00000005    0.00025187   -0.00027535
     atom    5 type  2   force =    -0.00000016    0.00409844    0.00399106
     atom    6 type  2   force =     0.00000003   -0.00408445   -0.00398362
     atom    7 type  2   force =    -0.00000011   -0.00409130    0.00397602
     atom    8 type  2   force =     0.00000016    0.00409845   -0.00398625
     atom    9 type  3   force =     0.00000000    0.00000000    0.00000000
     atom   10 type  3   force =     0.00000000    0.00000000    0.00000000
     atom   11 type  3   force =     0.00000000    0.00000000    0.00000000
     atom   12 type  3   force =     0.00000000    0.00000000    0.00000000
     The Hubbard contrib.    to forces
     atom    1 type  1   force =     0.00000000    0.00000000    0.00000000
     atom    2 type  1   force =     0.00000000    0.00000000    0.00000000
     atom    3 type  1   force =     0.00000000    0.00000000    0.00000000
     atom    4 type  1   force =     0.00000000    0.00000000    0.00000000
     atom    5 type  2   force =     0.00000000    0.00000000    0.00000000
     atom    6 type  2   force =     0.00000000    0.00000000    0.00000000
     atom    7 type  2   force =     0.00000000    0.00000000    0.00000000
     atom    8 type  2   force =     0.00000000    0.00000000    0.00000000
     atom    9 type  3   force =     0.00000000    0.00000000    0.00000000
     atom   10 type  3   force =     0.00000000    0.00000000    0.00000000
     atom   11 type  3   force =     0.00000000    0.00000000    0.00000000
     atom   12 type  3   force =     0.00000000    0.00000000    0.00000000
     The SCF correction term to forces
     atom    1 type  1   force =     0.00000498   -0.00012405   -0.00005794
     atom    2 type  1   force =    -0.00000277    0.00011963   -0.00012200
     atom    3 type  1   force =    -0.00000442   -0.00012756   -0.00017176
     atom    4 type  1   force =     0.00000643    0.00005440    0.00009596
     atom    5 type  2   force =     0.00001455    0.00033261   -0.00035280
     atom    6 type  2   force =    -0.00000389   -0.00053091   -0.00002674
     atom    7 type  2   force =    -0.00000355    0.00047584    0.00039536
     atom    8 type  2   force =    -0.00000286   -0.00024746    0.00016132
     atom    9 type  3   force =    -0.00000371    0.00059441    0.00025137
     atom   10 type  3   force =     0.00000130   -0.00079585    0.00016217
     atom   11 type  3   force =    -0.00003208    0.00058772    0.00024183
     atom   12 type  3   force =    -0.00000329   -0.00024966    0.00022226

     Total force =     0.114410     Total SCF correction =     0.001639

     Computing stress (Cartesian axis) and pressure

     negative rho (up, down):  1.751E-01 0.000E+00
          total   stress  (Ry/bohr**3)                   (kbar)     P=     -324.32
  -0.00175339   0.00000000   0.00000000         -257.93        0.00        0.00
   0.00000000  -0.00271058   0.00000000            0.00     -398.74        0.00
   0.00000000   0.00000000  -0.00215016            0.00        0.00     -316.30

     kinetic stress (kbar)  23277.06      0.00      0.00
                                0.00  23540.84      0.00
                                0.00      0.00  23346.92

     local   stress (kbar) -16729.85      0.00     -0.00
                                0.00  -2514.19     -0.02
                               -0.00     -0.02 -11090.41

     nonloc. stress (kbar)  11658.73      0.00      0.00
                                0.00  11524.32      0.00
                                0.00      0.00  11548.85

     hartree stress (kbar)  15203.96     -0.00      0.00
                               -0.00   9562.31      0.01
                                0.00      0.01  12776.35

     exc-cor stress (kbar)   8247.11     -0.00     -0.00
                               -0.00   8241.86     -0.00
                               -0.00     -0.00   8245.05

     corecor stress (kbar) -14500.30     -0.00     -0.00
                               -0.00 -14497.45     -0.00
                               -0.00     -0.00 -14497.89

     ewald   stress (kbar) -27414.65      0.00      0.00
                                0.00 -36256.43     -0.00
                                0.00     -0.00 -30645.17

     hubbard stress (kbar)      0.00      0.00      0.00
                                0.00      0.00      0.00
                                0.00      0.00      0.00

     DFT-D   stress (kbar)      0.00      0.00      0.00
                                0.00      0.00      0.00
                                0.00      0.00      0.00

     XDM     stress (kbar)      0.00      0.00      0.00
                                0.00      0.00      0.00
                                0.00      0.00      0.00

     dft-nl  stress (kbar)      0.00      0.00      0.00
                                0.00      0.00      0.00
                                0.00      0.00      0.00

     TS-vdW  stress (kbar)      0.00      0.00      0.00
                                0.00      0.00      0.00
                                0.00      0.00      0.00

[...]

                                0.00      0.00      0.00

     Writing all to output data dir new_calculations/myprefix.save/

     General routines

     Parallel routines

   This run was terminated on:  22:41:39  20May2023

   JOB DONE.