     Program PWSCF v.7.0 starts on 20May2023 at 10:31:45

     Reading input from espresso_7278.pwi
Warning: card &CELL ignored
Warning: card / ignored

     Current dimensions of program PWSCF are:
     Max number of different atomic species (ntypx) = 10
     Max number of k-points (npk) =  40000
     Max angular momentum in pseudopotentials (lmaxx) =  4
     file O.pbe-n-kjpaw_psl.0.1.UPF: wavefunction(s)  2P renormalized

     gamma-point specific algorithms are used
     Message from routine setup:
     using ibrav=0 with symmetry is DISCOURAGED, use correct ibrav instead

     Subspace diagonalization in iterative solution of the eigenvalue problem:
     a serial algorithm will be used

     Using Slab Decomposition

     bravais-lattice index     =            0
     lattice parameter (alat)  =      11.2372  a.u.
     unit-cell volume          =    1615.0694 (a.u.)^3
     number of atoms/cell      =           14
     number of atomic types    =            4
     number of electrons       =        80.00
     number of Kohn-Sham states=           48
     kinetic-energy cutoff     =      30.0000  Ry
     charge density cutoff     =     240.0000  Ry
     scf convergence threshold =      1.0E-06
     mixing beta               =       0.7000
     number of iterations used =            8  plain     mixing
     Exchange-correlation= SLA  PW   PBX  PBC
                           (   1   4   3   4   0   0   0)

     celldm(1)=  11.237177  celldm(2)=   0.000000  celldm(3)=   0.000000
     celldm(4)=   0.000000  celldm(5)=   0.000000  celldm(6)=   0.000000

     crystal axes: (cart. coord. in units of alat)
               a(1) = (   1.000000   0.000000   0.000000 )
               a(2) = (   0.000000   0.942284   0.000000 )
               a(3) = (   0.000000   0.216381   1.207919 )

     reciprocal axes: (cart. coord. in units 2 pi/alat)
               b(1) = (  1.000000  0.000000  0.000000 )
               b(2) = (  0.000000  1.061251 -0.190108 )
               b(3) = (  0.000000  0.000000  0.827870 )

     PseudoPot. # 1 for Cs read from file:
     /home/pragov/projects/rrg-bengioy-ad/pragov/crystal_structure_design/SSSP/Cs_pbe_v1.uspp.F.UPF
     MD5 check sum: 3476d69cb178dfad3ffaa59df4e07ca4
     Pseudo is Ultrasoft + core correction, Zval =  9.0
     Generated by new atomic code, or converted to UPF format
     Using radial grid of  905 points,  6 beta functions with:
                l(1) =   0
                l(2) =   0
                l(3) =   1
                l(4) =   1
                l(5) =   2
                l(6) =   2
     Q(r) pseudized with  6 coefficients,  rinner =    1.500   1.500   1.500
                                                       1.500   1.500

     PseudoPot. # 2 for H  read from file:
     /home/pragov/projects/rrg-bengioy-ad/pragov/crystal_structure_design/SSSP/H.pbe-rrkjus_psl.1.0.0.UPF
     MD5 check sum: f52b6d4d1c606e5624b1dc7b2218f220
     Pseudo is Ultrasoft, Zval =  1.0
     Generated using "atomic" code by A. Dal Corso  v.5.1
     Using radial grid of  929 points,  2 beta functions with:
                l(1) =   0
                l(2) =   0
     Q(r) pseudized with 0 coefficients

     PseudoPot. # 3 for S  read from file:
     /home/pragov/projects/rrg-bengioy-ad/pragov/crystal_structure_design/SSSP/s_pbe_v1.4.uspp.F.UPF
     MD5 check sum: 88d86576ff6df21479756cfb9bdac1df
     Pseudo is Ultrasoft + core correction, Zval =  6.0
     Generated by new atomic code, or converted to UPF format
     Using radial grid of  907 points,  6 beta functions with:
                l(1) =   0
                l(2) =   0
                l(3) =   1
                l(4) =   1
                l(5) =   2
                l(6) =   2
     Q(r) pseudized with  8 coefficients,  rinner =    1.300   1.300   1.300
                                                       1.300   1.300

     PseudoPot. # 4 for O  read from file:
     /home/pragov/projects/rrg-bengioy-ad/pragov/crystal_structure_design/SSSP/O.pbe-n-kjpaw_psl.0.1.UPF
     MD5 check sum: 0234752ac141de4415c5fc33072bef88
     Pseudo is Projector augmented-wave + core cor, Zval =  6.0
     Generated using "atomic" code by A. Dal Corso  v.5.0.99 svn rev. 10869
     Shape of augmentation charge: BESSEL
     Using radial grid of 1095 points,  4 beta functions with:
                l(1) =   0
                l(2) =   0
                l(3) =   1
                l(4) =   1
     Q(r) pseudized with 0 coefficients

     atomic species   valence    mass     pseudopotential
        Cs             9.00   132.90545     Cs( 1.00)
        H              1.00     1.00800     H ( 1.00)
        S              6.00    32.06000     S ( 1.00)
        O              6.00    15.99900     O ( 1.00)

      4 Sym. Ops., with inversion, found ( 2 have fractional translation)

                                    s                        frac. trans.

      isym =  1     identity

 cryst.   s( 1) = (     1          0          0      )
                  (     0          1          0      )
                  (     0          0          1      )

 cart.    s( 1) = (  1.0000000  0.0000000  0.0000000 )
                  (  0.0000000  1.0000000 -0.0000000 )
                  (  0.0000000  0.0000000  1.0000000 )

      isym =  2     180 deg rotation - cart. axis [1,0,0]

 cryst.   s( 2) = (     1          0          0      )    f =( -0.5000000 )
                  (     0         -1          0      )       (  0.0000000 )
                  (     0          0         -1      )       ( -0.0000000 )

 cart.    s( 2) = (  1.0000000  0.0000000  0.0000000 )    f =( -0.5000000 )
                  (  0.0000000 -1.0000000  0.0000000 )       (  0.0000000 )
                  (  0.0000000  0.0000000 -1.0000000 )       ( -0.0000000 )

      isym =  3     inversion

 cryst.   s( 3) = (    -1          0          0      )
                  (     0         -1          0      )
                  (     0          0         -1      )

 cart.    s( 3) = ( -1.0000000  0.0000000  0.0000000 )
                  (  0.0000000 -1.0000000  0.0000000 )
                  (  0.0000000  0.0000000 -1.0000000 )

      isym =  4     inv. 180 deg rotation - cart. axis [1,0,0]

 cryst.   s( 4) = (    -1          0          0      )    f =(  0.5000000 )
                  (     0          1          0      )       (  0.0000000 )
                  (     0          0          1      )       (  0.0000000 )

 cart.    s( 4) = ( -1.0000000  0.0000000  0.0000000 )    f =(  0.5000000 )
                  (  0.0000000  1.0000000 -0.0000000 )       (  0.0000000 )
                  (  0.0000000  0.0000000  1.0000000 )       (  0.0000000 )

   Cartesian axes

     site n.     atom                  positions (alat units)
         1           Cs  tau(   1) = (   0.2500000   1.0840075   0.8640061  )
         2           Cs  tau(   2) = (   0.7500000   0.0746576   0.3439126  )
         3           H   tau(   3) = (   0.5000000   0.4711420   0.0000000  )
         4           H   tau(   4) = (   0.0000000   0.4711420   0.0000000  )
         5           S   tau(   5) = (   0.7500000   0.5924460   0.9172222  )
         6           S   tau(   6) = (   0.2500000   0.5662190   0.2906965  )
         7           O   tau(   7) = (   0.4567360   0.6117004   0.1411453  )
         8           O   tau(   8) = (   0.5432640   0.5469646   1.0667734  )
         9           O   tau(   9) = (   0.7500000   0.4267169   0.7377702  )
        10           O   tau(  10) = (   0.0432640   0.6117004   0.1411453  )
        11           O   tau(  11) = (   0.9567360   0.5469646   1.0667734  )
        12           O   tau(  12) = (   0.2500000   0.3303447   0.3608150  )
        13           O   tau(  13) = (   0.2500000   0.7319482   0.4701485  )
        14           O   tau(  14) = (   0.7500000   0.8283203   0.8471037  )

   Crystallographic axes

     site n.     atom                  positions (cryst. coord.)
         1           Cs  tau(   1) = (  0.2500000  0.9861500  0.7152850  )
         2           Cs  tau(   2) = (  0.7500000  0.0138500  0.2847150  )
         3           H   tau(   3) = (  0.5000000  0.5000000  0.0000000  )
         4           H   tau(   4) = (  0.0000000  0.5000000  0.0000000  )
         5           S   tau(   5) = (  0.7500000  0.4543630  0.7593410  )
         6           S   tau(   6) = (  0.2500000  0.5456370  0.2406590  )
         7           O   tau(   7) = (  0.4567360  0.6223350  0.1168500  )
         8           O   tau(   8) = (  0.5432640  0.3776650  0.8831500  )
         9           O   tau(   9) = (  0.7500000  0.3125980  0.6107780  )
        10           O   tau(  10) = (  0.0432640  0.6223350  0.1168500  )
        11           O   tau(  11) = (  0.9567360  0.3776650  0.8831500  )
        12           O   tau(  12) = (  0.2500000  0.2819850  0.2987080  )
        13           O   tau(  13) = (  0.2500000  0.6874020  0.3892220  )
        14           O   tau(  14) = (  0.7500000  0.7180150  0.7012920  )

     number of k points=     1  Methfessel-Paxton smearing, width (Ry)=  0.0010
                       cart. coord. in units 2pi/alat
        k(    1) = (   0.0000000   0.0000000   0.0000000), wk =   2.0000000

                       cryst. coord.
        k(    1) = (   0.0000000   0.0000000   0.0000000), wk =   2.0000000

     Check: negative core charge=   -0.000010

     Initial potential from superposition of free atoms

     starting charge      79.9211, renormalised to      80.0000
     Starting wfcs are   68 randomized atomic wfcs
     Checking if some PAW data can be deallocated...

     Self-consistent Calculation

     iteration #  1     ecut=    30.00 Ry     beta= 0.70
     Davidson diagonalization with overlap

     ethr =  1.00E-02,  avg # of iterations =  3.0

     total energy              =    -508.67683978 Ry
     estimated scf accuracy    <       2.49393993 Ry

[...]

     total energy              =    -509.86201891 Ry
     estimated scf accuracy    <       0.00000306 Ry

     iteration # 10     ecut=    30.00 Ry     beta= 0.70
     Davidson diagonalization with overlap

     ethr =  3.83E-09,  avg # of iterations =  4.0

     End of self-consistent calculation

          k = 0.0000 0.0000 0.0000 (  2240 PWs)   bands (ev):

   -20.6872 -20.4886 -17.1041 -16.8272 -16.7677 -16.7323 -16.5234 -16.5052
   -16.3105 -16.2686  -7.8378  -6.2510  -5.9880  -4.3147  -3.9478  -3.9023
    -3.7758  -3.6951  -3.6881  -3.5921  -3.4038  -3.3743  -3.0834  -2.7393
    -1.6937  -1.6342  -0.7683  -0.5352  -0.2307   0.0875   0.1380   0.1552
     0.2215   0.3156   1.2495   1.6628   1.7065   1.9011   1.9101   2.0614
     7.5133   9.1593   9.1593   9.3271   9.7914  10.3507  10.4652  10.5214

     occupation numbers
     1.0000   1.0000   1.0000   1.0000   1.0000   1.0000   1.0000   1.0000
     1.0000   1.0000   1.0000   1.0000   1.0000   1.0000   1.0000   1.0000
     1.0000   1.0000   1.0000   1.0000   1.0000   1.0000   1.0000   1.0000
     1.0000   1.0000   1.0000   1.0000   1.0000   1.0000   1.0000   1.0000
     1.0000   1.0000   1.0000   1.0000   1.0000   1.0000   1.0000   1.0000
    -0.0000  -0.0000  -0.0000  -0.0000  -0.0000  -0.0000  -0.0000  -0.0000

     the Fermi energy is     2.7873 ev

!    total energy              =    -509.86201941 Ry
     estimated scf accuracy    <       0.00000018 Ry
     smearing contrib. (-TS)   =       0.00000000 Ry
     internal energy E=F+TS    =    -509.86201941 Ry

     The total energy is F=E-TS. E is the sum of the following terms:
     one-electron contribution =    -225.63487767 Ry
     hartree contribution      =     151.02381747 Ry
     xc contribution           =    -139.30151043 Ry
     ewald contribution        =    -219.77497787 Ry
     one-center paw contrib.   =     -76.17447091 Ry
      -> PAW hartree energy AE =     250.75469001 Ry
      -> PAW hartree energy PS =    -249.89704769 Ry
      -> PAW xc energy AE      =    -139.47985389 Ry
      -> PAW xc energy PS      =      62.44774067 Ry
      -> total E_H with PAW    =     151.88145978 Ry
      -> total E_XC with PAW   =    -216.33362365 Ry

     convergence has been achieved in  10 iterations

     Forces acting on atoms (cartesian axes, Ry/au):

     atom    1 type  1   force =    -0.00000000    0.00393173    0.00079956
     atom    2 type  1   force =    -0.00000000   -0.00393173   -0.00079956
     atom    3 type  2   force =     0.00000000   -0.00000000    0.00000000
     atom    4 type  2   force =     0.00000000    0.00000000    0.00000000
     atom    5 type  3   force =     0.00000000    0.00870680    0.01143508
     atom    6 type  3   force =     0.00000000   -0.00870680   -0.01143508
     atom    7 type  4   force =     0.00333884    0.00054647   -0.00302901
     atom    8 type  4   force =    -0.00333884   -0.00054647    0.00302901
     atom    9 type  4   force =     0.00000000   -0.00801003   -0.02095722
     atom   10 type  4   force =    -0.00333884    0.00054647   -0.00302901
     atom   11 type  4   force =     0.00333884   -0.00054647    0.00302901
     atom   12 type  4   force =     0.00000000    0.00190154   -0.01027474
     atom   13 type  4   force =     0.00000000    0.00801003    0.02095722
     atom   14 type  4   force =     0.00000000   -0.00190154    0.01027474
     The non-local contrib.  to forces
     atom    1 type  1   force =     0.00000000   -0.00662942    0.00656108
     atom    2 type  1   force =     0.00000000    0.00662942   -0.00656108
     atom    3 type  2   force =     0.00000000   -0.00000000    0.00000000
     atom    4 type  2   force =     0.00000000    0.00000000   -0.00000000
     atom    5 type  3   force =     0.00000000   -0.06180302    0.19809389
     atom    6 type  3   force =     0.00000000    0.06180302   -0.19809389
     atom    7 type  4   force =    -1.46904277   -0.96899459    0.54232141
     atom    8 type  4   force =     1.46904277    0.96899459   -0.54232141
     atom    9 type  4   force =     0.00000000    1.54817735    1.71017063
     atom   10 type  4   force =     1.46904277   -0.96899459    0.54232141
     atom   11 type  4   force =    -1.46904277    0.96899459   -0.54232141
     atom   12 type  4   force =    -0.00000000    2.19250440   -0.58790840
     atom   13 type  4   force =     0.00000000   -1.54817735   -1.71017063
     atom   14 type  4   force =     0.00000000   -2.19250440    0.58790840
     The ionic contribution  to forces
     atom    1 type  1   force =     0.00000000    0.24012069   -0.39386299
     atom    2 type  1   force =     0.00000000   -0.24012069    0.39386299
     atom    3 type  2   force =     0.00000000   -0.00000000   -0.00000000
     atom    4 type  2   force =    -0.00000000   -0.00000000   -0.00000000
     atom    5 type  3   force =     0.00000000   -0.31470255   -1.40119535
     atom    6 type  3   force =     0.00000000    0.31470255    1.40119535
     atom    7 type  4   force =     7.86046779    5.12119472   -2.92014552
     atom    8 type  4   force =    -7.86046779   -5.12119472    2.92014552
     atom    9 type  4   force =     0.00000000   -8.02210214   -9.23481215
     atom   10 type  4   force =    -7.86046779    5.12119472   -2.92014552
     atom   11 type  4   force =     7.86046779   -5.12119472    2.92014552
     atom   12 type  4   force =    -0.00000000  -11.60491515    4.43226494
     atom   13 type  4   force =    -0.00000000    8.02210214    9.23481215
     atom   14 type  4   force =     0.00000000   11.60491515   -4.43226494
     The local contribution  to forces
     atom    1 type  1   force =    -0.00000453   -0.23042105    0.38895008
     atom    2 type  1   force =     0.00000901    0.23043256   -0.38889832
     atom    3 type  2   force =     0.00000130   -0.00000674   -0.00000650
     atom    4 type  2   force =    -0.00000034    0.00000465    0.00000408
     atom    5 type  3   force =     0.00000041    0.38126486    1.23050643
     atom    6 type  3   force =    -0.00000427   -0.38120736   -1.23043580
     atom    7 type  4   force =    -6.40143510   -4.16086017    2.37936776
     atom    8 type  4   force =     6.40141850    4.16088687   -2.37935166
     atom    9 type  4   force =     0.00001121    6.47887052    7.51800198
     atom   10 type  4   force =     6.40143126   -4.16088713    2.37938219
     atom   11 type  4   force =    -6.40143121    4.16090342   -2.37936648
     atom   12 type  4   force =    -0.00000338    9.43298377   -3.85930486
     atom   13 type  4   force =    -0.00001120   -6.47895806   -7.51808790
     atom   14 type  4   force =     0.00001727   -9.43302478    3.85941858
     The core correction contribution to forces
     atom    1 type  1   force =     0.00000010    0.00086258   -0.00091597
     atom    2 type  1   force =    -0.00000031   -0.00086416    0.00091957
     atom    3 type  2   force =     0.00000000    0.00000000    0.00000000
     atom    4 type  2   force =     0.00000000    0.00000000    0.00000000
     atom    5 type  3   force =     0.00000187    0.00393980   -0.01605212
     atom    6 type  3   force =     0.00000016   -0.00393731    0.01605406
     atom    7 type  4   force =     0.01358633    0.00931964   -0.00474090
     atom    8 type  4   force =    -0.01358604   -0.00931933    0.00474073
     atom    9 type  4   force =     0.00000009   -0.01337594   -0.01469723
     atom   10 type  4   force =    -0.01358636    0.00931930   -0.00474074
     atom   11 type  4   force =     0.01358647   -0.00931938    0.00474083
     atom   12 type  4   force =    -0.00000003   -0.01913488    0.00485959
     atom   13 type  4   force =     0.00000001    0.01337596    0.01469719
     atom   14 type  4   force =     0.00000016    0.01913406   -0.00485905
     The Hubbard contrib.    to forces
     atom    1 type  1   force =     0.00000000    0.00000000    0.00000000
     atom    2 type  1   force =     0.00000000    0.00000000    0.00000000
     atom    3 type  2   force =     0.00000000    0.00000000    0.00000000
     atom    4 type  2   force =     0.00000000    0.00000000    0.00000000
     atom    5 type  3   force =     0.00000000    0.00000000    0.00000000
     atom    6 type  3   force =     0.00000000    0.00000000    0.00000000
     atom    7 type  4   force =     0.00000000    0.00000000    0.00000000
     atom    8 type  4   force =     0.00000000    0.00000000    0.00000000
     atom    9 type  4   force =     0.00000000    0.00000000    0.00000000
     atom   10 type  4   force =     0.00000000    0.00000000    0.00000000
     atom   11 type  4   force =     0.00000000    0.00000000    0.00000000
     atom   12 type  4   force =     0.00000000    0.00000000    0.00000000
     atom   13 type  4   force =     0.00000000    0.00000000    0.00000000
     atom   14 type  4   force =     0.00000000    0.00000000    0.00000000
     The SCF correction term to forces
     atom    1 type  1   force =     0.00000214   -0.00000440    0.00008476
     atom    2 type  1   force =    -0.00001053   -0.00001221   -0.00010534
     atom    3 type  2   force =    -0.00000186    0.00000569    0.00000676
     atom    4 type  2   force =    -0.00000032   -0.00000611   -0.00000496
     atom    5 type  3   force =     0.00002914    0.00002965    0.00009783
     atom    6 type  3   force =     0.00000648   -0.00004577   -0.00013921
     atom    7 type  4   force =    -0.00023111   -0.00010624    0.00016164
     atom    8 type  4   force =     0.00026697    0.00008198   -0.00018790
     atom    9 type  4   force =    -0.00000984    0.00043108    0.00038225
     atom   10 type  4   force =     0.00023822   -0.00009957    0.00015600
     atom   11 type  4   force =    -0.00023758    0.00006690   -0.00016999
     atom   12 type  4   force =     0.00000706    0.00043069   -0.00017499
     atom   13 type  4   force =     0.00001364   -0.00032177   -0.00029090
     atom   14 type  4   force =    -0.00000964   -0.00045427    0.00008275

     Total force =     0.041868     Total SCF correction =     0.001177

     Computing stress (Cartesian axis) and pressure

          total   stress  (Ry/bohr**3)                   (kbar)     P=     -225.56
  -0.00154412   0.00000000   0.00000000         -227.15        0.00        0.00
   0.00000000  -0.00146065   0.00004899            0.00     -214.87        7.21
   0.00000000   0.00004899  -0.00159512            0.00        7.21     -234.65

     kinetic stress (kbar)  11106.69      0.00      0.00
                                0.00  10887.24   -173.54
                                0.00   -173.54  10913.71

     local   stress (kbar) -10935.98     -0.00      0.01
                               -0.00  -9965.75  -3282.33
                                0.01  -3282.33 -12262.20

     nonloc. stress (kbar)   4651.48      0.00      0.00
                                0.00   4681.28      8.79
                                0.00      8.79   4667.23

     hartree stress (kbar)   4787.25      0.00     -0.01
                                0.00   3830.51   1263.31
                               -0.01   1263.31   5137.91

     exc-cor stress (kbar)   2658.01      0.00     -0.00
                                0.00   2667.52      7.13
                               -0.00      7.13   2665.00

     corecor stress (kbar)  -5380.82      0.00      0.00
                                0.00  -5385.30     -0.89
                                0.00     -0.89  -5382.72

     ewald   stress (kbar)  -7113.77      0.00      0.00
                                0.00  -6930.37   2184.73
                                0.00   2184.73  -5973.58

     hubbard stress (kbar)      0.00      0.00      0.00
                                0.00      0.00      0.00
                                0.00      0.00      0.00

     DFT-D   stress (kbar)      0.00      0.00      0.00
                                0.00      0.00      0.00
                                0.00      0.00      0.00

     XDM     stress (kbar)      0.00      0.00      0.00
                                0.00      0.00      0.00
                                0.00      0.00      0.00

     dft-nl  stress (kbar)      0.00      0.00      0.00
                                0.00      0.00      0.00
                                0.00      0.00      0.00

     TS-vdW  stress (kbar)      0.00      0.00      0.00
                                0.00      0.00      0.00
                                0.00      0.00      0.00

[...]

                                0.00      0.00      0.00

     Writing all to output data dir new_calculations/myprefix.save/

     General routines

     Parallel routines

     PAW routines

   This run was terminated on:  10:32: 7  20May2023

   JOB DONE.