     Program PWSCF v.7.0 starts on 20May2023 at 17:26:44

     Reading input from espresso_16510.pwi
Warning: card &CELL ignored
Warning: card / ignored

     Current dimensions of program PWSCF are:
     Max number of different atomic species (ntypx) = 10
     Max number of k-points (npk) =  40000
     Max angular momentum in pseudopotentials (lmaxx) =  4
     file O.pbe-n-kjpaw_psl.0.1.UPF: wavefunction(s)  2P renormalized

     gamma-point specific algorithms are used

     Subspace diagonalization in iterative solution of the eigenvalue problem:
     a serial algorithm will be used

     Using Slab Decomposition

     bravais-lattice index     =            0
     lattice parameter (alat)  =      19.1659  a.u.
     unit-cell volume          =     960.5039 (a.u.)^3
     number of atoms/cell      =           16
     number of atomic types    =            4
     number of electrons       =       131.00
     number of Kohn-Sham states=           79
     kinetic-energy cutoff     =      30.0000  Ry
     charge density cutoff     =     240.0000  Ry
     scf convergence threshold =      1.0E-06
     mixing beta               =       0.7000
     number of iterations used =            8  plain     mixing
     Exchange-correlation= SLA  PW   PBX  PBC
                           (   1   4   3   4   0   0   0)

     celldm(1)=  19.165941  celldm(2)=   0.000000  celldm(3)=   0.000000
     celldm(4)=   0.000000  celldm(5)=   0.000000  celldm(6)=   0.000000

     crystal axes: (cart. coord. in units of alat)
               a(1) = (   1.000000   0.000000   0.000000 )
               a(2) = (   0.832687   0.553613   0.000000 )
               a(3) = (   1.332599   0.402548   0.246435 )

     reciprocal axes: (cart. coord. in units 2 pi/alat)
               b(1) = (  1.000000 -1.504095 -2.950587 )
               b(2) = (  0.000000  1.806316 -2.950589 )
               b(3) = (  0.000000  0.000000  4.057864 )

     PseudoPot. # 1 for Li read from file:
     /home/pragov/projects/rrg-bengioy-ad/pragov/crystal_structure_design/SSSP/li_pbe_v1.4.uspp.F.UPF
     MD5 check sum: e912e257baa3777c20ea3d68f190483c
     Pseudo is Ultrasoft, Zval =  3.0
     Generated by new atomic code, or converted to UPF format
     Using radial grid of  751 points,  5 beta functions with:
                l(1) =   0
                l(2) =   0
                l(3) =   0
                l(4) =   1
                l(5) =   1
     Q(r) pseudized with 10 coefficients,  rinner =    1.150   1.150   1.150

     PseudoPot. # 2 for Cr read from file:
     /home/pragov/projects/rrg-bengioy-ad/pragov/crystal_structure_design/SSSP/cr_pbe_v1.5.uspp.F.UPF
     MD5 check sum: 0d52af634a40206e4dee301ad30da4bf
     Pseudo is Ultrasoft + core correction, Zval = 14.0
     Generated by new atomic code, or converted to UPF format
     Using radial grid of  857 points,  6 beta functions with:
                l(1) =   0
                l(2) =   0
                l(3) =   1
                l(4) =   1
                l(5) =   2
                l(6) =   2
     Q(r) pseudized with  8 coefficients,  rinner =    0.950   0.950   0.950
                                                       0.950   0.950

     PseudoPot. # 3 for Cu read from file:
     /home/pragov/projects/rrg-bengioy-ad/pragov/crystal_structure_design/SSSP/Cu_pbe_v1.2.uspp.F.UPF
     MD5 check sum: 6e991ff952a84172a2a52a1c1e996048
     Pseudo is Ultrasoft + core correction, Zval = 19.0
     Generated by new atomic code, or converted to UPF format
     Using radial grid of  867 points,  6 beta functions with:
                l(1) =   0
                l(2) =   0
                l(3) =   1
                l(4) =   1
                l(5) =   2
                l(6) =   2
     Q(r) pseudized with  8 coefficients,  rinner =    1.150   1.150   1.150
                                                       1.150   1.150

     PseudoPot. # 4 for O  read from file:
     /home/pragov/projects/rrg-bengioy-ad/pragov/crystal_structure_design/SSSP/O.pbe-n-kjpaw_psl.0.1.UPF
     MD5 check sum: 0234752ac141de4415c5fc33072bef88
     Pseudo is Projector augmented-wave + core cor, Zval =  6.0
     Generated using "atomic" code by A. Dal Corso  v.5.0.99 svn rev. 10869
     Shape of augmentation charge: BESSEL
     Using radial grid of 1095 points,  4 beta functions with:
                l(1) =   0
                l(2) =   0
                l(3) =   1
                l(4) =   1
     Q(r) pseudized with 0 coefficients

     atomic species   valence    mass     pseudopotential
        Li             3.00     6.94000     Li( 1.00)
        Cr            14.00    51.99610     Cr( 1.00)
        Cu            19.00    63.54600     Cu( 1.00)
        O              6.00    15.99900     O ( 1.00)

     No symmetry found

                                    s                        frac. trans.

      isym =  1     identity

 cryst.   s( 1) = (     1          0          0      )
                  (     0          1          0      )
                  (     0          0          1      )

 cart.    s( 1) = (  1.0000000  0.0000000  0.0000000 )
                  (  0.0000000  1.0000000 -0.0000000 )
                  (  0.0000000  0.0000000  1.0000000 )

   Cartesian axes

     site n.     atom                  positions (alat units)
         1           Li  tau(   1) = (   1.6662999   0.2012747   0.1232180  )
         2           Li  tau(   2) = (   2.0826406   0.4780804   0.1232175  )
         3           Li  tau(   3) = (   1.9989850   0.7548866   0.1232180  )
         4           Li  tau(   4) = (   1.5826418   0.4780795   0.1232180  )
         5           Cr  tau(   5) = (   1.3326035   0.4025487   0.2464281  )
         6           Cu  tau(   6) = (   2.7489402   0.6793553   0.2464343  )
         7           Cu  tau(   7) = (   1.3326864   0.5536101   0.0000010  )
         8           Cu  tau(   8) = (   0.9163437   0.2768075   0.0000020  )
         9           O   tau(   9) = (   2.1767841   0.6575210   0.0637187  )
        10           O   tau(  10) = (   1.7583375   0.3822306   0.0621731  )
        11           O   tau(  11) = (   1.6758824   0.6551444   0.0621834  )
        12           O   tau(  12) = (   0.9884991   0.2986391   0.1827173  )
        13           O   tau(  13) = (   1.2584296   0.3801294   0.0654374  )
        14           O   tau(  14) = (   1.4069483   0.5739294   0.1842632  )
        15           O   tau(  15) = (   1.4894030   0.3010174   0.1842518  )
        16           O   tau(  16) = (   1.9068557   0.5760308   0.1809987  )

   Crystallographic axes

     site n.     atom                  positions (cryst. coord.)
         1           Li  tau(   1) = (  0.9999980 -0.0000000  0.5000020  )
         2           Li  tau(   2) = (  0.9999980  0.5000000  0.5000000  )
         3           Li  tau(   3) = (  0.4999980  0.9999980  0.5000020  )
         4           Li  tau(   4) = (  0.4999990  0.4999970  0.5000020  )
         5           Cr  tau(   5) = (  0.0000240  0.0000220  0.9999720  )
         6           Cu  tau(   6) = (  0.9999990  0.5000040  0.9999970  )
         7           Cu  tau(   7) = (  0.5000010  0.9999920  0.0000040  )
         8           Cu  tau(   8) = (  0.4999930  0.4999960  0.0000080  )
         9           O   tau(   9) = (  0.9998020  0.9996830  0.2585620  )
        10           O   tau(  10) = (  0.9999790  0.5069820  0.2522900  )
        11           O   tau(  11) = (  0.5070050  0.9999200  0.2523320  )
        12           O   tau(  12) = (  0.0001940  0.0003130  0.7414420  )
        13           O   tau(  13) = (  0.4936000  0.4935550  0.2655360  )
        14           O   tau(  14) = (  0.0000190  0.4930130  0.7477150  )
        15           O   tau(  15) = (  0.4929930  0.0000810  0.7476690  )
        16           O   tau(  16) = (  0.5063980  0.5064410  0.7344680  )

     number of k points=     1  Methfessel-Paxton smearing, width (Ry)=  0.0010
                       cart. coord. in units 2pi/alat
        k(    1) = (   0.0000000   0.0000000   0.0000000), wk =   2.0000000

                       cryst. coord.
        k(    1) = (   0.0000000   0.0000000   0.0000000), wk =   2.0000000

     Check: negative core charge=   -0.000017

     Initial potential from superposition of free atoms

     starting charge     125.1970, renormalised to     131.0000

     negative rho (up, down):  1.275E-03 0.000E+00
     Starting wfcs are  101 randomized atomic wfcs
     Checking if some PAW data can be deallocated...

     Self-consistent Calculation

     iteration #  1     ecut=    30.00 Ry     beta= 0.70
     Davidson diagonalization with overlap

     ethr =  1.00E-02,  avg # of iterations =  4.0

     negative rho (up, down):  4.831E-04 0.000E+00

     total energy              =   -1747.97237191 Ry
     estimated scf accuracy    <      38.40467826 Ry

[...]

     total energy              =   -1777.54883001 Ry
     estimated scf accuracy    <       0.00000443 Ry

     iteration # 43     ecut=    30.00 Ry     beta= 0.70
     Davidson diagonalization with overlap

     ethr =  3.38E-09,  avg # of iterations =  1.0

[...]

     End of self-consistent calculation

          k = 0.0000 0.0000 0.0000 (  1343 PWs)   bands (ev):

  -103.6685-103.6677-103.6597 -62.5747 -61.1861 -61.1835 -61.1732 -61.0338
   -61.0311 -61.0213 -60.8846 -60.8772 -60.8748 -35.4970 -35.4386 -35.4238
   -35.4215 -33.9119 -33.8965 -33.8938 -10.0335  -8.8472  -8.8445  -8.7849
    -8.7480  -8.7462  -8.2681  -8.1801   2.5368   2.5393   2.7757   2.9874
     3.5294   3.5302   3.5715   4.4987   4.5006   4.5989   4.8445   4.8458
     5.2128   5.2141   5.2574   5.8622   6.0407   6.0448   6.3590   6.3630
     6.4947   6.5490   6.5495   6.7795   6.7831   6.8287   7.0042   7.1664
     7.1668   7.2359   7.5348   7.5370   7.6129   9.3034   9.3051   9.3409
     9.4710   9.4710   9.4786  10.3676  10.4709  10.4752  12.6604  12.6631
    13.7644  16.1643  16.2029  16.2045  16.3170  18.2222  18.2239

     occupation numbers
     1.0000   1.0000   1.0000   1.0000   1.0000   1.0000   1.0000   1.0000
     1.0000   1.0000   1.0000   1.0000   1.0000   1.0000   1.0000   1.0000
     1.0000   1.0000   1.0000   1.0000   1.0000   1.0000   1.0000   1.0000
     1.0000   1.0000   1.0000   1.0000   1.0000   1.0000   1.0000   1.0000
     1.0000   1.0000   1.0000   1.0000   1.0000   1.0000   1.0000   1.0000
     1.0000   1.0000   1.0000   1.0000   1.0000   1.0000   1.0000   1.0000
     1.0000   1.0000   1.0000   1.0000   1.0000   1.0000   1.0000   1.0000
     1.0000   1.0000   1.0000   1.0000   1.0000   1.0000   1.0000   1.0000
     0.6490   0.6474   0.2036  -0.0000  -0.0000  -0.0000  -0.0000  -0.0000
    -0.0000  -0.0000  -0.0000  -0.0000  -0.0000  -0.0000  -0.0000

     the Fermi energy is     9.4734 ev

!    total energy              =   -1777.54882994 Ry
     estimated scf accuracy    <       0.00000012 Ry
     smearing contrib. (-TS)   =      -0.00068620 Ry
     internal energy E=F+TS    =   -1777.54814375 Ry

     The total energy is F=E-TS. E is the sum of the following terms:
     one-electron contribution =   -1324.18520198 Ry
     hartree contribution      =     722.91299014 Ry
     xc contribution           =    -211.93931959 Ry
     ewald contribution        =    -888.18488328 Ry
     one-center paw contrib.   =     -76.15172903 Ry
      -> PAW hartree energy AE =     232.68749099 Ry
      -> PAW hartree energy PS =    -231.83592968 Ry
      -> PAW xc energy AE      =    -136.67696049 Ry
      -> PAW xc energy PS      =      59.67367015 Ry
      -> total E_H with PAW    =     723.76455144 Ry
      -> total E_XC with PAW   =    -288.94260993 Ry

     convergence has been achieved in  43 iterations

     negative rho (up, down):  1.345E-03 0.000E+00

     Forces acting on atoms (cartesian axes, Ry/au):

     atom    1 type  1   force =     0.00001300   -0.00001500   -0.00000333
     atom    2 type  1   force =     0.00001733   -0.00000210    0.00000962
     atom    3 type  1   force =     0.00001331   -0.00001160   -0.00000174
     atom    4 type  1   force =     0.00001707    0.00000294    0.00000275
     atom    5 type  2   force =    -0.00002715   -0.00002967    0.00007950
     atom    6 type  3   force =    -0.00000920    0.00001861    0.00004764
     atom    7 type  3   force =    -0.00007864   -0.00005561   -0.00017503
     atom    8 type  3   force =    -0.00012959    0.00011489    0.00006120
     atom    9 type  4   force =     0.00012386    0.00008289   -0.00012420
     atom   10 type  4   force =     0.03116924    0.07003958   -0.02518850
     atom   11 type  4   force =     0.06468797   -0.04101683   -0.02513328
     atom   12 type  4   force =    -0.00007411   -0.00009186    0.00012343
     atom   13 type  4   force =     0.03109023    0.00937627    0.07387050
     atom   14 type  4   force =    -0.03110744   -0.07003830    0.02517782
     atom   15 type  4   force =    -0.06465606    0.04101356    0.02512068
     atom   16 type  4   force =    -0.03104981   -0.00938777   -0.07386705
     The non-local contrib.  to forces
     atom    1 type  1   force =    -0.00000605   -0.00000687    0.00001036
     atom    2 type  1   force =     0.00000671   -0.00000701   -0.00000568
     atom    3 type  1   force =    -0.00000207    0.00000644   -0.00000960
     atom    4 type  1   force =    -0.00000959    0.00000176    0.00000203
     atom    5 type  2   force =     0.00001523   -0.00001594   -0.00003689
     atom    6 type  3   force =    -0.00005143    0.00007144    0.00012634
     atom    7 type  3   force =    -0.00008796   -0.00010198   -0.00006543
     atom    8 type  3   force =    -0.00006278    0.00013148   -0.00001625
     atom    9 type  4   force =     0.47466963    0.14353118    0.08952910
     atom   10 type  4   force =     0.41767350    0.25816395    0.01151353
     atom   11 type  4   force =     0.49068784    0.01640690    0.01165208
     atom   12 type  4   force =    -0.47467686   -0.14352799   -0.08957308
     atom   13 type  4   force =     0.41649415    0.12588626    0.22646758
     atom   14 type  4   force =    -0.41763254   -0.25825485   -0.01152497
     atom   15 type  4   force =    -0.49075394   -0.01633155   -0.01162405
     atom   16 type  4   force =    -0.41638599   -0.12583751   -0.22649207
     The ionic contribution  to forces
     atom    1 type  1   force =    -0.00025390   -0.00009814   -0.00017907
     atom    2 type  1   force =     0.00019123    0.00009266    0.00017741
     atom    3 type  1   force =     0.00008475   -0.00001764    0.00013915
     atom    4 type  1   force =     0.00044304    0.00014876   -0.00008707
     atom    5 type  2   force =    -0.00069918    0.00001856    0.00388128
     atom    6 type  3   force =     0.00071817   -0.00323803   -0.00082189
     atom    7 type  3   force =    -0.00113748    0.00328104   -0.00084663
     atom    8 type  3   force =     0.00038547   -0.00019199   -0.00146277
     atom    9 type  4   force =   -17.69363633   -5.34479444   -3.30621952
     atom   10 type  4   force =   -16.42747936   -2.86852887   -4.13413292
     atom   11 type  4   force =   -15.26757404   -6.71104920   -4.13519332
     atom   12 type  4   force =    17.69489772    5.34505039    3.30628289
     atom   13 type  4   force =   -16.43960163   -4.96887011   -0.68737839
     atom   14 type  4   force =    16.42729374    2.87055784    4.13400312
     atom   15 type  4   force =    15.26866371    6.70945925    4.13449670
     atom   16 type  4   force =    16.43770409    4.96817993    0.68734103
     The local contribution  to forces
     atom    1 type  1   force =     0.00024183    0.00005895    0.00016023
     atom    2 type  1   force =    -0.00020192   -0.00007039   -0.00015422
     atom    3 type  1   force =    -0.00010693   -0.00001289   -0.00016669
     atom    4 type  1   force =    -0.00046074   -0.00011527    0.00009795
     atom    5 type  2   force =     0.00073156    0.00021960   -0.00374615
     atom    6 type  3   force =    -0.00062735    0.00309799    0.00065009
     atom    7 type  3   force =     0.00128604   -0.00308096    0.00101881
     atom    8 type  3   force =    -0.00023439   -0.00005087    0.00142264
     atom    9 type  4   force =    17.22425616    5.20277502    3.21741566
     atom   10 type  4   force =    16.04519485    2.68293004    4.09782019
     atom   11 type  4   force =    14.84643413    6.65390447    4.09862006
     atom   12 type  4   force =   -17.22547273   -5.20303949   -3.21743841
     atom   13 type  4   force =    16.05840914    4.85379956    0.53686596
     atom   14 type  4   force =   -16.04500783   -2.68484026   -4.09768871
     atom   15 type  4   force =   -14.84744304   -6.65237128   -4.09797447
     atom   16 type  4   force =   -16.05660325   -4.85313849   -0.53680229
     The core correction contribution to forces
     atom    1 type  1   force =     0.00000000    0.00000000    0.00000000
     atom    2 type  1   force =     0.00000000    0.00000000    0.00000000
     atom    3 type  1   force =     0.00000000    0.00000000    0.00000000
     atom    4 type  1   force =     0.00000000    0.00000000    0.00000000
     atom    5 type  2   force =    -0.00000139    0.00000072    0.00000273
     atom    6 type  3   force =     0.00000002   -0.00000001   -0.00000005
     atom    7 type  3   force =     0.00000004    0.00000003   -0.00000001
     atom    8 type  3   force =    -0.00000001   -0.00000003    0.00000006
     atom    9 type  4   force =    -0.00514385   -0.00155620   -0.00096778
     atom   10 type  4   force =    -0.00423169   -0.00240510   -0.00022584
     atom   11 type  4   force =    -0.00485379   -0.00034151   -0.00022673
     atom   12 type  4   force =     0.00514376    0.00155611    0.00096830
     atom   13 type  4   force =    -0.00421232   -0.00127348   -0.00206471
     atom   14 type  4   force =     0.00423117    0.00240566    0.00022606
     atom   15 type  4   force =     0.00485418    0.00034108    0.00022658
     atom   16 type  4   force =     0.00421149    0.00127301    0.00206532
     The Hubbard contrib.    to forces
     atom    1 type  1   force =     0.00000000    0.00000000    0.00000000
     atom    2 type  1   force =     0.00000000    0.00000000    0.00000000
     atom    3 type  1   force =     0.00000000    0.00000000    0.00000000
     atom    4 type  1   force =     0.00000000    0.00000000    0.00000000
     atom    5 type  2   force =     0.00000000    0.00000000    0.00000000
     atom    6 type  3   force =     0.00000000    0.00000000    0.00000000
     atom    7 type  3   force =     0.00000000    0.00000000    0.00000000
     atom    8 type  3   force =     0.00000000    0.00000000    0.00000000
     atom    9 type  4   force =     0.00000000    0.00000000    0.00000000
     atom   10 type  4   force =     0.00000000    0.00000000    0.00000000
     atom   11 type  4   force =     0.00000000    0.00000000    0.00000000
     atom   12 type  4   force =     0.00000000    0.00000000    0.00000000
     atom   13 type  4   force =     0.00000000    0.00000000    0.00000000
     atom   14 type  4   force =     0.00000000    0.00000000    0.00000000
     atom   15 type  4   force =     0.00000000    0.00000000    0.00000000
     atom   16 type  4   force =     0.00000000    0.00000000    0.00000000
     The SCF correction term to forces
     atom    1 type  1   force =     0.00001508    0.00003723    0.00000257
     atom    2 type  1   force =     0.00000525   -0.00001119   -0.00001047
     atom    3 type  1   force =     0.00002150    0.00001866    0.00003282
     atom    4 type  1   force =     0.00002831   -0.00002613   -0.00001273
     atom    5 type  2   force =    -0.00008941   -0.00024644   -0.00002404
     atom    6 type  3   force =    -0.00006465    0.00009339    0.00009059
     atom    7 type  3   force =    -0.00015533   -0.00014757   -0.00028435
     atom    8 type  3   force =    -0.00023393    0.00023247    0.00011495
     atom    9 type  4   force =    -0.00003780    0.00013349    0.00011577
     atom   10 type  4   force =    -0.00000410   -0.00011427   -0.00016603
     atom   11 type  4   force =    -0.00002222    0.00006867    0.00001205
     atom   12 type  4   force =     0.00001795   -0.00012470   -0.00011886
     atom   13 type  4   force =    -0.00001516   -0.00015979   -0.00002253
     atom   14 type  4   force =    -0.00000803    0.00009948    0.00015976
     atom   15 type  4   force =     0.00000698   -0.00007777   -0.00000666
     atom   16 type  4   force =     0.00000780    0.00014146    0.00001838

     Total force =     0.197562     Total SCF correction =     0.000736

     Computing stress (Cartesian axis) and pressure

     negative rho (up, down):  1.345E-03 0.000E+00
          total   stress  (Ry/bohr**3)                   (kbar)     P=     -650.02
  -0.00456080  -0.00006395  -0.00003201         -670.92       -9.41       -4.71
  -0.00006395  -0.00436248  -0.00000980           -9.41     -641.74       -1.44
  -0.00003201  -0.00000980  -0.00433294           -4.71       -1.44     -637.40

     kinetic stress (kbar)  32079.43     59.72     34.32
                               59.72  31900.16     10.37
                               34.32     10.37  31884.96

     local   stress (kbar)  32845.98  28669.44  17571.68
                            28669.44 -53359.39   5309.89
                            17571.68   5309.89 -58852.03

     nonloc. stress (kbar)  12486.15    -36.64    -22.46
                              -36.64  12597.01     -6.89
                              -22.46     -6.89  12603.95

     hartree stress (kbar)   9584.78 -13210.13  -8099.38
                           -13210.13  49304.99  -2447.48
                            -8099.38  -2447.48  51827.30

     exc-cor stress (kbar)  -9203.85     -2.31     -1.39
                               -2.31  -9196.88     -0.42
                               -1.39     -0.42  -9196.38

     corecor stress (kbar)  -1076.11     -0.19     -0.11
                               -0.19  -1075.53     -0.03
                               -0.11     -0.03  -1075.48

     ewald   stress (kbar) -77387.30 -15489.30  -9487.38
                           -15489.30 -30812.11  -2866.87
                            -9487.38  -2866.87 -27829.72

     hubbard stress (kbar)      0.00      0.00      0.00
                                0.00      0.00      0.00
                                0.00      0.00      0.00

     DFT-D   stress (kbar)      0.00      0.00      0.00
                                0.00      0.00      0.00
                                0.00      0.00      0.00

     XDM     stress (kbar)      0.00      0.00      0.00
                                0.00      0.00      0.00
                                0.00      0.00      0.00

     dft-nl  stress (kbar)      0.00      0.00      0.00
                                0.00      0.00      0.00
                                0.00      0.00      0.00

     TS-vdW  stress (kbar)      0.00      0.00      0.00
                                0.00      0.00      0.00
                                0.00      0.00      0.00

[...]

                                0.00      0.00      0.00

     Writing all to output data dir new_calculations/myprefix.save/

     General routines

     Parallel routines

     PAW routines

   This run was terminated on:  17:28:28  20May2023

   JOB DONE.