     Program PWSCF v.7.0 starts on 20May2023 at  8:19: 9

     Reading input from espresso_10260.pwi
Warning: card &CELL ignored
Warning: card / ignored

     Current dimensions of program PWSCF are:
     Max number of different atomic species (ntypx) = 10
     Max number of k-points (npk) =  40000
     Max angular momentum in pseudopotentials (lmaxx) =  4

     gamma-point specific algorithms are used
     Message from routine setup:
     using ibrav=0 with symmetry is DISCOURAGED, use correct ibrav instead

     Subspace diagonalization in iterative solution of the eigenvalue problem:
     a serial algorithm will be used

     Using Slab Decomposition

     bravais-lattice index     =            0
     lattice parameter (alat)  =       8.3790  a.u.
     unit-cell volume          =    2190.4970 (a.u.)^3
     number of atoms/cell      =           16
     number of atomic types    =            3
     number of electrons       =       224.00
     number of Kohn-Sham states=          134
     kinetic-energy cutoff     =      30.0000  Ry
     charge density cutoff     =     240.0000  Ry
     scf convergence threshold =      1.0E-06
     mixing beta               =       0.7000
     number of iterations used =            8  plain     mixing
     Exchange-correlation=  SLA  PW   PBX  PBC
                           (   1   4   3   4   0   0   0)

     celldm(1)=   8.378961  celldm(2)=   0.000000  celldm(3)=   0.000000
     celldm(4)=   0.000000  celldm(5)=   0.000000  celldm(6)=   0.000000

     crystal axes: (cart. coord. in units of alat)
               a(1) = (   1.000000   0.000000   0.000000 )
               a(2) = (   0.000000   1.982797   0.000000 )
               a(3) = (  -0.500000  -0.991398   1.877993 )

     reciprocal axes: (cart. coord. in units 2 pi/alat)
               b(1) = (  1.000000  0.000000  0.266242 )
               b(2) = (  0.000000  0.504338  0.266242 )
               b(3) = (  0.000000  0.000000  0.532483 )

     PseudoPot. # 1 for Ce read from file:
     /home/pragov/projects/rrg-bengioy-ad/pragov/crystal_structure_design/SSSP/Ce.GGA-PBE-paw-v1.0.UPF
     MD5 check sum: f2b950f613061344c13339c8d844425d
     Pseudo is Projector augmented-wave + core cor, Zval = 12.0
     Generated using ATOMPAW code
     Shape of augmentation charge: BESSEL
     Using radial grid of 1102 points,  8 beta functions with:
                l(1) =   0
                l(2) =   0
                l(3) =   1
                l(4) =   1
                l(5) =   2
                l(6) =   2
                l(7) =   3
                l(8) =   3
     Q(r) pseudized with 0 coefficients

     PseudoPot. # 2 for Ge read from file:
     /home/pragov/projects/rrg-bengioy-ad/pragov/crystal_structure_design/SSSP/ge_pbe_v1.4.uspp.F.UPF
     MD5 check sum: 9c9eaa91e581c3f09632fb3098b2c6b2
     Pseudo is Ultrasoft + core correction, Zval = 14.0
     Generated by new atomic code, or converted to UPF format
     Using radial grid of  873 points,  6 beta functions with:
                l(1) =   0
                l(2) =   0
                l(3) =   1
                l(4) =   1
                l(5) =   2
                l(6) =   2
     Q(r) pseudized with  8 coefficients,  rinner =    1.400   1.400   1.400
                                                       1.400   1.400

     PseudoPot. # 3 for Pt read from file:
     /home/pragov/projects/rrg-bengioy-ad/pragov/crystal_structure_design/SSSP/pt_pbe_v1.4.uspp.F.UPF
     MD5 check sum: f09d6de1a584b5a045c4fc126da2d0c4
     Pseudo is Ultrasoft + core correction, Zval = 16.0
     Generated by new atomic code, or converted to UPF format
     Using radial grid of  985 points,  6 beta functions with:
                l(1) =   0
                l(2) =   0
                l(3) =   1
                l(4) =   1
                l(5) =   2
                l(6) =   2
     Q(r) pseudized with  8 coefficients,  rinner =    1.300   1.300   1.300
                                                       1.300   1.300

     atomic species   valence    mass     pseudopotential
        Ce            12.00   140.11600     Ce( 1.00)
        Ge            14.00    72.63000     Ge( 1.00)
        Pt            16.00   195.08400     Pt( 1.00)

      8 Sym. Ops., with inversion, found

                                    s                        frac. trans.

      isym =  1     identity

 cryst.   s( 1) = (     1          0          0      )
                  (     0          1          0      )
                  (     0          0          1      )

 cart.    s( 1) = (  1.0000000  0.0000000 -0.0000000 )
                  (  0.0000000  1.0000000 -0.0000000 )
                  (  0.0000000  0.0000000  1.0000000 )

      isym =  2     180 deg rotation - cart. axis [0,0,1]

[...]

      isym =  4     180 deg rotation - cart. axis [1,0,0]

[...]

      isym =  5     inversion

[...]

      isym =  6     inv. 180 deg rotation - cart. axis [0,0,1]

[...]

      isym =  8     inv. 180 deg rotation - cart. axis [1,0,0]

 cryst.   s( 8) = (    -1          0          0      )
                  (     0          1          0      )
                  (     1          0          1      )

 cart.    s( 8) = ( -1.0000000  0.0000000  0.0000001 )
                  (  0.0000000  1.0000000 -0.0000000 )
                  (  0.0000000  0.0000000  1.0000000 )

   Cartesian axes

     site n.     atom                  positions (alat units)
         1           Ce  tau(   1) = (   0.0000000   0.5053118   0.0000000  )
         2           Ce  tau(   2) = (   0.0000000   1.4774850   0.0000000  )
         3           Ce  tau(   3) = (   0.5000001  -0.0000000   1.1124968  )
         4           Ce  tau(   4) = (   0.0000000   0.9913984   0.7654963  )
         5           Ge  tau(   5) = (   0.0000006   0.9913994   1.6031470  )
         6           Ge  tau(   6) = (   0.4999995  -0.0000010   0.2748462  )
         7           Ge  tau(   7) = (  -0.0000004  -0.0000010   1.6008107  )
         8           Ge  tau(   8) = (   0.5000005   0.9913994   0.2771824  )
         9           Ge  tau(   9) = (   0.0000000  -0.2984823   0.7408720  )
        10           Ge  tau(  10) = (   0.5000001   1.2898807   1.1371211  )
        11           Ge  tau(  11) = (   0.0000000   0.2984823   0.7408720  )
        12           Ge  tau(  12) = (   0.5000001   0.6929161   1.1371211  )
        13           Pt  tau(  13) = (  -0.0000004  -0.4977782   1.3187887  )
        14           Pt  tau(  14) = (   0.5000005   1.4891766   0.5592044  )
        15           Pt  tau(  15) = (  -0.0000004   0.4977782   1.3187887  )
        16           Pt  tau(  16) = (   0.5000005   0.4936202   0.5592044  )

   Crystallographic axes

     site n.     atom                  positions (cryst. coord.)
         1           Ce  tau(   1) = (  0.0000000  0.2548480  0.0000000  )
         2           Ce  tau(   2) = (  0.0000000  0.7451520  0.0000000  )
         3           Ce  tau(   3) = (  0.7961930  0.2961930  0.5923860  )
         4           Ce  tau(   4) = (  0.2038070  0.7038070  0.4076140  )
         5           Ge  tau(   5) = (  0.4268250  0.9268250  0.8536490  )
         6           Ge  tau(   6) = (  0.5731750  0.0731750  0.1463510  )
         7           Ge  tau(   7) = (  0.4262020  0.4262020  0.8524050  )
         8           Ge  tau(   8) = (  0.5737980  0.5737980  0.1475950  )
         9           Ge  tau(   9) = (  0.1972510  0.0467150  0.3945020  )
        10           Ge  tau(  10) = (  0.8027490  0.9532850  0.6054980  )
        11           Ge  tau(  11) = (  0.1972510  0.3477870  0.3945020  )
        12           Ge  tau(  12) = (  0.8027490  0.6522130  0.6054980  )
        13           Pt  tau(  13) = (  0.3511160  0.1000680  0.7022330  )
        14           Pt  tau(  14) = (  0.6488840  0.8999320  0.2977670  )
        15           Pt  tau(  15) = (  0.3511160  0.6021650  0.7022330  )
        16           Pt  tau(  16) = (  0.6488840  0.3978350  0.2977670  )

     number of k points=     1  Methfessel-Paxton smearing, width (Ry)=  0.0010
                       cart. coord. in units 2pi/alat
        k(    1) = (   0.0000000   0.0000000   0.0000000), wk =   2.0000000

                       cryst. coord.
        k(    1) = (   0.0000000   0.0000000   0.0000000), wk =   2.0000000

     Initial potential from superposition of free atoms

     starting charge     221.9650, renormalised to     224.0000

     negative rho (up, down):  7.321E-01 0.000E+00
     Starting wfcs are  248 randomized atomic wfcs
     Checking if some PAW data can be deallocated...

     Self-consistent Calculation

     iteration #  1     ecut=    30.00 Ry     beta= 0.70
     Davidson diagonalization with overlap

     ethr =  1.00E-02,  avg # of iterations =  2.0

     negative rho (up, down):  6.529E-01 0.000E+00

     total energy              =   -4436.48893316 Ry
     estimated scf accuracy    <      48.52561232 Ry

[...]

     ethr =  2.82E-03,  avg # of iterations =  2.0
     Minimization algorithm failed to find Fermi energy: reverting to bisection
     Possible cause: smearing is larger than the electronic band-gap.

[...]

     WARNING: integrated charge=   224.00010485, expected=   224.00000000

[...]

     total energy              =   -4480.46990687 Ry
     estimated scf accuracy    <       0.00008695 Ry

     iteration # 76     ecut=    30.00 Ry     beta= 0.70
     Davidson diagonalization with overlap

     ethr =  7.77E-10,  avg # of iterations =  9.0

[...]

     End of self-consistent calculation

          k = 0.0000 0.0000 0.0000 (  3018 PWs)   bands (ev):

   -39.2366 -39.2361 -39.2359 -39.2354 -39.0596 -39.0594 -39.0586 -39.0584
   -38.8112 -38.8106 -38.8096 -38.8091 -19.9843 -19.9743 -19.9148 -19.9139
   -10.3631 -10.3594 -10.3192 -10.3148 -10.3119 -10.3043 -10.2813 -10.2773
   -10.2762 -10.2695 -10.2580 -10.2559 -10.2526 -10.2475 -10.2471 -10.2286
   -10.2270 -10.2180 -10.2133 -10.1906 -10.1679 -10.1399 -10.0779 -10.0777
   -10.0670 -10.0538 -10.0230 -10.0179 -10.0172 -10.0061 -10.0055 -10.0031
   -10.0031  -9.9906  -9.9888  -9.9830  -9.9760  -9.9663  -9.9296  -9.9194
    -3.1445  -3.1423  -3.0644  -2.8630  -2.8512  -2.8267  -2.8069  -2.7258
    -2.7104  -2.6968  -2.5257  -2.4997   2.9609   4.3781   4.7894   5.0441
     5.1623   5.9226   6.2535   6.9493   8.7647   9.0094   9.0412   9.1292
     9.3276   9.4169   9.5767   9.5902   9.7888   9.8856  10.1598  10.2725
    10.3013  10.3873  10.6786  10.7018  10.7836  10.7987  10.9412  11.0025
    11.8829  12.2056  12.2372  12.2452  12.4466  12.4585  12.7444  13.2365
    13.3671  13.5603  13.6300  13.6357  14.4296  14.5121  14.6144  14.6403
    14.6736  14.7595  14.8331  14.8454  14.9175  14.9585  14.9854  14.9898
    15.0414  15.0652  15.0657  15.0671  15.1059  15.1100  15.1275  15.1325
    15.1586  15.1791  15.2021  15.2033  15.2367  15.2524

     occupation numbers
     1.0000   1.0000   1.0000   1.0000   1.0000   1.0000   1.0000   1.0000
     1.0000   1.0000   1.0000   1.0000   1.0000   1.0000   1.0000   1.0000
     1.0000   1.0000   1.0000   1.0000   1.0000   1.0000   1.0000   1.0000
     1.0000   1.0000   1.0000   1.0000   1.0000   1.0000   1.0000   1.0000
     1.0000   1.0000   1.0000   1.0000   1.0000   1.0000   1.0000   1.0000
     1.0000   1.0000   1.0000   1.0000   1.0000   1.0000   1.0000   1.0000
     1.0000   1.0000   1.0000   1.0000   1.0000   1.0000   1.0000   1.0000
     1.0000   1.0000   1.0000   1.0000   1.0000   1.0000   1.0000   1.0000
     1.0000   1.0000   1.0000   1.0000   1.0000   1.0000   1.0000   1.0000
     1.0000   1.0000   1.0000   1.0000   1.0000   1.0000   1.0000   1.0000
     1.0000   1.0000   1.0000   1.0000   1.0000   1.0000   1.0000   1.0000
     1.0000   1.0000   1.0000   1.0000   1.0000   1.0000   1.0000   1.0000
     1.0000   1.0000   1.0000   1.0000   1.0000   1.0000   1.0000   1.0000
     1.0000   1.0000   1.0000   1.0000   1.0000   1.0000   1.0000   1.0354
    -0.0354  -0.0000  -0.0000  -0.0000  -0.0000  -0.0000  -0.0000  -0.0000
    -0.0000  -0.0000  -0.0000  -0.0000  -0.0000  -0.0000  -0.0000  -0.0000
    -0.0000  -0.0000  -0.0000  -0.0000  -0.0000  -0.0000

     the Fermi energy is    14.6570 ev

     WARNING: integrated charge=   224.00008830, expected=   224.00000000

!    total energy              =   -4480.46981287 Ry
     estimated scf accuracy    <       0.00000084 Ry
     smearing contrib. (-TS)   =       0.00025201 Ry
     internal energy E=F+TS    =   -4480.47006488 Ry

     The total energy is F=E-TS. E is the sum of the following terms:
     one-electron contribution =   -1264.37572784 Ry
     hartree contribution      =     832.96360489 Ry
     xc contribution           =    -735.58249716 Ry
     ewald contribution        =   -1680.21041755 Ry
     one-center paw contrib.   =   -1633.26502722 Ry
      -> PAW hartree energy AE =     176.12174138 Ry
      -> PAW hartree energy PS =    -174.99971993 Ry
      -> PAW xc energy AE      =   -1668.65069240 Ry
      -> PAW xc energy PS      =      34.26364374 Ry
      -> total E_H with PAW    =     834.08562634 Ry
      -> total E_XC with PAW   =   -2369.96954582 Ry

     convergence has been achieved in  76 iterations

     negative rho (up, down):  6.935E-01 0.000E+00

     Forces acting on atoms (cartesian axes, Ry/au):

     atom    1 type  1   force =     0.00000000    0.00186929    0.00000000
     atom    2 type  1   force =     0.00000000   -0.00186929   -0.00000000
     atom    3 type  1   force =     0.00000000    0.00000000   -0.06672848
     atom    4 type  1   force =     0.00000000    0.00000000    0.06672848
     atom    5 type  2   force =     0.00000000    0.00000000    0.02945526
     atom    6 type  2   force =     0.00000000    0.00000000   -0.02945526
     atom    7 type  2   force =     0.00000000    0.00000000    0.01904968
     atom    8 type  2   force =     0.00000000    0.00000000   -0.01904968
     atom    9 type  2   force =     0.00000000    0.02984848    0.04257732
     atom   10 type  2   force =     0.00000000   -0.02984848   -0.04257732
     atom   11 type  2   force =    -0.00000000   -0.02984848    0.04257732
     atom   12 type  2   force =     0.00000000    0.02984848   -0.04257732
     atom   13 type  3   force =     0.00000000   -0.00229741    0.03139449
     atom   14 type  3   force =     0.00000000    0.00229741   -0.03139449
     atom   15 type  3   force =     0.00000000    0.00229741    0.03139449
     atom   16 type  3   force =     0.00000000   -0.00229741   -0.03139449
     The non-local contrib.  to forces
     atom    1 type  1   force =     0.00000000   -0.02221338   -0.00000000
     atom    2 type  1   force =     0.00000000    0.02221338    0.00000000
     atom    3 type  1   force =     0.00000000    0.00000000   -0.03984185
     atom    4 type  1   force =     0.00000000    0.00000000    0.03984185
     atom    5 type  2   force =     0.00000000    0.00000000   -0.16598443
     atom    6 type  2   force =     0.00000000    0.00000000    0.16598443
     atom    7 type  2   force =     0.00000000    0.00000000    0.00374412
     atom    8 type  2   force =     0.00000000    0.00000000   -0.00374412
     atom    9 type  2   force =    -0.00000000   -0.29385213   -0.41313232
     atom   10 type  2   force =     0.00000000    0.29385213    0.41313232
     atom   11 type  2   force =    -0.00000000    0.29385213   -0.41313232
     atom   12 type  2   force =     0.00000000   -0.29385213    0.41313232
     atom   13 type  3   force =     0.00000000   -0.08636661   -0.05597845
     atom   14 type  3   force =     0.00000000    0.08636661    0.05597845
     atom   15 type  3   force =     0.00000000    0.08636661   -0.05597845
     atom   16 type  3   force =     0.00000000   -0.08636661    0.05597845
     The ionic contribution  to forces
     atom    1 type  1   force =     0.00000000    1.58699769    0.00006167
     atom    2 type  1   force =     0.00000000   -1.58699769   -0.00006167
     atom    3 type  1   force =    -0.00003103    0.00004213    9.04569184
     atom    4 type  1   force =     0.00003103   -0.00004213   -9.04569184
     atom    5 type  2   force =     0.00003264   -0.00011296   11.52971416
     atom    6 type  2   force =    -0.00003264    0.00011296  -11.52971416
     atom    7 type  2   force =     0.00000255    0.00012070    9.80582551
     atom    8 type  2   force =    -0.00000255   -0.00012069   -9.80582551
     atom    9 type  2   force =     0.00005372    2.74174646   -7.42743969
     atom   10 type  2   force =    -0.00005372   -2.74174646    7.42743969
     atom   11 type  2   force =     0.00005372   -2.74169721   -7.42746246
     atom   12 type  2   force =    -0.00005372    2.74169721    7.42746246
     atom   13 type  3   force =     0.00004371    4.77058247   14.72773696
     atom   14 type  3   force =    -0.00004371   -4.77058247  -14.72773696
     atom   15 type  3   force =     0.00004371   -4.77058276   14.72786387
     atom   16 type  3   force =    -0.00004371    4.77058276  -14.72786386
     The local contribution  to forces
     atom    1 type  1   force =    -0.00000245   -1.56301023    0.00057424
     atom    2 type  1   force =    -0.00000182    1.56313944    0.00075261
     atom    3 type  1   force =     0.00003555   -0.00003749   -9.07327214
     atom    4 type  1   force =    -0.00005531   -0.00004619    9.07164764
     atom    5 type  2   force =    -0.00002861    0.00013392  -11.34126243
     atom    6 type  2   force =     0.00003993   -0.00026114   11.34115210
     atom    7 type  2   force =    -0.00002577   -0.00026121   -9.79081123
     atom    8 type  2   force =     0.00003041    0.00017099    9.79292067
     atom    9 type  2   force =    -0.00005570   -2.42291434    7.87449220
     atom   10 type  2   force =     0.00006322    2.42108195   -7.87592560
     atom   11 type  2   force =    -0.00005680    2.42271219    7.87449283
     atom   12 type  2   force =     0.00005701   -2.42082368   -7.87598957
     atom   13 type  3   force =    -0.00004982   -4.70027967  -14.64128992
     atom   14 type  3   force =     0.00005407    4.69796760   14.64077685
     atom   15 type  3   force =    -0.00004998    4.70027457  -14.64145414
     atom   16 type  3   force =     0.00005063   -4.69782050   14.64106865
     The core correction contribution to forces
     atom    1 type  1   force =    -0.00000000   -0.00002157    0.00000007
     atom    2 type  1   force =    -0.00000000    0.00002165    0.00000002
     atom    3 type  1   force =    -0.00000001    0.00000005   -0.00008831
     atom    4 type  1   force =    -0.00000000   -0.00000010    0.00008781
     atom    5 type  2   force =     0.00000024   -0.00000097    0.00711929
     atom    6 type  2   force =    -0.00000008   -0.00000074   -0.00711831
     atom    7 type  2   force =    -0.00000020   -0.00000094    0.00128780
     atom    8 type  2   force =     0.00000029    0.00000051   -0.00129165
     atom    9 type  2   force =    -0.00000022    0.00398448    0.00772732
     atom   10 type  2   force =     0.00000044   -0.00398295   -0.00772694
     atom   11 type  2   force =    -0.00000033   -0.00398542    0.00772700
     atom   12 type  2   force =     0.00000028    0.00398469   -0.00772652
     atom   13 type  3   force =     0.00000000    0.01242892    0.00091422
     atom   14 type  3   force =    -0.00000021   -0.01242037   -0.00090543
     atom   15 type  3   force =    -0.00000004   -0.01242804    0.00091459
     atom   16 type  3   force =    -0.00000012    0.01242310   -0.00090710
     The Hubbard contrib.    to forces
     atom    1 type  1   force =     0.00000000    0.00000000    0.00000000
     atom    2 type  1   force =     0.00000000    0.00000000    0.00000000
     atom    3 type  1   force =     0.00000000    0.00000000    0.00000000
     atom    4 type  1   force =     0.00000000    0.00000000    0.00000000
     atom    5 type  2   force =     0.00000000    0.00000000    0.00000000
     atom    6 type  2   force =     0.00000000    0.00000000    0.00000000
     atom    7 type  2   force =     0.00000000    0.00000000    0.00000000
     atom    8 type  2   force =     0.00000000    0.00000000    0.00000000
     atom    9 type  2   force =     0.00000000    0.00000000    0.00000000
     atom   10 type  2   force =     0.00000000    0.00000000    0.00000000
     atom   11 type  2   force =     0.00000000    0.00000000    0.00000000
     atom   12 type  2   force =     0.00000000    0.00000000    0.00000000
     atom   13 type  3   force =     0.00000000    0.00000000    0.00000000
     atom   14 type  3   force =     0.00000000    0.00000000    0.00000000
     atom   15 type  3   force =     0.00000000    0.00000000    0.00000000
     atom   16 type  3   force =     0.00000000    0.00000000    0.00000000
     The SCF correction term to forces
     atom    1 type  1   force =     0.00000097    0.00013638   -0.00055421
     atom    2 type  1   force =     0.00000127   -0.00022647   -0.00066864
     atom    3 type  1   force =    -0.00000245    0.00004768    0.00053794
     atom    4 type  1   force =     0.00001210   -0.00000337    0.00059899
     atom    5 type  2   force =    -0.00000346   -0.00004880   -0.00013660
     atom    6 type  2   force =    -0.00000512    0.00018444    0.00023539
     atom    7 type  2   force =     0.00001543    0.00016740   -0.00101663
     atom    8 type  2   force =    -0.00002112   -0.00006696   -0.00112919
     atom    9 type  2   force =     0.00000093    0.00088810    0.00093205
     atom   10 type  2   force =    -0.00001093    0.00096633    0.00051192
     atom   11 type  2   force =     0.00000389   -0.00074384    0.00095906
     atom   12 type  2   force =    -0.00000438   -0.00115591    0.00054429
     atom   13 type  3   force =     0.00000678    0.00129611    0.00002451
     atom   14 type  3   force =    -0.00000916    0.00093929    0.00047998
     atom   15 type  3   force =     0.00000537   -0.00130963    0.00003888
     atom   16 type  3   force =    -0.00000727   -0.00107820    0.00034508

     Total force =     0.161716     Total SCF correction =     0.003959

     Computing stress (Cartesian axis) and pressure

     negative rho (up, down):  6.935E-01 0.000E+00
          total   stress  (Ry/bohr**3)                   (kbar)     P=      -96.92
   0.00000217   0.00000000  -0.00000000            0.32        0.00       -0.00
   0.00000000  -0.00124008  -0.00000000            0.00     -182.42       -0.00
  -0.00000000  -0.00000000  -0.00073855           -0.00       -0.00     -108.64

     kinetic stress (kbar)  19662.40      0.00     -0.00
                                0.00  19465.92      0.00
                               -0.00      0.00  19633.46

     local   stress (kbar)   4259.88      0.00     -0.04
                                0.00  -3908.77      0.01
                               -0.04      0.01   9360.93

     nonloc. stress (kbar)   5168.18      0.00     -0.00
                                0.00   5295.82      0.00
                               -0.00      0.00   5307.58

     hartree stress (kbar)  18183.58     -0.00      0.01
                               -0.00  21849.47     -0.01
                                0.01     -0.01  15905.48

     exc-cor stress (kbar)  17671.39     -0.00      0.00
                               -0.00  17673.28     -0.00
                                0.00     -0.00  17671.09

     corecor stress (kbar) -26884.50      0.00     -0.00
                                0.00 -26883.42      0.00
                               -0.00      0.00 -26886.25

     ewald   stress (kbar) -38060.61     -0.00      0.02
                               -0.00 -33674.72     -0.00
                                0.02     -0.00 -41100.92

     hubbard stress (kbar)      0.00      0.00      0.00
                                0.00      0.00      0.00
                                0.00      0.00      0.00

     DFT-D   stress (kbar)      0.00      0.00      0.00
                                0.00      0.00      0.00
                                0.00      0.00      0.00

     XDM     stress (kbar)      0.00      0.00      0.00
                                0.00      0.00      0.00
                                0.00      0.00      0.00

     dft-nl  stress (kbar)      0.00      0.00      0.00
                                0.00      0.00      0.00
                                0.00      0.00      0.00

     TS-vdW  stress (kbar)      0.00      0.00      0.00
                                0.00      0.00      0.00
                                0.00      0.00      0.00

[...]

                                0.00      0.00      0.00

     Writing all to output data dir new_calculations/myprefix.save/

     General routines

     Parallel routines

     PAW routines

   This run was terminated on:   8:22:32  20May2023

   JOB DONE.