     Program PWSCF v.7.0 starts on 20May2023 at 12:32:40

     Reading input from espresso_15191.pwi
Warning: card &CELL ignored
Warning: card / ignored

     Current dimensions of program PWSCF are:
     Max number of different atomic species (ntypx) = 10
     Max number of k-points (npk) =  40000
     Max angular momentum in pseudopotentials (lmaxx) =  4

     gamma-point specific algorithms are used
     Message from routine setup:
     using ibrav=0 with symmetry is DISCOURAGED, use correct ibrav instead

     Subspace diagonalization in iterative solution of the eigenvalue problem:
     a serial algorithm will be used

     Using Slab Decomposition

     bravais-lattice index     =            0
     lattice parameter (alat)  =      15.3086  a.u.
     unit-cell volume          =    1922.7544 (a.u.)^3
     number of atoms/cell      =           10
     number of atomic types    =            3
     number of electrons       =        94.00
     number of Kohn-Sham states=           56
     kinetic-energy cutoff     =      30.0000  Ry
     charge density cutoff     =     240.0000  Ry
     scf convergence threshold =      1.0E-06
     mixing beta               =       0.7000
     number of iterations used =            8  plain     mixing
     Exchange-correlation=  SLA  PW   PBX  PBC
                           (   1   4   3   4   0   0   0)

     celldm(1)=  15.308555  celldm(2)=   0.000000  celldm(3)=   0.000000
     celldm(4)=   0.000000  celldm(5)=   0.000000  celldm(6)=   0.000000

     crystal axes: (cart. coord. in units of alat)
               a(1) = (   1.000000   0.000000   0.000000 )
               a(2) = (   0.337559   0.941304   0.000000 )
               a(3) = (  -0.620480  -0.539285   0.569366 )

     reciprocal axes: (cart. coord. in units 2 pi/alat)
               b(1) = (  1.000000 -0.358608  0.750112 )
               b(2) = (  0.000000  1.062356  1.006229 )
               b(3) = (  0.000000  0.000000  1.756341 )

     PseudoPot. # 1 for Rb read from file:
     /home/pragov/projects/rrg-bengioy-ad/pragov/crystal_structure_design/SSSP/Rb_ONCV_PBE-1.0.oncvpsp.upf
     MD5 check sum: 55a5172d6bfbce6759a58e35d43f6aa9
     Pseudo is Norm-conserving, Zval =  9.0
     Generated using ONCVPSP code by D. R. Hamann
     Using radial grid of 2308 points,  6 beta functions with:
                l(1) =   0
                l(2) =   0
                l(3) =   1
                l(4) =   1
                l(5) =   2
                l(6) =   2

     PseudoPot. # 2 for Co read from file:
     /home/pragov/projects/rrg-bengioy-ad/pragov/crystal_structure_design/SSSP/Co_pbe_v1.2.uspp.F.UPF
     MD5 check sum: 5f91765df6ddd3222702df6e7b74a16d
     Pseudo is Ultrasoft + core correction, Zval = 17.0
     Generated by new atomic code, or converted to UPF format
     Using radial grid of  863 points,  6 beta functions with:
                l(1) =   0
                l(2) =   0
                l(3) =   1
                l(4) =   1
                l(5) =   2
                l(6) =   2
     Q(r) pseudized with  8 coefficients,  rinner =    1.200   1.200   1.200
                                                       1.200   1.200

     PseudoPot. # 3 for S  read from file:
     /home/pragov/projects/rrg-bengioy-ad/pragov/crystal_structure_design/SSSP/s_pbe_v1.4.uspp.F.UPF
     MD5 check sum: 88d86576ff6df21479756cfb9bdac1df
     Pseudo is Ultrasoft + core correction, Zval =  6.0
     Generated by new atomic code, or converted to UPF format
     Using radial grid of  907 points,  6 beta functions with:
                l(1) =   0
                l(2) =   0
                l(3) =   1
                l(4) =   1
                l(5) =   2
                l(6) =   2
     Q(r) pseudized with  8 coefficients,  rinner =    1.300   1.300   1.300
                                                       1.300   1.300

     atomic species   valence    mass     pseudopotential
        Rb             9.00    85.46780     Rb( 1.00)
        Co            17.00    58.93319     Co( 1.00)
        S              6.00    32.06000     S ( 1.00)

      2 Sym. Ops., with inversion, found

                                    s                        frac. trans.

      isym =  1     identity

 cryst.   s( 1) = (     1          0          0      )
                  (     0          1          0      )
                  (     0          0          1      )

 cart.    s( 1) = (  1.0000000 -0.0000000  0.0000000 )
                  (  0.0000000  1.0000000  0.0000000 )
                  (  0.0000000  0.0000000  1.0000000 )

      isym =  2     inversion

 cryst.   s( 2) = (    -1          0          0      )
                  (     0         -1          0      )
                  (     0          0         -1      )

 cart.    s( 2) = ( -1.0000000  0.0000000 -0.0000000 )
                  (  0.0000000 -1.0000000 -0.0000000 )
                  (  0.0000000  0.0000000 -1.0000000 )

   Cartesian axes

     site n.     atom                  positions (alat units)
         1           Rb  tau(   1) = (   0.5991830   0.1518256   0.1905353  )
         2           Rb  tau(   2) = (   0.2037126   0.7137733   0.0941474  )
         3           Rb  tau(   3) = (   0.1178965   0.2501940   0.3788302  )
         4           Rb  tau(   4) = (   0.5133669  -0.3117536   0.4752181  )
         5           Co  tau(   5) = (   0.1190301  -0.1691374   0.4270241  )
         6           Co  tau(   6) = (   0.5980495   0.5711571   0.1423414  )
         7           S   tau(   7) = (  -0.1440833  -0.0650300   0.4712257  )
         8           S   tau(   8) = (   0.4657697   0.4893547   0.3828226  )
         9           S   tau(   9) = (   0.8611628   0.4670496   0.0981398  )
        10           S   tau(  10) = (   0.2513099  -0.0873351   0.1865429  )

   Crystallographic axes

     site n.     atom                  positions (cryst. coord.)
         1           Rb  tau(   1) = (  0.6876600  0.3530150  0.3346450  )
         2           Rb  tau(   2) = (  0.0183690  0.8530150  0.1653550  )
         3           Rb  tau(   3) = (  0.3123400  0.6469850  0.6653550  )
         4           Rb  tau(   4) = (  0.9816310  0.1469850  0.8346450  )
         5           Co  tau(   5) = (  0.5000000  0.2500000  0.7500000  )
         6           Co  tau(   6) = (  0.5000000  0.7500000  0.2500000  )
         7           S   tau(   7) = (  0.2327090  0.4050760  0.8276330  )
         8           S   tau(   8) = (  0.5774430  0.9050760  0.6723670  )
         9           S   tau(   9) = (  0.7672910  0.5949240  0.1723670  )
        10           S   tau(  10) = (  0.4225570  0.0949240  0.3276330  )

     number of k points=     1  Methfessel-Paxton smearing, width (Ry)=  0.0010
                       cart. coord. in units 2pi/alat
        k(    1) = (   0.0000000   0.0000000   0.0000000), wk =   2.0000000

                       cryst. coord.
        k(    1) = (   0.0000000   0.0000000   0.0000000), wk =   2.0000000

     Check: negative core charge=   -0.000005

     Initial potential from superposition of free atoms

     starting charge      91.9008, renormalised to      94.0000
     Starting wfcs are   62 randomized atomic wfcs

     Self-consistent Calculation

     iteration #  1     ecut=    30.00 Ry     beta= 0.70
     Davidson diagonalization with overlap

     ethr =  1.00E-02,  avg # of iterations =  5.0

     total energy              =    -888.16737285 Ry
     estimated scf accuracy    <       2.58033536 Ry

[...]

     total energy              =    -889.35032272 Ry
     estimated scf accuracy    <       0.00000455 Ry

     iteration # 14     ecut=    30.00 Ry     beta= 0.70
     Davidson diagonalization with overlap

     ethr =  4.85E-09,  avg # of iterations =  2.0

     End of self-consistent calculation

          k = 0.0000 0.0000 0.0000 (  2687 PWs)   bands (ev):

   -88.2590 -88.1427 -51.4068 -51.3713 -51.3614 -51.3412 -51.3185 -51.2203
   -21.4680 -21.4415 -21.4129 -21.4065  -6.6861  -6.2868  -6.2332  -6.0540
    -5.8746  -5.7794  -5.7698  -5.7281  -5.5424  -5.5363  -5.5151  -5.4538
    -5.4276  -5.4107  -5.3342  -5.1196   1.5758   1.9567   2.6919   3.0792
     3.0974   3.1295   3.1755   3.2210   3.3049   3.3866   3.6218   4.3071
     5.3944   5.4112   5.5408   6.1097   6.1926   6.2381   6.3626   6.9362
     7.0330   7.0755   7.5007   9.2516   9.4964   9.7986   9.9407  10.5620

     occupation numbers
     1.0000   1.0000   1.0000   1.0000   1.0000   1.0000   1.0000   1.0000
     1.0000   1.0000   1.0000   1.0000   1.0000   1.0000   1.0000   1.0000
     1.0000   1.0000   1.0000   1.0000   1.0000   1.0000   1.0000   1.0000
     1.0000   1.0000   1.0000   1.0000   1.0000   1.0000   1.0000   1.0000
     1.0000   1.0000   1.0000   1.0000   1.0000   1.0000   1.0000   1.0000
     1.0000   1.0000   1.0000   1.0000   1.0000   1.0000   1.0000  -0.0000
    -0.0000  -0.0000  -0.0000  -0.0000  -0.0000  -0.0000  -0.0000  -0.0000

     the Fermi energy is     6.8273 ev

!    total energy              =    -889.35032350 Ry
     estimated scf accuracy    <       0.00000028 Ry
     smearing contrib. (-TS)   =       0.00000000 Ry
     internal energy E=F+TS    =    -889.35032350 Ry

     The total energy is F=E-TS. E is the sum of the following terms:
     one-electron contribution =    -786.83963021 Ry
     hartree contribution      =     422.48798784 Ry
     xc contribution           =    -129.10278410 Ry
     ewald contribution        =    -395.89589703 Ry

     convergence has been achieved in  14 iterations

     Forces acting on atoms (cartesian axes, Ry/au):

     atom    1 type  1   force =    -0.00294403   -0.00910777    0.00499226
     atom    2 type  1   force =    -0.00952080   -0.00075416   -0.00461867
     atom    3 type  1   force =     0.00294403    0.00910777   -0.00499226
     atom    4 type  1   force =     0.00952080    0.00075416    0.00461867
     atom    5 type  2   force =    -0.00093184   -0.00152549   -0.00297523
     atom    6 type  2   force =     0.00093184    0.00152549    0.00297523
     atom    7 type  3   force =     0.07750214   -0.00050020    0.03818104
     atom    8 type  3   force =     0.02747939    0.07491750   -0.03919129
     atom    9 type  3   force =    -0.07750214    0.00050020   -0.03818104
     atom   10 type  3   force =    -0.02747939   -0.07491750    0.03919129
     The non-local contrib.  to forces
     atom    1 type  1   force =    -0.00858040   -0.04777321    0.02914912
     atom    2 type  1   force =    -0.04731400    0.00743918   -0.02946060
     atom    3 type  1   force =     0.00858040    0.04777321   -0.02914912
     atom    4 type  1   force =     0.04731400   -0.00743918    0.02946060
     atom    5 type  2   force =     0.00583861    0.00209973    0.00099797
     atom    6 type  2   force =    -0.00583861   -0.00209973   -0.00099797
     atom    7 type  3   force =     0.13071928   -0.01156874    0.07522464
     atom    8 type  3   force =     0.03516232    0.12851135   -0.06892809
     atom    9 type  3   force =    -0.13071928    0.01156874   -0.07522464
     atom   10 type  3   force =    -0.03516232   -0.12851135    0.06892809
     The ionic contribution  to forces
     atom    1 type  1   force =    -1.68430192   -6.23809323    3.56768519
     atom    2 type  1   force =    -6.44042388    0.52027782   -3.56765760
     atom    3 type  1   force =     1.68430192    6.23809323   -3.56768519
     atom    4 type  1   force =     6.44042388   -0.52027782    3.56765760
     atom    5 type  2   force =     0.00002316   -0.00001624   -0.00001770
     atom    6 type  2   force =    -0.00002316    0.00001624    0.00001770
     atom    7 type  3   force =   -12.34258827   -0.12484521   -6.04492787
     atom    8 type  3   force =    -4.28387526  -11.57598033    6.04493029
     atom    9 type  3   force =    12.34258827    0.12484521    6.04492787
     atom   10 type  3   force =     4.28387526   11.57598033   -6.04493029
     The local contribution  to forces
     atom    1 type  1   force =     1.68990844    6.27674193   -3.59185622
     atom    2 type  1   force =     6.47837981   -0.52840902    3.59262574
     atom    3 type  1   force =    -1.68997295   -6.27678009    3.59180243
     atom    4 type  1   force =    -6.47822855    0.52843189   -3.59248736
     atom    5 type  2   force =    -0.00711729   -0.00344074   -0.00458755
     atom    6 type  2   force =     0.00633745    0.00402637    0.00385185
     atom    7 type  3   force =    12.29689290    0.13559890    6.01230640
     atom    8 type  3   force =     4.27819091   11.53023748   -6.01846432
     atom    9 type  3   force =   -12.29686578   -0.13573153   -6.01234281
     atom   10 type  3   force =    -4.27833450  -11.53011969    6.01837937
     The core correction contribution to forces
     atom    1 type  1   force =     0.00000000    0.00000000    0.00000000
     atom    2 type  1   force =     0.00000000    0.00000000    0.00000000
     atom    3 type  1   force =     0.00000000    0.00000000    0.00000000
     atom    4 type  1   force =     0.00000000    0.00000000    0.00000000
     atom    5 type  2   force =    -0.00002973   -0.00003329   -0.00009150
     atom    6 type  2   force =     0.00002900    0.00003885    0.00009251
     atom    7 type  3   force =    -0.00729105    0.00024624   -0.00439464
     atom    8 type  3   force =    -0.00196222   -0.00756386    0.00309265
     atom    9 type  3   force =     0.00729184   -0.00025159    0.00439608
     atom   10 type  3   force =     0.00196295    0.00756392   -0.00309323
     The Hubbard contrib.    to forces
     atom    1 type  1   force =     0.00000000    0.00000000    0.00000000
     atom    2 type  1   force =     0.00000000    0.00000000    0.00000000
     atom    3 type  1   force =     0.00000000    0.00000000    0.00000000
     atom    4 type  1   force =     0.00000000    0.00000000    0.00000000
     atom    5 type  2   force =     0.00000000    0.00000000    0.00000000
     atom    6 type  2   force =     0.00000000    0.00000000    0.00000000
     atom    7 type  3   force =     0.00000000    0.00000000    0.00000000
     atom    8 type  3   force =     0.00000000    0.00000000    0.00000000
     atom    9 type  3   force =     0.00000000    0.00000000    0.00000000
     atom   10 type  3   force =     0.00000000    0.00000000    0.00000000
     The SCF correction term to forces
     atom    1 type  1   force =     0.00003108    0.00005330    0.00002744
     atom    2 type  1   force =    -0.00018387   -0.00007493   -0.00016486
     atom    3 type  1   force =     0.00003590    0.00005799    0.00005288
     atom    4 type  1   force =    -0.00000966    0.00002649   -0.00005082
     atom    5 type  2   force =     0.00050770   -0.00017655    0.00083520
     atom    6 type  2   force =     0.00058144   -0.00049783    0.00012278
     atom    7 type  3   force =    -0.00023481    0.00003267   -0.00000234
     atom    8 type  3   force =    -0.00001978   -0.00027428    0.00016646
     atom    9 type  3   force =     0.00019873    0.00003342    0.00008761
     atom   10 type  3   force =     0.00019579    0.00018215   -0.00010434

     Total force =     0.176689     Total SCF correction =     0.001400

     Computing stress (Cartesian axis) and pressure

          total   stress  (Ry/bohr**3)                   (kbar)     P=      -96.64
  -0.00059186  -0.00011431   0.00001935          -87.07      -16.82        2.85
  -0.00011431  -0.00070225   0.00000312          -16.82     -103.30        0.46
   0.00001935   0.00000312  -0.00067677            2.85        0.46      -99.56

     kinetic stress (kbar)   8841.74      1.33     18.88
                                1.33   8844.43    -20.35
                               18.88    -20.35   8839.79

     local   stress (kbar)  -4400.26   6559.01   7225.15
                             6559.01  -9094.15 -10288.40
                             7225.15 -10288.40 -17424.16

     nonloc. stress (kbar)   3515.17    -12.85    -10.67
                              -12.85   3484.07     26.69
                              -10.67     26.69   3491.66

     hartree stress (kbar)   8044.33  -3030.48  -3334.59
                            -3030.48  10215.57   4746.61
                            -3334.59   4746.61  14063.58

     exc-cor stress (kbar)  -1272.47     -0.44     -1.45
                               -0.44  -1272.07      2.12
                               -1.45      2.12  -1270.95

     corecor stress (kbar)  -1535.75      0.25      0.03
                                0.25  -1535.74     -0.13
                                0.03     -0.13  -1535.73

     ewald   stress (kbar) -13279.82  -3533.63  -3894.50
                            -3533.63 -10745.42   5533.93
                            -3894.50   5533.93  -6263.75

     hubbard stress (kbar)      0.00      0.00      0.00
                                0.00      0.00      0.00
                                0.00      0.00      0.00

     DFT-D   stress (kbar)      0.00      0.00      0.00
                                0.00      0.00      0.00
                                0.00      0.00      0.00

     XDM     stress (kbar)      0.00      0.00      0.00
                                0.00      0.00      0.00
                                0.00      0.00      0.00

     dft-nl  stress (kbar)      0.00      0.00      0.00
                                0.00      0.00      0.00
                                0.00      0.00      0.00

     TS-vdW  stress (kbar)      0.00      0.00      0.00
                                0.00      0.00      0.00
                                0.00      0.00      0.00

[...]

                                0.00      0.00      0.00

     Writing all to output data dir new_calculations/myprefix.save/

     General routines

     Parallel routines

   This run was terminated on:  12:33:12  20May2023

   JOB DONE.