     Program PWSCF v.7.0 starts on 20May2023 at  9:14:10

     Reading input from espresso_18191.pwi
Warning: card &CELL ignored
Warning: card / ignored

     Current dimensions of program PWSCF are:
     Max number of different atomic species (ntypx) = 10
     Max number of k-points (npk) =  40000
     Max angular momentum in pseudopotentials (lmaxx) =  4
     file O.pbe-n-kjpaw_psl.0.1.UPF: wavefunction(s)  2P renormalized

     gamma-point specific algorithms are used
     Message from routine setup:
     using ibrav=0 with symmetry is DISCOURAGED, use correct ibrav instead

     Subspace diagonalization in iterative solution of the eigenvalue problem:
     a serial algorithm will be used

     Using Slab Decomposition

     bravais-lattice index     =            0
     lattice parameter (alat)  =      10.9351  a.u.
     unit-cell volume          =     921.6780 (a.u.)^3
     number of atoms/cell      =           16
     number of atomic types    =            4
     number of electrons       =       132.00
     number of Kohn-Sham states=           79
     kinetic-energy cutoff     =      30.0000  Ry
     charge density cutoff     =     240.0000  Ry
     scf convergence threshold =      1.0E-06
     mixing beta               =       0.7000
     number of iterations used =            8  plain     mixing
     Exchange-correlation= SLA  PW   PBX  PBC
                           (   1   4   3   4   0   0   0)

     celldm(1)=  10.935052  celldm(2)=   0.000000  celldm(3)=   0.000000
     celldm(4)=   0.000000  celldm(5)=   0.000000  celldm(6)=   0.000000

     crystal axes: (cart. coord. in units of alat)
               a(1) = (   1.000000   0.000000   0.000000 )
               a(2) = (   0.005987   0.999982   0.000000 )
               a(3) = (  -0.494971  -0.508062   0.704895 )

     reciprocal axes: (cart. coord. in units 2 pi/alat)
               b(1) = (  1.000000 -0.005987  0.697876 )
               b(2) = (  0.000000  1.000018  0.720775 )
               b(3) = (  0.000000  0.000000  1.418651 )

     PseudoPot. # 1 for Li read from file:
     /home/pragov/projects/rrg-bengioy-ad/pragov/crystal_structure_design/SSSP/li_pbe_v1.4.uspp.F.UPF
     MD5 check sum: e912e257baa3777c20ea3d68f190483c
     Pseudo is Ultrasoft, Zval =  3.0
     Generated by new atomic code, or converted to UPF format
     Using radial grid of  751 points,  5 beta functions with:
                l(1) =   0
                l(2) =   0
                l(3) =   0
                l(4) =   1
                l(5) =   1
     Q(r) pseudized with 10 coefficients,  rinner =    1.150   1.150   1.150

     PseudoPot. # 2 for Co read from file:
     /home/pragov/projects/rrg-bengioy-ad/pragov/crystal_structure_design/SSSP/Co_pbe_v1.2.uspp.F.UPF
     MD5 check sum: 5f91765df6ddd3222702df6e7b74a16d
     Pseudo is Ultrasoft + core correction, Zval = 17.0
     Generated by new atomic code, or converted to UPF format
     Using radial grid of  863 points,  6 beta functions with:
                l(1) =   0
                l(2) =   0
                l(3) =   1
                l(4) =   1
                l(5) =   2
                l(6) =   2
     Q(r) pseudized with  8 coefficients,  rinner =    1.200   1.200   1.200
                                                       1.200   1.200

     PseudoPot. # 3 for Cu read from file:
     /home/pragov/projects/rrg-bengioy-ad/pragov/crystal_structure_design/SSSP/Cu_pbe_v1.2.uspp.F.UPF
     MD5 check sum: 6e991ff952a84172a2a52a1c1e996048
     Pseudo is Ultrasoft + core correction, Zval = 19.0
     Generated by new atomic code, or converted to UPF format
     Using radial grid of  867 points,  6 beta functions with:
                l(1) =   0
                l(2) =   0
                l(3) =   1
                l(4) =   1
                l(5) =   2
                l(6) =   2
     Q(r) pseudized with  8 coefficients,  rinner =    1.150   1.150   1.150
                                                       1.150   1.150

     PseudoPot. # 4 for O  read from file:
     /home/pragov/projects/rrg-bengioy-ad/pragov/crystal_structure_design/SSSP/O.pbe-n-kjpaw_psl.0.1.UPF
     MD5 check sum: 0234752ac141de4415c5fc33072bef88
     Pseudo is Projector augmented-wave + core cor, Zval =  6.0
     Generated using "atomic" code by A. Dal Corso  v.5.0.99 svn rev. 10869
     Shape of augmentation charge: BESSEL
     Using radial grid of 1095 points,  4 beta functions with:
                l(1) =   0
                l(2) =   0
                l(3) =   1
                l(4) =   1
     Q(r) pseudized with 0 coefficients

     atomic species   valence    mass     pseudopotential
        Li             3.00     6.94000     Li( 1.00)
        Co            17.00    58.93319     Co( 1.00)
        Cu            19.00    63.54600     Cu( 1.00)
        O              6.00    15.99900     O ( 1.00)

      2 Sym. Ops., with inversion, found

                                    s                        frac. trans.

      isym =  1     identity

 cryst.   s( 1) = (     1          0          0      )
                  (     0          1          0      )
                  (     0          0          1      )

 cart.    s( 1) = (  1.0000000 -0.0000000  0.0000000 )
                  (  0.0000000  1.0000000 -0.0000000 )
                  (  0.0000000  0.0000000  1.0000000 )

      isym =  2     inversion

 cryst.   s( 2) = (    -1          0          0      )
                  (     0         -1          0      )
                  (     0          0         -1      )

 cart.    s( 2) = ( -1.0000000  0.0000000 -0.0000000 )
                  (  0.0000000 -1.0000000  0.0000000 )
                  (  0.0000000  0.0000000 -1.0000000 )

   Cartesian axes

     site n.     atom                  positions (alat units)
         1           Li  tau(   1) = (  -0.2474855  -0.2540309   0.3524475  )
         2           Li  tau(   2) = (   0.7555080   0.2459602   0.3524475  )
         3           Li  tau(   3) = (   0.0029936   0.4999910   0.0000000  )
         4           Li  tau(   4) = (   0.5029936   0.4999910   0.0000000  )
         5           Co  tau(   5) = (   0.5000000   0.0000000   0.0000000  )
         6           Co  tau(   6) = (   0.2555080   0.2459602   0.3524475  )
         7           Cu  tau(   7) = (   0.2525145  -0.2540309   0.3524475  )
         8           Cu  tau(   8) = (   0.0000000   0.0000000   0.0000000  )
         9           O   tau(   9) = (   0.2593074   0.2342419   0.0164114  )
        10           O   tau(  10) = (   0.0228085   0.0059681   0.3461908  )
        11           O   tau(  11) = (   0.4883047   0.0038684   0.3360361  )
        12           O   tau(  12) = (   0.2646072   0.7687236   0.0062566  )
        13           O   tau(  13) = (   0.2464089  -0.2768032   0.6986383  )
        14           O   tau(  14) = (   0.0227114   0.4880519   0.3688588  )
        15           O   tau(  15) = (   0.4882076   0.4859522   0.3587041  )
        16           O   tau(  16) = (   0.2517087   0.2576785   0.6884836  )

   Crystallographic axes

     site n.     atom                  positions (cryst. coord.)
         1           Li  tau(   1) = (  0.0000000  0.0000000  0.5000000  )
         2           Li  tau(   2) = (  1.0000000  0.5000000  0.5000000  )
         3           Li  tau(   3) = (  0.0000000  0.5000000  0.0000000  )
         4           Li  tau(   4) = (  0.5000000  0.5000000  0.0000000  )
         5           Co  tau(   5) = (  0.5000000  0.0000000  0.0000000  )
         6           Co  tau(   6) = (  0.5000000  0.5000000  0.5000000  )
         7           Cu  tau(   7) = (  0.5000000  0.0000000  0.5000000  )
         8           Cu  tau(   8) = (  0.0000000  0.0000000  0.0000000  )
         9           O   tau(   9) = (  0.2693580  0.2460750  0.0232820  )
        10           O   tau(  10) = (  0.2643710  0.2554940  0.4911240  )
        11           O   tau(  11) = (  0.7227930  0.2460750  0.4767180  )
        12           O   tau(  12) = (  0.2643710  0.7732470  0.0088760  )
        13           O   tau(  13) = (  0.7356290  0.2267530  0.9911240  )
        14           O   tau(  14) = (  0.2772070  0.7539250  0.5232820  )
        15           O   tau(  15) = (  0.7356290  0.7445060  0.5088760  )
        16           O   tau(  16) = (  0.7306420  0.7539250  0.9767180  )

     number of k points=     1  Methfessel-Paxton smearing, width (Ry)=  0.0010
                       cart. coord. in units 2pi/alat
        k(    1) = (   0.0000000   0.0000000   0.0000000), wk =   2.0000000

                       cryst. coord.
        k(    1) = (   0.0000000   0.0000000   0.0000000), wk =   2.0000000

     Check: negative core charge=   -0.000021

     Initial potential from superposition of free atoms

     starting charge     126.1970, renormalised to     132.0000
     Starting wfcs are  104 randomized atomic wfcs
     Checking if some PAW data can be deallocated...

     Self-consistent Calculation

     iteration #  1     ecut=    30.00 Ry     beta= 0.70
     Davidson diagonalization with overlap

     ethr =  1.00E-02,  avg # of iterations =  4.0

     total energy              =   -1732.31825349 Ry
     estimated scf accuracy    <      80.41924655 Ry

[...]

     total energy              =   -1795.35890176 Ry
     estimated scf accuracy    <       0.00038769 Ry

     iteration # 61     ecut=    30.00 Ry     beta= 0.70
     Davidson diagonalization with overlap

     ethr =  5.80E-09,  avg # of iterations =  1.0

     End of self-consistent calculation

          k = 0.0000 0.0000 0.0000 (  1309 PWs)   bands (ev):

  -103.0655-103.0634 -85.6062 -85.5968 -60.5789 -60.5716 -60.5429 -60.5364
   -60.2079 -60.2060 -48.8820 -48.8768 -48.8392 -48.8339 -48.7831 -48.7734
   -35.2742 -35.2561 -34.7747 -34.7606  -9.9065  -8.6098  -8.5017  -8.4348
    -8.3895  -8.3526  -8.3131  -8.2716   2.7957   2.8208   2.9850   3.0710
     3.7053   3.7266   3.8587   4.7292   4.7899   5.0730   5.1470   5.2800
     5.6610   5.7640   5.8484   6.4325   6.4453   6.4531   6.4849   6.5202
     6.6124   6.9182   7.0729   7.4798   7.5558   7.5766   7.6939   7.7844
     7.9247   7.9273   8.4499   8.5516   8.6933   8.9396   9.1319   9.2457
    10.2720  10.2745  10.2790  10.2808  11.6096  11.6724  11.7008  11.7223
    14.5587  16.6383  16.7259  16.7903  17.0397  18.8223  19.6985

     occupation numbers
     1.0000   1.0000   1.0000   1.0000   1.0000   1.0000   1.0000   1.0000
     1.0000   1.0000   1.0000   1.0000   1.0000   1.0000   1.0000   1.0000
     1.0000   1.0000   1.0000   1.0000   1.0000   1.0000   1.0000   1.0000
     1.0000   1.0000   1.0000   1.0000   1.0000   1.0000   1.0000   1.0000
     1.0000   1.0000   1.0000   1.0000   1.0000   1.0000   1.0000   1.0000
     1.0000   1.0000   1.0000   1.0000   1.0000   1.0000   1.0000   1.0000
     1.0000   1.0000   1.0000   1.0000   1.0000   1.0000   1.0000   1.0000
     1.0000   1.0000   1.0000   1.0000   1.0000   1.0000   1.0000   1.0000
     0.7675   0.6302   0.3498   0.2525  -0.0000  -0.0000  -0.0000  -0.0000
    -0.0000  -0.0000  -0.0000  -0.0000  -0.0000  -0.0000  -0.0000

     the Fermi energy is    10.2766 ev

!    total energy              =   -1795.35890421 Ry
     estimated scf accuracy    <       0.00000047 Ry
     smearing contrib. (-TS)   =      -0.00091994 Ry
     internal energy E=F+TS    =   -1795.35798427 Ry

     The total energy is F=E-TS. E is the sum of the following terms:
     one-electron contribution =   -1316.79267841 Ry
     hartree contribution      =     722.21532954 Ry
     xc contribution           =    -216.13903803 Ry
     ewald contribution        =    -908.49560053 Ry
     one-center paw contrib.   =     -76.14599684 Ry
      -> PAW hartree energy AE =     233.45557048 Ry
      -> PAW hartree energy PS =    -232.60034704 Ry
      -> PAW xc energy AE      =    -136.78977257 Ry
      -> PAW xc energy PS      =      59.78855229 Ry
      -> total E_H with PAW    =     723.07055298 Ry
      -> total E_XC with PAW   =    -293.14025831 Ry

     convergence has been achieved in  61 iterations

     Forces acting on atoms (cartesian axes, Ry/au):

     atom    1 type  1   force =     0.00000000    0.00000000    0.00000000
     atom    2 type  1   force =     0.00000000    0.00000000    0.00000000
     atom    3 type  1   force =     0.00000000    0.00000000    0.00000000
     atom    4 type  1   force =     0.00000000    0.00000000    0.00000000
     atom    5 type  2   force =     0.00000000    0.00000000    0.00000000
     atom    6 type  2   force =     0.00000000    0.00000000    0.00000000
     atom    7 type  3   force =     0.00000000    0.00000000    0.00000000
     atom    8 type  3   force =     0.00000000    0.00000000    0.00000000
     atom    9 type  4   force =     0.02829148    0.00285928    0.02391362
     atom   10 type  4   force =     0.02209502    0.02116035   -0.00032378
     atom   11 type  4   force =     0.00149083    0.02982943   -0.02152769
     atom   12 type  4   force =     0.02194007    0.01656025   -0.00539063
     atom   13 type  4   force =    -0.02194007   -0.01656025    0.00539063
     atom   14 type  4   force =    -0.00149083   -0.02982943    0.02152769
     atom   15 type  4   force =    -0.02209502   -0.02116035    0.00032378
     atom   16 type  4   force =    -0.02829148   -0.00285928   -0.02391362
     The non-local contrib.  to forces
     atom    1 type  1   force =     0.00000000    0.00000000    0.00000000
     atom    2 type  1   force =     0.00000000    0.00000000    0.00000000
     atom    3 type  1   force =     0.00000000    0.00000000    0.00000000
     atom    4 type  1   force =     0.00000000    0.00000000    0.00000000
     atom    5 type  2   force =     0.00000000    0.00000000    0.00000000
     atom    6 type  2   force =     0.00000000    0.00000000    0.00000000
     atom    7 type  3   force =     0.00000000    0.00000000    0.00000000
     atom    8 type  3   force =     0.00000000    0.00000000    0.00000000
     atom    9 type  4   force =     0.11988764   -0.42489543    0.37602768
     atom   10 type  4   force =     0.47103924    0.04297217   -0.30542674
     atom   11 type  4   force =    -0.42523842    0.12258716   -0.37582063
     atom   12 type  4   force =     0.04755201    0.46607633    0.30197221
     atom   13 type  4   force =    -0.04755201   -0.46607633   -0.30197221
     atom   14 type  4   force =     0.42523842   -0.12258716    0.37582063
     atom   15 type  4   force =    -0.47103924   -0.04297217    0.30542674
     atom   16 type  4   force =    -0.11988764    0.42489543   -0.37602768
     The ionic contribution  to forces
     atom    1 type  1   force =    -0.00000000   -0.00000000    0.00000000
     atom    2 type  1   force =    -0.00000000    0.00000000   -0.00000000
     atom    3 type  1   force =    -0.00000000    0.00000000    0.00000000
     atom    4 type  1   force =     0.00000000    0.00000000   -0.00000000
     atom    5 type  2   force =    -0.00000000    0.00000000   -0.00000000
     atom    6 type  2   force =    -0.00000000   -0.00000000   -0.00000000
     atom    7 type  3   force =    -0.00000000    0.00000000    0.00000000
     atom    8 type  3   force =     0.00000000    0.00000000    0.00000000
     atom    9 type  4   force =    -0.45095461   15.20968023  -10.92702468
     atom   10 type  4   force =   -15.23697021   -0.31073510   10.69263450
     atom   11 type  4   force =    15.20670724   -0.54190113   10.92706363
     atom   12 type  4   force =    -0.40206765  -15.23483619  -10.69266559
     atom   13 type  4   force =     0.40206765   15.23483619   10.69266559
     atom   14 type  4   force =   -15.20670724    0.54190113  -10.92706363
     atom   15 type  4   force =    15.23697021    0.31073510  -10.69263450
     atom   16 type  4   force =     0.45095461  -15.20968023   10.92702468
     The local contribution  to forces
     atom    1 type  1   force =     0.00002057    0.00001943    0.00000530
     atom    2 type  1   force =     0.00002084   -0.00002259   -0.00003375
     atom    3 type  1   force =    -0.00001680   -0.00002373   -0.00000025
     atom    4 type  1   force =     0.00002064   -0.00002960   -0.00003134
     atom    5 type  2   force =     0.00015653    0.00023073    0.00000727
     atom    6 type  2   force =    -0.00014661   -0.00015758   -0.00004162
     atom    7 type  3   force =    -0.00016441    0.00016076    0.00022301
     atom    8 type  3   force =    -0.00012154    0.00018146    0.00023251
     atom    9 type  4   force =     0.36105354  -14.78641817   10.57858476
     atom   10 type  4   force =    14.79331011    0.28888314  -10.39071692
     atom   11 type  4   force =   -14.78471801    0.45035604  -10.57659924
     atom   12 type  4   force =     0.37703570   14.79017112   10.38899471
     atom   13 type  4   force =    -0.37708809  -14.79016451  -10.38897754
     atom   14 type  4   force =    14.78471258   -0.45034296   10.57659947
     atom   15 type  4   force =   -14.79329628   -0.28888264   10.39069883
     atom   16 type  4   force =    -0.36105713   14.78641743  -10.57858034
     The core correction contribution to forces
     atom    1 type  1   force =     0.00000000    0.00000000    0.00000000
     atom    2 type  1   force =     0.00000000    0.00000000    0.00000000
     atom    3 type  1   force =     0.00000000    0.00000000    0.00000000
     atom    4 type  1   force =     0.00000000    0.00000000    0.00000000
     atom    5 type  2   force =     0.00000029    0.00000032    0.00000008
     atom    6 type  2   force =    -0.00000031   -0.00000031    0.00000001
     atom    7 type  3   force =    -0.00000001   -0.00000000    0.00000002
     atom    8 type  3   force =    -0.00000001    0.00000001    0.00000001
     atom    9 type  4   force =    -0.00143187    0.00461848   -0.00368428
     atom   10 type  4   force =    -0.00509612   -0.00022854    0.00345309
     atom   11 type  4   force =     0.00460118   -0.00139656    0.00375855
     atom   12 type  4   force =    -0.00035243   -0.00500338   -0.00340916
     atom   13 type  4   force =     0.00035195    0.00500295    0.00340919
     atom   14 type  4   force =    -0.00460124    0.00139654   -0.00375853
     atom   15 type  4   force =     0.00509659    0.00022866   -0.00345342
     atom   16 type  4   force =     0.00143185   -0.00461858    0.00368433
     The Hubbard contrib.    to forces
     atom    1 type  1   force =     0.00000000    0.00000000    0.00000000
     atom    2 type  1   force =     0.00000000    0.00000000    0.00000000
     atom    3 type  1   force =     0.00000000    0.00000000    0.00000000
     atom    4 type  1   force =     0.00000000    0.00000000    0.00000000
     atom    5 type  2   force =     0.00000000    0.00000000    0.00000000
     atom    6 type  2   force =     0.00000000    0.00000000    0.00000000
     atom    7 type  3   force =     0.00000000    0.00000000    0.00000000
     atom    8 type  3   force =     0.00000000    0.00000000    0.00000000
     atom    9 type  4   force =     0.00000000    0.00000000    0.00000000
     atom   10 type  4   force =     0.00000000    0.00000000    0.00000000
     atom   11 type  4   force =     0.00000000    0.00000000    0.00000000
     atom   12 type  4   force =     0.00000000    0.00000000    0.00000000
     atom   13 type  4   force =     0.00000000    0.00000000    0.00000000
     atom   14 type  4   force =     0.00000000    0.00000000    0.00000000
     atom   15 type  4   force =     0.00000000    0.00000000    0.00000000
     atom   16 type  4   force =     0.00000000    0.00000000    0.00000000
     The SCF correction term to forces
     atom    1 type  1   force =    -0.00001791   -0.00001706   -0.00000527
     atom    2 type  1   force =    -0.00001807    0.00001988    0.00003108
     atom    3 type  1   force =     0.00001551    0.00002202   -0.00000004
     atom    4 type  1   force =    -0.00001812    0.00002746    0.00002721
     atom    5 type  2   force =    -0.00016817   -0.00024283   -0.00000480
     atom    6 type  2   force =     0.00014764    0.00016021    0.00004686
     atom    7 type  3   force =     0.00017233   -0.00016362   -0.00022154
     atom    8 type  3   force =     0.00011827   -0.00018011   -0.00021963
     atom    9 type  4   force =    -0.00026495   -0.00012847    0.00001225
     atom   10 type  4   force =    -0.00017761    0.00027019   -0.00027856
     atom   11 type  4   force =     0.00013686    0.00018413    0.00007059
     atom   12 type  4   force =    -0.00024007    0.00014527   -0.00028451
     atom   13 type  4   force =     0.00026792   -0.00016563    0.00026389
     atom   14 type  4   force =    -0.00013533   -0.00019679   -0.00006965
     atom   15 type  4   force =     0.00018409   -0.00026778    0.00027528
     atom   16 type  4   force =     0.00026508    0.00012404   -0.00001249

     Total force =     0.094410     Total SCF correction =     0.001152

     Computing stress (Cartesian axis) and pressure

          total   stress  (Ry/bohr**3)                   (kbar)     P=     -666.59
  -0.00443189   0.00022961   0.00012731         -651.95       33.78       18.73
   0.00022961  -0.00439665  -0.00012401           33.78     -646.77      -18.24
   0.00012731  -0.00012401  -0.00476557           18.73      -18.24     -701.04

     kinetic stress (kbar)  33925.56    142.26    -11.38
                              142.26  33916.67     12.74
                              -11.38     12.74  33792.18

     local   stress (kbar) -27245.21   -226.33    420.25
                             -226.33 -27241.87   -421.23
                              420.25   -421.23 -27028.15

     nonloc. stress (kbar)  13446.58     99.27     47.53
                               99.27  13456.96    -49.58
                               47.53    -49.58  13315.04

     hartree stress (kbar)  38451.18     84.92    -98.43
                               84.92  38450.75     98.65
                              -98.43     98.65  38367.76

     exc-cor stress (kbar)  -9496.77      1.02     -0.50
                                1.02  -9496.80      0.54
                               -0.50      0.54  -9497.80

     corecor stress (kbar)  -1371.81     -0.64     -0.01
                               -0.64  -1371.81      0.03
                               -0.01      0.03  -1371.13

     ewald   stress (kbar) -48361.48    -66.73   -338.73
                              -66.73 -48360.67    340.60
                             -338.73    340.60 -48278.94

     hubbard stress (kbar)      0.00      0.00      0.00
                                0.00      0.00      0.00
                                0.00      0.00      0.00

     DFT-D   stress (kbar)      0.00      0.00      0.00
                                0.00      0.00      0.00
                                0.00      0.00      0.00

     XDM     stress (kbar)      0.00      0.00      0.00
                                0.00      0.00      0.00
                                0.00      0.00      0.00

     dft-nl  stress (kbar)      0.00      0.00      0.00
                                0.00      0.00      0.00
                                0.00      0.00      0.00

     TS-vdW  stress (kbar)      0.00      0.00      0.00
                                0.00      0.00      0.00
                                0.00      0.00      0.00

[...]

                                0.00      0.00      0.00

     Writing all to output data dir new_calculations/myprefix.save/

     General routines

     Parallel routines

     PAW routines

   This run was terminated on:   9:15:20  20May2023

   JOB DONE.