     Program PWSCF v.7.0 starts on 20May2023 at 20:43:11

     Reading input from espresso_5681.pwi
Warning: card &CELL ignored
Warning: card / ignored

     Current dimensions of program PWSCF are:
     Max number of different atomic species (ntypx) = 10
     Max number of k-points (npk) =  40000
     Max angular momentum in pseudopotentials (lmaxx) =  4
     file O.pbe-n-kjpaw_psl.0.1.UPF: wavefunction(s)  2P renormalized

     gamma-point specific algorithms are used

     Subspace diagonalization in iterative solution of the eigenvalue problem:
     a serial algorithm will be used

     Using Slab Decomposition

     bravais-lattice index     =            0
     lattice parameter (alat)  =       8.7846  a.u.
     unit-cell volume          =    1397.6836 (a.u.)^3
     number of atoms/cell      =           15
     number of atomic types    =            5
     number of electrons       =       106.00
     number of Kohn-Sham states=           64
     kinetic-energy cutoff     =      30.0000  Ry
     charge density cutoff     =     240.0000  Ry
     scf convergence threshold =      1.0E-06
     mixing beta               =       0.7000
     number of iterations used =            8  plain     mixing
     Exchange-correlation=  SLA  PW   PBX  PBC
                           (   1   4   3   4   0   0   0)

     celldm(1)=   8.784575  celldm(2)=   0.000000  celldm(3)=   0.000000
     celldm(4)=   0.000000  celldm(5)=   0.000000  celldm(6)=   0.000000

     crystal axes: (cart. coord. in units of alat)
               a(1) = (   1.000000   0.000000   0.000000 )
               a(2) = (  -0.363591   1.273428   0.000000 )
               a(3) = (  -0.213293  -0.524852   1.619094 )

     reciprocal axes: (cart. coord. in units 2 pi/alat)
               b(1) = (  1.000000  0.285522  0.224292 )
               b(2) = (  0.000000  0.785282  0.254560 )
               b(3) = (  0.000000  0.000000  0.617629 )

     PseudoPot. # 1 for Na read from file:
     /home/pragov/projects/rrg-bengioy-ad/pragov/crystal_structure_design/SSSP/na_pbe_v1.5.uspp.F.UPF
     MD5 check sum: 44600605ef58000f06b90626533354dc
     Pseudo is Ultrasoft, Zval =  9.0
     Generated by new atomic code, or converted to UPF format
     Using radial grid of  819 points,  5 beta functions with:
                l(1) =   0
                l(2) =   0
                l(3) =   1
                l(4) =   1
                l(5) =   2
     Q(r) pseudized with  8 coefficients,  rinner =    1.250   1.250   1.250
                                                       1.250   1.250

     PseudoPot. # 2 for Mn read from file:
     /home/pragov/projects/rrg-bengioy-ad/pragov/crystal_structure_design/SSSP/mn_pbe_v1.5.uspp.F.UPF
     MD5 check sum: 82ef2b46521d7a7d9e736dc3972e4928
     Pseudo is Ultrasoft + core correction, Zval = 15.0
     Generated by new atomic code, or converted to UPF format
     Using radial grid of  859 points,  6 beta functions with:
                l(1) =   0
                l(2) =   0
                l(3) =   1
                l(4) =   1
                l(5) =   2
                l(6) =   2
     Q(r) pseudized with  8 coefficients,  rinner =    0.950   0.950   0.950
                                                       0.950   0.950

     PseudoPot. # 3 for P  read from file:
     /home/pragov/projects/rrg-bengioy-ad/pragov/crystal_structure_design/SSSP/P.pbe-n-rrkjus_psl.1.0.0.UPF
     MD5 check sum: 8b930f418f0a4573dca56cd030ffe088
     Pseudo is Ultrasoft + core correction, Zval =  5.0
     Generated using "atomic" code by A. Dal Corso  v.5.1
     Using radial grid of 1147 points,  6 beta functions with:
                l(1) =   0
                l(2) =   0
                l(3) =   1
                l(4) =   1
                l(5) =   2
                l(6) =   2
     Q(r) pseudized with 0 coefficients

     PseudoPot. # 4 for O  read from file:
     /home/pragov/projects/rrg-bengioy-ad/pragov/crystal_structure_design/SSSP/O.pbe-n-kjpaw_psl.0.1.UPF
     MD5 check sum: 0234752ac141de4415c5fc33072bef88
     Pseudo is Projector augmented-wave + core cor, Zval =  6.0
     Generated using "atomic" code by A. Dal Corso  v.5.0.99 svn rev. 10869
     Shape of augmentation charge: BESSEL
     Using radial grid of 1095 points,  4 beta functions with:
                l(1) =   0
                l(2) =   0
                l(3) =   1
                l(4) =   1
     Q(r) pseudized with 0 coefficients

     PseudoPot. # 5 for F  read from file:
     /home/pragov/projects/rrg-bengioy-ad/pragov/crystal_structure_design/SSSP/f_pbe_v1.4.uspp.F.UPF
     MD5 check sum: 4c38b6a325caf53ec0e86aed9459de46
     Pseudo is Ultrasoft, Zval =  7.0
     Generated by new atomic code, or converted to UPF format
     Using radial grid of  799 points,  4 beta functions with:
                l(1) =   0
                l(2) =   0
                l(3) =   1
                l(4) =   1
     Q(r) pseudized with  8 coefficients,  rinner =    0.950   0.950   0.950

     atomic species   valence    mass     pseudopotential
        Na             9.00    22.98977     Na( 1.00)
        Mn            15.00    54.93804     Mn( 1.00)
        P              5.00    30.97376     P ( 1.00)
        O              6.00    15.99900     O ( 1.00)
        F              7.00    18.99840     F ( 1.00)

     No symmetry found

                                    s                        frac. trans.

      isym =  1     identity

 cryst.   s( 1) = (     1          0          0      )
                  (     0          1          0      )
                  (     0          0          1      )

 cart.    s( 1) = (  1.0000000  0.0000000 -0.0000000 )
                  (  0.0000000  1.0000000  0.0000000 )
                  (  0.0000000  0.0000000  1.0000000 )

   Cartesian axes

     site n.     atom                  positions (alat units)
         1           Na  tau(   1) = (   0.7349948  -0.0299743   0.5474677  )
         2           Na  tau(   2) = (  -0.2500223   0.5697610   1.5009200  )
         3           Mn  tau(   3) = (   0.3478790   0.5307810   0.2494005  )
         4           P   tau(   4) = (   0.6400376  -0.1508889   1.4236115  )
         5           P   tau(   5) = (  -0.1573631   0.6787130   0.7121781  )
         6           O   tau(   6) = (  -0.1595101   0.0704242   1.5733988  )
         7           O   tau(   7) = (   0.3716934  -0.2235315   1.6108598  )
         8           O   tau(   8) = (   0.1139771   0.7478164   0.5244911  )
         9           O   tau(   9) = (  -0.0772568   0.5303167   0.9931963  )
        10           O   tau(  10) = (   0.6352931   0.4708363   0.5450617  )
        11           O   tau(  11) = (   0.7713266  -0.4184388   1.3109743  )
        12           O   tau(  12) = (  -0.2880372   0.9733086   0.7797672  )
        13           F   tau(  13) = (   0.1900666   0.1768136   0.3506424  )
        14           F   tau(  14) = (   0.5004600   0.8853801   0.1472307  )
        15           F   tau(  15) = (   0.5177323   0.0369799   1.1670158  )

   Crystallographic axes

     site n.     atom                  positions (cryst. coord.)
         1           Na  tau(   1) = (  0.8492290  0.1158250  0.3381320  )
         2           Na  tau(   2) = (  0.2493010  0.8294970  0.9270120  )
         3           Mn  tau(   3) = (  0.5553670  0.4803000  0.1540370  )
         4           P   tau(   4) = (  0.9162600  0.2439040  0.8792640  )
         5           P   tau(   5) = (  0.1961600  0.7142730  0.4398620  )
         6           O   tau(   6) = (  0.2134980  0.4558270  0.9717770  )
         7           O   tau(   7) = (  0.6691730  0.2345250  0.9949140  )
         8           O   tau(   8) = (  0.4451340  0.7207610  0.3239410  )
         9           O   tau(   9) = (  0.2969260  0.6692760  0.6134270  )
        10           O   tau(  10) = (  0.8919800  0.5084900  0.3366460  )
        11           O   tau(  11) = (  0.9458940  0.0051290  0.8096960  )
        12           O   tau(  12) = (  0.1647590  0.9628190  0.4816070  )
        13           F   tau(  13) = (  0.3191970  0.2281080  0.2165670  )
        14           F   tau(  14) = (  0.7862780  0.7327520  0.0909340  )
        15           F   tau(  15) = (  0.7900430  0.3261150  0.7207830  )

     number of k points=     1  Methfessel-Paxton smearing, width (Ry)=  0.0010
                       cart. coord. in units 2pi/alat
        k(    1) = (   0.0000000   0.0000000   0.0000000), wk =   2.0000000

                       cryst. coord.
        k(    1) = (   0.0000000   0.0000000   0.0000000), wk =   2.0000000

     Check: negative core charge=   -0.000014

     Initial potential from superposition of free atoms

     starting charge     105.4870, renormalised to     106.0000
     Starting wfcs are   71 randomized atomic wfcs
     Checking if some PAW data can be deallocated...

     Self-consistent Calculation

     iteration #  1     ecut=    30.00 Ry     beta= 0.70
     Davidson diagonalization with overlap

     ethr =  1.00E-02,  avg # of iterations =  5.0

     total energy              =    -864.10167430 Ry
     estimated scf accuracy    <       5.56994574 Ry

[...]

     c_bands:  1 eigenvalues not converged
     ethr =  1.36E-05,  avg # of iterations = 20.0

[...]

     total energy              =    -867.63990318 Ry
     estimated scf accuracy    <       0.00000680 Ry

     iteration # 54     ecut=    30.00 Ry     beta= 0.70
     Davidson diagonalization with overlap

     ethr =  5.19E-09,  avg # of iterations =  1.0

     End of self-consistent calculation

          k = 0.0000 0.0000 0.0000 (  1939 PWs)   bands (ev):

   -78.1492 -47.1391 -47.1000 -46.8645 -46.8437 -46.4734 -22.0837 -19.9695
   -19.7011 -19.0627 -19.0383 -19.0273 -18.7763 -18.7553 -18.7471 -18.2538
   -17.8147 -16.3289 -16.1933 -15.6568 -15.4454 -15.0110  -6.4264  -5.4677
    -4.2076  -3.9874  -3.7297  -3.0462  -2.9339  -2.5676  -2.4358  -2.2856
    -1.9070  -1.7110  -1.6235  -1.3952  -1.2820  -1.0058  -0.8722  -0.6249
    -0.5328  -0.2270  -0.1489   0.1915   0.4312   0.5199   0.5856   1.0915
     1.4104   1.6000   1.7311   2.0811   2.2588   2.2662   2.2702   4.2197
     4.4092   7.5739  10.3588  10.6815  11.3005  11.7363  11.9275  12.1127

     occupation numbers
     1.0000   1.0000   1.0000   1.0000   1.0000   1.0000   1.0000   1.0000
     1.0000   1.0000   1.0000   1.0000   1.0000   1.0000   1.0000   1.0000
     1.0000   1.0000   1.0000   1.0000   1.0000   1.0000   1.0000   1.0000
     1.0000   1.0000   1.0000   1.0000   1.0000   1.0000   1.0000   1.0000
     1.0000   1.0000   1.0000   1.0000   1.0000   1.0000   1.0000   1.0000
     1.0000   1.0000   1.0000   1.0000   1.0000   1.0000   1.0000   1.0000
     1.0000   1.0000   1.0000   1.0000   0.6815   0.2438   0.0747  -0.0000
    -0.0000  -0.0000  -0.0000  -0.0000  -0.0000  -0.0000  -0.0000  -0.0000

     the Fermi energy is     2.2618 ev

!    total energy              =    -867.63990331 Ry
     estimated scf accuracy    <       0.00000065 Ry
     smearing contrib. (-TS)   =      -0.00049367 Ry
     internal energy E=F+TS    =    -867.63940964 Ry

     The total energy is F=E-TS. E is the sum of the following terms:
     one-electron contribution =    -605.10887560 Ry
     hartree contribution      =     345.54223433 Ry
     xc contribution           =    -144.31032368 Ry
     ewald contribution        =    -397.10235333 Ry
     one-center paw contrib.   =     -66.66009136 Ry
      -> PAW hartree energy AE =     213.78916549 Ry
      -> PAW hartree energy PS =    -213.05114649 Ry
      -> PAW xc energy AE      =    -121.18333247 Ry
      -> PAW xc energy PS      =      53.78522211 Ry
      -> total E_H with PAW    =     346.28025333 Ry
      -> total E_XC with PAW   =    -211.70843404 Ry

     convergence has been achieved in  54 iterations

     Forces acting on atoms (cartesian axes, Ry/au):

     atom    1 type  1   force =     0.00138763   -0.00325066    0.00568761
     atom    2 type  1   force =     0.00339401    0.00272362   -0.01210744
     atom    3 type  2   force =    -0.01702135    0.01603006    0.01839556
     atom    4 type  3   force =     0.00137401   -0.01193960   -0.02663180
     atom    5 type  3   force =    -0.01907161    0.02879576    0.06614302
     atom    6 type  4   force =     0.04027892    0.01790489    0.02452000
     atom    7 type  4   force =    -0.04453028    0.00346832    0.02811577
     atom    8 type  4   force =     0.06091245   -0.02582813   -0.03740184
     atom    9 type  4   force =     0.01334876   -0.00971120   -0.00077180
     atom   10 type  4   force =    -0.03620202   -0.00490497   -0.04209564
     atom   11 type  4   force =     0.01072798   -0.00921720    0.00616700
     atom   12 type  4   force =    -0.00929943   -0.00511928   -0.03159298
     atom   13 type  5   force =     0.00433943    0.02875541   -0.00319916
     atom   14 type  5   force =    -0.00463613   -0.02938724    0.00349584
     atom   15 type  5   force =    -0.00500239    0.00168023    0.00127586
     The non-local contrib.  to forces
     atom    1 type  1   force =    -0.24181301    0.07658437   -0.11409951
     atom    2 type  1   force =     0.15130406   -0.12091499    0.30198825
     atom    3 type  2   force =     0.02269755    0.01173905    0.03782042
     atom    4 type  3   force =    -0.15373543    0.26747837   -0.05769359
     atom    5 type  3   force =     0.02146532   -0.05171623   -0.14406310
     atom    6 type  4   force =    -0.60123406   -1.34417974   -0.20455979
     atom    7 type  4   force =     0.99683565    0.99377739   -0.51278311
     atom    8 type  4   force =    -0.98776534   -0.86004839    0.36360914
     atom    9 type  4   force =    -0.49873658    0.80325799   -1.68217126
     atom   10 type  4   force =     0.55630206    1.17919585    0.15440652
     atom   11 type  4   force =    -0.77199662    1.73105009    0.92298465
     atom   12 type  4   force =     0.63283503   -1.67862721   -0.61891190
     atom   13 type  5   force =     0.35477132    0.84931761   -0.30571397
     atom   14 type  5   force =    -0.38586320   -0.85412544    0.30546344
     atom   15 type  5   force =     0.83048777   -1.19103072    1.66212051
     The ionic contribution  to forces
     atom    1 type  1   force =    -1.20876025   -0.21305297    8.38183171
     atom    2 type  1   force =     0.84023543   -0.22701813   -6.64479907
     atom    3 type  2   force =    -0.60129440    0.40803135    0.44054319
     atom    4 type  3   force =     0.35302761   -1.35675224   -5.13178715
     atom    5 type  3   force =     0.23559434    0.43817227    5.49095564
     atom    6 type  4   force =    -1.25520017    5.46530054   -8.94189647
     atom    7 type  4   force =     0.60954805   -7.66842963   -6.74162383
     atom    8 type  4   force =    -0.54191986    6.90687403    7.85741390
     atom    9 type  4   force =     3.44980178   -4.66148777    7.30410275
     atom   10 type  4   force =     1.85191571   -5.00266602   10.15983094
     atom   11 type  4   force =     1.33726647   -7.07449764   -8.35899061
     atom   12 type  4   force =    -1.17353220    7.57754016    7.32860421
     atom   13 type  5   force =    -4.45559617  -13.52380000    7.12763425
     atom   14 type  5   force =     4.83421194   13.48689796   -6.90636474
     atom   15 type  5   force =    -4.27529829    5.44488806  -11.36545472
     The local contribution  to forces
     atom    1 type  1   force =     1.45197450    0.13335426   -8.26183671
     atom    2 type  1   force =    -0.98813373    0.35054699    6.33054967
     atom    3 type  2   force =     0.56341769   -0.40351030   -0.45720716
     atom    4 type  3   force =    -0.20756261    1.09523309    5.15992264
     atom    5 type  3   force =    -0.27540257   -0.36205513   -5.29151136
     atom    6 type  4   force =     1.89209301   -4.11582990    9.16998560
     atom    7 type  4   force =    -1.64220248    6.68831132    7.27821529
     atom    8 type  4   force =     1.58198818   -6.08147314   -8.25568553
     atom    9 type  4   force =    -2.94197610    3.85520177   -5.63781704
     atom   10 type  4   force =    -2.44009486    3.82965169  -10.35575904
     atom   11 type  4   force =    -0.56111470    5.34910714    7.45030490
     atom   12 type  4   force =     0.53680895   -5.91901335   -6.74702328
     atom   13 type  5   force =     4.10508551   12.70312206   -6.82486970
     atom   14 type  5   force =    -4.45292255  -12.66201835    6.60428901
     atom   15 type  5   force =     3.43984770   -4.25213726    9.70451301
     The core correction contribution to forces
     atom    1 type  1   force =     0.00000000    0.00000000    0.00000000
     atom    2 type  1   force =     0.00000000    0.00000000    0.00000000
     atom    3 type  2   force =    -0.00178754   -0.00019604   -0.00257733
     atom    4 type  3   force =     0.00972286   -0.01784105    0.00284913
     atom    5 type  3   force =    -0.00083892    0.00434808    0.01082971
     atom    6 type  4   force =     0.00466307    0.01268299    0.00088089
     atom    7 type  4   force =    -0.00848424   -0.01027240    0.00412538
     atom    8 type  4   force =     0.00838971    0.00882494   -0.00245684
     atom    9 type  4   force =     0.00420916   -0.00669112    0.01502284
     atom   10 type  4   force =    -0.00437305   -0.01117651   -0.00032260
     atom   11 type  4   force =     0.00656920   -0.01486324   -0.00823690
     atom   12 type  4   force =    -0.00539632    0.01492819    0.00579730
     atom   13 type  5   force =     0.00000000    0.00000000    0.00000000
     atom   14 type  5   force =     0.00000000    0.00000000    0.00000000
     atom   15 type  5   force =     0.00000000    0.00000000    0.00000000
     The Hubbard contrib.    to forces
     atom    1 type  1   force =     0.00000000    0.00000000    0.00000000
     atom    2 type  1   force =     0.00000000    0.00000000    0.00000000
     atom    3 type  2   force =     0.00000000    0.00000000    0.00000000
     atom    4 type  3   force =     0.00000000    0.00000000    0.00000000
     atom    5 type  3   force =     0.00000000    0.00000000    0.00000000
     atom    6 type  4   force =     0.00000000    0.00000000    0.00000000
     atom    7 type  4   force =     0.00000000    0.00000000    0.00000000
     atom    8 type  4   force =     0.00000000    0.00000000    0.00000000
     atom    9 type  4   force =     0.00000000    0.00000000    0.00000000
     atom   10 type  4   force =     0.00000000    0.00000000    0.00000000
     atom   11 type  4   force =     0.00000000    0.00000000    0.00000000
     atom   12 type  4   force =     0.00000000    0.00000000    0.00000000
     atom   13 type  5   force =     0.00000000    0.00000000    0.00000000
     atom   14 type  5   force =     0.00000000    0.00000000    0.00000000
     atom   15 type  5   force =     0.00000000    0.00000000    0.00000000
     The SCF correction term to forces
     atom    1 type  1   force =    -0.00001529   -0.00013342   -0.00020947
     atom    2 type  1   force =    -0.00001342    0.00011264    0.00015213
     atom    3 type  2   force =    -0.00005633   -0.00003109   -0.00018515
     atom    4 type  3   force =    -0.00008011   -0.00005488    0.00007558
     atom    5 type  3   force =     0.00010855    0.00004967   -0.00006946
     atom    6 type  4   force =    -0.00004462   -0.00006611    0.00010818
     atom    7 type  4   force =    -0.00022893    0.00008455    0.00018045
     atom    8 type  4   force =     0.00021807   -0.00000268   -0.00028409
     atom    9 type  4   force =     0.00004882    0.00001082    0.00008934
     atom   10 type  4   force =     0.00004645    0.00009292   -0.00025304
     atom   11 type  4   force =     0.00000194   -0.00001066    0.00010337
     atom   12 type  4   force =    -0.00001656    0.00005583   -0.00006090
     atom   13 type  5   force =     0.00007710    0.00011864   -0.00025133
     atom   14 type  5   force =    -0.00006399   -0.00013851    0.00010654
     atom   15 type  5   force =    -0.00004125   -0.00003694    0.00009548

     Total force =     0.158538     Total SCF correction =     0.000801

     Computing stress (Cartesian axis) and pressure

          total   stress  (Ry/bohr**3)                   (kbar)     P=     -328.45
  -0.00218517   0.00003449  -0.00000892         -321.45        5.07       -1.31
   0.00003449  -0.00220443  -0.00001838            5.07     -324.28       -2.70
  -0.00000892  -0.00001838  -0.00230876           -1.31       -2.70     -339.63

     kinetic stress (kbar)  18498.89     30.26    -10.39
                               30.26  18247.15     25.44
                              -10.39     25.44  18410.98

     local   stress (kbar) -13817.14    274.52   -364.62
                              274.52 -14015.61  -1611.10
                             -364.62  -1611.10   5460.22

     nonloc. stress (kbar)  -4649.36     -6.19    -30.02
                               -6.19  -4719.56     35.75
                              -30.02     35.75  -4732.03

     hartree stress (kbar)  15227.69    -93.95    161.65
                              -93.95  14981.43    691.11
                              161.65    691.11   6158.92

     exc-cor stress (kbar)  -3843.14     -0.36     -0.06
                               -0.36  -3839.60      0.66
                               -0.06      0.66  -3844.50

     corecor stress (kbar)   -905.46      0.22      1.04
                                0.22   -905.75     -1.04
                                1.04     -1.04   -903.77

     ewald   stress (kbar) -10832.93   -199.43    241.09
                             -199.43 -10072.34    856.47
                              241.09    856.47 -20889.44

     hubbard stress (kbar)      0.00      0.00      0.00
                                0.00      0.00      0.00
                                0.00      0.00      0.00

     DFT-D   stress (kbar)      0.00      0.00      0.00
                                0.00      0.00      0.00
                                0.00      0.00      0.00

     XDM     stress (kbar)      0.00      0.00      0.00
                                0.00      0.00      0.00
                                0.00      0.00      0.00

     dft-nl  stress (kbar)      0.00      0.00      0.00
                                0.00      0.00      0.00
                                0.00      0.00      0.00

     TS-vdW  stress (kbar)      0.00      0.00      0.00
                                0.00      0.00      0.00
                                0.00      0.00      0.00

[...]

                                0.00      0.00      0.00

     Writing all to output data dir new_calculations/myprefix.save/

     General routines

     Parallel routines

     PAW routines

   This run was terminated on:  20:44:24  20May2023

   JOB DONE.