     Program PWSCF v.7.0 starts on 21May2023 at  6:18:35

     Reading input from espresso_11894.pwi
Warning: card &CELL ignored
Warning: card / ignored

     Current dimensions of program PWSCF are:
     Max number of different atomic species (ntypx) = 10
     Max number of k-points (npk) =  40000
     Max angular momentum in pseudopotentials (lmaxx) =  4
     file K.pbe-spn-kjpaw_psl.1.0.0.UPF: wavefunction(s)  3S renormalized

     gamma-point specific algorithms are used
     Message from routine setup:
     using ibrav=0 with symmetry is DISCOURAGED, use correct ibrav instead

     Subspace diagonalization in iterative solution of the eigenvalue problem:
     a serial algorithm will be used

     Using Slab Decomposition

     bravais-lattice index     =            0
     lattice parameter (alat)  =      12.7180  a.u.
     unit-cell volume          =    1832.7136 (a.u.)^3
     number of atoms/cell      =           10
     number of atomic types    =            3
     number of electrons       =        84.00
     number of Kohn-Sham states=           50
     kinetic-energy cutoff     =      30.0000  Ry
     charge density cutoff     =     240.0000  Ry
     scf convergence threshold =      1.0E-06
     mixing beta               =       0.7000
     number of iterations used =            8  plain     mixing
     Exchange-correlation=  SLA  PW   PBX  PBC
                           (   1   4   3   4   0   0   0)

     celldm(1)=  12.718019  celldm(2)=   0.000000  celldm(3)=   0.000000
     celldm(4)=   0.000000  celldm(5)=   0.000000  celldm(6)=   0.000000

     crystal axes: (cart. coord. in units of alat)
               a(1) = (   1.000000   0.000000   0.000000 )
               a(2) = (  -0.454107   1.133926   0.000000 )
               a(3) = (   0.227648  -0.569198   0.785690 )

     reciprocal axes: (cart. coord. in units 2 pi/alat)
               b(1) = (  1.000000  0.400473  0.000382 )
               b(2) = (  0.000000  0.881892  0.638892 )
               b(3) = (  0.000000  0.000000  1.272766 )

     PseudoPot. # 1 for K  read from file:
     /home/pragov/projects/rrg-bengioy-ad/pragov/crystal_structure_design/SSSP/K.pbe-spn-kjpaw_psl.1.0.0.UPF
     MD5 check sum: 7d58810084cac21f60fbe77ea2b688fd
     Pseudo is Projector augmented-wave + core cor, Zval =  9.0
     Generated using "atomic" code by A. Dal Corso  v.5.1
     Shape of augmentation charge: PSQ
     Using radial grid of 1165 points,  6 beta functions with:
                l(1) =   0
                l(2) =   0
                l(3) =   1
                l(4) =   1
                l(5) =   2
                l(6) =   2
     Q(r) pseudized with 0 coefficients

     PseudoPot. # 2 for Ir read from file:
     /home/pragov/projects/rrg-bengioy-ad/pragov/crystal_structure_design/SSSP/Ir_pbe_v1.2.uspp.F.UPF
     MD5 check sum: 8836f839c3459d2b385c504ce6d91f2c
     Pseudo is Ultrasoft + core correction, Zval = 15.0
     Generated by new atomic code, or converted to UPF format
     Using radial grid of  983 points,  7 beta functions with:
                l(1) =   0
                l(2) =   0
                l(3) =   1
                l(4) =   1
                l(5) =   1
                l(6) =   2
                l(7) =   2
     Q(r) pseudized with  8 coefficients,  rinner =    1.400   1.400   1.400
                                                       1.400   1.400

     PseudoPot. # 3 for F  read from file:
     /home/pragov/projects/rrg-bengioy-ad/pragov/crystal_structure_design/SSSP/f_pbe_v1.4.uspp.F.UPF
     MD5 check sum: 4c38b6a325caf53ec0e86aed9459de46
     Pseudo is Ultrasoft, Zval =  7.0
     Generated by new atomic code, or converted to UPF format
     Using radial grid of  799 points,  4 beta functions with:
                l(1) =   0
                l(2) =   0
                l(3) =   1
                l(4) =   1
     Q(r) pseudized with  8 coefficients,  rinner =    0.950   0.950   0.950

     atomic species   valence    mass     pseudopotential
        K              9.00    39.09830     K ( 1.00)
        Ir            15.00   192.21700     Ir( 1.00)
        F              7.00    18.99840     F ( 1.00)

      2 Sym. Ops., with inversion, found

                                    s                        frac. trans.

      isym =  1     identity

 cryst.   s( 1) = (     1          0          0      )
                  (     0          1          0      )
                  (     0          0          1      )

 cart.    s( 1) = (  1.0000000  0.0000000 -0.0000000 )
                  (  0.0000000  1.0000000  0.0000000 )
                  (  0.0000000  0.0000000  1.0000000 )

      isym =  2     inversion

 cryst.   s( 2) = (    -1          0          0      )
                  (     0         -1          0      )
                  (     0          0         -1      )

 cart.    s( 2) = ( -1.0000000 -0.0000000  0.0000000 )
                  (  0.0000000 -1.0000000 -0.0000000 )
                  (  0.0000000  0.0000000 -1.0000000 )

   Cartesian axes

     site n.     atom                  positions (alat units)
         1           K   tau(   1) = (   0.5000000   0.0000000   0.0000000  )
         2           K   tau(   2) = (  -0.1132291   0.2823640   0.3928452  )
         3           K   tau(   3) = (  -0.3402825   0.8493270   0.3928452  )
         4           Ir  tau(   4) = (   0.0000000   0.0000000   0.0000000  )
         5           F   tau(   5) = (   0.8124622  -0.0976023   0.2196704  )
         6           F   tau(   6) = (  -0.0389204   0.6623302   0.5660200  )
         7           F   tau(   7) = (   0.5903009   0.4788792   0.5576131  )
         8           F   tau(   8) = (   0.1832408   0.0858487   0.2280773  )
         9           F   tau(   9) = (  -0.0562377   0.3116926   0.7837756  )
        10           F   tau(  10) = (   0.8297795   0.2530353   0.0019147  )

   Crystallographic axes

     site n.     atom                  positions (cryst. coord.)
         1           K   tau(   1) = (  0.5000000  0.0000000  0.0000000  )
         2           K   tau(   2) = ( -0.0000000  0.5000000  0.5000000  )
         3           K   tau(   3) = (  0.0000000  1.0000000  0.5000000  )
         4           Ir  tau(   4) = (  0.0000000  0.0000000  0.0000000  )
         5           F   tau(   5) = (  0.7734590  0.0542710  0.2795890  )
         6           F   tau(   6) = (  0.2265410  0.9457290  0.7204110  )
         7           F   tau(   7) = (  0.7822920  0.7785740  0.7097110  )
         8           F   tau(   8) = (  0.2177080  0.2214260  0.2902890  )
         9           F   tau(   9) = (  0.0688860  0.7756270  0.9975630  )
        10           F   tau(  10) = (  0.9311140  0.2243730  0.0024370  )

     number of k points=     1  Methfessel-Paxton smearing, width (Ry)=  0.0010
                       cart. coord. in units 2pi/alat
        k(    1) = (   0.0000000   0.0000000   0.0000000), wk =   2.0000000

                       cryst. coord.
        k(    1) = (   0.0000000   0.0000000   0.0000000), wk =   2.0000000

     Check: negative core charge=   -0.000003

     Initial potential from superposition of free atoms

     starting charge      83.4435, renormalised to      84.0000

     negative rho (up, down):  3.650E-01 0.000E+00
     Starting wfcs are   60 randomized atomic wfcs
     Checking if some PAW data can be deallocated...

     Self-consistent Calculation

     iteration #  1     ecut=    30.00 Ry     beta= 0.70
     Davidson diagonalization with overlap

     ethr =  1.00E-02,  avg # of iterations =  5.0

     negative rho (up, down):  3.135E-01 0.000E+00

     total energy              =    -812.07590530 Ry
     estimated scf accuracy    <       1.97266867 Ry

[...]

     total energy              =    -813.07898523 Ry
     estimated scf accuracy    <       0.00001208 Ry

     iteration #  8     ecut=    30.00 Ry     beta= 0.70
     Davidson diagonalization with overlap

     ethr =  1.44E-08,  avg # of iterations =  2.0

[...]

     End of self-consistent calculation

          k = 0.0000 0.0000 0.0000 (  2530 PWs)   bands (ev):

   -47.1568 -47.1372 -46.9187 -27.5803 -27.5466 -27.5276 -21.3833 -21.1482
   -21.1200 -21.1142 -21.0746 -20.9848 -11.1719 -11.1507 -11.1166 -11.0699
   -11.0600 -11.0481 -10.9964 -10.9931 -10.9367  -4.5788  -4.4582  -4.4407
    -3.7740  -3.7552  -3.4319  -3.0891  -3.0568  -2.9507  -2.3328  -2.2286
    -2.2097  -2.0357  -2.0307  -1.9808  -1.9661  -1.9021  -1.8721   1.4685
     1.4806   1.5858   4.0650   4.0760   4.2089   7.4888   7.5645   8.0450
     8.1937   8.2284

     occupation numbers
     1.0000   1.0000   1.0000   1.0000   1.0000   1.0000   1.0000   1.0000
     1.0000   1.0000   1.0000   1.0000   1.0000   1.0000   1.0000   1.0000
     1.0000   1.0000   1.0000   1.0000   1.0000   1.0000   1.0000   1.0000
     1.0000   1.0000   1.0000   1.0000   1.0000   1.0000   1.0000   1.0000
     1.0000   1.0000   1.0000   1.0000   1.0000   1.0000   1.0000   1.0000
     1.0000   1.0000  -0.0000  -0.0000  -0.0000  -0.0000  -0.0000  -0.0000
    -0.0000  -0.0000

     the Fermi energy is     3.1466 ev

!    total energy              =    -813.07898718 Ry
     estimated scf accuracy    <       0.00000050 Ry
     smearing contrib. (-TS)   =       0.00000000 Ry
     internal energy E=F+TS    =    -813.07898718 Ry

     The total energy is F=E-TS. E is the sum of the following terms:
     one-electron contribution =    -639.87385279 Ry
     hartree contribution      =     351.92976081 Ry
     xc contribution           =    -140.43937498 Ry
     ewald contribution        =    -218.44360312 Ry
     one-center paw contrib.   =    -166.25191710 Ry
      -> PAW hartree energy AE =     113.33845841 Ry
      -> PAW hartree energy PS =    -112.70747002 Ry
      -> PAW xc energy AE      =    -198.68583742 Ry
      -> PAW xc energy PS      =      31.80293192 Ry
      -> total E_H with PAW    =     352.56074921 Ry
      -> total E_XC with PAW   =    -307.32228048 Ry

     convergence has been achieved in   8 iterations

     negative rho (up, down):  3.262E-01 0.000E+00

     Forces acting on atoms (cartesian axes, Ry/au):

     atom    1 type  1   force =     0.00000000    0.00000000    0.00000000
     atom    2 type  1   force =     0.00000000    0.00000000    0.00000000
     atom    3 type  1   force =     0.00000000    0.00000000    0.00000000
     atom    4 type  2   force =     0.00000000    0.00000000    0.00000000
     atom    5 type  3   force =     0.00337769    0.00448898   -0.00144126
     atom    6 type  3   force =    -0.00337769   -0.00448898    0.00144126
     atom    7 type  3   force =     0.00142355    0.00253367    0.00265992
     atom    8 type  3   force =    -0.00142355   -0.00253367   -0.00265992
     atom    9 type  3   force =    -0.00096012    0.00445297    0.00017889
     atom   10 type  3   force =     0.00096012   -0.00445297   -0.00017889
     The non-local contrib.  to forces
     atom    1 type  1   force =     0.00000000    0.00000000    0.00000000
     atom    2 type  1   force =     0.00000000    0.00000000    0.00000000
     atom    3 type  1   force =     0.00000000    0.00000000    0.00000000
     atom    4 type  2   force =     0.00000000    0.00000000    0.00000000
     atom    5 type  3   force =     0.59746866    0.37156749   -0.65327055
     atom    6 type  3   force =    -0.59746866   -0.37156749    0.65327055
     atom    7 type  3   force =     0.59180510    0.32810069    0.67168636
     atom    8 type  3   force =    -0.59180510   -0.32810069   -0.67168636
     atom    9 type  3   force =    -0.47549084    0.83370858   -0.00195855
     atom   10 type  3   force =     0.47549084   -0.83370858    0.00195855
     The ionic contribution  to forces
     atom    1 type  1   force =    -0.00000000   -0.00000000   -0.00000000
     atom    2 type  1   force =    -0.00000000    0.00000000    0.00000000
     atom    3 type  1   force =     0.00000000   -0.00000000   -0.00000000
     atom    4 type  2   force =     0.00000000    0.00000000    0.00000000
     atom    5 type  3   force =   -12.13341375   -8.73639795   12.31502327
     atom    6 type  3   force =    12.13341376    8.73639795  -12.31502327
     atom    7 type  3   force =   -12.04387292   -8.09673602  -12.76192411
     atom    8 type  3   force =    12.04387292    8.09673602   12.76192411
     atom    9 type  3   force =     8.17406962  -17.49295181   -0.09852555
     atom   10 type  3   force =    -8.17406962   17.49295181    0.09852555
     The local contribution  to forces
     atom    1 type  1   force =    -0.00003661    0.00006038   -0.00003547
     atom    2 type  1   force =     0.00000991   -0.00001791   -0.00009209
     atom    3 type  1   force =     0.00000621    0.00007006    0.00000412
     atom    4 type  2   force =     0.00000894   -0.00008894   -0.00025189
     atom    5 type  3   force =    11.53951572    8.36940574  -11.66346451
     atom    6 type  3   force =   -11.53957622   -8.36947845   11.66348733
     atom    7 type  3   force =    11.45379347    7.77126879   12.09321357
     atom    8 type  3   force =   -11.45368751   -7.77120674  -12.09314185
     atom    9 type  3   force =    -7.69977102   16.66398642    0.10060962
     atom   10 type  3   force =     7.69973993  -16.66392312   -0.10064744
     The core correction contribution to forces
     atom    1 type  1   force =    -0.00000088    0.00000232    0.00000196
     atom    2 type  1   force =     0.00000187   -0.00000307   -0.00000502
     atom    3 type  1   force =    -0.00000048    0.00000453    0.00000014
     atom    4 type  2   force =    -0.00000061   -0.00000357   -0.00000596
     atom    5 type  3   force =     0.00000000    0.00000000    0.00000000
     atom    6 type  3   force =     0.00000000    0.00000000    0.00000000
     atom    7 type  3   force =     0.00000000    0.00000000    0.00000000
     atom    8 type  3   force =     0.00000000    0.00000000    0.00000000
     atom    9 type  3   force =     0.00000000    0.00000000    0.00000000
     atom   10 type  3   force =     0.00000000    0.00000000    0.00000000
     The Hubbard contrib.    to forces
     atom    1 type  1   force =     0.00000000    0.00000000    0.00000000
     atom    2 type  1   force =     0.00000000    0.00000000    0.00000000
     atom    3 type  1   force =     0.00000000    0.00000000    0.00000000
     atom    4 type  2   force =     0.00000000    0.00000000    0.00000000
     atom    5 type  3   force =     0.00000000    0.00000000    0.00000000
     atom    6 type  3   force =     0.00000000    0.00000000    0.00000000
     atom    7 type  3   force =     0.00000000    0.00000000    0.00000000
     atom    8 type  3   force =     0.00000000    0.00000000    0.00000000
     atom    9 type  3   force =     0.00000000    0.00000000    0.00000000
     atom   10 type  3   force =     0.00000000    0.00000000    0.00000000
     The SCF correction term to forces
     atom    1 type  1   force =     0.00002212   -0.00001404    0.00009547
     atom    2 type  1   force =     0.00005106   -0.00006973   -0.00002773
     atom    3 type  1   force =    -0.00003004    0.00003054   -0.00001394
     atom    4 type  2   force =    -0.00001250    0.00015706    0.00037171
     atom    5 type  3   force =    -0.00020070   -0.00007972    0.00028932
     atom    6 type  3   force =     0.00024566    0.00016559   -0.00027457
     atom    7 type  3   force =    -0.00027817   -0.00007299   -0.00027130
     atom    8 type  3   force =     0.00022006    0.00006453    0.00028879
     atom    9 type  3   force =     0.00021672   -0.00025856    0.00007012
     atom   10 type  3   force =    -0.00021643    0.00025859    0.00000120

     Total force =     0.011827     Total SCF correction =     0.001001

     Computing stress (Cartesian axis) and pressure

     negative rho (up, down):  3.262E-01 0.000E+00
          total   stress  (Ry/bohr**3)                   (kbar)     P=      -62.72
  -0.00042564   0.00000981   0.00000216          -62.61        1.44        0.32
   0.00000981  -0.00041636  -0.00000183            1.44      -61.25       -0.27
   0.00000216  -0.00000183  -0.00043710            0.32       -0.27      -64.30

     kinetic stress (kbar)  11883.58     28.87     -0.46
                               28.87  11936.46      2.92
                               -0.46      2.92  11872.27

     local   stress (kbar) -17350.29   7813.68    -91.62
                             7813.68  -4482.48    398.11
                              -91.62    398.11 -21347.82

     nonloc. stress (kbar)   1853.78     14.38     -0.65
                               14.38   1879.88      1.95
                               -0.65      1.95   1849.60

     hartree stress (kbar)  10713.16  -3473.49     36.49
                            -3473.49   5018.63   -174.15
                               36.49   -174.15  12516.30

     exc-cor stress (kbar)    391.10     -1.45      0.06
                               -1.45    388.60     -0.14
                                0.06     -0.14    391.59

     corecor stress (kbar)  -3389.47     -0.32      0.04
                               -0.32  -3390.01     -0.03
                                0.04     -0.03  -3389.37

     ewald   stress (kbar)  -4164.48  -4380.23     56.45
                            -4380.23 -11412.31   -228.93
                               56.45   -228.93  -1956.86

     hubbard stress (kbar)      0.00      0.00      0.00
                                0.00      0.00      0.00
                                0.00      0.00      0.00

     DFT-D   stress (kbar)      0.00      0.00      0.00
                                0.00      0.00      0.00
                                0.00      0.00      0.00

     XDM     stress (kbar)      0.00      0.00      0.00
                                0.00      0.00      0.00
                                0.00      0.00      0.00

     dft-nl  stress (kbar)      0.00      0.00      0.00
                                0.00      0.00      0.00
                                0.00      0.00      0.00

     TS-vdW  stress (kbar)      0.00      0.00      0.00
                                0.00      0.00      0.00
                                0.00      0.00      0.00

[...]

                                0.00      0.00      0.00

     Writing all to output data dir new_calculations/myprefix.save/

     General routines

     Parallel routines

     PAW routines

   This run was terminated on:   6:18:54  21May2023

   JOB DONE.