     Program PWSCF v.7.0 starts on 21May2023 at 20:44:14

     Reading input from espresso_24050.pwi
Warning: card &CELL ignored
Warning: card / ignored

     Current dimensions of program PWSCF are:
     Max number of different atomic species (ntypx) = 10
     Max number of k-points (npk) =  40000
     Max angular momentum in pseudopotentials (lmaxx) =  4

     gamma-point specific algorithms are used
     Message from routine setup:
     using ibrav=0 with symmetry is DISCOURAGED, use correct ibrav instead

     Subspace diagonalization in iterative solution of the eigenvalue problem:
     a serial algorithm will be used

     Using Slab Decomposition

     bravais-lattice index     =            0
     lattice parameter (alat)  =      15.5426  a.u.
     unit-cell volume          =    5453.3619 (a.u.)^3
     number of atoms/cell      =           20
     number of atomic types    =            3
     number of electrons       =       176.00
     number of Kohn-Sham states=          106
     kinetic-energy cutoff     =      30.0000  Ry
     charge density cutoff     =     240.0000  Ry
     scf convergence threshold =      1.0E-06
     mixing beta               =       0.7000
     number of iterations used =            8  plain     mixing
     Exchange-correlation=  SLA  PW   PBX  PBC
                           (   1   4   3   4   0   0   0)

     celldm(1)=  15.542604  celldm(2)=   0.000000  celldm(3)=   0.000000
     celldm(4)=   0.000000  celldm(5)=   0.000000  celldm(6)=   0.000000

     crystal axes: (cart. coord. in units of alat)
               a(1) = (   1.000000   0.000000   0.000000 )
               a(2) = (   0.000000   1.008659   0.000000 )
               a(3) = (   0.000000   0.000000   1.439953 )

     reciprocal axes: (cart. coord. in units 2 pi/alat)
               b(1) = (  1.000000  0.000000  0.000000 )
               b(2) = (  0.000000  0.991415  0.000000 )
               b(3) = (  0.000000  0.000000  0.694467 )

     PseudoPot. # 1 for Cs read from file:
     /home/pragov/projects/rrg-bengioy-ad/pragov/crystal_structure_design/SSSP/Cs_pbe_v1.uspp.F.UPF
     MD5 check sum: 3476d69cb178dfad3ffaa59df4e07ca4
     Pseudo is Ultrasoft + core correction, Zval =  9.0
     Generated by new atomic code, or converted to UPF format
     Using radial grid of  905 points,  6 beta functions with:
                l(1) =   0
                l(2) =   0
                l(3) =   1
                l(4) =   1
                l(5) =   2
                l(6) =   2
     Q(r) pseudized with  6 coefficients,  rinner =    1.500   1.500   1.500
                                                       1.500   1.500

     PseudoPot. # 2 for Sn read from file:
     /home/pragov/projects/rrg-bengioy-ad/pragov/crystal_structure_design/SSSP/Sn_pbe_v1.uspp.F.UPF
     MD5 check sum: 4cf58ce39ec5d5d420df3dd08604eb00
     Pseudo is Ultrasoft + core correction, Zval = 14.0
     Generated by new atomic code, or converted to UPF format
     Using radial grid of  891 points,  6 beta functions with:
                l(1) =   0
                l(2) =   0
                l(3) =   1
                l(4) =   1
                l(5) =   2
                l(6) =   2
     Q(r) pseudized with  6 coefficients,  rinner =    1.200   1.200   1.200
                                                       1.200   1.200

     PseudoPot. # 3 for Br read from file:
     /home/pragov/projects/rrg-bengioy-ad/pragov/crystal_structure_design/SSSP/br_pbe_v1.4.uspp.F.UPF
     MD5 check sum: d3ffb7b29f6225aa16fe06858fb2a80b
     Pseudo is Ultrasoft + core correction, Zval =  7.0
     Generated by new atomic code, or converted to UPF format
     Using radial grid of  879 points,  6 beta functions with:
                l(1) =   0
                l(2) =   0
                l(3) =   1
                l(4) =   1
                l(5) =   2
                l(6) =   2
     Q(r) pseudized with  8 coefficients,  rinner =    1.100   1.100   1.100
                                                       1.100   1.100

     atomic species   valence    mass     pseudopotential
        Cs             9.00   132.90545     Cs( 1.00)
        Sn            14.00   118.71000     Sn( 1.00)
        Br             7.00    79.90400     Br( 1.00)

      8 Sym. Ops., with inversion, found ( 6 have fractional translation)

                                    s                        frac. trans.

      isym =  1     identity

 cryst.   s( 1) = (     1          0          0      )
                  (     0          1          0      )
                  (     0          0          1      )

 cart.    s( 1) = (  1.0000000  0.0000000  0.0000000 )
                  (  0.0000000  1.0000000  0.0000000 )
                  (  0.0000000  0.0000000  1.0000000 )

      isym =  2     180 deg rotation - cart. axis [0,0,1]

 cryst.   s( 2) = (    -1          0          0      )    f =(  0.0000000 )
                  (     0         -1          0      )       (  0.0000000 )
                  (     0          0          1      )       ( -0.5000000 )

 cart.    s( 2) = ( -1.0000000  0.0000000  0.0000000 )    f =(  0.0000000 )
                  (  0.0000000 -1.0000000  0.0000000 )       (  0.0000000 )
                  (  0.0000000  0.0000000  1.0000000 )       ( -0.7199766 )

[...]

      isym =  4     180 deg rotation - cart. axis [1,0,0]

[...]

      isym =  5     inversion

 cryst.   s( 5) = (    -1          0          0      )
                  (     0         -1          0      )
                  (     0          0         -1      )

 cart.    s( 5) = ( -1.0000000  0.0000000  0.0000000 )
                  (  0.0000000 -1.0000000  0.0000000 )
                  (  0.0000000  0.0000000 -1.0000000 )

      isym =  6     inv. 180 deg rotation - cart. axis [0,0,1]

[...]

      isym =  8     inv. 180 deg rotation - cart. axis [1,0,0]

 cryst.   s( 8) = (    -1          0          0      )    f =(  0.5000000 )
                  (     0          1          0      )       (  0.5000000 )
                  (     0          0          1      )       (  0.0000000 )

 cart.    s( 8) = ( -1.0000000  0.0000000  0.0000000 )    f =(  0.5000000 )
                  (  0.0000000  1.0000000  0.0000000 )       (  0.5043297 )
                  (  0.0000000  0.0000000  1.0000000 )       (  0.0000000 )

   Cartesian axes

     site n.     atom                  positions (alat units)
         1           Cs  tau(   1) = (   0.5078680   0.4712437   0.3599883  )
         2           Cs  tau(   2) = (   0.0078680   0.0330860   1.0799649  )
         3           Cs  tau(   3) = (   0.9921320   0.9755734   0.3599883  )
         4           Cs  tau(   4) = (   0.4921320   0.5374158   1.0799649  )
         5           Sn  tau(   5) = (   0.5000000   0.0000000   0.7199766  )
         6           Sn  tau(   6) = (   0.0000000   0.5043297   0.0000000  )
         7           Sn  tau(   7) = (   0.0000000   0.5043297   0.7199766  )
         8           Sn  tau(   8) = (   0.5000000   0.0000000   0.0000000  )
         9           Br  tau(   9) = (   0.5482020   1.0020709   1.0799649  )
        10           Br  tau(  10) = (   0.0482020   0.5109183   0.3599883  )
        11           Br  tau(  11) = (   0.7943150   0.2077919   0.0366108  )
        12           Br  tau(  12) = (   0.2056850   0.8008675   1.4033424  )
        13           Br  tau(  13) = (   0.2943150   0.2965378   1.4033424  )
        14           Br  tau(  14) = (   0.7056850   0.7121216   0.0366108  )
        15           Br  tau(  15) = (   0.2943150   0.2965378   0.7565874  )
        16           Br  tau(  16) = (   0.7056850   0.7121216   0.6833658  )
        17           Br  tau(  17) = (   0.2056850   0.8008675   0.7565874  )
        18           Br  tau(  18) = (   0.7943150   0.2077919   0.6833658  )
        19           Br  tau(  19) = (   0.9517980   0.4977412   1.0799649  )
        20           Br  tau(  20) = (   0.4517980   0.0065886   0.3599883  )

   Crystallographic axes

     site n.     atom                  positions (cryst. coord.)
         1           Cs  tau(   1) = (  0.5078680  0.4671980  0.2500000  )
         2           Cs  tau(   2) = (  0.0078680  0.0328020  0.7500000  )
         3           Cs  tau(   3) = (  0.9921320  0.9671980  0.2500000  )
         4           Cs  tau(   4) = (  0.4921320  0.5328020  0.7500000  )
         5           Sn  tau(   5) = (  0.5000000  0.0000000  0.5000000  )
         6           Sn  tau(   6) = (  0.0000000  0.5000000  0.0000000  )
         7           Sn  tau(   7) = (  0.0000000  0.5000000  0.5000000  )
         8           Sn  tau(   8) = (  0.5000000  0.0000000  0.0000000  )
         9           Br  tau(   9) = (  0.5482020  0.9934680  0.7500000  )
        10           Br  tau(  10) = (  0.0482020  0.5065320  0.2500000  )
        11           Br  tau(  11) = (  0.7943150  0.2060080  0.0254250  )
        12           Br  tau(  12) = (  0.2056850  0.7939920  0.9745750  )
        13           Br  tau(  13) = (  0.2943150  0.2939920  0.9745750  )
        14           Br  tau(  14) = (  0.7056850  0.7060080  0.0254250  )
        15           Br  tau(  15) = (  0.2943150  0.2939920  0.5254250  )
        16           Br  tau(  16) = (  0.7056850  0.7060080  0.4745750  )
        17           Br  tau(  17) = (  0.2056850  0.7939920  0.5254250  )
        18           Br  tau(  18) = (  0.7943150  0.2060080  0.4745750  )
        19           Br  tau(  19) = (  0.9517980  0.4934680  0.7500000  )
        20           Br  tau(  20) = (  0.4517980  0.0065320  0.2500000  )

     number of k points=     1  Methfessel-Paxton smearing, width (Ry)=  0.0010
                       cart. coord. in units 2pi/alat
        k(    1) = (   0.0000000   0.0000000   0.0000000), wk =   2.0000000

                       cryst. coord.
        k(    1) = (   0.0000000   0.0000000   0.0000000), wk =   2.0000000

     Check: negative core charge=   -0.000001

     Initial potential from superposition of free atoms

     starting charge     171.8420, renormalised to     176.0000
     Starting wfcs are  136 randomized atomic wfcs

     Self-consistent Calculation

     iteration #  1     ecut=    30.00 Ry     beta= 0.70
     Davidson diagonalization with overlap

     ethr =  1.00E-02,  avg # of iterations =  3.0

     Threshold (ethr) on eigenvalues was too large:
     Diagonalizing with lowered threshold

     Davidson diagonalization with overlap

[...]

     total energy              =   -1468.59407407 Ry
     estimated scf accuracy    <       0.90749955 Ry

[...]

     c_bands:  2 eigenvalues not converged
     ethr =  2.63E-06,  avg # of iterations = 20.0

[...]

     c_bands:  2 eigenvalues not converged
     ethr =  1.28E-07,  avg # of iterations = 20.0

[...]

     total energy              =   -1468.93637505 Ry
     estimated scf accuracy    <       0.00000136 Ry

     iteration #  8     ecut=    30.00 Ry     beta= 0.70
     Davidson diagonalization with overlap

     ethr =  7.70E-10,  avg # of iterations =  3.0

     End of self-consistent calculation

          k = 0.0000 0.0000 0.0000 (  7574 PWs)   bands (ev):

   -18.2087 -18.2086 -18.2035 -18.2032 -18.2032 -18.2017 -18.2004 -18.1996
   -18.1981 -18.1975 -18.1973 -18.1969 -18.1948 -18.1944 -18.1943 -18.1938
   -18.1923 -18.1921 -18.1919 -18.1917 -17.6326 -17.6312 -17.6299 -17.6289
   -11.0043 -10.8881 -10.7226 -10.7213 -10.7166 -10.7139 -10.7075 -10.7024
   -10.6972 -10.5761 -10.5754 -10.5634  -4.5033  -4.5010  -4.4889  -4.4798
    -4.4777  -4.4626  -4.4600  -4.4532  -4.4522  -4.4452  -4.4389  -4.4279
    -4.2790  -3.7315  -3.1208  -2.2987  -0.6098  -0.5889  -0.5798  -0.5243
    -0.4978  -0.3667   0.5907   0.8167   0.8279   0.8464   0.8605   1.0505
     1.1357   1.1517   1.1563   1.1849   1.2412   1.2530   1.3669   1.3745
     1.3934   1.4299   1.4718   1.4816   1.5259   1.5367   1.6359   1.6598
     1.6702   1.7741   1.8307   1.8709   1.9717   2.3432   3.0451   3.8529
     4.7564   4.8066   4.8656   5.2143   5.3022   5.5513   6.9276   7.8447
     7.9904   8.1016   8.1480   8.1677   8.1767   8.2105   8.4358   8.4745
     8.4868   8.5497

     occupation numbers
     1.0000   1.0000   1.0000   1.0000   1.0000   1.0000   1.0000   1.0000
     1.0000   1.0000   1.0000   1.0000   1.0000   1.0000   1.0000   1.0000
     1.0000   1.0000   1.0000   1.0000   1.0000   1.0000   1.0000   1.0000
     1.0000   1.0000   1.0000   1.0000   1.0000   1.0000   1.0000   1.0000
     1.0000   1.0000   1.0000   1.0000   1.0000   1.0000   1.0000   1.0000
     1.0000   1.0000   1.0000   1.0000   1.0000   1.0000   1.0000   1.0000
     1.0000   1.0000   1.0000   1.0000   1.0000   1.0000   1.0000   1.0000
     1.0000   1.0000   1.0000   1.0000   1.0000   1.0000   1.0000   1.0000
     1.0000   1.0000   1.0000   1.0000   1.0000   1.0000   1.0000   1.0000
     1.0000   1.0000   1.0000   1.0000   1.0000   1.0000   1.0000   1.0000
     1.0000   1.0000   1.0000   1.0000   1.0000   1.0000   1.0000   1.0000
    -0.0000  -0.0000  -0.0000  -0.0000  -0.0000  -0.0000  -0.0000  -0.0000
    -0.0000  -0.0000  -0.0000  -0.0000  -0.0000  -0.0000  -0.0000  -0.0000
    -0.0000  -0.0000

     the Fermi energy is     4.4622 ev

!    total energy              =   -1468.93637533 Ry
     estimated scf accuracy    <       0.00000008 Ry
     smearing contrib. (-TS)   =       0.00000000 Ry
     internal energy E=F+TS    =   -1468.93637533 Ry

     The total energy is F=E-TS. E is the sum of the following terms:
     one-electron contribution =    -489.72344422 Ry
     hartree contribution      =     320.81245483 Ry
     xc contribution           =    -625.12416235 Ry
     ewald contribution        =    -674.90122359 Ry

     convergence has been achieved in   8 iterations

     Forces acting on atoms (cartesian axes, Ry/au):

     atom    1 type  1   force =     0.00081580   -0.00348322    0.00000000
     atom    2 type  1   force =     0.00081580    0.00348322    0.00000000
     atom    3 type  1   force =    -0.00081580   -0.00348322   -0.00000000
     atom    4 type  1   force =    -0.00081580    0.00348322    0.00000000
     atom    5 type  2   force =     0.00000000    0.00000000    0.00000000
     atom    6 type  2   force =     0.00000000   -0.00000000   -0.00000000
     atom    7 type  2   force =     0.00000000    0.00000000   -0.00000000
     atom    8 type  2   force =     0.00000000    0.00000000    0.00000000
     atom    9 type  3   force =     0.00797466   -0.00290701   -0.00000000
     atom   10 type  3   force =     0.00797466    0.00290701    0.00000000
     atom   11 type  3   force =     0.00807730   -0.00679100    0.00904243
     atom   12 type  3   force =    -0.00807730    0.00679100   -0.00904243
     atom   13 type  3   force =     0.00807730    0.00679100   -0.00904243
     atom   14 type  3   force =    -0.00807730   -0.00679100    0.00904243
     atom   15 type  3   force =     0.00807730    0.00679100    0.00904243
     atom   16 type  3   force =    -0.00807730   -0.00679100   -0.00904243
     atom   17 type  3   force =    -0.00807730    0.00679100    0.00904243
     atom   18 type  3   force =     0.00807730   -0.00679100   -0.00904243
     atom   19 type  3   force =    -0.00797466   -0.00290701    0.00000000
     atom   20 type  3   force =    -0.00797466    0.00290701    0.00000000
     The non-local contrib.  to forces
     atom    1 type  1   force =    -0.00114325   -0.00021707    0.00000000
     atom    2 type  1   force =    -0.00114325    0.00021707    0.00000000
     atom    3 type  1   force =     0.00114325   -0.00021707    0.00000000
     atom    4 type  1   force =     0.00114325    0.00021707    0.00000000
     atom    5 type  2   force =     0.00000000    0.00000000    0.00000000
     atom    6 type  2   force =     0.00000000   -0.00000000   -0.00000000
     atom    7 type  2   force =     0.00000000    0.00000000   -0.00000000
     atom    8 type  2   force =     0.00000000    0.00000000    0.00000000
     atom    9 type  3   force =     0.01230039   -0.00290316    0.00000000
     atom   10 type  3   force =     0.01230039    0.00290316    0.00000000
     atom   11 type  3   force =     0.00999873   -0.01049324    0.00976232
     atom   12 type  3   force =    -0.00999873    0.01049324   -0.00976232
     atom   13 type  3   force =     0.00999873    0.01049324   -0.00976232
     atom   14 type  3   force =    -0.00999873   -0.01049324    0.00976232
     atom   15 type  3   force =     0.00999873    0.01049324    0.00976232
     atom   16 type  3   force =    -0.00999873   -0.01049324   -0.00976232
     atom   17 type  3   force =    -0.00999873    0.01049324    0.00976232
     atom   18 type  3   force =     0.00999873   -0.01049324   -0.00976232
     atom   19 type  3   force =    -0.01230039   -0.00290316    0.00000000
     atom   20 type  3   force =    -0.01230039    0.00290316    0.00000000
     The ionic contribution  to forces
     atom    1 type  1   force =    -0.22128021    0.57509228    0.00000000
     atom    2 type  1   force =    -0.22128021   -0.57509228   -0.00000000
     atom    3 type  1   force =     0.22128021    0.57509228    0.00000000
     atom    4 type  1   force =     0.22128021   -0.57509228   -0.00000000
     atom    5 type  2   force =    -0.00000000    0.00000000    0.00000000
     atom    6 type  2   force =    -0.00000000   -0.00000000   -0.00000000
     atom    7 type  2   force =     0.00000000    0.00000000    0.00000000
     atom    8 type  2   force =     0.00000000    0.00000000   -0.00000000
     atom    9 type  3   force =     0.94963169    0.20920858    0.00000000
     atom   10 type  3   force =     0.94963169   -0.20920858    0.00000000
     atom   11 type  3   force =     0.79830214   -0.69846997    0.56550476
     atom   12 type  3   force =    -0.79830214    0.69846997   -0.56550476
     atom   13 type  3   force =     0.79830214    0.69846997   -0.56550476
     atom   14 type  3   force =    -0.79830214   -0.69846997    0.56550476
     atom   15 type  3   force =     0.79830214    0.69846997    0.56550476
     atom   16 type  3   force =    -0.79830214   -0.69846997   -0.56550476
     atom   17 type  3   force =    -0.79830214    0.69846997    0.56550476
     atom   18 type  3   force =     0.79830214   -0.69846997   -0.56550476
     atom   19 type  3   force =    -0.94963169    0.20920858   -0.00000000
     atom   20 type  3   force =    -0.94963169   -0.20920858    0.00000000
     The local contribution  to forces
     atom    1 type  1   force =     0.22306829   -0.57833081   -0.00000097
     atom    2 type  1   force =     0.22331612    0.57831430   -0.00000198
     atom    3 type  1   force =    -0.22307672   -0.57846093    0.00000679
     atom    4 type  1   force =    -0.22327428    0.57850081   -0.00000404
     atom    5 type  2   force =    -0.00026901   -0.00029813   -0.00014821
     atom    6 type  2   force =     0.00038162    0.00016528    0.00031597
     atom    7 type  2   force =     0.00032493    0.00027193   -0.00023887
     atom    8 type  2   force =    -0.00036464   -0.00024145    0.00016031
     atom    9 type  3   force =    -0.95841571   -0.20923625   -0.00005686
     atom   10 type  3   force =    -0.95822673    0.20923431   -0.00004357
     atom   11 type  3   force =    -0.80408617    0.70590497   -0.56944579
     atom   12 type  3   force =     0.80414299   -0.70591747    0.56953231
     atom   13 type  3   force =    -0.80408168   -0.70595881    0.56953490
     atom   14 type  3   force =     0.80401862    0.70599320   -0.56944773
     atom   15 type  3   force =    -0.80401758   -0.70602123   -0.56952826
     atom   16 type  3   force =     0.80396585    0.70606492    0.56945565
     atom   17 type  3   force =     0.80419422   -0.70586099   -0.56953206
     atom   18 type  3   force =    -0.80415578    0.70582965    0.56945089
     atom   19 type  3   force =     0.95837643   -0.20912431    0.00003158
     atom   20 type  3   force =     0.95825397    0.20911282    0.00004874
     The core correction contribution to forces
     atom    1 type  1   force =     0.00001535    0.00000822   -0.00000004
     atom    2 type  1   force =     0.00001996   -0.00000854    0.00000031
     atom    3 type  1   force =    -0.00001587    0.00000729   -0.00000011
     atom    4 type  1   force =    -0.00001669   -0.00000663    0.00000018
     atom    5 type  2   force =    -0.00000500   -0.00000619    0.00000007
     atom    6 type  2   force =     0.00000779    0.00000317    0.00000379
     atom    7 type  2   force =     0.00000637    0.00000537   -0.00000231
     atom    8 type  2   force =    -0.00000688   -0.00000486    0.00000042
     atom    9 type  3   force =     0.00438061   -0.00006159   -0.00000129
     atom   10 type  3   force =     0.00438190    0.00006163   -0.00000105
     atom   11 type  3   force =     0.00384974   -0.00376650    0.00323452
     atom   12 type  3   force =    -0.00384587    0.00376473   -0.00323697
     atom   13 type  3   force =     0.00384752    0.00376540   -0.00323774
     atom   14 type  3   force =    -0.00385012   -0.00376408    0.00323391
     atom   15 type  3   force =     0.00384886    0.00376445    0.00323847
     atom   16 type  3   force =    -0.00385092   -0.00376267   -0.00323342
     atom   17 type  3   force =    -0.00384582    0.00376530    0.00323691
     atom   18 type  3   force =     0.00384830   -0.00376839   -0.00323473
     atom   19 type  3   force =    -0.00438190   -0.00006018    0.00000036
     atom   20 type  3   force =    -0.00438283    0.00005905    0.00000095
     The Hubbard contrib.    to forces
     atom    1 type  1   force =     0.00000000    0.00000000    0.00000000
     atom    2 type  1   force =     0.00000000    0.00000000    0.00000000
     atom    3 type  1   force =     0.00000000    0.00000000    0.00000000
     atom    4 type  1   force =     0.00000000    0.00000000    0.00000000
     atom    5 type  2   force =     0.00000000    0.00000000    0.00000000
     atom    6 type  2   force =     0.00000000    0.00000000    0.00000000
     atom    7 type  2   force =     0.00000000    0.00000000    0.00000000
     atom    8 type  2   force =     0.00000000    0.00000000    0.00000000
     atom    9 type  3   force =     0.00000000    0.00000000    0.00000000
     atom   10 type  3   force =     0.00000000    0.00000000    0.00000000
     atom   11 type  3   force =     0.00000000    0.00000000    0.00000000
     atom   12 type  3   force =     0.00000000    0.00000000    0.00000000
     atom   13 type  3   force =     0.00000000    0.00000000    0.00000000
     atom   14 type  3   force =     0.00000000    0.00000000    0.00000000
     atom   15 type  3   force =     0.00000000    0.00000000    0.00000000
     atom   16 type  3   force =     0.00000000    0.00000000    0.00000000
     atom   17 type  3   force =     0.00000000    0.00000000    0.00000000
     atom   18 type  3   force =     0.00000000    0.00000000    0.00000000
     atom   19 type  3   force =     0.00000000    0.00000000    0.00000000
     atom   20 type  3   force =     0.00000000    0.00000000    0.00000000
     The SCF correction term to forces
     atom    1 type  1   force =     0.00014611   -0.00002862    0.00000024
     atom    2 type  1   force =    -0.00008141    0.00005006    0.00000383
     atom    3 type  1   force =    -0.00013893    0.00009335   -0.00001007
     atom    4 type  1   force =     0.00004987   -0.00012779    0.00000641
     atom    5 type  2   force =     0.00028154    0.00030850    0.00015764
     atom    6 type  2   force =    -0.00039539   -0.00016914   -0.00034299
     atom    7 type  2   force =    -0.00033814   -0.00029264    0.00026994
     atom    8 type  2   force =     0.00038692    0.00024542   -0.00018052
     atom    9 type  3   force =     0.00008848    0.00009324    0.00006376
     atom   10 type  3   force =    -0.00011781   -0.00009211    0.00004921
     atom   11 type  3   force =     0.00000613    0.00004054   -0.00002718
     atom   12 type  3   force =    -0.00008850   -0.00001875   -0.00008571
     atom   13 type  3   force =     0.00001407    0.00002129   -0.00008380
     atom   14 type  3   force =     0.00006492   -0.00006328   -0.00002212
     atom   15 type  3   force =    -0.00005705    0.00008747    0.00007241
     atom   16 type  3   force =     0.00012032   -0.00014239    0.00001090
     atom   17 type  3   force =    -0.00013773   -0.00007627    0.00008540
     atom   18 type  3   force =     0.00008304    0.00012687    0.00002338
     atom   19 type  3   force =    -0.00004026   -0.00003322   -0.00003274
     atom   20 type  3   force =     0.00009499    0.00005170   -0.00005332

     Total force =     0.043410     Total SCF correction =     0.001140

     Computing stress (Cartesian axis) and pressure

          total   stress  (Ry/bohr**3)                   (kbar)     P=       18.49
   0.00015987   0.00000000   0.00000000           23.52        0.00        0.00
   0.00000000   0.00015891   0.00000000            0.00       23.38        0.00
   0.00000000   0.00000000   0.00005822            0.00        0.00        8.56

     kinetic stress (kbar)   4264.08      0.00      0.00
                                0.00   4265.87      0.00
                                0.00      0.00   4248.25

     local   stress (kbar)   -234.96      0.00      0.00
                                0.00   -207.24     -0.00
                                0.00     -0.00   -250.29

     nonloc. stress (kbar)   1292.99      0.00      0.00
                                0.00   1293.01      0.00
                                0.00      0.00   1295.08

     hartree stress (kbar)   2890.76     -0.00     -0.00
                               -0.00   2882.64     -0.00
                               -0.00     -0.00   2880.55

     exc-cor stress (kbar)  10224.34     -0.00     -0.00
                               -0.00  10224.35      0.00
                               -0.00      0.00  10224.73

     corecor stress (kbar) -12344.66     -0.00      0.00
                               -0.00 -12344.77     -0.00
                                0.00     -0.00 -12343.74

     ewald   stress (kbar)  -6069.03     -0.00      0.00
                               -0.00  -6090.49     -0.00
                                0.00     -0.00  -6046.02

     hubbard stress (kbar)      0.00      0.00      0.00
                                0.00      0.00      0.00
                                0.00      0.00      0.00

     DFT-D   stress (kbar)      0.00      0.00      0.00
                                0.00      0.00      0.00
                                0.00      0.00      0.00

     XDM     stress (kbar)      0.00      0.00      0.00
                                0.00      0.00      0.00
                                0.00      0.00      0.00

     dft-nl  stress (kbar)      0.00      0.00      0.00
                                0.00      0.00      0.00
                                0.00      0.00      0.00

     TS-vdW  stress (kbar)      0.00      0.00      0.00
                                0.00      0.00      0.00
                                0.00      0.00      0.00

[...]

                                0.00      0.00      0.00

     Writing all to output data dir new_calculations/myprefix.save/

     General routines

     Parallel routines

   This run was terminated on:  20:45: 2  21May2023

   JOB DONE.