     Program PWSCF v.7.0 starts on 20May2023 at 16: 0: 9

     Reading input from espresso_4500.pwi
Warning: card &CELL ignored
Warning: card / ignored

     Current dimensions of program PWSCF are:
     Max number of different atomic species (ntypx) = 10
     Max number of k-points (npk) =  40000
     Max angular momentum in pseudopotentials (lmaxx) =  4
     file O.pbe-n-kjpaw_psl.0.1.UPF: wavefunction(s)  2P renormalized

     gamma-point specific algorithms are used
     Message from routine setup:
     using ibrav=0 with symmetry is DISCOURAGED, use correct ibrav instead

     Subspace diagonalization in iterative solution of the eigenvalue problem:
     a serial algorithm will be used

     Using Slab Decomposition

     bravais-lattice index     =            0
     lattice parameter (alat)  =      11.0263  a.u.
     unit-cell volume          =    1166.5792 (a.u.)^3
     number of atoms/cell      =           13
     number of atomic types    =            3
     number of electrons       =       118.00
     number of Kohn-Sham states=           71
     kinetic-energy cutoff     =      30.0000  Ry
     charge density cutoff     =     240.0000  Ry
     scf convergence threshold =      1.0E-06
     mixing beta               =       0.7000
     number of iterations used =            8  plain     mixing
     Exchange-correlation= SLA  PW   PBX  PBC
                           (   1   4   3   4   0   0   0)

     celldm(1)=  11.026340  celldm(2)=   0.000000  celldm(3)=   0.000000
     celldm(4)=   0.000000  celldm(5)=   0.000000  celldm(6)=   0.000000

     crystal axes: (cart. coord. in units of alat)
               a(1) = (   1.000000   0.000000   0.000000 )
               a(2) = (  -0.277650   0.968154   0.000000 )
               a(3) = (  -0.473748  -0.124722   0.898826 )

     reciprocal axes: (cart. coord. in units 2 pi/alat)
               b(1) = (  1.000000  0.286783  0.566868 )
               b(2) = (  0.000000  1.032894  0.143325 )
               b(3) = (  0.000000  0.000000  1.112562 )

     PseudoPot. # 1 for Ca read from file:
     /home/pragov/projects/rrg-bengioy-ad/pragov/crystal_structure_design/SSSP/Ca_pbe_v1.uspp.F.UPF
     MD5 check sum: 403a4c14b9e4d4dfdc3024c9a3812218
     Pseudo is Ultrasoft + core correction, Zval = 10.0
     Generated by new atomic code, or converted to UPF format
     Using radial grid of  845 points,  6 beta functions with:
                l(1) =   0
                l(2) =   0
                l(3) =   1
                l(4) =   1
                l(5) =   2
                l(6) =   2
     Q(r) pseudized with  8 coefficients,  rinner =    1.500   1.500   1.500
                                                       1.500   1.500

     PseudoPot. # 2 for Mn read from file:
     /home/pragov/projects/rrg-bengioy-ad/pragov/crystal_structure_design/SSSP/mn_pbe_v1.5.uspp.F.UPF
     MD5 check sum: 82ef2b46521d7a7d9e736dc3972e4928
     Pseudo is Ultrasoft + core correction, Zval = 15.0
     Generated by new atomic code, or converted to UPF format
     Using radial grid of  859 points,  6 beta functions with:
                l(1) =   0
                l(2) =   0
                l(3) =   1
                l(4) =   1
                l(5) =   2
                l(6) =   2
     Q(r) pseudized with  8 coefficients,  rinner =    0.950   0.950   0.950
                                                       0.950   0.950

     PseudoPot. # 3 for O  read from file:
     /home/pragov/projects/rrg-bengioy-ad/pragov/crystal_structure_design/SSSP/O.pbe-n-kjpaw_psl.0.1.UPF
     MD5 check sum: 0234752ac141de4415c5fc33072bef88
     Pseudo is Projector augmented-wave + core cor, Zval =  6.0
     Generated using "atomic" code by A. Dal Corso  v.5.0.99 svn rev. 10869
     Shape of augmentation charge: BESSEL
     Using radial grid of 1095 points,  4 beta functions with:
                l(1) =   0
                l(2) =   0
                l(3) =   1
                l(4) =   1
     Q(r) pseudized with 0 coefficients

     atomic species   valence    mass     pseudopotential
        Ca            10.00    40.07800     Ca( 1.00)
        Mn            15.00    54.93804     Mn( 1.00)
        O              6.00    15.99900     O ( 1.00)

      2 Sym. Ops., with inversion, found

                                    s                        frac. trans.

      isym =  1     identity

 cryst.   s( 1) = (     1          0          0      )
                  (     0          1          0      )
                  (     0          0          1      )

 cart.    s( 1) = (  1.0000000 -0.0000000 -0.0000000 )
                  (  0.0000000  1.0000000 -0.0000000 )
                  (  0.0000000  0.0000000  1.0000000 )

      isym =  2     inversion

 cryst.   s( 2) = (    -1          0          0      )
                  (     0         -1          0      )
                  (     0          0         -1      )

 cart.    s( 2) = ( -1.0000000  0.0000000  0.0000000 )
                  (  0.0000000 -1.0000000  0.0000000 )
                  (  0.0000000  0.0000000 -1.0000000 )

   Cartesian axes

     site n.     atom                  positions (alat units)
         1           Ca  tau(   1) = (   0.2631261  -0.0623610   0.4494131  )
         2           Mn  tau(   2) = (  -0.4937961   0.4143662   0.6781895  )
         3           Mn  tau(   3) = (   0.2437768   0.4520103   0.2214914  )
         4           Mn  tau(   4) = (   0.7423985   0.4290656   0.2206367  )
         5           Mn  tau(   5) = (   0.0048256   0.3914214   0.6773347  )
         6           O   tau(   6) = (  -0.2376995   0.5894492   0.5699520  )
         7           O   tau(   7) = (  -0.0148276   0.6409474   0.1366225  )
         8           O   tau(   8) = (   0.4883220   0.6329686   0.0902053  )
         9           O   tau(   9) = (   0.2410294   0.5910899   0.5340223  )
        10           O   tau(  10) = (  -0.2397196   0.2104632   0.8086209  )
        11           O   tau(  11) = (   0.0075730   0.2523419   0.3648039  )
        12           O   tau(  12) = (   0.4863019   0.2539825   0.3288742  )
        13           O   tau(  13) = (   0.2634300   0.2024844   0.7622037  )

   Crystallographic axes

     site n.     atom                  positions (cryst. coord.)
         1           Ca  tau(   1) = (  0.5000000 -0.0000000  0.5000000  )
         2           Mn  tau(   2) = (  0.0094810  0.5251980  0.7545280  )
         3           Mn  tau(   3) = (  0.4989620  0.4986240  0.2464230  )
         4           Mn  tau(   4) = (  0.9905190  0.4748020  0.2454720  )
         5           Mn  tau(   5) = (  0.5010380  0.5013760  0.7535770  )
         6           O   tau(   6) = (  0.2544320  0.6905270  0.6341070  )
         7           O   tau(   7) = (  0.2464320  0.6816120  0.1520010  )
         8           O   tau(   8) = (  0.7209810  0.6667180  0.1003590  )
         9           O   tau(   9) = (  0.7132640  0.6870720  0.5941330  )
        10           O   tau(  10) = (  0.2790190  0.3332820  0.8996410  )
        11           O   tau(  11) = (  0.2867360  0.3129280  0.4058670  )
        12           O   tau(  12) = (  0.7455680  0.3094730  0.3658930  )
        13           O   tau(  13) = (  0.7535680  0.3183880  0.8479990  )

     number of k points=     1  Methfessel-Paxton smearing, width (Ry)=  0.0010
                       cart. coord. in units 2pi/alat
        k(    1) = (   0.0000000   0.0000000   0.0000000), wk =   2.0000000

                       cryst. coord.
        k(    1) = (   0.0000000   0.0000000   0.0000000), wk =   2.0000000

     Check: negative core charge=   -0.000027

     Initial potential from superposition of free atoms

     starting charge     115.9942, renormalised to     118.0000
     Starting wfcs are   94 randomized atomic wfcs
     Checking if some PAW data can be deallocated...

     Self-consistent Calculation

     iteration #  1     ecut=    30.00 Ry     beta= 0.70
     Davidson diagonalization with overlap

     ethr =  1.00E-02,  avg # of iterations =  2.0

     total energy              =   -1247.23753638 Ry
     estimated scf accuracy    <       8.39818741 Ry

[...]

     negative rho (up, down):  2.014E-07 0.000E+00

[...]

     negative rho (up, down):  3.712E-08 0.000E+00

[...]

     total energy              =   -1252.80480670 Ry
     estimated scf accuracy    <       0.00000102 Ry

     iteration # 41     ecut=    30.00 Ry     beta= 0.70
     Davidson diagonalization with overlap

     ethr =  8.66E-10,  avg # of iterations =  1.0

     End of self-consistent calculation

          k = 0.0000 0.0000 0.0000 (  1617 PWs)   bands (ev):

   -72.8280 -72.8225 -72.6795 -72.6751 -41.6869 -41.6724 -41.6018 -41.5921
   -41.5500 -41.5349 -41.4701 -41.4239 -41.3960 -41.3791 -41.1112 -41.1101
   -32.6061 -13.8719 -13.7630 -13.7284 -12.3033 -11.1450 -11.0818 -11.0515
   -10.9352 -10.9244 -10.8282 -10.5498   0.6973   0.7543   1.0631   1.3376
     1.9602   2.0694   2.1758   2.1992   2.2430   2.3124   2.7200   2.8130
     3.1039   3.1653   3.6945   3.8506   3.9569   4.0377   4.1263   4.1944
     4.2605   4.9456   5.1085   5.2280   6.3725   6.4072   6.4711   6.6112
     6.7944   6.9829   6.9884   6.9920   7.1154   7.2539   7.5012   7.5482
     8.6303   8.7088   9.3358   9.3601   9.6637   9.8980   9.9447

     occupation numbers
     1.0000   1.0000   1.0000   1.0000   1.0000   1.0000   1.0000   1.0000
     1.0000   1.0000   1.0000   1.0000   1.0000   1.0000   1.0000   1.0000
     1.0000   1.0000   1.0000   1.0000   1.0000   1.0000   1.0000   1.0000
     1.0000   1.0000   1.0000   1.0000   1.0000   1.0000   1.0000   1.0000
     1.0000   1.0000   1.0000   1.0000   1.0000   1.0000   1.0000   1.0000
     1.0000   1.0000   1.0000   1.0000   1.0000   1.0000   1.0000   1.0000
     1.0000   1.0000   1.0000   1.0000   1.0000   1.0000   1.0000   1.0000
     1.0000   0.9157   0.6507   0.4336  -0.0000  -0.0000  -0.0000  -0.0000
    -0.0000  -0.0000  -0.0000  -0.0000  -0.0000  -0.0000  -0.0000

     the Fermi energy is     6.9909 ev

!    total energy              =   -1252.80480663 Ry
     estimated scf accuracy    <       0.00000010 Ry
     smearing contrib. (-TS)   =      -0.00059216 Ry
     internal energy E=F+TS    =   -1252.80421447 Ry

     The total energy is F=E-TS. E is the sum of the following terms:
     one-electron contribution =    -959.76004594 Ry
     hartree contribution      =     524.10650818 Ry
     xc contribution           =    -176.22493533 Ry
     ewald contribution        =    -564.70977191 Ry
     one-center paw contrib.   =     -76.21596946 Ry
      -> PAW hartree energy AE =     230.03806825 Ry
      -> PAW hartree energy PS =    -229.24368048 Ry
      -> PAW xc energy AE      =    -136.27346046 Ry
      -> PAW xc energy PS      =      59.26310322 Ry
      -> total E_H with PAW    =     524.90089596 Ry
      -> total E_XC with PAW   =    -253.23529257 Ry

     convergence has been achieved in  41 iterations

     Forces acting on atoms (cartesian axes, Ry/au):

     atom    1 type  1   force =     0.00000000    0.00000000    0.00000000
     atom    2 type  2   force =     0.01034686   -0.00814334    0.00434174
     atom    3 type  2   force =     0.00405655    0.00728768   -0.00709944
     atom    4 type  2   force =    -0.01034686    0.00814334   -0.00434174
     atom    5 type  2   force =    -0.00405655   -0.00728768    0.00709944
     atom    6 type  3   force =    -0.02536103   -0.02930041   -0.01684381
     atom    7 type  3   force =    -0.00526032   -0.02588442   -0.04695379
     atom    8 type  3   force =     0.01124350   -0.02788513   -0.00596534
     atom    9 type  3   force =     0.02868352   -0.02654105    0.00685965
     atom   10 type  3   force =    -0.01124350    0.02788513    0.00596534
     atom   11 type  3   force =    -0.02868352    0.02654105   -0.00685965
     atom   12 type  3   force =     0.02536103    0.02930041    0.01684381
     atom   13 type  3   force =     0.00526032    0.02588442    0.04695379
     The non-local contrib.  to forces
     atom    1 type  1   force =     0.00000000    0.00000000    0.00000000
     atom    2 type  2   force =    -0.01452548    0.00361706    0.01564545
     atom    3 type  2   force =     0.00727820   -0.01266673   -0.02730967
     atom    4 type  2   force =     0.01452548   -0.00361706   -0.01564545
     atom    5 type  2   force =    -0.00727820    0.01266673    0.02730967
     atom    6 type  3   force =     0.02346735   -0.85334729   -0.05901087
     atom    7 type  3   force =     0.01418069   -0.85953887   -0.03145074
     atom    8 type  3   force =    -0.07192763   -1.04410781   -0.14184592
     atom    9 type  3   force =    -0.08687684   -0.77871198   -0.08497698
     atom   10 type  3   force =     0.07192763    1.04410781    0.14184592
     atom   11 type  3   force =     0.08687684    0.77871198    0.08497698
     atom   12 type  3   force =    -0.02346735    0.85334729    0.05901087
     atom   13 type  3   force =    -0.01418069    0.85953887    0.03145074
     The ionic contribution  to forces
     atom    1 type  1   force =    -0.00000000    0.00000000    0.00000000
     atom    2 type  2   force =     0.83671822    7.24555274    1.78500082
     atom    3 type  2   force =     1.03055718    0.34179230   -2.17586483
     atom    4 type  2   force =    -0.83671822   -7.24555275   -1.78500082
     atom    5 type  2   force =    -1.03055718   -0.34179230    2.17586483
     atom    6 type  3   force =    -2.60221999   18.76016608    1.25020815
     atom    7 type  3   force =    -1.24916471   19.26177383   -1.43249528
     atom    8 type  3   force =     2.09413511   21.16950780    3.72698471
     atom    9 type  3   force =     3.26445279   19.32401277    3.84146132
     atom   10 type  3   force =    -2.09413511  -21.16950780   -3.72698471
     atom   11 type  3   force =    -3.26445279  -19.32401277   -3.84146132
     atom   12 type  3   force =     2.60221999  -18.76016608   -1.25020815
     atom   13 type  3   force =     1.24916471  -19.26177383    1.43249527
     The local contribution  to forces
     atom    1 type  1   force =     0.00000904   -0.00001477   -0.00008292
     atom    2 type  2   force =    -0.81217009   -7.25634323   -1.79458151
     atom    3 type  2   force =    -1.03276189   -0.32198478    2.19317499
     atom    4 type  2   force =     0.81217009    7.25638281    1.79457663
     atom    5 type  2   force =     1.03276567    0.32201491   -2.19312618
     atom    6 type  3   force =     2.55350293  -17.94503574   -1.20929715
     atom    7 type  3   force =     1.22995533  -18.43704176    1.41598279
     atom    8 type  3   force =    -2.01150702  -20.16405528   -3.59231392
     atom    9 type  3   force =    -3.14958679  -18.58003895   -3.75055499
     atom   10 type  3   force =     2.01145666   20.16399761    3.59264203
     atom   11 type  3   force =     3.14962641   18.58010610    3.75023045
     atom   12 type  3   force =    -2.55353445   17.94516679    1.20908394
     atom   13 type  3   force =    -1.22991048   18.43690676   -1.41578842
     The core correction contribution to forces
     atom    1 type  1   force =     0.00000002   -0.00000000   -0.00000006
     atom    2 type  2   force =     0.00030588   -0.00095734   -0.00168776
     atom    3 type  2   force =    -0.00104003    0.00018570    0.00290936
     atom    4 type  2   force =    -0.00030581    0.00095812    0.00168725
     atom    5 type  2   force =     0.00104021   -0.00018516   -0.00290868
     atom    6 type  3   force =     0.00003478    0.00902022    0.00120612
     atom    7 type  3   force =    -0.00005621    0.00889415    0.00117983
     atom    8 type  3   force =     0.00037362    0.01071609    0.00128408
     atom    9 type  3   force =     0.00057801    0.00819747    0.00068581
     atom   10 type  3   force =    -0.00037359   -0.01071588   -0.00128407
     atom   11 type  3   force =    -0.00057798   -0.00819765   -0.00068587
     atom   12 type  3   force =    -0.00003479   -0.00902030   -0.00120613
     atom   13 type  3   force =     0.00005624   -0.00889410   -0.00117981
     The Hubbard contrib.    to forces
     atom    1 type  1   force =     0.00000000    0.00000000    0.00000000
     atom    2 type  2   force =     0.00000000    0.00000000    0.00000000
     atom    3 type  2   force =     0.00000000    0.00000000    0.00000000
     atom    4 type  2   force =     0.00000000    0.00000000    0.00000000
     atom    5 type  2   force =     0.00000000    0.00000000    0.00000000
     atom    6 type  3   force =     0.00000000    0.00000000    0.00000000
     atom    7 type  3   force =     0.00000000    0.00000000    0.00000000
     atom    8 type  3   force =     0.00000000    0.00000000    0.00000000
     atom    9 type  3   force =     0.00000000    0.00000000    0.00000000
     atom   10 type  3   force =     0.00000000    0.00000000    0.00000000
     atom   11 type  3   force =     0.00000000    0.00000000    0.00000000
     atom   12 type  3   force =     0.00000000    0.00000000    0.00000000
     atom   13 type  3   force =     0.00000000    0.00000000    0.00000000
     The SCF correction term to forces
     atom    1 type  1   force =    -0.00000867    0.00001484    0.00007967
     atom    2 type  2   force =     0.00001900   -0.00000793   -0.00003871
     atom    3 type  2   force =     0.00002406   -0.00003910   -0.00000140
     atom    4 type  2   force =    -0.00001771   -0.00002313    0.00003718
     atom    5 type  2   force =    -0.00002609    0.00000784   -0.00003230
     atom    6 type  3   force =    -0.00014764   -0.00010379    0.00004853
     atom    7 type  3   force =    -0.00017417    0.00002894   -0.00016999
     atom    8 type  3   force =     0.00017054    0.00006263   -0.00007363
     atom    9 type  3   force =     0.00011733   -0.00000622    0.00024130
     atom   10 type  3   force =    -0.00011797    0.00001197   -0.00025316
     atom   11 type  3   force =    -0.00015503   -0.00007247    0.00007691
     atom   12 type  3   force =     0.00017609   -0.00002740    0.00016187
     atom   13 type  3   force =     0.00013179    0.00010743   -0.00002360

     Total force =     0.122587     Total SCF correction =     0.000649

     Computing stress (Cartesian axis) and pressure

          total   stress  (Ry/bohr**3)                   (kbar)     P=     -589.15
  -0.00437591   0.00006689  -0.00010711         -643.72        9.84      -15.76
   0.00006689  -0.00334154  -0.00001151            9.84     -491.56       -1.69
  -0.00010711  -0.00001151  -0.00429743          -15.76       -1.69     -632.17

     kinetic stress (kbar)  26998.11    -15.84      8.53
                              -15.84  27685.41     95.72
                                8.53     95.72  27180.89

     local   stress (kbar) -73301.19   -201.49   1449.34
                             -201.49  49337.31  19793.10
                             1449.34  19793.10 -65328.35

     nonloc. stress (kbar)  10473.62    -38.31      1.87
                              -38.31  10475.89     50.37
                                1.87     50.37  10561.71

     hartree stress (kbar)  41707.43      5.92   -572.74
                                5.92 -14241.94  -8820.36
                             -572.74  -8820.36  38624.09

     exc-cor stress (kbar)  -4451.93      1.53     -0.80
                                1.53  -4464.03     -5.17
                               -0.80     -5.17  -4458.66

     corecor stress (kbar)  -2451.00      0.95     -0.07
                                0.95  -2451.78     -1.48
                               -0.07     -1.48  -2453.39

     ewald   stress (kbar)    381.25    257.08   -901.88
                              257.08 -66832.41 -11113.87
                             -901.88 -11113.87  -4758.47

     hubbard stress (kbar)      0.00      0.00      0.00
                                0.00      0.00      0.00
                                0.00      0.00      0.00

     DFT-D   stress (kbar)      0.00      0.00      0.00
                                0.00      0.00      0.00
                                0.00      0.00      0.00

     XDM     stress (kbar)      0.00      0.00      0.00
                                0.00      0.00      0.00
                                0.00      0.00      0.00

     dft-nl  stress (kbar)      0.00      0.00      0.00
                                0.00      0.00      0.00
                                0.00      0.00      0.00

     TS-vdW  stress (kbar)      0.00      0.00      0.00
                                0.00      0.00      0.00
                                0.00      0.00      0.00

[...]

                                0.00      0.00      0.00

     Writing all to output data dir new_calculations/myprefix.save/

     General routines

     Parallel routines

     PAW routines

   This run was terminated on:  16: 1: 3  20May2023

   JOB DONE.