     Program PWSCF v.7.0 starts on 21May2023 at 17:34:35

     Reading input from espresso_21141.pwi
Warning: card &CELL ignored
Warning: card / ignored

     Current dimensions of program PWSCF are:
     Max number of different atomic species (ntypx) = 10
     Max number of k-points (npk) =  40000
     Max angular momentum in pseudopotentials (lmaxx) =  4
     file Ba.pbe-spn-kjpaw_psl.1.0.0.UPF: wavefunction(s)  5S 6S renormalized
     file O.pbe-n-kjpaw_psl.0.1.UPF: wavefunction(s)  2P renormalized

     gamma-point specific algorithms are used
     Message from routine setup:
     using ibrav=0 with symmetry is DISCOURAGED, use correct ibrav instead

     Subspace diagonalization in iterative solution of the eigenvalue problem:
     a serial algorithm will be used

     Using Slab Decomposition

     bravais-lattice index     =            0
     lattice parameter (alat)  =      14.9829  a.u.
     unit-cell volume          =    2209.0859 (a.u.)^3
     number of atoms/cell      =           18
     number of atomic types    =            3
     number of electrons       =       146.00
     number of Kohn-Sham states=           88
     kinetic-energy cutoff     =      30.0000  Ry
     charge density cutoff     =     240.0000  Ry
     scf convergence threshold =      1.0E-06
     mixing beta               =       0.7000
     number of iterations used =            8  plain     mixing
     Exchange-correlation= SLA  PW   PBX  PBC
                           (   1   4   3   4   0   0   0)

     celldm(1)=  14.982927  celldm(2)=   0.000000  celldm(3)=   0.000000
     celldm(4)=   0.000000  celldm(5)=   0.000000  celldm(6)=   0.000000

     crystal axes: (cart. coord. in units of alat)
               a(1) = (   1.000000   0.000000   0.000000 )
               a(2) = (   0.123834   0.992303   0.000000 )
               a(3) = (  -0.561917  -0.496152   0.661879 )

     reciprocal axes: (cart. coord. in units 2 pi/alat)
               b(1) = (  1.000000 -0.124794  0.755426 )
               b(2) = (  0.000000  1.007757  0.755426 )
               b(3) = (  0.000000  0.000000  1.510851 )

     PseudoPot. # 1 for Ba read from file:
     /home/pragov/projects/rrg-bengioy-ad/pragov/crystal_structure_design/SSSP/Ba.pbe-spn-kjpaw_psl.1.0.0.UPF
     MD5 check sum: c432291d3e53af55f19d5e8866385beb
     Pseudo is Projector augmented-wave + core cor, Zval = 10.0
     Generated using "atomic" code by A. Dal Corso  v.5.1
     Shape of augmentation charge: PSQ
     Using radial grid of 1251 points,  7 beta functions with:
                l(1) =   0
                l(2) =   0
                l(3) =   0
                l(4) =   1
                l(5) =   1
                l(6) =   2
                l(7) =   2
     Q(r) pseudized with 0 coefficients

     PseudoPot. # 2 for V  read from file:
     /home/pragov/projects/rrg-bengioy-ad/pragov/crystal_structure_design/SSSP/v_pbe_v1.4.uspp.F.UPF
     MD5 check sum: 22b79981416ebb76fdaf5b1b8640f6fb
     Pseudo is Ultrasoft + core correction, Zval = 13.0
     Generated by new atomic code, or converted to UPF format
     Using radial grid of  853 points,  6 beta functions with:
                l(1) =   0
                l(2) =   0
                l(3) =   1
                l(4) =   1
                l(5) =   2
                l(6) =   2
     Q(r) pseudized with  8 coefficients,  rinner =    1.100   1.100   1.100
                                                       1.100   1.100

     PseudoPot. # 3 for O  read from file:
     /home/pragov/projects/rrg-bengioy-ad/pragov/crystal_structure_design/SSSP/O.pbe-n-kjpaw_psl.0.1.UPF
     MD5 check sum: 0234752ac141de4415c5fc33072bef88
     Pseudo is Projector augmented-wave + core cor, Zval =  6.0
     Generated using "atomic" code by A. Dal Corso  v.5.0.99 svn rev. 10869
     Shape of augmentation charge: BESSEL
     Using radial grid of 1095 points,  4 beta functions with:
                l(1) =   0
                l(2) =   0
                l(3) =   1
                l(4) =   1
     Q(r) pseudized with 0 coefficients

     atomic species   valence    mass     pseudopotential
        Ba            10.00   137.32700     Ba( 1.00)
        V             13.00    50.94150     V ( 1.00)
        O              6.00    15.99900     O ( 1.00)

      4 Sym. Ops., with inversion, found ( 2 have fractional translation)

                                    s                        frac. trans.

      isym =  1     identity

 cryst.   s( 1) = (     1          0          0      )
                  (     0          1          0      )
                  (     0          0          1      )

 cart.    s( 1) = (  1.0000000 -0.0000000  0.0000000 )
                  (  0.0000000  1.0000000 -0.0000000 )
                  (  0.0000000  0.0000000  1.0000000 )

      isym =  2     180 deg rotation - cart. axis [0,0,1]

 cryst.   s( 2) = (    -1          0          0      )    f =(  0.5000000 )
                  (     0         -1          0      )       (  0.5000000 )
                  (     1          1          1      )       (  0.0000000 )

 cart.    s( 2) = ( -1.0000000  0.0000000 -0.0000000 )    f =(  0.5619168 )
                  (  0.0000000 -1.0000000 -0.0000000 )       (  0.4961515 )
                  (  0.0000000  0.0000000  1.0000000 )       (  0.0000000 )

      isym =  3     inversion

 cryst.   s( 3) = (    -1          0          0      )
                  (     0         -1          0      )
                  (     0          0         -1      )

 cart.    s( 3) = ( -1.0000000  0.0000000 -0.0000000 )
                  (  0.0000000 -1.0000000  0.0000000 )
                  (  0.0000000  0.0000000 -1.0000000 )

      isym =  4     inv. 180 deg rotation - cart. axis [0,0,1]

 cryst.   s( 4) = (     1          0          0      )    f =( -0.5000000 )
                  (     0          1          0      )       ( -0.5000000 )
                  (    -1         -1         -1      )       (  0.0000000 )

 cart.    s( 4) = (  1.0000000 -0.0000000  0.0000000 )    f =( -0.5619168 )
                  (  0.0000000  1.0000000  0.0000000 )       ( -0.4961515 )
                  (  0.0000000  0.0000000 -1.0000000 )       (  0.0000000 )

   Cartesian axes

     site n.     atom                  positions (alat units)
         1           Ba  tau(   1) = (   0.2809584   0.2480758   0.0000000  )
         2           Ba  tau(   2) = (   0.8428752   0.7442273   0.0000000  )
         3           Ba  tau(   3) = (  -0.2190416   0.2480758   0.5700231  )
         4           Ba  tau(   4) = (   0.7809584   0.2480758   0.0918555  )
         5           Ba  tau(   5) = (   0.5011196   0.5650074   0.3309393  )
         6           Ba  tau(   6) = (   0.0607972  -0.0688559   0.3309393  )
         7           V   tau(   7) = (   0.5000000  -0.0000000   0.3309393  )
         8           V   tau(   8) = (   0.0619168   0.4961515   0.3309393  )
         9           O   tau(   9) = (   0.3972524  -0.0907223   0.5151719  )
        10           O   tau(  10) = (   0.1646644   0.5868738   0.1467067  )
        11           O   tau(  11) = (   0.3972535  -0.0907213   0.1467067  )
        12           O   tau(  12) = (   0.0811089   0.2673274   0.3309393  )
        13           O   tau(  13) = (   0.7246862  -0.0473805   0.3309393  )
        14           O   tau(  14) = (   0.1646633   0.5868728   0.5151719  )
        15           O   tau(  15) = (   0.4808079   0.2288241   0.3309393  )
        16           O   tau(  16) = (  -0.1627694   0.5435320   0.3309393  )
        17           O   tau(  17) = (   0.0000000   0.0000000   0.0000000  )
        18           O   tau(  18) = (   0.5619168   0.4961515   0.0000000  )

   Crystallographic axes

     site n.     atom                  positions (cryst. coord.)
         1           Ba  tau(   1) = (  0.2500000  0.2500000  0.0000000  )
         2           Ba  tau(   2) = (  0.7500000  0.7500000  0.0000000  )
         3           Ba  tau(   3) = (  0.1806100  0.6806100  0.8612200  )
         4           Ba  tau(   4) = (  0.8193900  0.3193900  0.1387800  )
         5           Ba  tau(   5) = (  0.6806100  0.8193900  0.5000000  )
         6           Ba  tau(   6) = (  0.3193900  0.1806100  0.5000000  )
         7           V   tau(   7) = (  0.7500000  0.2500000  0.5000000  )
         8           V   tau(   8) = (  0.2500000  0.7500000  0.5000000  )
         9           O   tau(   9) = (  0.7977480  0.2977480  0.7783480  )
        10           O   tau(  10) = (  0.2022520  0.7022520  0.2216520  )
        11           O   tau(  11) = (  0.5194010  0.0194010  0.2216520  )
        12           O   tau(  12) = (  0.2977480  0.5194010  0.5000000  )
        13           O   tau(  13) = (  0.9805990  0.2022520  0.5000000  )
        14           O   tau(  14) = (  0.4805990  0.9805990  0.7783480  )
        15           O   tau(  15) = (  0.7022520  0.4805990  0.5000000  )
        16           O   tau(  16) = (  0.0194010  0.7977480  0.5000000  )
        17           O   tau(  17) = (  0.0000000  0.0000000  0.0000000  )
        18           O   tau(  18) = (  0.5000000  0.5000000  0.0000000  )

     number of k points=     1  Methfessel-Paxton smearing, width (Ry)=  0.0010
                       cart. coord. in units 2pi/alat
        k(    1) = (   0.0000000   0.0000000   0.0000000), wk =   2.0000000

                       cryst. coord.
        k(    1) = (   0.0000000   0.0000000   0.0000000), wk =   2.0000000

     Check: negative core charge=   -0.000009

     Initial potential from superposition of free atoms

     starting charge     145.8955, renormalised to     146.0000

     negative rho (up, down):  1.152E-03 0.000E+00
     Starting wfcs are   90 randomized atomic wfcs
     Checking if some PAW data can be deallocated...

     Self-consistent Calculation

     iteration #  1     ecut=    30.00 Ry     beta= 0.70
     Davidson diagonalization with overlap

     ethr =  1.00E-02,  avg # of iterations =  6.0

     negative rho (up, down):  1.741E-01 0.000E+00

     total energy              =   -3322.13115431 Ry
     estimated scf accuracy    <       6.12256823 Ry

[...]

     total energy              =   -3325.47503621 Ry
     estimated scf accuracy    <       0.00000158 Ry

     iteration # 43     ecut=    30.00 Ry     beta= 0.70
     Davidson diagonalization with overlap

     ethr =  1.08E-09,  avg # of iterations =  2.0

[...]

     End of self-consistent calculation

          k = 0.0000 0.0000 0.0000 (  3054 PWs)   bands (ev):

   -55.3942 -55.3627 -29.3511 -29.2688 -29.0457 -28.9954 -28.8016 -28.5761
   -17.8368 -17.8160 -17.1574 -17.0292 -16.9733 -16.9530  -9.3669  -9.0398
    -9.0314  -8.9544  -8.8750  -8.8671  -8.7217  -8.7039  -6.9210  -6.4085
    -3.4365  -3.2282  -3.1928  -3.1820  -3.1074  -2.9523  -2.8017  -2.7821
    -2.7344  -2.4642  -2.4589  -2.3825  -2.3489  -2.2322  -2.0960  -2.0312
    -1.9897  -1.7471   4.7638   4.8178   5.1657   5.1944   5.3742   5.4383
     5.4777   5.6125   5.6217   5.6311   5.6376   5.7434   5.7685   5.8761
     5.9017   5.9259   5.9684   6.2356   6.7324   6.8673   6.8855   6.9783
     7.0477   7.1567   7.4457   7.5882   7.6730   8.4117   8.6967   8.7574
    10.9485  10.9557  11.1840  11.6924  11.8716  11.9089  11.9471  11.9719
    12.0654  12.0939  12.5446  13.0015  13.0216  13.0746  13.1058  13.2905

     occupation numbers
     1.0000   1.0000   1.0000   1.0000   1.0000   1.0000   1.0000   1.0000
     1.0000   1.0000   1.0000   1.0000   1.0000   1.0000   1.0000   1.0000
     1.0000   1.0000   1.0000   1.0000   1.0000   1.0000   1.0000   1.0000
     1.0000   1.0000   1.0000   1.0000   1.0000   1.0000   1.0000   1.0000
     1.0000   1.0000   1.0000   1.0000   1.0000   1.0000   1.0000   1.0000
     1.0000   1.0000   1.0000   1.0000   1.0000   1.0000   1.0000   1.0000
     1.0000   1.0000   1.0000   1.0000   1.0000   1.0000   1.0000   1.0000
     1.0000   1.0000   1.0000   1.0000   1.0000   1.0000   1.0000   1.0000
     1.0000   1.0000   1.0000   1.0000   1.0000   1.0000   1.0000   1.0000
     0.7162   0.2838  -0.0000  -0.0000  -0.0000  -0.0000  -0.0000  -0.0000
    -0.0000  -0.0000  -0.0000  -0.0000  -0.0000  -0.0000  -0.0000  -0.0000

     the Fermi energy is    10.9521 ev

!    total energy              =   -3325.47503597 Ry
     estimated scf accuracy    <       0.00000076 Ry
     smearing contrib. (-TS)   =      -0.00045158 Ry
     internal energy E=F+TS    =   -3325.47458439 Ry

     The total energy is F=E-TS. E is the sum of the following terms:
     one-electron contribution =    -324.70965074 Ry
     hartree contribution      =     246.37815304 Ry
     xc contribution           =    -235.55618277 Ry
     ewald contribution        =    -666.43299762 Ry
     one-center paw contrib.   =   -2345.15390630 Ry
      -> PAW hartree energy AE =     462.32971495 Ry
      -> PAW hartree energy PS =    -460.69400311 Ry
      -> PAW xc energy AE      =   -2536.06150943 Ry
      -> PAW xc energy PS      =     189.27189128 Ry
      -> total E_H with PAW    =     248.01386489 Ry
      -> total E_XC with PAW   =   -2582.34580091 Ry

     convergence has been achieved in  43 iterations

     negative rho (up, down):  2.100E-03 0.000E+00

     Forces acting on atoms (cartesian axes, Ry/au):

     atom    1 type  1   force =     0.00000000    0.00000000    0.00115035
     atom    2 type  1   force =     0.00000000    0.00000000   -0.00115035
     atom    3 type  1   force =     0.00000000    0.00000000   -0.00536144
     atom    4 type  1   force =     0.00000000    0.00000000    0.00536144
     atom    5 type  1   force =    -0.00346683    0.00686339    0.00000000
     atom    6 type  1   force =     0.00346683   -0.00686339   -0.00000000
     atom    7 type  2   force =     0.00787069    0.00728936    0.00000000
     atom    8 type  2   force =    -0.00787069   -0.00728936   -0.00000000
     atom    9 type  3   force =     0.00702070   -0.00450558   -0.03433395
     atom   10 type  3   force =    -0.00702070    0.00450558    0.03433395
     atom   11 type  3   force =     0.00702070   -0.00450558    0.03433395
     atom   12 type  3   force =    -0.00624539    0.03706015    0.00000000
     atom   13 type  3   force =    -0.01242033    0.02915621    0.00000000
     atom   14 type  3   force =    -0.00702070    0.00450558   -0.03433395
     atom   15 type  3   force =     0.00624539   -0.03706015   -0.00000000
     atom   16 type  3   force =     0.01242033   -0.02915621   -0.00000000
     atom   17 type  3   force =     0.00000000    0.00000000   -0.00000000
     atom   18 type  3   force =     0.00000000    0.00000000    0.00000000
     The non-local contrib.  to forces
     atom    1 type  1   force =     0.00000000    0.00000000    0.00339274
     atom    2 type  1   force =     0.00000000    0.00000000   -0.00339274
     atom    3 type  1   force =     0.00000000    0.00000000   -0.02881647
     atom    4 type  1   force =     0.00000000    0.00000000    0.02881647
     atom    5 type  1   force =    -0.02465381    0.01676814   -0.00000000
     atom    6 type  1   force =     0.02465381   -0.01676814    0.00000000
     atom    7 type  2   force =     0.00209591    0.01099379    0.00000000
     atom    8 type  2   force =    -0.00209591   -0.01099379   -0.00000000
     atom    9 type  3   force =     0.24588862    0.21269826   -0.55532903
     atom   10 type  3   force =    -0.24588862   -0.21269826    0.55532903
     atom   11 type  3   force =     0.24588862    0.21269826    0.55532903
     atom   12 type  3   force =    -0.08788566    0.63935280    0.00000000
     atom   13 type  3   force =    -0.57401469    0.19016964   -0.00000000
     atom   14 type  3   force =    -0.24588862   -0.21269826   -0.55532903
     atom   15 type  3   force =     0.08788566   -0.63935280   -0.00000000
     atom   16 type  3   force =     0.57401469   -0.19016964    0.00000000
     atom   17 type  3   force =    -0.00000000    0.00000000   -0.00000000
     atom   18 type  3   force =     0.00000000    0.00000000    0.00000000
     The ionic contribution  to forces
     atom    1 type  1   force =    -0.00001630    0.00001846    0.00000000
     atom    2 type  1   force =     0.00001630   -0.00001846    0.00000000
     atom    3 type  1   force =     0.00000319    0.00000282    0.49194183
     atom    4 type  1   force =    -0.00000319   -0.00000282   -0.49194183
     atom    5 type  1   force =     0.32559841   -0.36875673   -0.00000000
     atom    6 type  1   force =    -0.32559841    0.36875673   -0.00000000
     atom    7 type  2   force =    -0.00008678   -0.00007663    0.00013112
     atom    8 type  2   force =     0.00008678    0.00007663   -0.00013112
     atom    9 type  3   force =    -4.23042976   -3.73531134    8.02879088
     atom   10 type  3   force =     4.23042976    3.73531134   -8.02879088
     atom   11 type  3   force =    -4.23048198   -3.73535745   -8.02890429
     atom   12 type  3   force =     1.08368903   -9.75393663   -0.00000925
     atom   13 type  3   force =     9.54466359   -2.28321237    0.00000925
     atom   14 type  3   force =     4.23048198    3.73535745    8.02890429
     atom   15 type  3   force =    -1.08368903    9.75393663    0.00000925
     atom   16 type  3   force =    -9.54466359    2.28321237   -0.00000925
     atom   17 type  3   force =    -0.00000000    0.00000000    0.00000000
     atom   18 type  3   force =    -0.00000000    0.00000000    0.00000000
     The local contribution  to forces
     atom    1 type  1   force =    -0.00205229   -0.00326120   -0.00248058
     atom    2 type  1   force =     0.00193648    0.00310794    0.00248624
     atom    3 type  1   force =    -0.00105784    0.00124033   -0.47079839
     atom    4 type  1   force =     0.00036654   -0.00070789    0.47104365
     atom    5 type  1   force =    -0.30486724    0.35941710    0.00903169
     atom    6 type  1   force =     0.30419575   -0.35864286   -0.00964714
     atom    7 type  2   force =     0.00616876   -0.00340577   -0.00057547
     atom    8 type  2   force =    -0.00614585    0.00341535    0.00056355
     atom    9 type  3   force =     4.01988222    3.51992906   -7.51156108
     atom   10 type  3   force =    -4.01984110   -3.51993928    7.51154122
     atom   11 type  3   force =     3.96816769    3.52018387    7.51449438
     atom   12 type  3   force =    -1.00308504    9.15763651    0.00217387
     atom   13 type  3   force =    -8.98838649    2.12379936   -0.01150457
     atom   14 type  3   force =    -3.96818086   -3.52015066   -7.51448071
     atom   15 type  3   force =     1.00308953   -9.15765644   -0.00221120
     atom   16 type  3   force =     8.98837104   -2.12379329    0.01153697
     atom   17 type  3   force =     0.00000440   -0.00000227    0.00000749
     atom   18 type  3   force =    -0.00000733   -0.00000391    0.00000340
     The core correction contribution to forces
     atom    1 type  1   force =    -0.00019897   -0.00006561    0.00022220
     atom    2 type  1   force =     0.00019650    0.00006359   -0.00022294
     atom    3 type  1   force =    -0.00034377   -0.00016646    0.00245517
     atom    4 type  1   force =     0.00032735    0.00018183   -0.00244801
     atom    5 type  1   force =     0.00012532   -0.00016579   -0.00011118
     atom    6 type  1   force =    -0.00014078    0.00018226    0.00009381
     atom    7 type  2   force =    -0.00028220   -0.00025171   -0.00017201
     atom    8 type  2   force =     0.00028240    0.00025187    0.00017199
     atom    9 type  3   force =    -0.00152530   -0.00215259    0.00525342
     atom   10 type  3   force =     0.00152518    0.00215271   -0.00525338
     atom   11 type  3   force =    -0.00327037   -0.00164270   -0.00512923
     atom   12 type  3   force =     0.00107897   -0.00599072    0.00027495
     atom   13 type  3   force =     0.00529736   -0.00164752   -0.00027843
     atom   14 type  3   force =     0.00327050    0.00164264    0.00512928
     atom   15 type  3   force =    -0.00107898    0.00599073   -0.00027478
     atom   16 type  3   force =    -0.00529738    0.00164752    0.00027828
     atom   17 type  3   force =    -0.00000007   -0.00000003    0.00000001
     atom   18 type  3   force =     0.00000016    0.00000004    0.00000001
     The Hubbard contrib.    to forces
     atom    1 type  1   force =     0.00000000    0.00000000    0.00000000
     atom    2 type  1   force =     0.00000000    0.00000000    0.00000000
     atom    3 type  1   force =     0.00000000    0.00000000    0.00000000
     atom    4 type  1   force =     0.00000000    0.00000000    0.00000000
     atom    5 type  1   force =     0.00000000    0.00000000    0.00000000
     atom    6 type  1   force =     0.00000000    0.00000000    0.00000000
     atom    7 type  2   force =     0.00000000    0.00000000    0.00000000
     atom    8 type  2   force =     0.00000000    0.00000000    0.00000000
     atom    9 type  3   force =     0.00000000    0.00000000    0.00000000
     atom   10 type  3   force =     0.00000000    0.00000000    0.00000000
     atom   11 type  3   force =     0.00000000    0.00000000    0.00000000
     atom   12 type  3   force =     0.00000000    0.00000000    0.00000000
     atom   13 type  3   force =     0.00000000    0.00000000    0.00000000
     atom   14 type  3   force =     0.00000000    0.00000000    0.00000000
     atom   15 type  3   force =     0.00000000    0.00000000    0.00000000
     atom   16 type  3   force =     0.00000000    0.00000000    0.00000000
     atom   17 type  3   force =     0.00000000    0.00000000    0.00000000
     atom   18 type  3   force =     0.00000000    0.00000000    0.00000000
     The SCF correction term to forces
     atom    1 type  1   force =     0.00000946    0.00000452    0.00001277
     atom    2 type  1   force =     0.00000136    0.00000941   -0.00002414
     atom    3 type  1   force =     0.00008866   -0.00004941   -0.00003688
     atom    4 type  1   force =     0.00001389   -0.00000865   -0.00000215
     atom    5 type  1   force =     0.00003717   -0.00005495    0.00004072
     atom    6 type  1   force =     0.00006313   -0.00004700    0.00005823
     atom    7 type  2   force =    -0.00002528    0.00002978    0.00001365
     atom    8 type  2   force =     0.00000161   -0.00003932   -0.00000040
     atom    9 type  3   force =    -0.00002452   -0.00005105   -0.00001285
     atom   10 type  3   force =    -0.00002785    0.00006859    0.00003557
     atom   11 type  3   force =    -0.00005620   -0.00000543    0.00001756
     atom   12 type  3   force =    -0.00004247   -0.00000040    0.00007256
     atom   13 type  3   force =     0.00002036    0.00004699    0.00002779
     atom   14 type  3   force =     0.00007583   -0.00003505   -0.00003197
     atom   15 type  3   force =     0.00003841    0.00002314   -0.00002383
     atom   16 type  3   force =    -0.00000397   -0.00005326   -0.00007137
     atom   17 type  3   force =    -0.00000894   -0.00000106   -0.00000818
     atom   18 type  3   force =     0.00001853    0.00000728   -0.00000349

     Total force =     0.101172     Total SCF correction =     0.000274

     Computing stress (Cartesian axis) and pressure

     negative rho (up, down):  2.100E-03 0.000E+00
          total   stress  (Ry/bohr**3)                   (kbar)     P=     -209.46
  -0.00140004  -0.00029325  -0.00000000         -205.95      -43.14       -0.00
  -0.00029325  -0.00152212  -0.00000000          -43.14     -223.91       -0.00
  -0.00000000  -0.00000000  -0.00134946           -0.00       -0.00     -198.51

     kinetic stress (kbar)  15714.93      1.05      0.00
                                1.05  15696.09      0.00
                                0.00      0.00  15696.49

     local   stress (kbar)  -6953.66   -654.04     -9.51
                             -654.04  -6796.74      7.66
                               -9.51      7.66  -6231.99

     nonloc. stress (kbar)   3936.01     30.06      0.00
                               30.06   3929.44      0.00
                                0.00      0.00   3901.36

     hartree stress (kbar)   5577.55    232.02     -0.21
                              232.02   5516.43      1.74
                               -0.21      1.74   5312.57

     exc-cor stress (kbar)   1941.05      0.17     -0.10
                                0.17   1940.81      0.14
                               -0.10      0.14   1940.86

     corecor stress (kbar)  -5791.11     -4.20     -0.37
                               -4.20  -5791.42      0.62
                               -0.37      0.62  -5788.66

     ewald   stress (kbar) -14630.72    351.80      0.00
                              351.80 -14718.52      0.00
                                0.00      0.00 -15029.15

     hubbard stress (kbar)      0.00      0.00      0.00
                                0.00      0.00      0.00
                                0.00      0.00      0.00

     DFT-D   stress (kbar)      0.00      0.00      0.00
                                0.00      0.00      0.00
                                0.00      0.00      0.00

     XDM     stress (kbar)      0.00      0.00      0.00
                                0.00      0.00      0.00
                                0.00      0.00      0.00

     dft-nl  stress (kbar)      0.00      0.00      0.00
                                0.00      0.00      0.00
                                0.00      0.00      0.00

     TS-vdW  stress (kbar)      0.00      0.00      0.00
                                0.00      0.00      0.00
                                0.00      0.00      0.00

[...]

                                0.00      0.00      0.00

     Writing all to output data dir new_calculations/myprefix.save/

     General routines

     Parallel routines

     PAW routines

   This run was terminated on:  17:36:25  21May2023

   JOB DONE.