     Program PWSCF v.7.0 starts on 20May2023 at  5: 0:48

     Reading input from espresso_16054.pwi
Warning: card &CELL ignored
Warning: card / ignored

     Current dimensions of program PWSCF are:
     Max number of different atomic species (ntypx) = 10
     Max number of k-points (npk) =  40000
     Max angular momentum in pseudopotentials (lmaxx) =  4

     gamma-point specific algorithms are used
     Message from routine setup:
     using ibrav=0 with symmetry is DISCOURAGED, use correct ibrav instead

     Subspace diagonalization in iterative solution of the eigenvalue problem:
     a serial algorithm will be used

     Using Slab Decomposition

     bravais-lattice index     =            0
     lattice parameter (alat)  =      11.8369  a.u.
     unit-cell volume          =    1290.0001 (a.u.)^3
     number of atoms/cell      =           10
     number of atomic types    =            3
     number of electrons       =       138.00
     number of Kohn-Sham states=           83
     kinetic-energy cutoff     =      30.0000  Ry
     charge density cutoff     =     240.0000  Ry
     scf convergence threshold =      1.0E-06
     mixing beta               =       0.7000
     number of iterations used =            8  plain     mixing
     Exchange-correlation=  SLA  PW   PBX  PBC
                           (   1   4   3   4   0   0   0)

     celldm(1)=  11.836871  celldm(2)=   0.000000  celldm(3)=   0.000000
     celldm(4)=   0.000000  celldm(5)=   0.000000  celldm(6)=   0.000000

     crystal axes: (cart. coord. in units of alat)
               a(1) = (   1.000000   0.000000   0.000000 )
               a(2) = (  -0.500000   0.866025   0.000000 )
               a(3) = (   0.000000   0.000000   0.898149 )

     reciprocal axes: (cart. coord. in units 2 pi/alat)
               b(1) = (  1.000000  0.577350  0.000000 )
               b(2) = (  0.000000  1.154701  0.000000 )
               b(3) = (  0.000000  0.000000  1.113401 )

     PseudoPot. # 1 for Nd read from file:
     /home/pragov/projects/rrg-bengioy-ad/pragov/crystal_structure_design/SSSP/Nd.GGA-PBE-paw-v1.0.UPF
     MD5 check sum: 1d1e94942b6eb1cde76049b71bb7dcb0
     Pseudo is Projector augmented-wave + core cor, Zval = 14.0
     Generated using ATOMPAW code
     Shape of augmentation charge: BESSEL
     Using radial grid of 1105 points,  8 beta functions with:
                l(1) =   0
                l(2) =   0
                l(3) =   1
                l(4) =   1
                l(5) =   2
                l(6) =   2
                l(7) =   3
                l(8) =   3
     Q(r) pseudized with 0 coefficients

     PseudoPot. # 2 for V  read from file:
     /home/pragov/projects/rrg-bengioy-ad/pragov/crystal_structure_design/SSSP/v_pbe_v1.4.uspp.F.UPF
     MD5 check sum: 22b79981416ebb76fdaf5b1b8640f6fb
     Pseudo is Ultrasoft + core correction, Zval = 13.0
     Generated by new atomic code, or converted to UPF format
     Using radial grid of  853 points,  6 beta functions with:
                l(1) =   0
                l(2) =   0
                l(3) =   1
                l(4) =   1
                l(5) =   2
                l(6) =   2
     Q(r) pseudized with  8 coefficients,  rinner =    1.100   1.100   1.100
                                                       1.100   1.100

     PseudoPot. # 3 for Ge read from file:
     /home/pragov/projects/rrg-bengioy-ad/pragov/crystal_structure_design/SSSP/ge_pbe_v1.4.uspp.F.UPF
     MD5 check sum: 9c9eaa91e581c3f09632fb3098b2c6b2
     Pseudo is Ultrasoft + core correction, Zval = 14.0
     Generated by new atomic code, or converted to UPF format
     Using radial grid of  873 points,  6 beta functions with:
                l(1) =   0
                l(2) =   0
                l(3) =   1
                l(4) =   1
                l(5) =   2
                l(6) =   2
     Q(r) pseudized with  8 coefficients,  rinner =    1.400   1.400   1.400
                                                       1.400   1.400

     atomic species   valence    mass     pseudopotential
        Nd            14.00   144.24200     Nd( 1.00)
        V             13.00    50.94150     V ( 1.00)
        Ge            14.00    72.63000     Ge( 1.00)

     24 Sym. Ops., with inversion, found (12 have fractional translation)

                                    s                        frac. trans.

      isym =  1     identity

 cryst.   s( 1) = (     1          0          0      )
                  (     0          1          0      )
                  (     0          0          1      )

 cart.    s( 1) = (  1.0000000  0.0000000  0.0000000 )
                  (  0.0000000  1.0000000  0.0000000 )
                  (  0.0000000  0.0000000  1.0000000 )

      isym =  2     180 deg rotation - cart. axis [0,0,1]

 cryst.   s( 2) = (    -1          0          0      )    f =(  0.0000000 )
                  (     0         -1          0      )       (  0.0000000 )
                  (     0          0          1      )       ( -0.5000000 )

 cart.    s( 2) = ( -1.0000000 -0.0000000  0.0000000 )    f =(  0.0000000 )
                  (  0.0000000 -1.0000000  0.0000000 )       (  0.0000000 )
                  (  0.0000000  0.0000000  1.0000000 )       ( -0.4490745 )

[...]

      isym =  4     180 deg rotation - cart. axis [1,0,0]

[...]

      isym =  5      60 deg rotation - cryst. axis [0,0,1]

[...]

 cryst.   s( 8) = (    -1         -1          0      )
                  (     1          0          0      )
                  (     0          0          1      )

 cart.    s( 8) = ( -0.5000000  0.8660254  0.0000000 )
                  ( -0.8660254 -0.5000000  0.0000000 )
                  (  0.0000000  0.0000000  1.0000000 )

[...]

 cryst.   s( 9) = (     0         -1          0      )    f =(  0.0000000 )
                  (    -1          0          0      )       (  0.0000000 )
                  (     0          0         -1      )       ( -0.5000000 )

 cart.    s( 9) = (  0.5000000 -0.8660254  0.0000000 )    f =(  0.0000000 )
                  ( -0.8660254 -0.5000000  0.0000000 )       (  0.0000000 )
                  (  0.0000000  0.0000000 -1.0000000 )       ( -0.4490745 )

[...]

 cryst.   s(10) = (     1          1          0      )    f =(  0.0000000 )
                  (     0         -1          0      )       (  0.0000010 )
                  (     0          0         -1      )       ( -0.5000000 )

 cart.    s(10) = (  0.5000000  0.8660255  0.0000000 )    f =( -0.0000005 )
                  (  0.8660254 -0.5000000  0.0000000 )       (  0.0000009 )
                  (  0.0000000  0.0000000 -1.0000000 )       ( -0.4490745 )

[...]

 cryst.   s(11) = (    -1         -1          0      )
                  (     0          1          0      )
                  (     0          0         -1      )

 cart.    s(11) = ( -0.5000000 -0.8660255  0.0000000 )
                  ( -0.8660254  0.5000000  0.0000000 )
                  (  0.0000000  0.0000000 -1.0000000 )

      isym = 12     180 deg rotation - cryst. axis [1,1,0]

[...]

      isym = 13     inversion

[...]

      isym = 14     inv. 180 deg rotation - cart. axis [0,0,1]

[...]

      isym = 16     inv. 180 deg rotation - cart. axis [1,0,0]

[...]

      isym = 17     inv.  60 deg rotation - cryst. axis [0,0,1]

[...]

 cryst.   s(22) = (    -1         -1          0      )    f =(  0.0000000 )
                  (     0          1          0      )       (  0.0000010 )
                  (     0          0          1      )       ( -0.5000000 )

 cart.    s(22) = ( -0.5000000 -0.8660255  0.0000000 )    f =( -0.0000005 )
                  ( -0.8660254  0.5000000  0.0000000 )       (  0.0000009 )
                  (  0.0000000  0.0000000  1.0000000 )       ( -0.4490745 )

[...]

      isym = 24     inv. 180 deg rotation - cryst. axis [1,1,0]

 cryst.   s(24) = (     0         -1          0      )
                  (    -1          0          0      )
                  (     0          0          1      )

 cart.    s(24) = (  0.5000000 -0.8660254  0.0000000 )
                  ( -0.8660254 -0.5000000  0.0000000 )
                  (  0.0000000  0.0000000  1.0000000 )

   Cartesian axes

     site n.     atom                  positions (alat units)
         1           Nd  tau(   1) = (   0.5000005   0.2886748   0.2245373  )
         2           Nd  tau(   2) = (  -0.0000005   0.5773505   0.6736118  )
         3           V   tau(   3) = (   0.0000000   0.0000000   0.0000000  )
         4           V   tau(   4) = (   0.0000000   0.0000000   0.4490745  )
         5           Ge  tau(   5) = (   0.0000005   0.3366526   0.2245373  )
         6           Ge  tau(   6) = (  -0.2084495   0.6976986   0.2245373  )
         7           Ge  tau(   7) = (   0.2084505   0.6976986   0.2245373  )
         8           Ge  tau(   8) = (   0.2915495   0.1683268   0.6736118  )
         9           Ge  tau(   9) = (   0.7084495   0.1683268   0.6736118  )
        10           Ge  tau(  10) = (   0.4999995   0.5293727   0.6736118  )

   Crystallographic axes

     site n.     atom                  positions (cryst. coord.)
         1           Nd  tau(   1) = (  0.6666670  0.3333330  0.2500000  )
         2           Nd  tau(   2) = (  0.3333330  0.6666670  0.7500000  )
         3           V   tau(   3) = (  0.0000000  0.0000000  0.0000000  )
         4           V   tau(   4) = (  0.0000000  0.0000000  0.5000000  )
         5           Ge  tau(   5) = (  0.1943670  0.3887330  0.2500000  )
         6           Ge  tau(   6) = (  0.1943670  0.8056330  0.2500000  )
         7           Ge  tau(   7) = (  0.6112670  0.8056330  0.2500000  )
         8           Ge  tau(   8) = (  0.3887330  0.1943670  0.7500000  )
         9           Ge  tau(   9) = (  0.8056330  0.1943670  0.7500000  )
        10           Ge  tau(  10) = (  0.8056330  0.6112670  0.7500000  )

     number of k points=     1  Methfessel-Paxton smearing, width (Ry)=  0.0010
                       cart. coord. in units 2pi/alat
        k(    1) = (   0.0000000   0.0000000   0.0000000), wk =   2.0000000

                       cryst. coord.
        k(    1) = (   0.0000000   0.0000000   0.0000000), wk =   2.0000000

     Check: negative core charge=   -0.000002

     Initial potential from superposition of free atoms

     starting charge     137.9799, renormalised to     138.0000

     negative rho (up, down):  2.938E-03 0.000E+00
     Starting wfcs are  138 randomized atomic wfcs
     Checking if some PAW data can be deallocated...

     Self-consistent Calculation

     iteration #  1     ecut=    30.00 Ry     beta= 0.70
     Davidson diagonalization with overlap

     ethr =  1.00E-02,  avg # of iterations =  2.0
     Minimization algorithm failed to find Fermi energy: reverting to bisection
     Possible cause: smearing is larger than the electronic band-gap.

     Threshold (ethr) on eigenvalues was too large:
     Diagonalizing with lowered threshold

     Davidson diagonalization with overlap

     ethr =  3.57E-04,  avg # of iterations =  4.0

     negative rho (up, down):  3.158E-03 0.000E+00

     total energy              =   -2646.44178197 Ry
     estimated scf accuracy    <       0.50544560 Ry

[...]

     WARNING: integrated charge=   137.99634000, expected=   138.00000000

[...]

     WARNING: integrated charge=   137.99998516, expected=   138.00000000

[...]

     total energy              =   -2646.78167183 Ry
     estimated scf accuracy    <       0.00003871 Ry

     iteration # 70     ecut=    30.00 Ry     beta= 0.70
     Davidson diagonalization with overlap

     ethr =  1.08E-09,  avg # of iterations =  3.0

[...]

     End of self-consistent calculation

          k = 0.0000 0.0000 0.0000 (  1783 PWs)   bands (ev):

   -51.2371 -51.2017 -25.5436 -25.2413 -24.9421 -24.9420 -24.9022 -24.9021
   -23.9782 -23.9691 -11.4679 -11.4589 -11.4250 -11.4247 -11.4190 -11.4188
   -11.3970 -11.3805 -11.3403 -11.3385 -11.3340 -11.3336 -11.3335 -11.3334
   -11.3333 -11.3328 -11.3312 -11.3311 -11.3030 -11.3029 -11.2973 -11.2862
   -11.2860 -11.2760 -11.2758 -11.2680 -11.2659 -11.2657 -11.2563 -11.2533
    -5.4097  -5.3603  -5.3562  -5.3084  -5.2738  -5.2698   1.4855   2.9703
     5.5524   5.5539   5.8447   5.8480   7.4485   9.1381   9.6394   9.9947
     9.9964  11.1634  11.1659  11.3942  11.3978  11.6946  11.7024  11.7576
    12.9443  12.9985  13.0092  13.0109  13.1855  13.1925  13.1946  13.2179
    13.3208  13.3241  13.4489  13.4765  13.5384  13.5752  13.6107  13.6136
    13.9068  13.9071  14.2693

     occupation numbers
     1.0000   1.0000   1.0000   1.0000   1.0000   1.0000   1.0000   1.0000
     1.0000   1.0000   1.0000   1.0000   1.0000   1.0000   1.0000   1.0000
     1.0000   1.0000   1.0000   1.0000   1.0000   1.0000   1.0000   1.0000
     1.0000   1.0000   1.0000   1.0000   1.0000   1.0000   1.0000   1.0000
     1.0000   1.0000   1.0000   1.0000   1.0000   1.0000   1.0000   1.0000
     1.0000   1.0000   1.0000   1.0000   1.0000   1.0000   1.0000   1.0000
     1.0000   1.0000   1.0000   1.0000   1.0000   1.0000   1.0000   1.0000
     1.0000   1.0000   1.0000   1.0000   1.0000   1.0000   1.0000   1.0000
     1.0000   1.0000   1.0000   1.0000   0.6417   0.2291   0.1331  -0.0038
    -0.0000  -0.0000  -0.0000  -0.0000  -0.0000  -0.0000  -0.0000  -0.0000
    -0.0000  -0.0000  -0.0000

     the Fermi energy is    13.1878 ev

!    total energy              =   -2646.78167193 Ry
     estimated scf accuracy    <       0.00000093 Ry
     smearing contrib. (-TS)   =      -0.00054524 Ry
     internal energy E=F+TS    =   -2646.78112669 Ry

     The total energy is F=E-TS. E is the sum of the following terms:
     one-electron contribution =    -866.88238921 Ry
     hartree contribution      =     558.85511422 Ry
     xc contribution           =    -417.02958961 Ry
     ewald contribution        =   -1061.59501548 Ry
     one-center paw contrib.   =    -860.12924661 Ry
      -> PAW hartree energy AE =     162.93685762 Ry
      -> PAW hartree energy PS =    -162.17202766 Ry
      -> PAW xc energy AE      =    -886.03193639 Ry
      -> PAW xc energy PS      =      25.13785982 Ry
      -> total E_H with PAW    =     559.61994418 Ry
      -> total E_XC with PAW   =   -1277.92366617 Ry

     convergence has been achieved in  70 iterations

     negative rho (up, down):  3.536E-03 0.000E+00

     Forces acting on atoms (cartesian axes, Ry/au):

     atom    1 type  1   force =    -0.00000000   -0.00000000    0.00000000
     atom    2 type  1   force =     0.00000000    0.00000000    0.00000000
     atom    3 type  2   force =     0.00000000   -0.00000000   -0.00000000
     atom    4 type  2   force =     0.00000000    0.00000000    0.00000000
     atom    5 type  3   force =     0.00000000   -0.01557075    0.00000000
     atom    6 type  3   force =    -0.01348467    0.00778538    0.00000000
     atom    7 type  3   force =     0.01348467    0.00778538   -0.00000000
     atom    8 type  3   force =    -0.01348467   -0.00778538    0.00000000
     atom    9 type  3   force =     0.01348467   -0.00778538   -0.00000000
     atom   10 type  3   force =     0.00000000    0.01557075    0.00000000
     The non-local contrib.  to forces
     atom    1 type  1   force =    -0.00000000   -0.00000000    0.00000000
     atom    2 type  1   force =     0.00000000    0.00000000    0.00000000
     atom    3 type  2   force =     0.00000000   -0.00000000    0.00000000
     atom    4 type  2   force =    -0.00000000   -0.00000000    0.00000000
     atom    5 type  3   force =     0.00000000    0.27147912    0.00000000
     atom    6 type  3   force =     0.23510781   -0.13573955    0.00000000
     atom    7 type  3   force =    -0.23510781   -0.13573957   -0.00000000
     atom    8 type  3   force =     0.23510781    0.13573957    0.00000000
     atom    9 type  3   force =    -0.23510781    0.13573955   -0.00000000
     atom   10 type  3   force =     0.00000000   -0.27147912    0.00000000
     The ionic contribution  to forces
     atom    1 type  1   force =    -0.00000356    0.00000205    0.00000000
     atom    2 type  1   force =     0.00000356   -0.00000205   -0.00000000
     atom    3 type  2   force =     0.00000000   -0.00000000    0.00000000
     atom    4 type  2   force =     0.00000000   -0.00000000   -0.00000000
     atom    5 type  3   force =     0.00000534    3.57443805    0.00000000
     atom    6 type  3   force =     3.09547258   -1.78717181    0.00000000
     atom    7 type  3   force =    -3.09555139   -1.78722382    0.00000000
     atom    8 type  3   force =     3.09555139    1.78722382   -0.00000000
     atom    9 type  3   force =    -3.09547258    1.78717181   -0.00000000
     atom   10 type  3   force =    -0.00000534   -3.57443806   -0.00000000
     The local contribution  to forces
     atom    1 type  1   force =    -0.01598199   -0.01491402    0.00058459
     atom    2 type  1   force =     0.01597387    0.01491811   -0.00065933
     atom    3 type  2   force =     0.00000617    0.00000643    0.00006474
     atom    4 type  2   force =     0.00000648   -0.00000211   -0.00006578
     atom    5 type  3   force =     0.00219699   -3.85746758    0.00063818
     atom    6 type  3   force =    -3.33898729    1.93086486    0.00071173
     atom    7 type  3   force =     3.33933164    1.92853449    0.00068394
     atom    8 type  3   force =    -3.33926475   -1.92850704   -0.00065756
     atom    9 type  3   force =     3.33891415   -1.93082763   -0.00067512
     atom   10 type  3   force =    -0.00218987    3.85738587   -0.00062386
     The core correction contribution to forces
     atom    1 type  1   force =    -0.00000314   -0.00000292    0.00000005
     atom    2 type  1   force =     0.00000313    0.00000292   -0.00000006
     atom    3 type  2   force =    -0.00000014   -0.00000018    0.00000018
     atom    4 type  2   force =    -0.00000010   -0.00000017   -0.00000027
     atom    5 type  3   force =    -0.00001943   -0.00477170    0.00000067
     atom    6 type  3   force =    -0.00415651    0.00236905    0.00000088
     atom    7 type  3   force =     0.00417589    0.00240275    0.00000110
     atom    8 type  3   force =    -0.00417564   -0.00240277   -0.00000077
     atom    9 type  3   force =     0.00415637   -0.00236903   -0.00000023
     atom   10 type  3   force =     0.00001951    0.00477158   -0.00000038
     The Hubbard contrib.    to forces
     atom    1 type  1   force =     0.00000000    0.00000000    0.00000000
     atom    2 type  1   force =     0.00000000    0.00000000    0.00000000
     atom    3 type  2   force =     0.00000000    0.00000000    0.00000000
     atom    4 type  2   force =     0.00000000    0.00000000    0.00000000
     atom    5 type  3   force =     0.00000000    0.00000000    0.00000000
     atom    6 type  3   force =     0.00000000    0.00000000    0.00000000
     atom    7 type  3   force =     0.00000000    0.00000000    0.00000000
     atom    8 type  3   force =     0.00000000    0.00000000    0.00000000
     atom    9 type  3   force =     0.00000000    0.00000000    0.00000000
     atom   10 type  3   force =     0.00000000    0.00000000    0.00000000
     The SCF correction term to forces
     atom    1 type  1   force =    -0.00004646   -0.00013419   -0.00045043
     atom    2 type  1   force =     0.00005711    0.00013297    0.00049578
     atom    3 type  2   force =    -0.00000783   -0.00000801   -0.00006213
     atom    4 type  2   force =    -0.00000785    0.00000012    0.00005973
     atom    5 type  3   force =    -0.00000115    0.00027151   -0.00062468
     atom    6 type  3   force =     0.00025987   -0.00003553   -0.00069972
     atom    7 type  3   force =    -0.00028210   -0.00005139   -0.00067363
     atom    8 type  3   force =     0.00020714    0.00002076    0.00066438
     atom    9 type  3   force =    -0.00017116   -0.00000824    0.00067466
     atom   10 type  3   force =    -0.00000845   -0.00017654    0.00062739

     Total force =     0.038140     Total SCF correction =     0.001857

     Computing stress (Cartesian axis) and pressure

     negative rho (up, down):  3.536E-03 0.000E+00
          total   stress  (Ry/bohr**3)                   (kbar)     P=     -155.51
  -0.00081420  -0.00000000   0.00000000         -119.77       -0.00        0.00
  -0.00000000  -0.00081420   0.00000000           -0.00     -119.77        0.00
   0.00000000   0.00000000  -0.00154302            0.00        0.00     -226.99

     kinetic stress (kbar)  15894.43      0.00      0.00
                                0.00  15894.43      0.00
                                0.00      0.00  15810.97

     local   stress (kbar)   6026.63      1.70     -0.01
                                1.70   6028.29      0.23
                               -0.01      0.23  10818.36

     nonloc. stress (kbar)   4885.84      0.00      0.00
                                0.00   4885.84      0.00
                                0.00      0.00   4818.28

     hartree stress (kbar)  21821.69      0.45     -0.01
                                0.45  21819.82     -0.05
                               -0.01     -0.05  20087.49

     exc-cor stress (kbar)  12224.02      0.06     -0.00
                                0.06  12223.92     -0.00
                               -0.00     -0.00  12223.34

     corecor stress (kbar) -21624.75     -0.00      0.00
                               -0.00 -21624.74      0.00
                                0.00      0.00 -21621.49

     ewald   stress (kbar) -39347.51      0.03     -0.00
                                0.03 -39347.47     -0.00
                               -0.00     -0.00 -42363.93

     hubbard stress (kbar)      0.00      0.00      0.00
                                0.00      0.00      0.00
                                0.00      0.00      0.00

     DFT-D   stress (kbar)      0.00      0.00      0.00
                                0.00      0.00      0.00
                                0.00      0.00      0.00

     XDM     stress (kbar)      0.00      0.00      0.00
                                0.00      0.00      0.00
                                0.00      0.00      0.00

     dft-nl  stress (kbar)      0.00      0.00      0.00
                                0.00      0.00      0.00
                                0.00      0.00      0.00

     TS-vdW  stress (kbar)      0.00      0.00      0.00
                                0.00      0.00      0.00
                                0.00      0.00      0.00

[...]

                                0.00      0.00      0.00

     Writing all to output data dir new_calculations/myprefix.save/

     General routines

     Parallel routines

     PAW routines

   This run was terminated on:   5: 3:24  20May2023

   JOB DONE.