     Program PWSCF v.7.0 starts on 20May2023 at  6:51:58

     Reading input from espresso_12141.pwi
Warning: card &CELL ignored
Warning: card / ignored

     Current dimensions of program PWSCF are:
     Max number of different atomic species (ntypx) = 10
     Max number of k-points (npk) =  40000
     Max angular momentum in pseudopotentials (lmaxx) =  4

     gamma-point specific algorithms are used
     Message from routine setup:
     using ibrav=0 with symmetry is DISCOURAGED, use correct ibrav instead

     Subspace diagonalization in iterative solution of the eigenvalue problem:
     a serial algorithm will be used

     Using Slab Decomposition

     bravais-lattice index     =            0
     lattice parameter (alat)  =      13.0333  a.u.
     unit-cell volume          =    2079.7348 (a.u.)^3
     number of atoms/cell      =           12
     number of atomic types    =            2
     number of electrons       =       180.00
     number of Kohn-Sham states=          108
     kinetic-energy cutoff     =      30.0000  Ry
     charge density cutoff     =     240.0000  Ry
     scf convergence threshold =      1.0E-06
     mixing beta               =       0.7000
     number of iterations used =            8  plain     mixing
     Exchange-correlation= SLA  PW   PBE  PBE
                           (   1   4   3   4   0   0   0)

     celldm(1)=  13.033348  celldm(2)=   0.000000  celldm(3)=   0.000000
     celldm(4)=   0.000000  celldm(5)=   0.000000  celldm(6)=   0.000000

     crystal axes: (cart. coord. in units of alat)
               a(1) = (   1.000000   0.000000   0.000000 )
               a(2) = (   0.000000   1.017209   0.000000 )
               a(3) = (   0.000000   0.449361   0.923485 )

     reciprocal axes: (cart. coord. in units 2 pi/alat)
               b(1) = (  1.000000  0.000000  0.000000 )
               b(2) = (  0.000000  0.983082 -0.478361 )
               b(3) = (  0.000000  0.000000  1.082855 )

     PseudoPot. # 1 for Bi read from file:
     /home/pragov/projects/rrg-bengioy-ad/pragov/crystal_structure_design/SSSP/Bi_pbe_v1.uspp.F.UPF
     MD5 check sum: cceb9f28ec65b6d7ff33140f5b0b1758
     Pseudo is Ultrasoft + core correction, Zval = 15.0
     Generated by new atomic code, or converted to UPF format
     Using radial grid of  899 points,  6 beta functions with:
                l(1) =   0
                l(2) =   0
                l(3) =   1
                l(4) =   1
                l(5) =   2
                l(6) =   2
     Q(r) pseudized with  6 coefficients,  rinner =    1.000   1.000   1.000
                                                       1.000   1.000

     PseudoPot. # 2 for Ir read from file:
     /home/pragov/projects/rrg-bengioy-ad/pragov/crystal_structure_design/SSSP/Ir_pbe_v1.2.uspp.F.UPF
     MD5 check sum: 8836f839c3459d2b385c504ce6d91f2c
     Pseudo is Ultrasoft + core correction, Zval = 15.0
     Generated by new atomic code, or converted to UPF format
     Using radial grid of  983 points,  7 beta functions with:
                l(1) =   0
                l(2) =   0
                l(3) =   1
                l(4) =   1
                l(5) =   1
                l(6) =   2
                l(7) =   2
     Q(r) pseudized with  8 coefficients,  rinner =    1.400   1.400   1.400
                                                       1.400   1.400

     atomic species   valence    mass     pseudopotential
        Bi            15.00   208.98040     Bi( 1.00)
        Ir            15.00   192.21700     Ir( 1.00)

      4 Sym. Ops., with inversion, found ( 2 have fractional translation)

                                    s                        frac. trans.

      isym =  1     identity

 cryst.   s( 1) = (     1          0          0      )
                  (     0          1          0      )
                  (     0          0          1      )

 cart.    s( 1) = (  1.0000000  0.0000000  0.0000000 )
                  (  0.0000000  1.0000000 -0.0000000 )
                  (  0.0000000  0.0000000  1.0000000 )

      isym =  2     180 deg rotation - cart. axis [1,0,0]

 cryst.   s( 2) = (     1          0          0      )    f =( -0.5000000 )
                  (     0         -1          0      )       (  0.0000000 )
                  (     0          0         -1      )       (  0.5000000 )

 cart.    s( 2) = (  1.0000000  0.0000000  0.0000000 )    f =( -0.5000000 )
                  (  0.0000000 -1.0000000  0.0000000 )       (  0.2246807 )
                  (  0.0000000  0.0000000 -1.0000000 )       (  0.4617423 )

      isym =  3     inversion

 cryst.   s( 3) = (    -1          0          0      )
                  (     0         -1          0      )
                  (     0          0         -1      )

 cart.    s( 3) = ( -1.0000000  0.0000000  0.0000000 )
                  (  0.0000000 -1.0000000  0.0000000 )
                  (  0.0000000  0.0000000 -1.0000000 )

      isym =  4     inv. 180 deg rotation - cart. axis [1,0,0]

 cryst.   s( 4) = (    -1          0          0      )    f =(  0.5000000 )
                  (     0          1          0      )       ( -0.0000000 )
                  (     0          0          1      )       ( -0.5000000 )

 cart.    s( 4) = ( -1.0000000  0.0000000  0.0000000 )    f =(  0.5000000 )
                  (  0.0000000  1.0000000 -0.0000000 )       ( -0.2246807 )
                  (  0.0000000  0.0000000  1.0000000 )       ( -0.4617423 )

   Cartesian axes

     site n.     atom                  positions (alat units)
         1           Bi  tau(   1) = (   0.3581030   0.7412150   0.1577450  )
         2           Bi  tau(   2) = (   0.8581030   0.5006749   0.3039973  )
         3           Bi  tau(   3) = (   0.6418970   0.7253557   0.7657396  )
         4           Bi  tau(   4) = (   0.1418970   0.9658957   0.6194873  )
         5           Bi  tau(   5) = (   0.6363010   1.0374810   0.3456150  )
         6           Bi  tau(   6) = (   0.1363010   0.2044090   0.1161273  )
         7           Bi  tau(   7) = (   0.3636990   0.4290897   0.5778696  )
         8           Bi  tau(   8) = (   0.8636990   1.2621617   0.8073573  )
         9           Ir  tau(   9) = (   0.9969940   0.8702282   0.2641637  )
        10           Ir  tau(  10) = (   0.4969940   0.3716617   0.1975786  )
        11           Ir  tau(  11) = (   0.0030060   0.5963425   0.6593209  )
        12           Ir  tau(  12) = (   0.5030060   1.0949089   0.7259060  )

   Crystallographic axes

     site n.     atom                  positions (cryst. coord.)
         1           Bi  tau(   1) = (  0.3581030  0.6532160  0.1708150  )
         2           Bi  tau(   2) = (  0.8581030  0.3467840  0.3291850  )
         3           Bi  tau(   3) = (  0.6418970  0.3467840  0.8291850  )
         4           Bi  tau(   4) = (  0.1418970  0.6532160  0.6708150  )
         5           Bi  tau(   5) = (  0.6363010  0.8546000  0.3742510  )
         6           Bi  tau(   6) = (  0.1363010  0.1454000  0.1257490  )
         7           Bi  tau(   7) = (  0.3636990  0.1454000  0.6257490  )
         8           Bi  tau(   8) = (  0.8636990  0.8546000  0.8742510  )
         9           Ir  tau(   9) = (  0.9969940  0.7291400  0.2860510  )
        10           Ir  tau(  10) = (  0.4969940  0.2708600  0.2139490  )
        11           Ir  tau(  11) = (  0.0030060  0.2708600  0.7139490  )
        12           Ir  tau(  12) = (  0.5030060  0.7291400  0.7860510  )

     number of k points=     1  Methfessel-Paxton smearing, width (Ry)=  0.0010
                       cart. coord. in units 2pi/alat
        k(    1) = (   0.0000000   0.0000000   0.0000000), wk =   2.0000000

                       cryst. coord.
        k(    1) = (   0.0000000   0.0000000   0.0000000), wk =   2.0000000

     Check: negative core charge=   -0.000004

     Initial potential from superposition of free atoms

     starting charge     169.9995, renormalised to     180.0000

     negative rho (up, down):  1.886E+00 0.000E+00
     Starting wfcs are  120 randomized atomic wfcs

     Self-consistent Calculation

     iteration #  1     ecut=    30.00 Ry     beta= 0.70
     Davidson diagonalization with overlap

     ethr =  1.00E-02,  avg # of iterations =  4.0

     negative rho (up, down):  1.491E+00 0.000E+00

     total energy              =   -2202.03231982 Ry
     estimated scf accuracy    <      15.44999975 Ry

[...]

     total energy              =   -2209.67977074 Ry
     estimated scf accuracy    <       0.00000174 Ry

     iteration # 13     ecut=    30.00 Ry     beta= 0.70
     Davidson diagonalization with overlap

     ethr =  9.67E-10,  avg # of iterations =  2.0

[...]

     End of self-consistent calculation

          k = 0.0000 0.0000 0.0000 (  2894 PWs)   bands (ev):

   -34.7073 -34.7063 -34.7046 -34.7045 -34.5943 -34.5934 -34.5923 -34.5920
   -34.5494 -34.5493 -34.5258 -34.5257  -9.4073  -9.3885  -9.3648  -9.3611
    -9.3176  -9.3130  -9.3106  -9.2729  -9.2467  -9.2450  -9.2418  -9.2397
    -9.2354  -9.2156  -9.2049  -9.1976  -9.1972  -9.1961  -9.1907  -9.1872
    -9.1855  -9.1796  -9.1769  -9.1593  -9.1525  -9.1510  -9.1363  -9.1322
    -9.1318  -9.1296  -9.1193  -9.1129  -9.1105  -9.1061  -9.1016  -9.0987
    -9.0718  -9.0713  -9.0664  -9.0431   0.5048   2.3742   2.3833   2.4128
     2.9996   3.3708   3.5744   3.6763   7.7627   8.7026   8.7349   8.7665
     9.6183   9.6943   9.7353   9.8332   9.8402  10.3803  10.3838  10.7211
    10.8769  11.0498  11.0721  11.2019  11.5770  11.6125  11.6587  11.6847
    11.7473  11.7511  12.2441  12.2891  12.3081  12.4126  12.4995  12.5456
    12.6775  12.8157  14.3498  14.3556  14.5591  14.6299  16.1947  16.3141
    16.3586  16.9395  17.4183  17.5632  17.7067  17.8722  18.1762  18.6156
    18.7423  19.0272  19.0774  19.7318

     occupation numbers
     1.0000   1.0000   1.0000   1.0000   1.0000   1.0000   1.0000   1.0000
     1.0000   1.0000   1.0000   1.0000   1.0000   1.0000   1.0000   1.0000
     1.0000   1.0000   1.0000   1.0000   1.0000   1.0000   1.0000   1.0000
     1.0000   1.0000   1.0000   1.0000   1.0000   1.0000   1.0000   1.0000
     1.0000   1.0000   1.0000   1.0000   1.0000   1.0000   1.0000   1.0000
     1.0000   1.0000   1.0000   1.0000   1.0000   1.0000   1.0000   1.0000
     1.0000   1.0000   1.0000   1.0000   1.0000   1.0000   1.0000   1.0000
     1.0000   1.0000   1.0000   1.0000   1.0000   1.0000   1.0000   1.0000
     1.0000   1.0000   1.0000   1.0000   1.0000   1.0000   1.0000   1.0000
     1.0000   1.0000   1.0000   1.0000   1.0000   1.0000   1.0000   1.0000
     1.0000   1.0000   1.0000   1.0000   1.0000   1.0000   1.0000   1.0000
     1.0000   1.0000  -0.0000  -0.0000  -0.0000  -0.0000  -0.0000  -0.0000
    -0.0000  -0.0000  -0.0000  -0.0000  -0.0000  -0.0000  -0.0000  -0.0000
    -0.0000  -0.0000  -0.0000  -0.0000

     the Fermi energy is    13.0290 ev

!    total energy              =   -2209.67977084 Ry
     estimated scf accuracy    <       0.00000019 Ry
     smearing contrib. (-TS)   =       0.00000000 Ry
     internal energy E=F+TS    =   -2209.67977084 Ry

     The total energy is F=E-TS. E is the sum of the following terms:
     one-electron contribution =    -531.36139683 Ry
     hartree contribution      =     389.72476511 Ry
     xc contribution           =    -719.12294510 Ry
     ewald contribution        =   -1348.92019403 Ry

     convergence has been achieved in  13 iterations

     negative rho (up, down):  1.631E+00 0.000E+00

     Forces acting on atoms (cartesian axes, Ry/au):

     atom    1 type  1   force =     0.04233484    0.03145894    0.02193656
     atom    2 type  1   force =     0.04233484   -0.03145894   -0.02193656
     atom    3 type  1   force =    -0.04233484   -0.03145894   -0.02193656
     atom    4 type  1   force =    -0.04233484    0.03145894    0.02193656
     atom    5 type  1   force =    -0.03418525   -0.02597351   -0.01591919
     atom    6 type  1   force =    -0.03418525    0.02597351    0.01591919
     atom    7 type  1   force =     0.03418525    0.02597351    0.01591919
     atom    8 type  1   force =     0.03418525   -0.02597351   -0.01591919
     atom    9 type  2   force =    -0.01428432    0.00559614    0.00537589
     atom   10 type  2   force =    -0.01428432   -0.00559614   -0.00537589
     atom   11 type  2   force =     0.01428432   -0.00559614   -0.00537589
     atom   12 type  2   force =     0.01428432    0.00559614    0.00537589
     The non-local contrib.  to forces
     atom    1 type  1   force =    -0.14855443   -0.18219881   -0.10607942
     atom    2 type  1   force =    -0.14855443    0.18219881    0.10607942
     atom    3 type  1   force =     0.14855443    0.18219881    0.10607942
     atom    4 type  1   force =     0.14855443   -0.18219881   -0.10607942
     atom    5 type  1   force =     0.15414889    0.15374820    0.09095420
     atom    6 type  1   force =     0.15414889   -0.15374820   -0.09095420
     atom    7 type  1   force =    -0.15414889   -0.15374820   -0.09095420
     atom    8 type  1   force =    -0.15414889    0.15374820    0.09095420
     atom    9 type  2   force =     0.00522310   -0.02992439    0.05451380
     atom   10 type  2   force =     0.00522310    0.02992439   -0.05451380
     atom   11 type  2   force =    -0.00522310    0.02992439   -0.05451380
     atom   12 type  2   force =    -0.00522310   -0.02992439    0.05451380
     The ionic contribution  to forces
     atom    1 type  1   force =     0.58379888    5.20665936    2.25073423
     atom    2 type  1   force =     0.58379888   -5.20665936   -2.25073423
     atom    3 type  1   force =    -0.58379888   -5.20665936   -2.25073423
     atom    4 type  1   force =    -0.58379888    5.20665936    2.25073423
     atom    5 type  1   force =     0.05550150   -2.33736704   -2.34425043
     atom    6 type  1   force =     0.05550150    2.33736704    2.34425043
     atom    7 type  1   force =    -0.05550150    2.33736704    2.34425043
     atom    8 type  1   force =    -0.05550150   -2.33736704   -2.34425043
     atom    9 type  2   force =    -0.95019005    2.20762977   -0.90742856
     atom   10 type  2   force =    -0.95019005   -2.20762977    0.90742856
     atom   11 type  2   force =     0.95019005   -2.20762977    0.90742856
     atom   12 type  2   force =     0.95019005    2.20762977   -0.90742856
     The local contribution  to forces
     atom    1 type  1   force =    -0.40789165   -5.00376957   -2.12940425
     atom    2 type  1   force =    -0.40843448    5.00408730    2.12893793
     atom    3 type  1   force =     0.40854944    5.00412168    2.12904592
     atom    4 type  1   force =     0.40795932   -5.00383787   -2.12897720
     atom    5 type  1   force =    -0.22965418    2.17008670    2.24449301
     atom    6 type  1   force =    -0.23061771   -2.17041520   -2.24452028
     atom    7 type  1   force =     0.23049118   -2.17038077   -2.24404894
     atom    8 type  1   force =     0.22961315    2.17018778    2.24455493
     atom    9 type  2   force =     0.93196499   -2.17009799    0.85832244
     atom   10 type  2   force =     0.93381608    2.17006499   -0.85901606
     atom   11 type  2   force =    -0.93382538    2.17000050   -0.85835782
     atom   12 type  2   force =    -0.93191961   -2.17016167    0.85878187
     The core correction contribution to forces
     atom    1 type  1   force =     0.01526804    0.01085911    0.00633400
     atom    2 type  1   force =     0.01526701   -0.01086002   -0.00633635
     atom    3 type  1   force =    -0.01526715   -0.01086071   -0.00633535
     atom    4 type  1   force =    -0.01526789    0.01085843    0.00633460
     atom    5 type  1   force =    -0.01369489   -0.01259492   -0.00699406
     atom    6 type  1   force =    -0.01369348    0.01259555    0.00699061
     atom    7 type  1   force =     0.01369329    0.01259534    0.00699198
     atom    8 type  1   force =     0.01369547   -0.01259453   -0.00699261
     atom    9 type  2   force =    -0.00209849   -0.00216049   -0.00032462
     atom   10 type  2   force =    -0.00208490    0.00216068    0.00031778
     atom   11 type  2   force =     0.00208363    0.00216046    0.00032609
     atom   12 type  2   force =     0.00209864   -0.00216209   -0.00032095
     The Hubbard contrib.    to forces
     atom    1 type  1   force =     0.00000000    0.00000000    0.00000000
     atom    2 type  1   force =     0.00000000    0.00000000    0.00000000
     atom    3 type  1   force =     0.00000000    0.00000000    0.00000000
     atom    4 type  1   force =     0.00000000    0.00000000    0.00000000
     atom    5 type  1   force =     0.00000000    0.00000000    0.00000000
     atom    6 type  1   force =     0.00000000    0.00000000    0.00000000
     atom    7 type  1   force =     0.00000000    0.00000000    0.00000000
     atom    8 type  1   force =     0.00000000    0.00000000    0.00000000
     atom    9 type  2   force =     0.00000000    0.00000000    0.00000000
     atom   10 type  2   force =     0.00000000    0.00000000    0.00000000
     atom   11 type  2   force =     0.00000000    0.00000000    0.00000000
     atom   12 type  2   force =     0.00000000    0.00000000    0.00000000
     The SCF correction term to forces
     atom    1 type  1   force =    -0.00032122   -0.00010032    0.00035568
     atom    2 type  1   force =     0.00028893   -0.00023318    0.00012636
     atom    3 type  1   force =    -0.00041898   -0.00026223   -0.00001217
     atom    4 type  1   force =     0.00026033   -0.00002342   -0.00008952
     atom    5 type  1   force =    -0.00052171    0.00016285   -0.00011370
     atom    6 type  1   force =     0.00052575    0.00018457    0.00016512
     atom    7 type  1   force =    -0.00038071    0.00013257   -0.00034594
     atom    8 type  1   force =     0.00057396    0.00004549   -0.00020686
     atom    9 type  2   force =     0.00084125    0.00015189    0.00030610
     atom   10 type  2   force =    -0.00107713   -0.00011268    0.00042086
     atom   11 type  2   force =     0.00108261   -0.00004742   -0.00026924
     atom   12 type  2   force =    -0.00088860    0.00021990   -0.00018061

     Total force =     0.149987     Total SCF correction =     0.002512

     Computing stress (Cartesian axis) and pressure

     negative rho (up, down):  1.631E+00 0.000E+00
          total   stress  (Ry/bohr**3)                   (kbar)     P=      -34.46
  -0.00019222   0.00000000   0.00000000          -28.28        0.00        0.00
   0.00000000  -0.00026542  -0.00012063            0.00      -39.04      -17.74
   0.00000000  -0.00012063  -0.00024509            0.00      -17.74      -36.05

     kinetic stress (kbar)  14103.59      0.00      0.00
                                0.00  14136.07    -52.00
                                0.00    -52.00  14165.71

     local   stress (kbar)   1577.26      0.00      0.00
                                0.00    959.45     -2.79
                                0.00     -2.79    647.15

     nonloc. stress (kbar)  15748.25      0.00      0.00
                                0.00  15710.26     46.38
                                0.00     46.38  15657.09

     hartree stress (kbar)   8939.02      0.00     -0.00
                                0.00   9162.42   -180.05
                               -0.00   -180.05   9464.81

     exc-cor stress (kbar)  28380.58     -0.00      0.00
                               -0.00  28380.56      2.65
                                0.00      2.65  28378.13

     corecor stress (kbar) -36699.03      0.00     -0.00
                                0.00 -36701.16     -0.59
                               -0.00     -0.59 -36700.89

     ewald   stress (kbar) -32077.94     -0.00     -0.00
                               -0.00 -31686.64    168.66
                               -0.00    168.66 -31648.06

     hubbard stress (kbar)      0.00      0.00      0.00
                                0.00      0.00      0.00
                                0.00      0.00      0.00

     DFT-D   stress (kbar)      0.00      0.00      0.00
                                0.00      0.00      0.00
                                0.00      0.00      0.00

     XDM     stress (kbar)      0.00      0.00      0.00
                                0.00      0.00      0.00
                                0.00      0.00      0.00

     dft-nl  stress (kbar)      0.00      0.00      0.00
                                0.00      0.00      0.00
                                0.00      0.00      0.00

     TS-vdW  stress (kbar)      0.00      0.00      0.00
                                0.00      0.00      0.00
                                0.00      0.00      0.00

[...]

                                0.00      0.00      0.00

     Writing all to output data dir new_calculations/myprefix.save/

     General routines

     Parallel routines

   This run was terminated on:   6:52:46  20May2023

   JOB DONE.