     Program PWSCF v.7.0 starts on 20May2023 at 12:14:18

     Reading input from espresso_8456.pwi
Warning: card &CELL ignored
Warning: card / ignored

     Current dimensions of program PWSCF are:
     Max number of different atomic species (ntypx) = 10
     Max number of k-points (npk) =  40000
     Max angular momentum in pseudopotentials (lmaxx) =  4

     gamma-point specific algorithms are used
     Message from routine setup:
     using ibrav=0 with symmetry is DISCOURAGED, use correct ibrav instead

     Subspace diagonalization in iterative solution of the eigenvalue problem:
     a serial algorithm will be used

     Using Slab Decomposition

     bravais-lattice index     =            0
     lattice parameter (alat)  =       7.6159  a.u.
     unit-cell volume          =    2536.8072 (a.u.)^3
     number of atoms/cell      =           15
     number of atomic types    =            2
     number of electrons       =       135.00
     number of Kohn-Sham states=           82
     kinetic-energy cutoff     =      30.0000  Ry
     charge density cutoff     =     240.0000  Ry
     scf convergence threshold =      1.0E-06
     mixing beta               =       0.7000
     number of iterations used =            8  plain     mixing
     Exchange-correlation= SLA  PW   PBE  PBE
                           (   1   4   3   4   0   0   0)

     celldm(1)=   7.615859  celldm(2)=   0.000000  celldm(3)=   0.000000
     celldm(4)=   0.000000  celldm(5)=   0.000000  celldm(6)=   0.000000

     crystal axes: (cart. coord. in units of alat)
               a(1) = (   1.000000   0.000000   0.000000 )
               a(2) = (  -0.490693   1.627425   0.000000 )
               a(3) = (  -0.109638  -0.640693   3.528823 )

     reciprocal axes: (cart. coord. in units 2 pi/alat)
               b(1) = (  1.000000  0.301515  0.085812 )
               b(2) = (  0.000000  0.614468  0.111563 )
               b(3) = (  0.000000  0.000000  0.283381 )

     PseudoPot. # 1 for Te read from file:
     /home/pragov/projects/rrg-bengioy-ad/pragov/crystal_structure_design/SSSP/Te_pbe_v1.uspp.F.UPF
     MD5 check sum: c319670d6894cc26e93307826a071b75
     Pseudo is Ultrasoft + core correction, Zval =  6.0
     Generated by new atomic code, or converted to UPF format
     Using radial grid of  891 points,  5 beta functions with:
                l(1) =   0
                l(2) =   0
                l(3) =   1
                l(4) =   1
                l(5) =   2
     Q(r) pseudized with  6 coefficients,  rinner =    1.800   1.800   1.800
                                                       1.800   1.800

     PseudoPot. # 2 for Ir read from file:
     /home/pragov/projects/rrg-bengioy-ad/pragov/crystal_structure_design/SSSP/Ir_pbe_v1.2.uspp.F.UPF
     MD5 check sum: 8836f839c3459d2b385c504ce6d91f2c
     Pseudo is Ultrasoft + core correction, Zval = 15.0
     Generated by new atomic code, or converted to UPF format
     Using radial grid of  983 points,  7 beta functions with:
                l(1) =   0
                l(2) =   0
                l(3) =   1
                l(4) =   1
                l(5) =   1
                l(6) =   2
                l(7) =   2
     Q(r) pseudized with  8 coefficients,  rinner =    1.400   1.400   1.400
                                                       1.400   1.400

     atomic species   valence    mass     pseudopotential
        Te             6.00   127.60000     Te( 1.00)
        Ir            15.00   192.21700     Ir( 1.00)

      2 Sym. Ops., with inversion, found

                                    s                        frac. trans.

      isym =  1     identity

 cryst.   s( 1) = (     1          0          0      )
                  (     0          1          0      )
                  (     0          0          1      )

 cart.    s( 1) = (  1.0000000  0.0000000  0.0000000 )
                  (  0.0000000  1.0000000 -0.0000000 )
                  (  0.0000000  0.0000000  1.0000000 )

      isym =  2     inversion

 cryst.   s( 2) = (    -1          0          0      )
                  (     0         -1          0      )
                  (     0          0         -1      )

 cart.    s( 2) = ( -1.0000000 -0.0000000 -0.0000000 )
                  (  0.0000000 -1.0000000  0.0000000 )
                  (  0.0000000  0.0000000 -1.0000000 )

   Cartesian axes

     site n.     atom                  positions (alat units)
         1           Te  tau(   1) = (   0.4334917   1.0647987   0.3208371  )
         2           Te  tau(   2) = (  -0.0352562   0.7894673   3.1393966  )
         3           Te  tau(   3) = (  -0.0480467  -0.3566803   2.4260838  )
         4           Te  tau(   4) = (   0.4453921   0.1167561   1.7171784  )
         5           Te  tau(   5) = (  -0.0610631   0.5843892   0.9959293  )
         6           Te  tau(   6) = (   0.4349253   0.1972641   0.3894268  )
         7           Te  tau(   7) = (  -0.0338226  -0.0780672   3.2079863  )
         8           Te  tau(   8) = (   0.4607322   0.4023422   2.5328942  )
         9           Te  tau(   9) = (  -0.0457230   0.8699754   1.8116450  )
        10           Te  tau(  10) = (   0.4477158   1.3434118   1.1027397  )
        11           Ir  tau(  11) = (   0.4716805   0.3521057   3.2055444  )
        12           Ir  tau(  12) = (  -0.0396948   0.8391480   2.4808687  )
        13           Ir  tau(  13) = (  -0.0548192  -0.3203465   1.7644117  )
        14           Ir  tau(  14) = (  -0.0720114   0.6346257   0.3232790  )
        15           Ir  tau(  15) = (   0.4393639   0.1475835   1.0479547  )

   Crystallographic axes

     site n.     atom                  positions (cryst. coord.)
         1           Te  tau(   1) = (  0.7820760  0.6900780  0.0909190  )
         2           Te  tau(   2) = (  0.4721790  0.8353420  0.8896440  )
         3           Te  tau(   3) = (  0.0525970  0.0514920  0.6875050  )
         4           Te  tau(   4) = (  0.6279510  0.2633160  0.4866150  )
         5           Te  tau(   5) = (  0.2006020  0.4701970  0.2822270  )
         6           Te  tau(   6) = (  0.5278210  0.1646580  0.1103560  )
         7           Te  tau(   7) = (  0.2179240  0.3099220  0.9090810  )
         8           Te  tau(   8) = (  0.7993980  0.5298030  0.7177730  )
         9           Te  tau(   9) = (  0.3720490  0.7366840  0.5133850  )
        10           Te  tau(  10) = (  0.9474030  0.9485080  0.3124950  )
        11           Ir  tau(  11) = (  0.8529210  0.5739770  0.9083890  )
        12           Ir  tau(  12) = (  0.4262100  0.7924020  0.7030300  )
        13           Ir  tau(  13) = (  0.0000000  0.0000000  0.5000000  )
        14           Ir  tau(  14) = (  0.1470790  0.4260230  0.0916110  )
        15           Ir  tau(  15) = (  0.5737900  0.2075980  0.2969700  )

     number of k points=     1  Methfessel-Paxton smearing, width (Ry)=  0.0010
                       cart. coord. in units 2pi/alat
        k(    1) = (   0.0000000   0.0000000   0.0000000), wk =   2.0000000

                       cryst. coord.
        k(    1) = (   0.0000000   0.0000000   0.0000000), wk =   2.0000000

     Initial potential from superposition of free atoms

     starting charge     132.4977, renormalised to     135.0000

     negative rho (up, down):  1.855E+00 0.000E+00
     Starting wfcs are  100 randomized atomic wfcs

     Self-consistent Calculation

     iteration #  1     ecut=    30.00 Ry     beta= 0.70
     Davidson diagonalization with overlap

     ethr =  1.00E-02,  avg # of iterations =  3.0

     negative rho (up, down):  1.488E+00 0.000E+00

     total energy              =   -1168.30906191 Ry
     estimated scf accuracy    <       7.26963711 Ry

[...]

     total energy              =   -1172.74461216 Ry
     estimated scf accuracy    <       0.00000313 Ry

     iteration # 17     ecut=    30.00 Ry     beta= 0.70
     Davidson diagonalization with overlap

     ethr =  2.32E-09,  avg # of iterations =  2.0

[...]

     End of self-consistent calculation

          k = 0.0000 0.0000 0.0000 (  3526 PWs)   bands (ev):

   -38.7382 -38.7362 -38.4976 -38.4974 -38.3707 -38.3502 -38.3121 -38.2391
   -38.2385 -38.1550 -38.1548 -38.0140 -37.9501 -37.9500 -37.7805  -3.1989
    -2.5445  -2.4180  -1.3722  -1.1535  -0.9561  -0.8153  -0.5046  -0.4225
     0.0300   3.8777   3.9292   4.2247   4.6515   4.7978   5.0413   5.2537
     5.5909   5.7004   5.8354   5.9858   5.9874   6.2109   6.2663   6.4647
     6.8422   7.2350   7.2785   7.3446   7.6239   7.6288   7.9311   7.9741
     8.0700   8.3427   8.4030   8.6303   8.6639   8.7523   8.8499   8.9694
     9.0424   9.1939   9.2222   9.6417   9.7163   9.9201  10.0233  10.1349
    10.3052  10.3447  11.0708  11.2729  11.5272  11.6996  11.7636  12.0555
    12.1138  12.1804  12.3719  12.4007  12.4949  12.5269  12.7144  12.8282
    13.8902  14.1670

     occupation numbers
     1.0000   1.0000   1.0000   1.0000   1.0000   1.0000   1.0000   1.0000
     1.0000   1.0000   1.0000   1.0000   1.0000   1.0000   1.0000   1.0000
     1.0000   1.0000   1.0000   1.0000   1.0000   1.0000   1.0000   1.0000
     1.0000   1.0000   1.0000   1.0000   1.0000   1.0000   1.0000   1.0000
     1.0000   1.0000   1.0000   1.0000   1.0000   1.0000   1.0000   1.0000
     1.0000   1.0000   1.0000   1.0000   1.0000   1.0000   1.0000   1.0000
     1.0000   1.0000   1.0000   1.0000   1.0000   1.0000   1.0000   1.0000
     1.0000   1.0000   1.0000   1.0000   1.0000   1.0000   1.0000   1.0000
     1.0000   1.0000   1.0000   0.5000  -0.0000  -0.0000  -0.0000  -0.0000
    -0.0000  -0.0000  -0.0000  -0.0000  -0.0000  -0.0000  -0.0000  -0.0000
    -0.0000  -0.0000

     the Fermi energy is    11.2729 ev

!    total energy              =   -1172.74461247 Ry
     estimated scf accuracy    <       0.00000055 Ry
     smearing contrib. (-TS)   =      -0.00028209 Ry
     internal energy E=F+TS    =   -1172.74433037 Ry

     The total energy is F=E-TS. E is the sum of the following terms:
     one-electron contribution =    -408.26150065 Ry
     hartree contribution      =     276.07667454 Ry
     xc contribution           =    -397.37012790 Ry
     ewald contribution        =    -643.18937636 Ry

     convergence has been achieved in  17 iterations

     negative rho (up, down):  1.608E+00 0.000E+00

     Forces acting on atoms (cartesian axes, Ry/au):

     atom    1 type  1   force =    -0.00564082   -0.01702796   -0.01595040
     atom    2 type  1   force =    -0.01657682   -0.01595585   -0.02307546
     atom    3 type  1   force =     0.00054121   -0.01354270   -0.03147939
     atom    4 type  1   force =    -0.00268550   -0.02264449   -0.02352574
     atom    5 type  1   force =    -0.00088060   -0.00860232   -0.01026525
     atom    6 type  1   force =     0.01657682    0.01595585    0.02307546
     atom    7 type  1   force =     0.00564082    0.01702796    0.01595040
     atom    8 type  1   force =     0.00088060    0.00860232    0.01026525
     atom    9 type  1   force =     0.00268550    0.02264449    0.02352574
     atom   10 type  1   force =    -0.00054121    0.01354270    0.03147939
     atom   11 type  2   force =    -0.00969245    0.02878719    0.01270831
     atom   12 type  2   force =    -0.00363524   -0.01229410    0.00794848
     atom   13 type  2   force =     0.00000000    0.00000000    0.00000000
     atom   14 type  2   force =     0.00969245   -0.02878719   -0.01270831
     atom   15 type  2   force =     0.00363524    0.01229410   -0.00794848
     The non-local contrib.  to forces
     atom    1 type  1   force =     0.03522303    0.14041189    0.06784207
     atom    2 type  1   force =    -0.02451378    0.19639913    0.02039216
     atom    3 type  1   force =     0.00677652    0.15420527    0.01729861
     atom    4 type  1   force =    -0.00213808    0.16427161    0.02861383
     atom    5 type  1   force =    -0.00396518    0.20175741    0.04834234
     atom    6 type  1   force =     0.02451378   -0.19639913   -0.02039216
     atom    7 type  1   force =    -0.03522303   -0.14041189   -0.06784207
     atom    8 type  1   force =     0.00396518   -0.20175741   -0.04834234
     atom    9 type  1   force =     0.00213808   -0.16427161   -0.02861383
     atom   10 type  1   force =    -0.00677652   -0.15420527   -0.01729861
     atom   11 type  2   force =    -0.00315451    0.00072362    0.03883350
     atom   12 type  2   force =     0.00139871   -0.00374233    0.00824427
     atom   13 type  2   force =     0.00000000    0.00000000    0.00000000
     atom   14 type  2   force =     0.00315451   -0.00072362   -0.03883350
     atom   15 type  2   force =    -0.00139871    0.00374233   -0.00824427
     The ionic contribution  to forces
     atom    1 type  1   force =    -0.60246012    6.84033381    4.73449799
     atom    2 type  1   force =     0.12254156    6.18025894    3.19924790
     atom    3 type  1   force =     0.00958041    5.83106266    3.27004974
     atom    4 type  1   force =     0.01962229    5.95862881    3.84808712
     atom    5 type  1   force =     0.05588531    5.72172767    4.39407126
     atom    6 type  1   force =    -0.12254156   -6.18025894   -3.19924790
     atom    7 type  1   force =     0.60246012   -6.84033381   -4.73449799
     atom    8 type  1   force =    -0.05588531   -5.72172767   -4.39407127
     atom    9 type  1   force =    -0.01962229   -5.95862881   -3.84808712
     atom   10 type  1   force =    -0.00958041   -5.83106266   -3.27004974
     atom   11 type  2   force =    -0.40696063    1.22181899   -3.58223637
     atom   12 type  2   force =     0.04377814   -0.08655969   -1.27319750
     atom   13 type  2   force =    -0.00000000   -0.00000000    0.00000000
     atom   14 type  2   force =     0.40696063   -1.22181899    3.58223637
     atom   15 type  2   force =    -0.04377814    0.08655969    1.27319749
     The local contribution  to forces
     atom    1 type  1   force =     0.55821930   -7.02272393   -4.83080759
     atom    2 type  1   force =    -0.11258575   -6.42296620   -3.24857507
     atom    3 type  1   force =    -0.01647754   -6.02394195   -3.32438134
     atom    4 type  1   force =    -0.01997186   -6.17202627   -3.90740282
     atom    5 type  1   force =    -0.05238305   -5.96248298   -4.46156850
     atom    6 type  1   force =     0.11260416    6.42289167    3.24864525
     atom    7 type  1   force =    -0.55821837    7.02283715    4.83079123
     atom    8 type  1   force =     0.05239079    5.96244816    4.46175136
     atom    9 type  1   force =     0.01997311    6.17203721    3.90718809
     atom   10 type  1   force =     0.01647669    6.02394648    3.32441749
     atom   11 type  2   force =     0.40458703   -1.19251137    3.55103150
     atom   12 type  2   force =    -0.04926455    0.07944899    1.26876025
     atom   13 type  2   force =     0.00002631   -0.00008202   -0.00035890
     atom   14 type  2   force =    -0.40462160    1.19230219   -3.55128940
     atom   15 type  2   force =     0.04927578   -0.07949767   -1.26842976
     The core correction contribution to forces
     atom    1 type  1   force =     0.00342343    0.02465557    0.01250567
     atom    2 type  1   force =    -0.00203099    0.02998073    0.00586044
     atom    3 type  1   force =     0.00066150    0.02531223    0.00531193
     atom    4 type  1   force =    -0.00019475    0.02656687    0.00717426
     atom    5 type  1   force =    -0.00042486    0.03058750    0.00909705
     atom    6 type  1   force =     0.00202941   -0.02998484   -0.00586475
     atom    7 type  1   force =    -0.00342337   -0.02465651   -0.01250840
     atom    8 type  1   force =     0.00042426   -0.03058326   -0.00909708
     atom    9 type  1   force =     0.00019404   -0.02656813   -0.00717317
     atom   10 type  1   force =    -0.00066114   -0.02531303   -0.00530966
     atom   11 type  2   force =    -0.00393622   -0.00163419    0.00456789
     atom   12 type  2   force =     0.00040619   -0.00171906    0.00322689
     atom   13 type  2   force =     0.00000029   -0.00000361   -0.00000177
     atom   14 type  2   force =     0.00393745    0.00162874   -0.00457503
     atom   15 type  2   force =    -0.00040516    0.00171959   -0.00322186
     The Hubbard contrib.    to forces
     atom    1 type  1   force =     0.00000000    0.00000000    0.00000000
     atom    2 type  1   force =     0.00000000    0.00000000    0.00000000
     atom    3 type  1   force =     0.00000000    0.00000000    0.00000000
     atom    4 type  1   force =     0.00000000    0.00000000    0.00000000
     atom    5 type  1   force =     0.00000000    0.00000000    0.00000000
     atom    6 type  1   force =     0.00000000    0.00000000    0.00000000
     atom    7 type  1   force =     0.00000000    0.00000000    0.00000000
     atom    8 type  1   force =     0.00000000    0.00000000    0.00000000
     atom    9 type  1   force =     0.00000000    0.00000000    0.00000000
     atom   10 type  1   force =     0.00000000    0.00000000    0.00000000
     atom   11 type  2   force =     0.00000000    0.00000000    0.00000000
     atom   12 type  2   force =     0.00000000    0.00000000    0.00000000
     atom   13 type  2   force =     0.00000000    0.00000000    0.00000000
     atom   14 type  2   force =     0.00000000    0.00000000    0.00000000
     atom   15 type  2   force =     0.00000000    0.00000000    0.00000000
     The SCF correction term to forces
     atom    1 type  1   force =    -0.00004865    0.00029612    0.00003002
     atom    2 type  1   force =     0.00001989    0.00038858    0.00001539
     atom    3 type  1   force =    -0.00000097   -0.00017573    0.00023393
     atom    4 type  1   force =    -0.00000044   -0.00008210   -0.00000549
     atom    5 type  1   force =     0.00001008   -0.00020903   -0.00020879
     atom    6 type  1   force =    -0.00002122   -0.00027586   -0.00004871
     atom    7 type  1   force =     0.00004327   -0.00040556    0.00002620
     atom    8 type  1   force =    -0.00001142    0.00020537    0.00002319
     atom    9 type  1   force =     0.00000523    0.00007924    0.00020442
     atom   10 type  1   force =    -0.00000112    0.00018234   -0.00028784
     atom   11 type  2   force =    -0.00022791    0.00040657    0.00051082
     atom   12 type  2   force =     0.00004720    0.00026747    0.00094173
     atom   13 type  2   force =    -0.00002200    0.00010701    0.00031928
     atom   14 type  2   force =     0.00026165   -0.00015907   -0.00024773
     atom   15 type  2   force =    -0.00005760   -0.00024039   -0.00122291

     Total force =     0.103711     Total SCF correction =     0.002035

     Computing stress (Cartesian axis) and pressure

     negative rho (up, down):  1.608E+00 0.000E+00
          total   stress  (Ry/bohr**3)                   (kbar)     P=      103.99
   0.00122334   0.00002409   0.00002117          179.96        3.54        3.11
   0.00002409   0.00107720  -0.00005381            3.54      158.46       -7.92
   0.00002117  -0.00005381  -0.00017982            3.11       -7.92      -26.45

     kinetic stress (kbar)  10887.28     30.84     17.40
                               30.84  11134.86     11.76
                               17.40     11.76  10893.97

     local   stress (kbar)  -3579.92    212.60      7.34
                              212.60  12708.87  10423.80
                                7.34  10423.80   2544.98

     nonloc. stress (kbar)  -3866.95    -10.75      0.91
                              -10.75  -3551.29     31.66
                                0.91     31.66  -3546.61

     hartree stress (kbar)   8588.53    -70.64     30.61
                              -70.64   1535.65  -4516.64
                               30.61  -4516.64   5885.03

     exc-cor stress (kbar)  12247.35      0.17     -0.35
                                0.17  12250.04     -2.60
                               -0.35     -2.60  12253.66

     corecor stress (kbar) -16265.28     -2.47     -0.36
                               -2.47 -16259.83      4.40
                               -0.36      4.40 -16250.93

     ewald   stress (kbar)  -7831.06   -156.21    -52.43
                             -156.21 -17659.83  -5960.30
                              -52.43  -5960.30 -11806.56

     hubbard stress (kbar)      0.00      0.00      0.00
                                0.00      0.00      0.00
                                0.00      0.00      0.00

     DFT-D   stress (kbar)      0.00      0.00      0.00
                                0.00      0.00      0.00
                                0.00      0.00      0.00

     XDM     stress (kbar)      0.00      0.00      0.00
                                0.00      0.00      0.00
                                0.00      0.00      0.00

     dft-nl  stress (kbar)      0.00      0.00      0.00
                                0.00      0.00      0.00
                                0.00      0.00      0.00

     TS-vdW  stress (kbar)      0.00      0.00      0.00
                                0.00      0.00      0.00
                                0.00      0.00      0.00

[...]

                                0.00      0.00      0.00

     Writing all to output data dir new_calculations/myprefix.save/

     General routines

     Parallel routines

   This run was terminated on:  12:14:45  20May2023

   JOB DONE.