     Program PWSCF v.7.0 starts on 20May2023 at  3:39: 5

     Reading input from espresso_6067.pwi
Warning: card &CELL ignored
Warning: card / ignored

     Current dimensions of program PWSCF are:
     Max number of different atomic species (ntypx) = 10
     Max number of k-points (npk) =  40000
     Max angular momentum in pseudopotentials (lmaxx) =  4
     file O.pbe-n-kjpaw_psl.0.1.UPF: wavefunction(s)  2P renormalized

     gamma-point specific algorithms are used
     Message from routine setup:
     using ibrav=0 with symmetry is DISCOURAGED, use correct ibrav instead

     Subspace diagonalization in iterative solution of the eigenvalue problem:
     a serial algorithm will be used

     Using Slab Decomposition

     bravais-lattice index     =            0
     lattice parameter (alat)  =       6.7418  a.u.
     unit-cell volume          =    1023.0232 (a.u.)^3
     number of atoms/cell      =            8
     number of atomic types    =            3
     number of electrons       =        64.00
     number of Kohn-Sham states=           38
     kinetic-energy cutoff     =      30.0000  Ry
     charge density cutoff     =     240.0000  Ry
     scf convergence threshold =      1.0E-06
     mixing beta               =       0.7000
     number of iterations used =            8  plain     mixing
     Exchange-correlation= SLA  PW   PBX  PBC
                           (   1   4   3   4   0   0   0)

     celldm(1)=   6.741776  celldm(2)=   0.000000  celldm(3)=   0.000000
     celldm(4)=   0.000000  celldm(5)=   0.000000  celldm(6)=   0.000000

     crystal axes: (cart. coord. in units of alat)
               a(1) = (   1.000000   0.000000   0.000000 )
               a(2) = (  -0.500000   0.866025   0.000000 )
               a(3) = (   0.000000   0.000000   3.855067 )

     reciprocal axes: (cart. coord. in units 2 pi/alat)
               b(1) = (  1.000000  0.577350  0.000000 )
               b(2) = (  0.000000  1.154701  0.000000 )
               b(3) = (  0.000000  0.000000  0.259399 )

     PseudoPot. # 1 for Cs read from file:
     /home/pragov/projects/rrg-bengioy-ad/pragov/crystal_structure_design/SSSP/Cs_pbe_v1.uspp.F.UPF
     MD5 check sum: 3476d69cb178dfad3ffaa59df4e07ca4
     Pseudo is Ultrasoft + core correction, Zval =  9.0
     Generated by new atomic code, or converted to UPF format
     Using radial grid of  905 points,  6 beta functions with:
                l(1) =   0
                l(2) =   0
                l(3) =   1
                l(4) =   1
                l(5) =   2
                l(6) =   2
     Q(r) pseudized with  6 coefficients,  rinner =    1.500   1.500   1.500
                                                       1.500   1.500

     PseudoPot. # 2 for Y  read from file:
     /home/pragov/projects/rrg-bengioy-ad/pragov/crystal_structure_design/SSSP/Y_pbe_v1.uspp.F.UPF
     MD5 check sum: 2cf71db95cafeb975fc457bd7f14888e
     Pseudo is Ultrasoft + core correction, Zval = 11.0
     Generated by new atomic code, or converted to UPF format
     Using radial grid of  885 points,  6 beta functions with:
                l(1) =   0
                l(2) =   0
                l(3) =   1
                l(4) =   1
                l(5) =   2
                l(6) =   2
     Q(r) pseudized with  6 coefficients,  rinner =    1.200   1.200   1.200
                                                       1.200   1.200

     PseudoPot. # 3 for O  read from file:
     /home/pragov/projects/rrg-bengioy-ad/pragov/crystal_structure_design/SSSP/O.pbe-n-kjpaw_psl.0.1.UPF
     MD5 check sum: 0234752ac141de4415c5fc33072bef88
     Pseudo is Projector augmented-wave + core cor, Zval =  6.0
     Generated using "atomic" code by A. Dal Corso  v.5.0.99 svn rev. 10869
     Shape of augmentation charge: BESSEL
     Using radial grid of 1095 points,  4 beta functions with:
                l(1) =   0
                l(2) =   0
                l(3) =   1
                l(4) =   1
     Q(r) pseudized with 0 coefficients

     atomic species   valence    mass     pseudopotential
        Cs             9.00   132.90545     Cs( 1.00)
        Y             11.00    88.90584     Y ( 1.00)
        O              6.00    15.99900     O ( 1.00)

     24 Sym. Ops., with inversion, found (12 have fractional translation)

                                    s                        frac. trans.

      isym =  1     identity

 cryst.   s( 1) = (     1          0          0      )
                  (     0          1          0      )
                  (     0          0          1      )

 cart.    s( 1) = (  1.0000000 -0.0000000  0.0000000 )
                  (  0.0000000  1.0000000  0.0000000 )
                  (  0.0000000  0.0000000  1.0000000 )

      isym =  2     180 deg rotation - cart. axis [0,0,1]

 cryst.   s( 2) = (    -1          0          0      )    f =( -0.0000000 )
                  (     0         -1          0      )       (  0.0000000 )
                  (     0          0          1      )       ( -0.5000000 )

 cart.    s( 2) = ( -1.0000000  0.0000000  0.0000000 )    f =( -0.0000000 )
                  (  0.0000000 -1.0000000  0.0000000 )       (  0.0000000 )
                  (  0.0000000  0.0000000  1.0000000 )       ( -1.9275337 )

[...]

      isym =  4     180 deg rotation - cart. axis [1,0,0]

[...]

      isym =  5      60 deg rotation - cryst. axis [0,0,1]

[...]

 cryst.   s( 8) = (    -1         -1          0      )
                  (     1          0          0      )
                  (     0          0          1      )

 cart.    s( 8) = ( -0.5000000  0.8660254  0.0000000 )
                  ( -0.8660254 -0.5000000  0.0000000 )
                  (  0.0000000  0.0000000  1.0000000 )

[...]

 cryst.   s( 9) = (     0         -1          0      )    f =(  0.0000000 )
                  (    -1          0          0      )       (  0.0000000 )
                  (     0          0         -1      )       (  0.5000000 )

 cart.    s( 9) = (  0.5000000 -0.8660254  0.0000000 )    f =(  0.0000000 )
                  ( -0.8660254 -0.5000000  0.0000000 )       (  0.0000000 )
                  (  0.0000000  0.0000000 -1.0000000 )       (  1.9275337 )

[...]

 cryst.   s(10) = (     1          1          0      )    f =(  0.0000000 )
                  (     0         -1          0      )       ( -0.0000010 )
                  (     0          0         -1      )       (  0.5000000 )

 cart.    s(10) = (  0.5000000  0.8660254  0.0000000 )    f =(  0.0000005 )
                  (  0.8660254 -0.5000000  0.0000000 )       ( -0.0000009 )
                  (  0.0000000  0.0000000 -1.0000000 )       (  1.9275337 )

[...]

 cryst.   s(11) = (    -1         -1          0      )
                  (     0          1          0      )
                  (     0          0         -1      )

 cart.    s(11) = ( -0.5000000 -0.8660254  0.0000000 )
                  ( -0.8660254  0.5000000  0.0000000 )
                  (  0.0000000  0.0000000 -1.0000000 )

      isym = 12     180 deg rotation - cryst. axis [1,1,0]

[...]

      isym = 13     inversion

[...]

      isym = 14     inv. 180 deg rotation - cart. axis [0,0,1]

[...]

      isym = 16     inv. 180 deg rotation - cart. axis [1,0,0]

[...]

      isym = 17     inv.  60 deg rotation - cryst. axis [0,0,1]

[...]

 cryst.   s(22) = (    -1         -1          0      )    f =( -0.0000000 )
                  (     0          1          0      )       ( -0.0000010 )
                  (     0          0          1      )       ( -0.5000000 )

 cart.    s(22) = ( -0.5000000 -0.8660254  0.0000000 )    f =(  0.0000005 )
                  ( -0.8660254  0.5000000  0.0000000 )       ( -0.0000009 )
                  (  0.0000000  0.0000000  1.0000000 )       ( -1.9275337 )

[...]

      isym = 24     inv. 180 deg rotation - cryst. axis [1,1,0]

 cryst.   s(24) = (     0         -1          0      )
                  (    -1          0          0      )
                  (     0          0          1      )

 cart.    s(24) = (  0.5000000 -0.8660254  0.0000000 )
                  ( -0.8660254 -0.5000000  0.0000000 )
                  (  0.0000000  0.0000000  1.0000000 )

   Cartesian axes

     site n.     atom                  positions (alat units)
         1           Cs  tau(   1) = (  -0.0000005   0.5773506   0.9637668  )
         2           Cs  tau(   2) = (   0.5000005   0.2886748   2.8913005  )
         3           Y   tau(   3) = (   0.0000000   0.0000000   0.0000000  )
         4           Y   tau(   4) = (   0.0000000   0.0000000   1.9275337  )
         5           O   tau(   5) = (  -0.0000005   0.5773506   3.5353281  )
         6           O   tau(   6) = (  -0.0000005   0.5773506   2.2472730  )
         7           O   tau(   7) = (   0.5000005   0.2886748   0.3197393  )
         8           O   tau(   8) = (   0.5000005   0.2886748   1.6077944  )

   Crystallographic axes

     site n.     atom                  positions (cryst. coord.)
         1           Cs  tau(   1) = (  0.3333330  0.6666670  0.2500000  )
         2           Cs  tau(   2) = (  0.6666670  0.3333330  0.7500000  )
         3           Y   tau(   3) = (  0.0000000  0.0000000  0.0000000  )
         4           Y   tau(   4) = (  0.0000000  0.0000000  0.5000000  )
         5           O   tau(   5) = (  0.3333330  0.6666670  0.9170600  )
         6           O   tau(   6) = (  0.3333330  0.6666670  0.5829400  )
         7           O   tau(   7) = (  0.6666670  0.3333330  0.0829400  )
         8           O   tau(   8) = (  0.6666670  0.3333330  0.4170600  )

     number of k points=     1  Methfessel-Paxton smearing, width (Ry)=  0.0010
                       cart. coord. in units 2pi/alat
        k(    1) = (   0.0000000   0.0000000   0.0000000), wk =   2.0000000

                       cryst. coord.
        k(    1) = (   0.0000000   0.0000000   0.0000000), wk =   2.0000000

     Check: negative core charge=   -0.000009

     Initial potential from superposition of free atoms

     starting charge      63.9123, renormalised to      64.0000

     negative rho (up, down):  8.417E-02 0.000E+00
     Starting wfcs are   68 randomized atomic wfcs
     Checking if some PAW data can be deallocated...

     Self-consistent Calculation

     iteration #  1     ecut=    30.00 Ry     beta= 0.70
     Davidson diagonalization with overlap

     ethr =  1.00E-02,  avg # of iterations =  2.0

     negative rho (up, down):  8.513E-02 0.000E+00

     total energy              =    -466.28732050 Ry
     estimated scf accuracy    <       2.74564448 Ry

[...]

     total energy              =    -467.60875514 Ry
     estimated scf accuracy    <       0.00000286 Ry

     iteration # 10     ecut=    30.00 Ry     beta= 0.70
     Davidson diagonalization with overlap

     ethr =  4.47E-09,  avg # of iterations =  4.0

[...]

     End of self-consistent calculation

          k = 0.0000 0.0000 0.0000 (  1406 PWs)   bands (ev):

   -31.0852 -31.0827 -12.7429 -12.7153 -11.6591 -11.6135 -10.7398 -10.7398
   -10.7373 -10.7373  -6.7133  -6.5790  -5.8409  -5.7135   0.5651   0.6166
     2.0914   2.0914   2.0954   2.0954   6.5831   7.1000   7.2103   7.2103
     7.2201   7.2201   8.1808   8.8508   8.8508   8.8608   8.8608   8.9530
    12.2109  12.3103  12.9928  14.2462  14.4259  14.4260

     occupation numbers
     1.0000   1.0000   1.0000   1.0000   1.0000   1.0000   1.0000   1.0000
     1.0000   1.0000   1.0000   1.0000   1.0000   1.0000   1.0000   1.0000
     1.0000   1.0000   1.0000   1.0000   1.0000   1.0000   1.0000   1.0000
     1.0000   1.0000   1.0000   1.0000   1.0000   1.0000   1.0000   1.0000
    -0.0000  -0.0000  -0.0000  -0.0000  -0.0000  -0.0000

     the Fermi energy is    11.7006 ev

!    total energy              =    -467.60875538 Ry
     estimated scf accuracy    <       0.00000059 Ry
     smearing contrib. (-TS)   =       0.00000000 Ry
     internal energy E=F+TS    =    -467.60875538 Ry

     The total energy is F=E-TS. E is the sum of the following terms:
     one-electron contribution =    -105.71773460 Ry
     hartree contribution      =      90.64303528 Ry
     xc contribution           =    -135.33599621 Ry
     ewald contribution        =    -279.12981230 Ry
     one-center paw contrib.   =     -38.06824756 Ry
      -> PAW hartree energy AE =     118.90184138 Ry
      -> PAW hartree energy PS =    -118.47775209 Ry
      -> PAW xc energy AE      =     -68.71182645 Ry
      -> PAW xc energy PS      =      30.21948961 Ry
      -> total E_H with PAW    =      91.06712456 Ry
      -> total E_XC with PAW   =    -173.82833305 Ry

     convergence has been achieved in  10 iterations

     negative rho (up, down):  8.472E-02 0.000E+00

     Forces acting on atoms (cartesian axes, Ry/au):

     atom    1 type  1   force =    -0.00000000   -0.00000000   -0.00000000
     atom    2 type  1   force =     0.00000000    0.00000000    0.00000000
     atom    3 type  2   force =     0.00000000   -0.00000000    0.00000000
     atom    4 type  2   force =    -0.00000000   -0.00000000    0.00000000
     atom    5 type  3   force =     0.00000000   -0.00000000    0.14170365
     atom    6 type  3   force =     0.00000000    0.00000000   -0.14170365
     atom    7 type  3   force =     0.00000000    0.00000000   -0.14170365
     atom    8 type  3   force =    -0.00000000   -0.00000000    0.14170365
     The non-local contrib.  to forces
     atom    1 type  1   force =     0.00000000   -0.00000000    0.00000000
     atom    2 type  1   force =     0.00000000    0.00000000    0.00000000
     atom    3 type  2   force =     0.00000000    0.00000000    0.00000000
     atom    4 type  2   force =    -0.00000000   -0.00000000    0.00000000
     atom    5 type  3   force =     0.00000000   -0.00000000    0.02426483
     atom    6 type  3   force =     0.00000000   -0.00000000   -0.02426483
     atom    7 type  3   force =     0.00000000    0.00000000   -0.02426483
     atom    8 type  3   force =     0.00000000    0.00000000    0.02426483
     The ionic contribution  to forces
     atom    1 type  1   force =     0.00000348   -0.00000201   -0.00000000
     atom    2 type  1   force =    -0.00000348    0.00000201   -0.00000000
     atom    3 type  2   force =     0.00000000   -0.00000000   -0.00000000
     atom    4 type  2   force =     0.00000000   -0.00000000    0.00000000
     atom    5 type  3   force =     0.00000971   -0.00000561   -7.67719612
     atom    6 type  3   force =     0.00000971   -0.00000561    7.67719612
     atom    7 type  3   force =    -0.00000971    0.00000561    7.67719612
     atom    8 type  3   force =    -0.00000971    0.00000561   -7.67719612
     The local contribution  to forces
     atom    1 type  1   force =    -0.00000172   -0.00000541   -0.00005525
     atom    2 type  1   force =     0.00000645   -0.00000297    0.00042505
     atom    3 type  2   force =     0.00000434   -0.00005118   -0.00187703
     atom    4 type  2   force =    -0.00003160    0.00001386    0.00121360
     atom    5 type  3   force =    -0.00001902    0.00001394    7.79357058
     atom    6 type  3   force =    -0.00001848    0.00000429   -7.79334776
     atom    7 type  3   force =     0.00001314   -0.00000114   -7.79435667
     atom    8 type  3   force =     0.00000945   -0.00002188    7.79392966
     The core correction contribution to forces
     atom    1 type  1   force =     0.00000078    0.00000048   -0.00000202
     atom    2 type  1   force =     0.00000004    0.00000036   -0.00000702
     atom    3 type  2   force =     0.00000001   -0.00000280   -0.00001633
     atom    4 type  2   force =    -0.00000219    0.00000107    0.00001234
     atom    5 type  3   force =     0.00000001    0.00000007    0.00060600
     atom    6 type  3   force =    -0.00000010    0.00000017   -0.00060789
     atom    7 type  3   force =     0.00000003   -0.00000015   -0.00059556
     atom    8 type  3   force =    -0.00000000   -0.00000008    0.00059983
     The Hubbard contrib.    to forces
     atom    1 type  1   force =     0.00000000    0.00000000    0.00000000
     atom    2 type  1   force =     0.00000000    0.00000000    0.00000000
     atom    3 type  2   force =     0.00000000    0.00000000    0.00000000
     atom    4 type  2   force =     0.00000000    0.00000000    0.00000000
     atom    5 type  3   force =     0.00000000    0.00000000    0.00000000
     atom    6 type  3   force =     0.00000000    0.00000000    0.00000000
     atom    7 type  3   force =     0.00000000    0.00000000    0.00000000
     atom    8 type  3   force =     0.00000000    0.00000000    0.00000000
     The SCF correction term to forces
     atom    1 type  1   force =     0.00000115    0.00000308    0.00008507
     atom    2 type  1   force =    -0.00000003    0.00000133   -0.00053407
     atom    3 type  2   force =    -0.00000449    0.00002065    0.00192142
     atom    4 type  2   force =     0.00001472   -0.00001149   -0.00126613
     atom    5 type  3   force =     0.00000860   -0.00000864    0.00069974
     atom    6 type  3   force =    -0.00000061   -0.00000000   -0.00108802
     atom    7 type  3   force =    -0.00000518   -0.00000093    0.00077736
     atom    8 type  3   force =    -0.00000054    0.00001319   -0.00008460

     Total force =     0.283407     Total SCF correction =     0.002806

     Computing stress (Cartesian axis) and pressure

     negative rho (up, down):  8.472E-02 0.000E+00
          total   stress  (Ry/bohr**3)                   (kbar)     P=        1.68
   0.00121977  -0.00000000   0.00000000          179.43       -0.00        0.00
  -0.00000000   0.00121977   0.00000000           -0.00      179.43        0.00
   0.00000000   0.00000000  -0.00240527            0.00        0.00     -353.83

     kinetic stress (kbar)  13574.20     -0.00     -0.00
                               -0.00  13574.20      0.00
                                0.00      0.00  12664.61

     local   stress (kbar) -16045.63      0.01     -0.00
                                0.01 -16045.61      0.00
                               -0.00      0.00   2690.46

     nonloc. stress (kbar)   9371.44     -0.00      0.00
                               -0.00   9371.44      0.00
                                0.00     -0.00   9250.77

     hartree stress (kbar)   7158.10     -0.00      0.00
                               -0.00   7158.09     -0.00
                                0.00     -0.00  -1282.22

     exc-cor stress (kbar)   6914.00     -0.00      0.00
                               -0.00   6914.00     -0.00
                                0.00     -0.00   6907.30

     corecor stress (kbar) -10683.28      0.00      0.00
                                0.00 -10683.28      0.00
                                0.00      0.00 -10666.23

     ewald   stress (kbar) -10109.40     -0.01      0.00
                               -0.01 -10109.41      0.00
                                0.00      0.00 -19918.52

     hubbard stress (kbar)      0.00      0.00      0.00
                                0.00      0.00      0.00
                                0.00      0.00      0.00

     DFT-D   stress (kbar)      0.00      0.00      0.00
                                0.00      0.00      0.00
                                0.00      0.00      0.00

     XDM     stress (kbar)      0.00      0.00      0.00
                                0.00      0.00      0.00
                                0.00      0.00      0.00

     dft-nl  stress (kbar)      0.00      0.00      0.00
                                0.00      0.00      0.00
                                0.00      0.00      0.00

     TS-vdW  stress (kbar)      0.00      0.00      0.00
                                0.00      0.00      0.00
                                0.00      0.00      0.00

[...]

                                0.00      0.00      0.00

     Writing all to output data dir new_calculations/myprefix.save/

     General routines

     Parallel routines

     PAW routines

   This run was terminated on:   3:39:30  20May2023

   JOB DONE.