     Program PWSCF v.7.0 starts on 21May2023 at  1:22:11

     Reading input from espresso_24273.pwi
Warning: card &CELL ignored
Warning: card / ignored

     Current dimensions of program PWSCF are:
     Max number of different atomic species (ntypx) = 10
     Max number of k-points (npk) =  40000
     Max angular momentum in pseudopotentials (lmaxx) =  4

     gamma-point specific algorithms are used
     Message from routine setup:
     using ibrav=0 with symmetry is DISCOURAGED, use correct ibrav instead

     Subspace diagonalization in iterative solution of the eigenvalue problem:
     a serial algorithm will be used

     Using Slab Decomposition

     bravais-lattice index     =            0
     lattice parameter (alat)  =      15.4421  a.u.
     unit-cell volume          =    2834.6610 (a.u.)^3
     number of atoms/cell      =           17
     number of atomic types    =            3
     number of electrons       =       268.00
     number of Kohn-Sham states=          161
     kinetic-energy cutoff     =      30.0000  Ry
     charge density cutoff     =     240.0000  Ry
     scf convergence threshold =      1.0E-06
     mixing beta               =       0.7000
     number of iterations used =            8  plain     mixing
     Exchange-correlation= SLA  PW   PBE  PBE
                           (   1   4   3   4   0   0   0)

     celldm(1)=  15.442147  celldm(2)=   0.000000  celldm(3)=   0.000000
     celldm(4)=   0.000000  celldm(5)=   0.000000  celldm(6)=   0.000000

     crystal axes: (cart. coord. in units of alat)
               a(1) = (   1.000000   0.000000   0.000000 )
               a(2) = (  -0.333333   0.942809   0.000000 )
               a(3) = (  -0.333333  -0.471405   0.816497 )

     reciprocal axes: (cart. coord. in units 2 pi/alat)
               b(1) = (  1.000000  0.353553  0.612372 )
               b(2) = (  0.000000  1.060660  0.612372 )
               b(3) = (  0.000000  0.000000  1.224745 )

     PseudoPot. # 1 for Yb read from file:
     /home/pragov/projects/rrg-bengioy-ad/pragov/crystal_structure_design/SSSP/Yb.GGA-PBE-paw-v1.0.UPF
     MD5 check sum: 43b6465ad8021f06e3edb42ae292e187
     Pseudo is Projector augmented-wave + core cor, Zval = 24.0
     Generated using ATOMPAW code
     Shape of augmentation charge: BESSEL
     Using radial grid of 1117 points,  8 beta functions with:
                l(1) =   0
                l(2) =   0
                l(3) =   1
                l(4) =   1
                l(5) =   2
                l(6) =   2
                l(7) =   3
                l(8) =   3
     Q(r) pseudized with 0 coefficients

     PseudoPot. # 2 for Sb read from file:
     /home/pragov/projects/rrg-bengioy-ad/pragov/crystal_structure_design/SSSP/sb_pbe_v1.4.uspp.F.UPF
     MD5 check sum: 9bc50dfb53373b713f5709b9110fe27f
     Pseudo is Ultrasoft + core correction, Zval = 15.0
     Generated by new atomic code, or converted to UPF format
     Using radial grid of  891 points,  6 beta functions with:
                l(1) =   0
                l(2) =   0
                l(3) =   1
                l(4) =   1
                l(5) =   2
                l(6) =   2
     Q(r) pseudized with  8 coefficients,  rinner =    1.350   1.350   1.350
                                                       1.350   1.350

     PseudoPot. # 3 for Os read from file:
     /home/pragov/projects/rrg-bengioy-ad/pragov/crystal_structure_design/SSSP/Os_pbe_v1.2.uspp.F.UPF
     MD5 check sum: a3fb40a04f0c37c25c34bbc47164c9a8
     Pseudo is Ultrasoft + core correction, Zval = 16.0
     Generated by new atomic code, or converted to UPF format
     Using radial grid of  983 points,  8 beta functions with:
                l(1) =   0
                l(2) =   0
                l(3) =   1
                l(4) =   1
                l(5) =   2
                l(6) =   2
                l(7) =   3
                l(8) =   3
     Q(r) pseudized with  8 coefficients,  rinner =    1.150   1.150   1.150
                                                       1.150   1.150   1.150
                                                       1.150

     atomic species   valence    mass     pseudopotential
        Yb            24.00   173.05400     Yb( 1.00)
        Sb            15.00   121.76000     Sb( 1.00)
        Os            16.00   190.23000     Os( 1.00)

      2 Sym. Ops., with inversion, found

                                    s                        frac. trans.

      isym =  1     identity

 cryst.   s( 1) = (     1          0          0      )
                  (     0          1          0      )
                  (     0          0          1      )

 cart.    s( 1) = (  1.0000000  0.0000000  0.0000000 )
                  (  0.0000000  1.0000000  0.0000000 )
                  (  0.0000000  0.0000000  1.0000000 )

      isym =  2     inversion

 cryst.   s( 2) = (    -1          0          0      )
                  (     0         -1          0      )
                  (     0          0         -1      )

 cart.    s( 2) = ( -1.0000000 -0.0000000 -0.0000000 )
                  (  0.0000000 -1.0000000 -0.0000000 )
                  (  0.0000000  0.0000000 -1.0000000 )

   Cartesian axes

     site n.     atom                  positions (alat units)
         1           Yb  tau(   1) = (   0.0000000   0.0000000   0.0000000  )
         2           Sb  tau(   2) = (   0.4541847   0.3859497   0.4130468  )
         3           Sb  tau(   3) = (  -0.1208513   0.0854548   0.4034497  )
         4           Sb  tau(   4) = (  -0.3372517   0.2384722   0.6684853  )
         5           Sb  tau(   5) = (   0.6705850   0.2329323   0.1480112  )
         6           Sb  tau(   6) = (   0.2124820   0.0792794   0.6887777  )
         7           Sb  tau(   7) = (   0.1208513   0.3921251   0.1277188  )
         8           Sb  tau(   8) = (   0.3372510   0.6981619   0.1277188  )
         9           Sb  tau(   9) = (  -0.0039177  -0.2267574   0.6887777  )
        10           Sb  tau(  10) = (   0.0039180   0.4831208   0.5407657  )
        11           Sb  tau(  11) = (   0.3294153  -0.0117163   0.2757309  )
        12           Sb  tau(  12) = (  -0.2124830   0.6361387   0.2757309  )
        13           Sb  tau(  13) = (   0.5458163  -0.1647342   0.5407657  )
        14           Os  tau(  14) = (   0.1666667   0.2357023   0.4082483  )
        15           Os  tau(  15) = (   0.5000000   0.0000000   0.0000000  )
        16           Os  tau(  16) = (   0.8333333   0.4714045   0.0000000  )
        17           Os  tau(  17) = (  -0.1666667  -0.2357023   0.4082483  )

   Crystallographic axes

     site n.     atom                  positions (cryst. coord.)
         1           Yb  tau(   1) = (  0.0000000  0.0000000  0.0000000  )
         2           Sb  tau(   2) = (  0.8435770  0.6623000  0.5058770  )
         3           Sb  tau(   3) = (  0.1564230  0.3377000  0.4941230  )
         4           Sb  tau(   4) = (  0.1564230  0.6623000  0.8187240  )
         5           Sb  tau(   5) = (  0.8435770  0.3377000  0.1812760  )
         6           Sb  tau(   6) = (  0.6623000  0.5058770  0.8435770  )
         7           Sb  tau(   7) = (  0.3377000  0.4941230  0.1564230  )
         8           Sb  tau(   8) = (  0.6623000  0.8187240  0.1564230  )
         9           Sb  tau(   9) = (  0.3377000  0.1812760  0.8435770  )
        10           Sb  tau(  10) = (  0.5058770  0.8435770  0.6623000  )
        11           Sb  tau(  11) = (  0.4941230  0.1564230  0.3377000  )
        12           Sb  tau(  12) = (  0.1812760  0.8435770  0.3377000  )
        13           Sb  tau(  13) = (  0.8187240  0.1564230  0.6623000  )
        14           Os  tau(  14) = (  0.5000000  0.5000000  0.5000000  )
        15           Os  tau(  15) = (  0.5000000  0.0000000  0.0000000  )
        16           Os  tau(  16) = (  1.0000000  0.5000000  0.0000000  )
        17           Os  tau(  17) = (  0.0000000 -0.0000000  0.5000000  )

     number of k points=     1  Methfessel-Paxton smearing, width (Ry)=  0.0010
                       cart. coord. in units 2pi/alat
        k(    1) = (   0.0000000   0.0000000   0.0000000), wk =   2.0000000

                       cryst. coord.
        k(    1) = (   0.0000000   0.0000000   0.0000000), wk =   2.0000000

     Check: negative core charge=   -0.000004

     Initial potential from superposition of free atoms

     starting charge     253.9957, renormalised to     268.0000

     negative rho (up, down):  5.367E-01 0.000E+00
     Starting wfcs are  192 randomized atomic wfcs
     Checking if some PAW data can be deallocated...

     Self-consistent Calculation

     iteration #  1     ecut=    30.00 Ry     beta= 0.70
     Davidson diagonalization with overlap

     ethr =  1.00E-02,  avg # of iterations =  9.0

     negative rho (up, down):  1.401E+00 0.000E+00

     total energy              =   -3772.90946116 Ry
     estimated scf accuracy    <     204.29079009 Ry

[...]

     total energy              =   -3980.84747122 Ry
     estimated scf accuracy    <       0.00000379 Ry

     iteration # 35     ecut=    30.00 Ry     beta= 0.70
     Davidson diagonalization with overlap

     ethr =  1.42E-09,  avg # of iterations =  1.0

[...]

     End of self-consistent calculation

          k = 0.0000 0.0000 0.0000 (  3902 PWs)   bands (ev):

   -85.3500 -84.3495 -84.2064 -83.7021 -41.4081 -41.1743 -40.4681 -39.2916
   -37.9109 -37.2450 -37.0723 -34.0821 -33.2472 -32.0999 -30.8166 -30.2660
   -28.5774 -14.3600 -13.6520 -12.1688 -12.0174 -11.7207 -11.4041 -11.3949
   -11.3166 -11.2904 -11.0720 -10.8585 -10.8304 -10.6350 -10.6052 -10.4646
   -10.4445 -10.3172 -10.1369 -10.0893  -9.8747  -9.8716  -9.7520  -9.6590
    -9.5887  -9.4522  -9.4401  -9.3114  -9.1580  -9.1287  -8.9150  -8.7548
    -8.6210  -8.6094  -8.5303  -8.4030  -8.3704  -8.2095  -8.1379  -8.1044
    -7.9161  -7.7750  -7.6731  -7.6289  -7.5034  -7.2615  -7.0670  -6.8813
    -6.7945  -6.5717  -6.5262  -6.4385  -6.3906  -6.2431  -5.9227  -5.8244
    -5.7164  -5.5396  -5.4415  -5.0934  -4.7121  -4.3855  -4.1445  -3.0846
     1.0497   2.3086   2.9737   3.1781   3.6900   4.4496   4.4552   4.5204
     4.7295   4.7706   4.8770   4.9966   5.1385   5.5014   5.5465   5.8922
     6.1201   6.1506   6.3018   6.6196   6.7795   6.9163   7.0611   7.4357
     7.4946   7.7732   8.2493   8.3597   8.6375   8.8272   8.8830   9.2022
     9.2366   9.3490   9.3979   9.6752   9.7870   9.9332  10.1263  10.4384
    10.5275  10.5748  10.7218  10.7629  10.8166  10.8727  10.9795  11.0241
    11.0681  11.1593  11.2340  11.2647  11.2733  11.5299  11.5972  11.6822
    11.8084  12.1457  12.1578  12.5442  12.5756  12.8005  12.8695  13.3360
    13.5724  13.7420  13.9232  14.1269  14.4088  14.6037  14.6864  14.7157
    14.9383  15.0708  15.2055  15.2815  15.5637  15.6336  15.9816  16.3340
    16.6529

     occupation numbers
     1.0000   1.0000   1.0000   1.0000   1.0000   1.0000   1.0000   1.0000
     1.0000   1.0000   1.0000   1.0000   1.0000   1.0000   1.0000   1.0000
     1.0000   1.0000   1.0000   1.0000   1.0000   1.0000   1.0000   1.0000
     1.0000   1.0000   1.0000   1.0000   1.0000   1.0000   1.0000   1.0000
     1.0000   1.0000   1.0000   1.0000   1.0000   1.0000   1.0000   1.0000
     1.0000   1.0000   1.0000   1.0000   1.0000   1.0000   1.0000   1.0000
     1.0000   1.0000   1.0000   1.0000   1.0000   1.0000   1.0000   1.0000
     1.0000   1.0000   1.0000   1.0000   1.0000   1.0000   1.0000   1.0000
     1.0000   1.0000   1.0000   1.0000   1.0000   1.0000   1.0000   1.0000
     1.0000   1.0000   1.0000   1.0000   1.0000   1.0000   1.0000   1.0000
     1.0000   1.0000   1.0000   1.0000   1.0000   1.0000   1.0000   1.0000
     1.0000   1.0000   1.0000   1.0000   1.0000   1.0000   1.0000   1.0000
     1.0000   1.0000   1.0000   1.0000   1.0000   1.0000   1.0000   1.0000
     1.0000   1.0000   1.0000   1.0000   1.0000   1.0000   1.0000   1.0000
     1.0000   1.0000   1.0000   1.0000   1.0000   1.0000   1.0000   1.0000
     1.0000   1.0000   1.0000   1.0000   1.0000   1.0000   1.0000   1.0000
     1.0000   1.0000   1.0000   1.0000   1.0000   1.0013  -0.0013  -0.0000
    -0.0000  -0.0000  -0.0000  -0.0000  -0.0000  -0.0000  -0.0000  -0.0000
    -0.0000  -0.0000  -0.0000  -0.0000  -0.0000  -0.0000  -0.0000  -0.0000
    -0.0000  -0.0000  -0.0000  -0.0000  -0.0000  -0.0000  -0.0000  -0.0000
    -0.0000

     the Fermi energy is    11.5636 ev

!    total energy              =   -3980.84747115 Ry
     estimated scf accuracy    <       0.00000024 Ry
     smearing contrib. (-TS)   =       0.00001383 Ry
     internal energy E=F+TS    =   -3980.84748498 Ry

     The total energy is F=E-TS. E is the sum of the following terms:
     one-electron contribution =   -1505.66468933 Ry
     hartree contribution      =     888.92692644 Ry
     xc contribution           =    -715.25687295 Ry
     ewald contribution        =   -2165.48314177 Ry
     one-center paw contrib.   =    -483.36970737 Ry
      -> PAW hartree energy AE =     421.87581130 Ry
      -> PAW hartree energy PS =    -357.57062928 Ry
      -> PAW xc energy AE      =    -583.02099827 Ry
      -> PAW xc energy PS      =      35.34610888 Ry
      -> total E_H with PAW    =     953.23210846 Ry
      -> total E_XC with PAW   =   -1262.93176235 Ry

     convergence has been achieved in  35 iterations

     negative rho (up, down):  1.146E+00 0.000E+00

     Forces acting on atoms (cartesian axes, Ry/au):

     atom    1 type  1   force =     0.00000000    0.00000000    0.00000000
     atom    2 type  2   force =    -0.06692185   -0.06318369    0.07894831
     atom    3 type  2   force =     0.06692185    0.06318369   -0.07894831
     atom    4 type  2   force =    -0.03385609    0.23772622   -0.19379771
     atom    5 type  2   force =     0.03385609   -0.23772622    0.19379771
     atom    6 type  2   force =    -0.19728112    0.43000858    0.14510900
     atom    7 type  2   force =     0.19728112   -0.43000858   -0.14510900
     atom    8 type  2   force =    -0.06994096   -0.07553322   -0.21697763
     atom    9 type  2   force =     0.06994096    0.07553322    0.21697763
     atom   10 type  2   force =     0.00067835    0.07188570   -0.09961739
     atom   11 type  2   force =    -0.00067835   -0.07188570    0.09961739
     atom   12 type  2   force =     0.16921297    0.06979156    0.19560904
     atom   13 type  2   force =    -0.16921297   -0.06979156   -0.19560904
     atom   14 type  3   force =     0.00000000    0.00000000    0.00000000
     atom   15 type  3   force =     0.00000000    0.00000000    0.00000000
     atom   16 type  3   force =     0.00000000    0.00000000    0.00000000
     atom   17 type  3   force =     0.00000000    0.00000000    0.00000000
     The non-local contrib.  to forces
     atom    1 type  1   force =     0.00000000    0.00000000    0.00000000
     atom    2 type  2   force =     0.23559331   -0.27363754    0.04585687
     atom    3 type  2   force =    -0.23559331    0.27363754   -0.04585687
     atom    4 type  2   force =    -0.12740259   -0.98434826   -0.11289330
     atom    5 type  2   force =     0.12740259    0.98434826    0.11289330
     atom    6 type  2   force =    -0.05066027   -0.43341333   -0.17648509
     atom    7 type  2   force =     0.05066027    0.43341333    0.17648509
     atom    8 type  2   force =    -0.21471124   -0.04061972   -0.46527127
     atom    9 type  2   force =     0.21471124    0.04061972    0.46527127
     atom   10 type  2   force =     0.02498097    0.83329662   -0.33714480
     atom   11 type  2   force =    -0.02498097   -0.83329662    0.33714480
     atom   12 type  2   force =    -0.19092716    0.42710902   -0.01875062
     atom   13 type  2   force =     0.19092716   -0.42710902    0.01875062
     atom   14 type  3   force =     0.00000000    0.00000000    0.00000000
     atom   15 type  3   force =     0.00000000    0.00000000    0.00000000
     atom   16 type  3   force =     0.00000000    0.00000000    0.00000000
     atom   17 type  3   force =     0.00000000    0.00000000    0.00000000
     The ionic contribution  to forces
     atom    1 type  1   force =    -0.00000000    0.00000000    0.00000000
     atom    2 type  2   force =     5.49835883   -3.88799036   -3.60523304
     atom    3 type  2   force =    -5.49835883    3.88799036    3.60523304
     atom    4 type  2   force =     2.94371471   -2.08138745   -6.73417379
     atom    5 type  2   force =    -2.94371470    2.08138745    6.73417379
     atom    6 type  2   force =    -5.49841875   -5.06617621    1.56440853
     atom    7 type  2   force =     5.49841874    5.06617621   -1.56440853
     atom    8 type  2   force =    -2.94358914   -6.87274808   -1.56439870
     atom    9 type  2   force =     2.94358914    6.87274808    1.56439870
     atom   10 type  2   force =    -2.94363049    4.79115968   -5.16971494
     atom   11 type  2   force =     2.94363049   -4.79115968    5.16971494
     atom   12 type  2   force =     5.49849265   -1.17827022    5.16962130
     atom   13 type  2   force =    -5.49849265    1.17827022   -5.16962130
     atom   14 type  3   force =    -0.00000000    0.00000000   -0.00000000
     atom   15 type  3   force =     0.00000000   -0.00000000   -0.00000000
     atom   16 type  3   force =     0.00000000   -0.00000000   -0.00000000
     atom   17 type  3   force =     0.00000000   -0.00000000   -0.00000000
     The local contribution  to forces
     atom    1 type  1   force =    -0.00022695   -0.00034918    0.00001830
     atom    2 type  2   force =    -5.75833907    4.10635994    3.65957812
     atom    3 type  2   force =     5.75809834   -4.10632140   -3.65971398
     atom    4 type  2   force =    -2.86158124    3.21300450    6.66795819
     atom    5 type  2   force =     2.86159185   -3.21301892   -6.66776946
     atom    6 type  2   force =     5.37053885    5.87166575   -1.25731487
     atom    7 type  2   force =    -5.37029995   -5.87097970    1.25757264
     atom    8 type  2   force =     3.07229055    6.82553446    1.76793877
     atom    9 type  2   force =    -3.07246555   -6.82547463   -1.76780586
     atom   10 type  2   force =     2.91154827   -5.50058476    5.36462691
     atom   11 type  2   force =    -2.91122993    5.50049248   -5.36457493
     atom   12 type  2   force =    -5.15015102    0.85986486   -4.98123622
     atom   13 type  2   force =     5.15011001   -0.85997415    4.98085442
     atom   14 type  3   force =     0.00010178    0.00007255    0.00015055
     atom   15 type  3   force =     0.00015674   -0.00027676    0.00022309
     atom   16 type  3   force =    -0.00012481    0.00008390   -0.00000276
     atom   17 type  3   force =    -0.00022799   -0.00007056   -0.00027377
     The core correction contribution to forces
     atom    1 type  1   force =    -0.00000000   -0.00000000    0.00000000
     atom    2 type  2   force =    -0.04254725   -0.00763410   -0.02149182
     atom    3 type  2   force =     0.04254436    0.00763471    0.02149095
     atom    4 type  2   force =     0.01145192    0.09034751   -0.01451887
     atom    5 type  2   force =    -0.01144959   -0.09034648    0.01452271
     atom    6 type  2   force =    -0.01871448    0.05802909    0.01484860
     atom    7 type  2   force =     0.01872096   -0.05801563   -0.01484577
     atom    8 type  2   force =     0.01615720    0.01215735    0.04494225
     atom    9 type  2   force =    -0.01616520   -0.01215376   -0.04493311
     atom   10 type  2   force =     0.00792092   -0.05181465    0.04262742
     atom   11 type  2   force =    -0.00791863    0.05181726   -0.04262549
     atom   12 type  2   force =     0.01169599   -0.03891445    0.02579932
     atom   13 type  2   force =    -0.01169755    0.03891317   -0.02580178
     atom   14 type  3   force =     0.00000204    0.00000027    0.00000190
     atom   15 type  3   force =     0.00000113   -0.00000164    0.00000129
     atom   16 type  3   force =    -0.00000269    0.00000038   -0.00000082
     atom   17 type  3   force =    -0.00000036   -0.00000076    0.00000106
     The Hubbard contrib.    to forces
     atom    1 type  1   force =     0.00000000    0.00000000    0.00000000
     atom    2 type  2   force =     0.00000000    0.00000000    0.00000000
     atom    3 type  2   force =     0.00000000    0.00000000    0.00000000
     atom    4 type  2   force =     0.00000000    0.00000000    0.00000000
     atom    5 type  2   force =     0.00000000    0.00000000    0.00000000
     atom    6 type  2   force =     0.00000000    0.00000000    0.00000000
     atom    7 type  2   force =     0.00000000    0.00000000    0.00000000
     atom    8 type  2   force =     0.00000000    0.00000000    0.00000000
     atom    9 type  2   force =     0.00000000    0.00000000    0.00000000
     atom   10 type  2   force =     0.00000000    0.00000000    0.00000000
     atom   11 type  2   force =     0.00000000    0.00000000    0.00000000
     atom   12 type  2   force =     0.00000000    0.00000000    0.00000000
     atom   13 type  2   force =     0.00000000    0.00000000    0.00000000
     atom   14 type  3   force =     0.00000000    0.00000000    0.00000000
     atom   15 type  3   force =     0.00000000    0.00000000    0.00000000
     atom   16 type  3   force =     0.00000000    0.00000000    0.00000000
     atom   17 type  3   force =     0.00000000    0.00000000    0.00000000
     The SCF correction term to forces
     atom    1 type  1   force =     0.00024596    0.00037585   -0.00002138
     atom    2 type  2   force =    -0.00000344   -0.00027420    0.00023634
     atom    3 type  2   force =     0.00021554    0.00024992   -0.00010328
     atom    4 type  2   force =    -0.00002899    0.00011482   -0.00016214
     atom    5 type  2   force =     0.00003583   -0.00009164   -0.00001481
     atom    6 type  2   force =     0.00000540   -0.00006717   -0.00035025
     atom    7 type  2   force =    -0.00018701   -0.00057322    0.00008549
     atom    8 type  2   force =    -0.00012021    0.00014550   -0.00017714
     atom    9 type  2   force =     0.00023943   -0.00020348    0.00005815
     atom   10 type  2   force =    -0.00014587   -0.00015899   -0.00000694
     atom   11 type  2   force =    -0.00018385    0.00027305   -0.00003692
     atom   12 type  2   force =     0.00010102   -0.00000952    0.00016942
     atom   13 type  2   force =    -0.00006143    0.00009632    0.00020317
     atom   14 type  3   force =    -0.00013371   -0.00007140   -0.00016896
     atom   15 type  3   force =    -0.00018221    0.00030360   -0.00024525
     atom   16 type  3   force =     0.00013800   -0.00009274    0.00000340
     atom   17 type  3   force =     0.00025940    0.00008524    0.00029331

     Total force =     0.999339     Total SCF correction =     0.001358

     Computing stress (Cartesian axis) and pressure

     negative rho (up, down):  1.146E+00 0.000E+00
          total   stress  (Ry/bohr**3)                   (kbar)     P=     -493.71
  -0.00494238  -0.00044963   0.00016432         -727.05      -66.14       24.17
  -0.00044963  -0.00493063   0.00245829          -66.14     -725.32      361.63
   0.00016432   0.00245829  -0.00019541           24.17      361.63      -28.75

     kinetic stress (kbar)  26865.43     30.94   -113.86
                               30.94  25983.44    255.05
                             -113.86    255.05  26578.13

     local   stress (kbar)  11085.03      3.01   -111.77
                                3.01  10914.75     -7.00
                             -111.77     -7.00  10712.27

     nonloc. stress (kbar)  -8745.26    -87.24    189.73
                              -87.24  -7773.19    145.49
                              189.73    145.49  -7531.25

     hartree stress (kbar)  15287.62     -8.37     62.25
                               -8.37  15393.45    -20.18
                               62.25    -20.18  15449.90

     exc-cor stress (kbar)  10356.87      0.06      0.30
                                0.06  10356.86     -0.25
                                0.30     -0.25  10358.29

     corecor stress (kbar) -18117.41     -4.52     -2.45
                               -4.52 -18141.32    -11.44
                               -2.45    -11.44 -18136.70

     ewald   stress (kbar) -37459.31     -0.02     -0.03
                               -0.02 -37459.32     -0.04
                               -0.03     -0.04 -37459.38

     hubbard stress (kbar)      0.00      0.00      0.00
                                0.00      0.00      0.00
                                0.00      0.00      0.00

     DFT-D   stress (kbar)      0.00      0.00      0.00
                                0.00      0.00      0.00
                                0.00      0.00      0.00

     XDM     stress (kbar)      0.00      0.00      0.00
                                0.00      0.00      0.00
                                0.00      0.00      0.00

     dft-nl  stress (kbar)      0.00      0.00      0.00
                                0.00      0.00      0.00
                                0.00      0.00      0.00

     TS-vdW  stress (kbar)      0.00      0.00      0.00
                                0.00      0.00      0.00
                                0.00      0.00      0.00

[...]

                                0.00      0.00      0.00

     Writing all to output data dir new_calculations/myprefix.save/

     General routines

     Parallel routines

     PAW routines

   This run was terminated on:   1:25: 8  21May2023

   JOB DONE.