     Program PWSCF v.7.0 starts on 20May2023 at 14:18: 6

     Reading input from espresso_19333.pwi
Warning: card &CELL ignored
Warning: card / ignored

     Current dimensions of program PWSCF are:
     Max number of different atomic species (ntypx) = 10
     Max number of k-points (npk) =  40000
     Max angular momentum in pseudopotentials (lmaxx) =  4

     gamma-point specific algorithms are used
     Message from routine setup:
     using ibrav=0 with symmetry is DISCOURAGED, use correct ibrav instead

     Subspace diagonalization in iterative solution of the eigenvalue problem:
     a serial algorithm will be used

     Using Slab Decomposition

     bravais-lattice index     =            0
     lattice parameter (alat)  =      11.4815  a.u.
     unit-cell volume          =     786.7262 (a.u.)^3
     number of atoms/cell      =            9
     number of atomic types    =            3
     number of electrons       =       108.00
     number of Kohn-Sham states=           65
     kinetic-energy cutoff     =      30.0000  Ry
     charge density cutoff     =     240.0000  Ry
     scf convergence threshold =      1.0E-06
     mixing beta               =       0.7000
     number of iterations used =            8  plain     mixing
     Exchange-correlation= PBE
                           (   1   4   3   4   0   0   0)

     celldm(1)=  11.481547  celldm(2)=   0.000000  celldm(3)=   0.000000
     celldm(4)=   0.000000  celldm(5)=   0.000000  celldm(6)=   0.000000

     crystal axes: (cart. coord. in units of alat)
               a(1) = (   1.000000   0.000000   0.000000 )
               a(2) = (  -0.500000   0.866025   0.000000 )
               a(3) = (   0.000000   0.000000   0.600194 )

     reciprocal axes: (cart. coord. in units 2 pi/alat)
               b(1) = (  1.000000  0.577351  0.000000 )
               b(2) = (  0.000000  1.154701  0.000000 )
               b(3) = (  0.000000  0.000000  1.666127 )

     PseudoPot. # 1 for Cr read from file:
     /home/pragov/projects/rrg-bengioy-ad/pragov/crystal_structure_design/SSSP/cr_pbe_v1.5.uspp.F.UPF
     MD5 check sum: 0d52af634a40206e4dee301ad30da4bf
     Pseudo is Ultrasoft + core correction, Zval = 14.0
     Generated by new atomic code, or converted to UPF format
     Using radial grid of  857 points,  6 beta functions with:
                l(1) =   0
                l(2) =   0
                l(3) =   1
                l(4) =   1
                l(5) =   2
                l(6) =   2
     Q(r) pseudized with  8 coefficients,  rinner =    0.950   0.950   0.950
                                                       0.950   0.950

     PseudoPot. # 2 for Co read from file:
     /home/pragov/projects/rrg-bengioy-ad/pragov/crystal_structure_design/SSSP/Co_pbe_v1.2.uspp.F.UPF
     MD5 check sum: 5f91765df6ddd3222702df6e7b74a16d
     Pseudo is Ultrasoft + core correction, Zval = 17.0
     Generated by new atomic code, or converted to UPF format
     Using radial grid of  863 points,  6 beta functions with:
                l(1) =   0
                l(2) =   0
                l(3) =   1
                l(4) =   1
                l(5) =   2
                l(6) =   2
     Q(r) pseudized with  8 coefficients,  rinner =    1.200   1.200   1.200
                                                       1.200   1.200

     PseudoPot. # 3 for As read from file:
     /home/pragov/projects/rrg-bengioy-ad/pragov/crystal_structure_design/SSSP/As.pbe-n-rrkjus_psl.0.2.UPF
     MD5 check sum: 767315de957beeeb34f87d97bf945c8f
     Pseudo is Ultrasoft + core correction, Zval =  5.0
     Generated using "atomic" code by A. Dal Corso  v.5.0.99 svn rev. 10869
     Using radial grid of 1209 points,  4 beta functions with:
                l(1) =   0
                l(2) =   0
                l(3) =   1
                l(4) =   1
     Q(r) pseudized with 0 coefficients

     atomic species   valence    mass     pseudopotential
        Cr            14.00    51.99610     Cr( 1.00)
        Co            17.00    58.93319     Co( 1.00)
        As             5.00    74.92159     As( 1.00)

     12 Sym. Ops. (no inversion) found

                                    s                        frac. trans.

      isym =  1     identity

 cryst.   s( 1) = (     1          0          0      )
                  (     0          1          0      )
                  (     0          0          1      )

 cart.    s( 1) = (  1.0000000  0.0000000  0.0000000 )
                  (  0.0000000  1.0000000  0.0000000 )
                  (  0.0000000  0.0000000  1.0000000 )

      isym =  2     180 deg rotation - cart. axis [1,0,0]

[...]

      isym =  3     120 deg rotation - cryst. axis [0,0,1]

[...]

      isym =  6     180 deg rotation - cryst. axis [1,1,0]

[...]

      isym =  7     inv. 180 deg rotation - cart. axis [0,0,1]

[...]

      isym =  8     inv. 180 deg rotation - cart. axis [0,1,0]

[...]

      isym =  9     inv.  60 deg rotation - cryst. axis [0,0,1]

 cryst.   s( 9) = (    -1         -1          0      )
                  (     1          0          0      )
                  (     0          0         -1      )

 cart.    s( 9) = ( -0.4999998  0.8660255  0.0000000 )
                  ( -0.8660253 -0.5000002  0.0000000 )
                  (  0.0000000  0.0000000 -1.0000000 )

[...]

 cryst.   s(10) = (     0          1          0      )
                  (    -1         -1          0      )
                  (     0          0         -1      )

 cart.    s(10) = ( -0.5000002 -0.8660255  0.0000000 )
                  (  0.8660253 -0.4999998  0.0000000 )
                  (  0.0000000  0.0000000 -1.0000000 )

[...]

      isym = 12     inv. 180 deg rotation - cryst. axis [2,1,0]

 cryst.   s(12) = (    -1         -1          0      )
                  (     0          1          0      )
                  (     0          0          1      )

 cart.    s(12) = ( -0.4999998 -0.8660257  0.0000000 )
                  ( -0.8660253  0.4999998  0.0000000 )
                  (  0.0000000  0.0000000  1.0000000 )

   Cartesian axes

     site n.     atom                  positions (alat units)
         1           Cr  tau(   1) = (   0.5865770   0.0000000   0.0000000  )
         2           Cr  tau(   2) = (   0.7067114   0.5079905   0.0000000  )
         3           Cr  tau(   3) = (   0.2067114   0.3580348   0.0000000  )
         4           Co  tau(   4) = (   0.2474960   0.0000000   0.3000971  )
         5           Co  tau(   5) = (  -0.1237480   0.2143378   0.3000971  )
         6           Co  tau(   6) = (   0.3762519   0.6516875   0.3000971  )
         7           As  tau(   7) = (  -0.0000006   0.5773505   0.3000971  )
         8           As  tau(   8) = (   0.5000004   0.2886748   0.3000971  )
         9           As  tau(   9) = (   0.0000000   0.0000000   0.0000000  )

   Crystallographic axes

     site n.     atom                  positions (cryst. coord.)
         1           Cr  tau(   1) = (  0.5865770  0.0000000  0.0000000  )
         2           Cr  tau(   2) = (  1.0000000  0.5865770  0.0000000  )
         3           Cr  tau(   3) = (  0.4134230  0.4134230  0.0000000  )
         4           Co  tau(   4) = (  0.2474960  0.0000000  0.5000000  )
         5           Co  tau(   5) = (  0.0000000  0.2474960  0.5000000  )
         6           Co  tau(   6) = (  0.7525040  0.7525040  0.5000000  )
         7           As  tau(   7) = (  0.3333330  0.6666670  0.5000000  )
         8           As  tau(   8) = (  0.6666670  0.3333330  0.5000000  )
         9           As  tau(   9) = (  0.0000000  0.0000000  0.0000000  )

     number of k points=     1  Methfessel-Paxton smearing, width (Ry)=  0.0010
                       cart. coord. in units 2pi/alat
        k(    1) = (   0.0000000   0.0000000   0.0000000), wk =   2.0000000

                       cryst. coord.
        k(    1) = (   0.0000000   0.0000000   0.0000000), wk =   2.0000000

     Check: negative core charge=   -0.000012

     Initial potential from superposition of free atoms

     starting charge     101.9992, renormalised to     108.0000

     negative rho (up, down):  5.522E-03 0.000E+00
     Starting wfcs are   81 randomized atomic wfcs

     Self-consistent Calculation

     iteration #  1     ecut=    30.00 Ry     beta= 0.70
     Davidson diagonalization with overlap

     ethr =  1.00E-02,  avg # of iterations =  6.0

     negative rho (up, down):  3.848E-03 0.000E+00

     total energy              =   -1406.71212321 Ry
     estimated scf accuracy    <      93.00543907 Ry

[...]

     total energy              =   -1476.18851808 Ry
     estimated scf accuracy    <       0.00000294 Ry

     iteration # 36     ecut=    30.00 Ry     beta= 0.70
     Davidson diagonalization with overlap

     ethr =  2.08E-09,  avg # of iterations =  1.0

[...]

     End of self-consistent calculation

          k = 0.0000 0.0000 0.0000 (  1078 PWs)   bands (ev):

   -79.0127 -79.0048 -79.0046 -55.8030 -55.7971 -55.7970 -42.4643 -42.4609
   -42.4543 -42.4541 -42.3908 -42.3907 -42.0309 -42.0307 -42.0017 -27.3704
   -27.3703 -27.3482 -27.1306 -27.1232 -27.1231 -27.0236 -26.9599 -26.9598
     1.7571   3.4754   4.1677   9.5063   9.5063   9.7630   9.7630  10.9449
    11.8583  12.2455  12.2455  12.3045  13.2965  13.4325  13.4326  13.6825
    13.6826  13.7282  13.9495  13.9496  14.0106  14.0106  15.0452  15.1273
    15.1274  15.4434  15.4434  15.5111  15.6038  15.8298  15.8298  16.0812
    16.1661  16.2339  16.2339  16.2637  16.9288  16.9288  18.5142  18.6773
    19.2937

     occupation numbers
     1.0000   1.0000   1.0000   1.0000   1.0000   1.0000   1.0000   1.0000
     1.0000   1.0000   1.0000   1.0000   1.0000   1.0000   1.0000   1.0000
     1.0000   1.0000   1.0000   1.0000   1.0000   1.0000   1.0000   1.0000
     1.0000   1.0000   1.0000   1.0000   1.0000   1.0000   1.0000   1.0000
     1.0000   1.0000   1.0000   1.0000   1.0000   1.0000   1.0000   1.0000
     1.0000   1.0000   1.0000   1.0000   1.0000   1.0000   1.0000   1.0000
     1.0000   1.0000   1.0000   1.0000   1.0000   0.5011   0.4989  -0.0000
    -0.0000  -0.0000  -0.0000  -0.0000  -0.0000  -0.0000  -0.0000  -0.0000
    -0.0000

     the Fermi energy is    15.8298 ev

!    total energy              =   -1476.18851748 Ry
     estimated scf accuracy    <       0.00000074 Ry
     smearing contrib. (-TS)   =      -0.00056419 Ry
     internal energy E=F+TS    =   -1476.18795330 Ry

     The total energy is F=E-TS. E is the sum of the following terms:
     one-electron contribution =    -840.71809136 Ry
     hartree contribution      =     479.36335853 Ry
     xc contribution           =    -193.55586951 Ry
     ewald contribution        =    -921.27735095 Ry

     convergence has been achieved in  36 iterations

     negative rho (up, down):  5.031E-03 0.000E+00

     Forces acting on atoms (cartesian axes, Ry/au):

     atom    1 type  1   force =    -0.00547282   -0.00000000    0.00000000
     atom    2 type  1   force =     0.00273641   -0.00473960   -0.00000000
     atom    3 type  1   force =     0.00273641    0.00473960    0.00000000
     atom    4 type  2   force =     0.00477937    0.00000000    0.00000000
     atom    5 type  2   force =    -0.00238969    0.00413906    0.00000000
     atom    6 type  2   force =    -0.00238969   -0.00413906   -0.00000000
     atom    7 type  3   force =     0.00000000    0.00000000   -0.00000000
     atom    8 type  3   force =     0.00000000   -0.00000000    0.00000000
     atom    9 type  3   force =     0.00000000    0.00000000    0.00000000
     The non-local contrib.  to forces
     atom    1 type  1   force =    -0.14585300   -0.00000003    0.00000000
     atom    2 type  1   force =     0.07292650   -0.12631240   -0.00000000
     atom    3 type  1   force =     0.07292650    0.12631243   -0.00000000
     atom    4 type  2   force =    -0.33560655   -0.00000006    0.00000000
     atom    5 type  2   force =     0.16780328   -0.29064380    0.00000000
     atom    6 type  2   force =     0.16780328    0.29064386    0.00000000
     atom    7 type  3   force =     0.00000000   -0.00000000   -0.00000000
     atom    8 type  3   force =     0.00000000    0.00000000    0.00000000
     atom    9 type  3   force =     0.00000000    0.00000000    0.00000000
     The ionic contribution  to forces
     atom    1 type  1   force =    -3.70707533   -0.00001357   -0.00000000
     atom    2 type  1   force =     1.85352650   -3.21042786   -0.00000000
     atom    3 type  1   force =     1.85354723    3.21043864   -0.00000000
     atom    4 type  2   force =    12.25170973    0.00003992    0.00000000
     atom    5 type  2   force =    -6.12582221   10.61031071    0.00000000
     atom    6 type  2   force =    -6.12588731  -10.61035027    0.00000000
     atom    7 type  3   force =     0.00004266   -0.00002295    0.00000000
     atom    8 type  3   force =    -0.00004121    0.00002546    0.00000000
     atom    9 type  3   force =    -0.00000005   -0.00000009   -0.00000000
     The local contribution  to forces
     atom    1 type  1   force =     3.84064762   -0.00015225    0.00000054
     atom    2 type  1   force =    -1.92106496    3.32771275    0.00000132
     atom    3 type  1   force =    -1.92039284   -3.32685952    0.00000161
     atom    4 type  2   force =   -11.91586647   -0.00033028    0.00000069
     atom    5 type  2   force =     5.95851638  -10.32022451   -0.00000160
     atom    6 type  2   force =     5.95855504   10.31961952    0.00000140
     atom    7 type  3   force =    -0.00007893    0.00033179   -0.00000112
     atom    8 type  3   force =    -0.00027108   -0.00009418   -0.00000015
     atom    9 type  3   force =     0.00040639   -0.00031841   -0.00000002
     The core correction contribution to forces
     atom    1 type  1   force =     0.00579211    0.00000246    0.00000000
     atom    2 type  1   force =    -0.00289927    0.00501869    0.00000001
     atom    3 type  1   force =    -0.00289967   -0.00501572    0.00000001
     atom    4 type  2   force =     0.00554658    0.00000254    0.00000002
     atom    5 type  2   force =    -0.00277176    0.00479834   -0.00000001
     atom    6 type  2   force =    -0.00277579   -0.00480016    0.00000002
     atom    7 type  3   force =     0.00000125   -0.00000380   -0.00000009
     atom    8 type  3   force =     0.00000142   -0.00000176   -0.00000002
     atom    9 type  3   force =    -0.00000051    0.00000070    0.00000000
     The Hubbard contrib.    to forces
     atom    1 type  1   force =     0.00000000    0.00000000    0.00000000
     atom    2 type  1   force =     0.00000000    0.00000000    0.00000000
     atom    3 type  1   force =     0.00000000    0.00000000    0.00000000
     atom    4 type  2   force =     0.00000000    0.00000000    0.00000000
     atom    5 type  2   force =     0.00000000    0.00000000    0.00000000
     atom    6 type  2   force =     0.00000000    0.00000000    0.00000000
     atom    7 type  3   force =     0.00000000    0.00000000    0.00000000
     atom    8 type  3   force =     0.00000000    0.00000000    0.00000000
     atom    9 type  3   force =     0.00000000    0.00000000    0.00000000
     The SCF correction term to forces
     atom    1 type  1   force =     0.00096816    0.00019995   -0.00000063
     atom    2 type  1   force =     0.00019690   -0.00069700   -0.00000147
     atom    3 type  1   force =    -0.00049602   -0.00009856   -0.00000151
     atom    4 type  2   force =    -0.00092604    0.00031988   -0.00000087
     atom    5 type  2   force =    -0.00007548   -0.00019375    0.00000262
     atom    6 type  2   force =    -0.00014606    0.00075810   -0.00000151
     atom    7 type  3   force =     0.00005492   -0.00031408    0.00000061
     atom    8 type  3   force =     0.00030797    0.00004680    0.00000012
     atom    9 type  3   force =    -0.00038025    0.00029888   -0.00000004

     Total force =     0.012585     Total SCF correction =     0.001947
     SCF correction compared to forces is large: reduce conv_thr to get better values

     Computing stress (Cartesian axis) and pressure

     negative rho (up, down):  5.031E-03 0.000E+00
          total   stress  (Ry/bohr**3)                   (kbar)     P=     -378.42
  -0.00290598  -0.00000000  -0.00000000         -427.48       -0.00       -0.00
  -0.00000000  -0.00290598   0.00000000           -0.00     -427.48        0.00
  -0.00000000   0.00000000  -0.00190545           -0.00        0.00     -280.30

     kinetic stress (kbar)  32639.66      0.01      0.00
                                0.01  32639.66      0.00
                                0.00      0.00  32611.83

     local   stress (kbar)  -9687.29     -0.91     -0.00
                               -0.91  -9685.10     -0.00
                               -0.00     -0.00  -5307.37

     nonloc. stress (kbar)  13386.69      0.00      0.00
                                0.00  13386.70     -0.00
                                0.00     -0.00  13273.34

     hartree stress (kbar)  30419.35      0.41      0.00
                                0.41  30418.33      0.00
                                0.00      0.00  28795.51

     exc-cor stress (kbar)  -4482.05      0.00      0.00
                                0.00  -4482.06      0.00
                                0.00      0.00  -4486.45

     corecor stress (kbar)  -6100.99     -0.00     -0.00
                               -0.00  -6100.98     -0.00
                               -0.00     -0.00  -6110.11

     ewald   stress (kbar) -56603.44     -0.01      0.00
                               -0.01 -56603.46     -0.00
                                0.00     -0.00 -59057.07

     hubbard stress (kbar)      0.00      0.00      0.00
                                0.00      0.00      0.00
                                0.00      0.00      0.00

     DFT-D   stress (kbar)      0.00      0.00      0.00
                                0.00      0.00      0.00
                                0.00      0.00      0.00

     XDM     stress (kbar)      0.00      0.00      0.00
                                0.00      0.00      0.00
                                0.00      0.00      0.00

     dft-nl  stress (kbar)      0.00      0.00      0.00
                                0.00      0.00      0.00
                                0.00      0.00      0.00

     TS-vdW  stress (kbar)      0.00      0.00      0.00
                                0.00      0.00      0.00
                                0.00      0.00      0.00

[...]

                                0.00      0.00      0.00

     Writing all to output data dir new_calculations/myprefix.save/

     General routines

     Parallel routines

   This run was terminated on:  14:18:49  20May2023

   JOB DONE.