     Program PWSCF v.7.0 starts on 20May2023 at 21:17:25

     Reading input from espresso_16619.pwi
Warning: card &CELL ignored
Warning: card / ignored

     Current dimensions of program PWSCF are:
     Max number of different atomic species (ntypx) = 10
     Max number of k-points (npk) =  40000
     Max angular momentum in pseudopotentials (lmaxx) =  4
     file C.pbe-n-kjpaw_psl.1.0.0.UPF: wavefunction(s)  2S 2P renormalized

     gamma-point specific algorithms are used
     Message from routine setup:
     using ibrav=0 with symmetry is DISCOURAGED, use correct ibrav instead

     Subspace diagonalization in iterative solution of the eigenvalue problem:
     a serial algorithm will be used

     Using Slab Decomposition

     bravais-lattice index     =            0
     lattice parameter (alat)  =       4.6639  a.u.
     unit-cell volume          =     711.9034 (a.u.)^3
     number of atoms/cell      =            2
     number of atomic types    =            1
     number of electrons       =         8.00
     number of Kohn-Sham states=            8
     kinetic-energy cutoff     =      30.0000  Ry
     charge density cutoff     =     240.0000  Ry
     scf convergence threshold =      1.0E-06
     mixing beta               =       0.7000
     number of iterations used =            8  plain     mixing
     Exchange-correlation= SLA  PW   PBX  PBC
                           (   1   4   3   4   0   0   0)

     celldm(1)=   4.663901  celldm(2)=   0.000000  celldm(3)=   0.000000
     celldm(4)=   0.000000  celldm(5)=   0.000000  celldm(6)=   0.000000

     crystal axes: (cart. coord. in units of alat)
               a(1) = (   1.000000   0.000000   0.000000 )
               a(2) = (  -0.500000   0.866025   0.000000 )
               a(3) = (   0.000000   0.000000   8.102937 )

     reciprocal axes: (cart. coord. in units 2 pi/alat)
               b(1) = (  1.000000  0.577350  0.000000 )
               b(2) = (  0.000000  1.154701  0.000000 )
               b(3) = (  0.000000  0.000000  0.123412 )

     PseudoPot. # 1 for C  read from file:
     /home/pragov/projects/rrg-bengioy-ad/pragov/crystal_structure_design/SSSP/C.pbe-n-kjpaw_psl.1.0.0.UPF
     MD5 check sum: 5d2aebdfa2cae82b50a7e79e9516da0f
     Pseudo is Projector augmented-wave + core cor, Zval =  4.0
     Generated using "atomic" code by A. Dal Corso  v.5.1
     Shape of augmentation charge: PSQ
     Using radial grid of 1073 points,  4 beta functions with:
                l(1) =   0
                l(2) =   0
                l(3) =   1
                l(4) =   1
     Q(r) pseudized with 0 coefficients

     atomic species   valence    mass     pseudopotential
        C              4.00    12.01100     C ( 1.00)

     24 Sym. Ops., with inversion, found

                                    s                        frac. trans.

      isym =  1     identity

 cryst.   s( 1) = (     1          0          0      )
                  (     0          1          0      )
                  (     0          0          1      )

 cart.    s( 1) = (  1.0000000  0.0000000  0.0000000 )
                  (  0.0000000  1.0000000  0.0000000 )
                  (  0.0000000  0.0000000  1.0000000 )

      isym =  2     180 deg rotation - cart. axis [0,0,1]

[...]

      isym =  4     180 deg rotation - cart. axis [1,0,0]

[...]

      isym =  5      60 deg rotation - cryst. axis [0,0,1]

[...]

 cryst.   s( 9) = (     0         -1          0      )
                  (    -1          0          0      )
                  (     0          0         -1      )

 cart.    s( 9) = (  0.5000001 -0.8660253  0.0000000 )
                  ( -0.8660253 -0.5000001  0.0000000 )
                  (  0.0000000  0.0000000 -1.0000000 )

[...]

 cryst.   s(10) = (     1          1          0      )
                  (     0         -1          0      )
                  (     0          0         -1      )

 cart.    s(10) = (  0.4999999  0.8660256  0.0000000 )
                  (  0.8660253 -0.4999999  0.0000000 )
                  (  0.0000000  0.0000000 -1.0000000 )

[...]

      isym = 12     180 deg rotation - cryst. axis [1,1,0]

[...]

      isym = 13     inversion

[...]

      isym = 14     inv. 180 deg rotation - cart. axis [0,0,1]

[...]

      isym = 16     inv. 180 deg rotation - cart. axis [1,0,0]

[...]

      isym = 17     inv.  60 deg rotation - cryst. axis [0,0,1]

[...]

      isym = 24     inv. 180 deg rotation - cryst. axis [1,1,0]

 cryst.   s(24) = (     0         -1          0      )
                  (    -1          0          0      )
                  (     0          0          1      )

 cart.    s(24) = (  0.5000001 -0.8660253  0.0000000 )
                  ( -0.8660253 -0.5000001  0.0000000 )
                  (  0.0000000  0.0000000  1.0000000 )

   Cartesian axes

     site n.     atom                  positions (alat units)
         1           C   tau(   1) = (  -0.0000006   0.5773505   0.0000000  )
         2           C   tau(   2) = (   0.5000005   0.2886748   0.0000000  )

   Crystallographic axes

     site n.     atom                  positions (cryst. coord.)
         1           C   tau(   1) = (  0.3333330  0.6666670  0.0000000  )
         2           C   tau(   2) = (  0.6666670  0.3333330  0.0000000  )

     number of k points=     1  Methfessel-Paxton smearing, width (Ry)=  0.0010
                       cart. coord. in units 2pi/alat
        k(    1) = (   0.0000000   0.0000000   0.0000000), wk =   2.0000000

                       cryst. coord.
        k(    1) = (   0.0000000   0.0000000   0.0000000), wk =   2.0000000

     Check: negative core charge=   -0.000011

     Initial potential from superposition of free atoms

     starting charge       7.9999, renormalised to       8.0000

     negative rho (up, down):  3.969E-04 0.000E+00
     Starting wfcs are    8 randomized atomic wfcs
     Checking if some PAW data can be deallocated...

     Self-consistent Calculation

     iteration #  1     ecut=    30.00 Ry     beta= 0.70
     Davidson diagonalization with overlap

     ethr =  1.00E-02,  avg # of iterations =  5.0

     negative rho (up, down):  6.899E-04 0.000E+00

     total energy              =     -36.31649755 Ry
     estimated scf accuracy    <       0.36459631 Ry

[...]

     total energy              =     -36.36274051 Ry
     estimated scf accuracy    <       0.00000193 Ry

     iteration #  7     ecut=    30.00 Ry     beta= 0.70
     Davidson diagonalization with overlap

     ethr =  1.30E-08,  avg # of iterations =  2.0

[...]

     End of self-consistent calculation

          k = 0.0000 0.0000 0.0000 (   954 PWs)   bands (ev):

   -21.7750 -10.0634  -4.9958  -4.9957   0.5943   1.2677   1.3747   2.4189

     occupation numbers
     1.0000   1.0000   1.0000   1.0000  -0.0000  -0.0000  -0.0000  -0.0000

     the Fermi energy is    -3.5615 ev

!    total energy              =     -36.36274062 Ry

     total all-electron energy =      -151.890936 Ry
     estimated scf accuracy    <       0.00000014 Ry
     smearing contrib. (-TS)   =       0.00000000 Ry
     internal energy E=F+TS    =     -36.36274062 Ry

     The total energy is F=E-TS. E is the sum of the following terms:
     one-electron contribution =    -222.85981732 Ry
     hartree contribution      =     113.21831549 Ry
     xc contribution           =      -9.41713692 Ry
     ewald contribution        =      94.96251753 Ry
     one-center paw contrib.   =     -12.26661940 Ry
      -> PAW hartree energy AE =      18.69688395 Ry
      -> PAW hartree energy PS =     -18.68349051 Ry
      -> PAW xc energy AE      =     -21.24171462 Ry
      -> PAW xc energy PS      =       8.96170178 Ry
      -> total E_H with PAW    =     113.23170894 Ry
      -> total E_XC with PAW   =     -21.69714977 Ry

     convergence has been achieved in   7 iterations

     negative rho (up, down):  7.903E-04 0.000E+00

     Forces acting on atoms (cartesian axes, Ry/au):

     atom    1 type  1   force =    -0.00000000    0.00000000    0.00000000
     atom    2 type  1   force =     0.00000000   -0.00000000    0.00000000
     The non-local contrib.  to forces
     atom    1 type  1   force =     0.00000000    0.00000000   -0.00000000
     atom    2 type  1   force =     0.00000000    0.00000000    0.00000000
     The ionic contribution  to forces
     atom    1 type  1   force =     0.00001814   -0.00001047    0.00000000
     atom    2 type  1   force =    -0.00001814    0.00001047   -0.00000000
     The local contribution  to forces
     atom    1 type  1   force =    -0.00009578    0.00005501   -0.00006105
     atom    2 type  1   force =    -0.00005894    0.00003311   -0.00006359
     The core correction contribution to forces
     atom    1 type  1   force =    -0.00000113    0.00000066   -0.00000025
     atom    2 type  1   force =    -0.00000070    0.00000039   -0.00000013
     The Hubbard contrib.    to forces
     atom    1 type  1   force =     0.00000000    0.00000000    0.00000000
     atom    2 type  1   force =     0.00000000    0.00000000    0.00000000
     The SCF correction term to forces
     atom    1 type  1   force =     0.00002758   -0.00001577    0.00004702
     atom    2 type  1   force =     0.00002689   -0.00001528    0.00004678

     Total force =     0.000000     Total SCF correction =     0.000080

     Computing stress (Cartesian axis) and pressure

     negative rho (up, down):  7.903E-04 0.000E+00
          total   stress  (Ry/bohr**3)                   (kbar)     P=       18.21
   0.00024126   0.00000000   0.00000000           35.49        0.00        0.00
   0.00000000   0.00024126   0.00000000            0.00       35.49        0.00
  -0.00000000  -0.00000000  -0.00011124           -0.00       -0.00      -16.36

     kinetic stress (kbar)   2247.32      0.00      0.00
                                0.00   2247.32      0.00
                                0.00      0.00   2169.41

     local   stress (kbar) -48907.81     -0.01     -0.00
                               -0.01 -48907.82      0.00
                               -0.00      0.00  48787.76

     nonloc. stress (kbar)    333.84      0.00      0.00
                                0.00    333.84      0.00
                                0.00      0.00    286.52

     hartree stress (kbar)  23176.98      0.00      0.00
                                0.00  23176.98     -0.00
                                0.00     -0.00 -22958.95

     exc-cor stress (kbar)    -40.59      0.00      0.00
                                0.00    -40.59     -0.00
                                0.00     -0.00    -65.18

     corecor stress (kbar)   -477.04     -0.00     -0.00
                               -0.00   -477.04      0.00
                               -0.00      0.00   -453.03

     ewald   stress (kbar)  23702.80      0.01     -0.00
                                0.01  23702.81      0.00
                               -0.00      0.00 -27782.91

     hubbard stress (kbar)      0.00      0.00      0.00
                                0.00      0.00      0.00
                                0.00      0.00      0.00

     DFT-D   stress (kbar)      0.00      0.00      0.00
                                0.00      0.00      0.00
                                0.00      0.00      0.00

     XDM     stress (kbar)      0.00      0.00      0.00
                                0.00      0.00      0.00
                                0.00      0.00      0.00

     dft-nl  stress (kbar)      0.00      0.00      0.00
                                0.00      0.00      0.00
                                0.00      0.00      0.00

     TS-vdW  stress (kbar)      0.00      0.00      0.00
                                0.00      0.00      0.00
                                0.00      0.00      0.00

[...]

                                0.00      0.00      0.00

     Writing all to output data dir new_calculations/myprefix.save/

     General routines

     Parallel routines

     PAW routines

   This run was terminated on:  21:17:32  20May2023

   JOB DONE.