     Program PWSCF v.7.0 starts on 21May2023 at  1:34: 2

     Reading input from espresso_6666.pwi
Warning: card &CELL ignored
Warning: card / ignored

     Current dimensions of program PWSCF are:
     Max number of different atomic species (ntypx) = 10
     Max number of k-points (npk) =  40000
     Max angular momentum in pseudopotentials (lmaxx) =  4

     gamma-point specific algorithms are used
     Message from routine setup:
     using ibrav=0 with symmetry is DISCOURAGED, use correct ibrav instead

     Subspace diagonalization in iterative solution of the eigenvalue problem:
     a serial algorithm will be used

     Using Slab Decomposition

     bravais-lattice index     =            0
     lattice parameter (alat)  =       7.2391  a.u.
     unit-cell volume          =    1238.9711 (a.u.)^3
     number of atoms/cell      =           12
     number of atomic types    =            2
     number of electrons       =        96.00
     number of Kohn-Sham states=           58
     kinetic-energy cutoff     =      30.0000  Ry
     charge density cutoff     =     240.0000  Ry
     scf convergence threshold =      1.0E-06
     mixing beta               =       0.7000
     number of iterations used =            8  plain     mixing
     Exchange-correlation=  SLA  PW   PBX  PBC
                           (   1   4   3   4   0   0   0)

     celldm(1)=   7.239148  celldm(2)=   0.000000  celldm(3)=   0.000000
     celldm(4)=   0.000000  celldm(5)=   0.000000  celldm(6)=   0.000000

     crystal axes: (cart. coord. in units of alat)
               a(1) = (   1.000000   0.000000   0.000000 )
               a(2) = (   0.000000   1.663375   0.000000 )
               a(3) = (   0.000000   0.000000   1.963400 )

     reciprocal axes: (cart. coord. in units 2 pi/alat)
               b(1) = (  1.000000  0.000000  0.000000 )
               b(2) = (  0.000000  0.601188  0.000000 )
               b(3) = (  0.000000  0.000000  0.509321 )

     PseudoPot. # 1 for Sr read from file:
     /home/pragov/projects/rrg-bengioy-ad/pragov/crystal_structure_design/SSSP/Sr_pbe_v1.uspp.F.UPF
     MD5 check sum: 6b418c05fbe9db5448babca5e47b7a5b
     Pseudo is Ultrasoft + core correction, Zval = 10.0
     Generated by new atomic code, or converted to UPF format
     Using radial grid of  883 points,  6 beta functions with:
                l(1) =   0
                l(2) =   0
                l(3) =   1
                l(4) =   1
                l(5) =   2
                l(6) =   2
     Q(r) pseudized with  6 coefficients,  rinner =    1.400   1.400   1.400
                                                       1.400   1.400

     PseudoPot. # 2 for F  read from file:
     /home/pragov/projects/rrg-bengioy-ad/pragov/crystal_structure_design/SSSP/f_pbe_v1.4.uspp.F.UPF
     MD5 check sum: 4c38b6a325caf53ec0e86aed9459de46
     Pseudo is Ultrasoft, Zval =  7.0
     Generated by new atomic code, or converted to UPF format
     Using radial grid of  799 points,  4 beta functions with:
                l(1) =   0
                l(2) =   0
                l(3) =   1
                l(4) =   1
     Q(r) pseudized with  8 coefficients,  rinner =    0.950   0.950   0.950

     atomic species   valence    mass     pseudopotential
        Sr            10.00    87.62000     Sr( 1.00)
        F              7.00    18.99840     F ( 1.00)

      8 Sym. Ops., with inversion, found ( 6 have fractional translation)

                                    s                        frac. trans.

      isym =  1     identity

 cryst.   s( 1) = (     1          0          0      )
                  (     0          1          0      )
                  (     0          0          1      )

 cart.    s( 1) = (  1.0000000  0.0000000  0.0000000 )
                  (  0.0000000  1.0000000  0.0000000 )
                  (  0.0000000  0.0000000  1.0000000 )

      isym =  2     180 deg rotation - cart. axis [0,0,1]

 cryst.   s( 2) = (    -1          0          0      )    f =(  0.0000000 )
                  (     0         -1          0      )       (  0.5000000 )
                  (     0          0          1      )       ( -0.5000000 )

 cart.    s( 2) = ( -1.0000000  0.0000000  0.0000000 )    f =(  0.0000000 )
                  (  0.0000000 -1.0000000  0.0000000 )       (  0.8316873 )
                  (  0.0000000  0.0000000  1.0000000 )       ( -0.9817000 )

[...]

      isym =  4     180 deg rotation - cart. axis [1,0,0]

[...]

      isym =  5     inversion

 cryst.   s( 5) = (    -1          0          0      )
                  (     0         -1          0      )
                  (     0          0         -1      )

 cart.    s( 5) = ( -1.0000000  0.0000000  0.0000000 )
                  (  0.0000000 -1.0000000  0.0000000 )
                  (  0.0000000  0.0000000 -1.0000000 )

      isym =  6     inv. 180 deg rotation - cart. axis [0,0,1]

[...]

      isym =  8     inv. 180 deg rotation - cart. axis [1,0,0]

 cryst.   s( 8) = (    -1          0          0      )    f =( -0.5000000 )
                  (     0          1          0      )       (  0.0000000 )
                  (     0          0          1      )       (  0.0000000 )

 cart.    s( 8) = ( -1.0000000  0.0000000  0.0000000 )    f =( -0.5000000 )
                  (  0.0000000  1.0000000  0.0000000 )       (  0.0000000 )
                  (  0.0000000  0.0000000  1.0000000 )       (  0.0000000 )

   Cartesian axes

     site n.     atom                  positions (alat units)
         1           Sr  tau(   1) = (   0.7500000   0.4182622   0.7580354  )
         2           Sr  tau(   2) = (   0.7500000   1.2499495   0.2236646  )
         3           Sr  tau(   3) = (   0.2500000   1.2451124   1.2053646  )
         4           Sr  tau(   4) = (   0.2500000   0.4134251   1.7397354  )
         5           F   tau(   5) = (   0.7500000   0.2372089   0.1401495  )
         6           F   tau(   6) = (   0.7500000   1.0688961   0.8415505  )
         7           F   tau(   7) = (   0.2500000   1.4261657   1.8232505  )
         8           F   tau(   8) = (   0.2500000   0.5944784   1.1218495  )
         9           F   tau(   9) = (   0.7500000   0.8756919   1.6356850  )
        10           F   tau(  10) = (   0.7500000   0.0440046   1.3094150  )
        11           F   tau(  11) = (   0.2500000   0.7876827   0.3277150  )
        12           F   tau(  12) = (   0.2500000   1.6193700   0.6539850  )

   Crystallographic axes

     site n.     atom                  positions (cryst. coord.)
         1           Sr  tau(   1) = (  0.7500000  0.2514540  0.3860830  )
         2           Sr  tau(   2) = (  0.7500000  0.7514540  0.1139170  )
         3           Sr  tau(   3) = (  0.2500000  0.7485460  0.6139170  )
         4           Sr  tau(   4) = (  0.2500000  0.2485460  0.8860830  )
         5           F   tau(   5) = (  0.7500000  0.1426070  0.0713810  )
         6           F   tau(   6) = (  0.7500000  0.6426070  0.4286190  )
         7           F   tau(   7) = (  0.2500000  0.8573930  0.9286190  )
         8           F   tau(   8) = (  0.2500000  0.3573930  0.5713810  )
         9           F   tau(   9) = (  0.7500000  0.5264550  0.8330880  )
        10           F   tau(  10) = (  0.7500000  0.0264550  0.6669120  )
        11           F   tau(  11) = (  0.2500000  0.4735450  0.1669120  )
        12           F   tau(  12) = (  0.2500000  0.9735450  0.3330880  )

     number of k points=     1  Methfessel-Paxton smearing, width (Ry)=  0.0010
                       cart. coord. in units 2pi/alat
        k(    1) = (   0.0000000   0.0000000   0.0000000), wk =   2.0000000

                       cryst. coord.
        k(    1) = (   0.0000000   0.0000000   0.0000000), wk =   2.0000000

     Check: negative core charge=   -0.000004

     Initial potential from superposition of free atoms

     starting charge      95.8654, renormalised to      96.0000

     negative rho (up, down):  2.470E-01 0.000E+00
     Starting wfcs are   84 randomized atomic wfcs

     Self-consistent Calculation

     iteration #  1     ecut=    30.00 Ry     beta= 0.70
     Davidson diagonalization with overlap

     ethr =  1.00E-02,  avg # of iterations =  2.0

     negative rho (up, down):  2.522E-01 0.000E+00

     total energy              =    -670.70349514 Ry
     estimated scf accuracy    <       1.74537765 Ry

[...]

     total energy              =    -671.48775448 Ry
     estimated scf accuracy    <       0.00000284 Ry

     iteration #  9     ecut=    30.00 Ry     beta= 0.70
     Davidson diagonalization with overlap

     ethr =  2.95E-09,  avg # of iterations =  2.0

[...]

     End of self-consistent calculation

          k = 0.0000 0.0000 0.0000 (  1731 PWs)   bands (ev):

   -26.4696 -26.4080 -26.4060 -26.4001 -15.8551 -15.6545 -15.6332 -15.4708
   -15.1133 -15.0336 -14.9733 -14.9630  -8.5044  -8.5029  -8.4655  -8.4222
    -8.3689  -8.3501  -8.3434  -8.3079  -8.2890  -8.2835  -8.2128  -8.0799
     2.2970   2.3466   2.3476   2.3755   2.5705   2.6166   2.7251   2.7533
     2.8006   2.8420   3.0651   3.1558   3.2008   3.3626   3.4510   3.4757
     3.4849   3.5201   3.7161   3.7574   3.8131   4.0295   4.0328   4.0881
    11.0813  12.1147  12.7523  13.1392  13.3953  13.4473  13.5190  13.7197
    14.2374  14.3323

     occupation numbers
     1.0000   1.0000   1.0000   1.0000   1.0000   1.0000   1.0000   1.0000
     1.0000   1.0000   1.0000   1.0000   1.0000   1.0000   1.0000   1.0000
     1.0000   1.0000   1.0000   1.0000   1.0000   1.0000   1.0000   1.0000
     1.0000   1.0000   1.0000   1.0000   1.0000   1.0000   1.0000   1.0000
     1.0000   1.0000   1.0000   1.0000   1.0000   1.0000   1.0000   1.0000
     1.0000   1.0000   1.0000   1.0000   1.0000   1.0000   1.0000   1.0000
    -0.0000  -0.0000  -0.0000  -0.0000  -0.0000  -0.0000  -0.0000  -0.0000
    -0.0000  -0.0000

     the Fermi energy is     4.1999 ev

!    total energy              =    -671.48775445 Ry
     estimated scf accuracy    <       0.00000040 Ry
     smearing contrib. (-TS)   =       0.00000000 Ry
     internal energy E=F+TS    =    -671.48775445 Ry

     The total energy is F=E-TS. E is the sum of the following terms:
     one-electron contribution =    -207.95776657 Ry
     hartree contribution      =     158.90352658 Ry
     xc contribution           =    -148.84803306 Ry
     ewald contribution        =    -473.58548140 Ry

     convergence has been achieved in   9 iterations

     negative rho (up, down):  2.604E-01 0.000E+00

     Forces acting on atoms (cartesian axes, Ry/au):

     atom    1 type  1   force =     0.00000000   -0.00141964    0.02574501
     atom    2 type  1   force =    -0.00000000   -0.00141964   -0.02574501
     atom    3 type  1   force =     0.00000000    0.00141964   -0.02574501
     atom    4 type  1   force =    -0.00000000    0.00141964    0.02574501
     atom    5 type  2   force =     0.00000000    0.01263092   -0.02738867
     atom    6 type  2   force =     0.00000000    0.01263092    0.02738867
     atom    7 type  2   force =    -0.00000000   -0.01263092    0.02738867
     atom    8 type  2   force =    -0.00000000   -0.01263092   -0.02738867
     atom    9 type  2   force =    -0.00000000   -0.01839214    0.00463325
     atom   10 type  2   force =     0.00000000   -0.01839214   -0.00463325
     atom   11 type  2   force =     0.00000000    0.01839214   -0.00463325
     atom   12 type  2   force =     0.00000000    0.01839214    0.00463325
     The non-local contrib.  to forces
     atom    1 type  1   force =     0.00000000   -0.00461923    0.00751669
     atom    2 type  1   force =    -0.00000000   -0.00461923   -0.00751669
     atom    3 type  1   force =     0.00000000    0.00461923   -0.00751669
     atom    4 type  1   force =    -0.00000000    0.00461923    0.00751669
     atom    5 type  2   force =     0.00000000    0.00229308   -0.01732646
     atom    6 type  2   force =     0.00000000    0.00229308    0.01732646
     atom    7 type  2   force =    -0.00000000   -0.00229308    0.01732646
     atom    8 type  2   force =    -0.00000000   -0.00229308   -0.01732646
     atom    9 type  2   force =    -0.00000000   -0.02550860    0.14381604
     atom   10 type  2   force =    -0.00000000   -0.02550860   -0.14381604
     atom   11 type  2   force =     0.00000000    0.02550860   -0.14381604
     atom   12 type  2   force =     0.00000000    0.02550860    0.14381604
     The ionic contribution  to forces
     atom    1 type  1   force =     0.00000000   -0.63267660   -0.85152530
     atom    2 type  1   force =     0.00000000   -0.63267660    0.85152530
     atom    3 type  1   force =     0.00000000    0.63267660    0.85152530
     atom    4 type  1   force =    -0.00000000    0.63267660   -0.85152530
     atom    5 type  2   force =     0.00000000    0.49937408    0.41321546
     atom    6 type  2   force =     0.00000000    0.49937408   -0.41321546
     atom    7 type  2   force =    -0.00000000   -0.49937408   -0.41321546
     atom    8 type  2   force =    -0.00000000   -0.49937408    0.41321546
     atom    9 type  2   force =     0.00000000    0.15838722   -0.76539326
     atom   10 type  2   force =     0.00000000    0.15838722    0.76539326
     atom   11 type  2   force =    -0.00000000   -0.15838722    0.76539326
     atom   12 type  2   force =     0.00000000   -0.15838722   -0.76539326
     The local contribution  to forces
     atom    1 type  1   force =    -0.00005007    0.63558985    0.87068926
     atom    2 type  1   force =     0.00000136    0.63557235   -0.87067065
     atom    3 type  1   force =     0.00001715   -0.63558917   -0.87065930
     atom    4 type  1   force =    -0.00000731   -0.63556522    0.87061242
     atom    5 type  2   force =    -0.00000466   -0.48900146   -0.42326297
     atom    6 type  2   force =    -0.00000430   -0.48899103    0.42327087
     atom    7 type  2   force =    -0.00000130    0.48899566    0.42325816
     atom    8 type  2   force =     0.00000114    0.48899369   -0.42325140
     atom    9 type  2   force =    -0.00000571   -0.15129202    0.62626011
     atom   10 type  2   force =     0.00000139   -0.15129435   -0.62626394
     atom   11 type  2   force =     0.00000655    0.15130188   -0.62626745
     atom   12 type  2   force =     0.00000149    0.15128867    0.62626453
     The core correction contribution to forces
     atom    1 type  1   force =    -0.00000247    0.00023829   -0.00097663
     atom    2 type  1   force =     0.00000135    0.00023650    0.00097586
     atom    3 type  1   force =     0.00000024   -0.00023707    0.00097769
     atom    4 type  1   force =     0.00000018   -0.00023582   -0.00097777
     atom    5 type  2   force =     0.00000000    0.00000000    0.00000000
     atom    6 type  2   force =     0.00000000    0.00000000    0.00000000
     atom    7 type  2   force =     0.00000000    0.00000000    0.00000000
     atom    8 type  2   force =     0.00000000    0.00000000    0.00000000
     atom    9 type  2   force =     0.00000000    0.00000000    0.00000000
     atom   10 type  2   force =     0.00000000    0.00000000    0.00000000
     atom   11 type  2   force =     0.00000000    0.00000000    0.00000000
     atom   12 type  2   force =     0.00000000    0.00000000    0.00000000
     The Hubbard contrib.    to forces
     atom    1 type  1   force =     0.00000000    0.00000000    0.00000000
     atom    2 type  1   force =     0.00000000    0.00000000    0.00000000
     atom    3 type  1   force =     0.00000000    0.00000000    0.00000000
     atom    4 type  1   force =     0.00000000    0.00000000    0.00000000
     atom    5 type  2   force =     0.00000000    0.00000000    0.00000000
     atom    6 type  2   force =     0.00000000    0.00000000    0.00000000
     atom    7 type  2   force =     0.00000000    0.00000000    0.00000000
     atom    8 type  2   force =     0.00000000    0.00000000    0.00000000
     atom    9 type  2   force =     0.00000000    0.00000000    0.00000000
     atom   10 type  2   force =     0.00000000    0.00000000    0.00000000
     atom   11 type  2   force =     0.00000000    0.00000000    0.00000000
     atom   12 type  2   force =     0.00000000    0.00000000    0.00000000
     The SCF correction term to forces
     atom    1 type  1   force =     0.00003340    0.00005945    0.00004403
     atom    2 type  1   force =    -0.00000166    0.00005901   -0.00005538
     atom    3 type  1   force =    -0.00001218   -0.00005603   -0.00008233
     atom    4 type  1   force =     0.00000135   -0.00006600    0.00010907
     atom    5 type  2   force =     0.00000811   -0.00003132   -0.00001480
     atom    6 type  2   force =     0.00000919   -0.00004399    0.00000276
     atom    7 type  2   force =    -0.00000003    0.00004147    0.00001981
     atom    8 type  2   force =    -0.00000386    0.00004632   -0.00002993
     atom    9 type  2   force =     0.00000953    0.00001862   -0.00004598
     atom   10 type  2   force =    -0.00000135    0.00002056    0.00005409
     atom   11 type  2   force =    -0.00001222   -0.00003560    0.00005837
     atom   12 type  2   force =    -0.00000544   -0.00001909   -0.00005568

     Total force =     0.087960     Total SCF correction =     0.000249

     Computing stress (Cartesian axis) and pressure

     negative rho (up, down):  2.604E-01 0.000E+00
          total   stress  (Ry/bohr**3)                   (kbar)     P=     -101.01
  -0.00009690   0.00000000   0.00000000          -14.25        0.00        0.00
   0.00000000  -0.00090962   0.00000000            0.00     -133.81        0.00
   0.00000000   0.00000000  -0.00105343            0.00        0.00     -154.97

     kinetic stress (kbar)  18114.77      0.00      0.00
                                0.00  17886.98      0.00
                                0.00      0.00  17879.82

     local   stress (kbar)  -7533.12     -0.00     -0.00
                               -0.00  -7135.80      0.00
                               -0.00      0.00  -7630.51

     nonloc. stress (kbar)   6625.38      0.00      0.00
                                0.00   6637.89      0.00
                                0.00      0.00   6620.64

     hartree stress (kbar)   6327.77      0.00     -0.00
                                0.00   6209.23     -0.00
                               -0.00     -0.00   6329.88

     exc-cor stress (kbar)    -46.88      0.00      0.00
                                0.00    -48.41     -0.00
                                0.00     -0.00    -46.07

     corecor stress (kbar)  -4755.04     -0.00     -0.00
                               -0.00  -4755.10      0.00
                               -0.00      0.00  -4754.90

     ewald   stress (kbar) -18747.14     -0.00     -0.00
                               -0.00 -18928.60     -0.00
                               -0.00     -0.00 -18553.84

     hubbard stress (kbar)      0.00      0.00      0.00
                                0.00      0.00      0.00
                                0.00      0.00      0.00

     DFT-D   stress (kbar)      0.00      0.00      0.00
                                0.00      0.00      0.00
                                0.00      0.00      0.00

     XDM     stress (kbar)      0.00      0.00      0.00
                                0.00      0.00      0.00
                                0.00      0.00      0.00

     dft-nl  stress (kbar)      0.00      0.00      0.00
                                0.00      0.00      0.00
                                0.00      0.00      0.00

     TS-vdW  stress (kbar)      0.00      0.00      0.00
                                0.00      0.00      0.00
                                0.00      0.00      0.00

[...]

                                0.00      0.00      0.00

     Writing all to output data dir new_calculations/myprefix.save/

     General routines

     Parallel routines

   This run was terminated on:   1:34:17  21May2023

   JOB DONE.