     Program PWSCF v.7.0 starts on 20May2023 at 11:11:45

     Reading input from espresso_3418.pwi
Warning: card &CELL ignored
Warning: card / ignored

     Current dimensions of program PWSCF are:
     Max number of different atomic species (ntypx) = 10
     Max number of k-points (npk) =  40000
     Max angular momentum in pseudopotentials (lmaxx) =  4
     file K.pbe-spn-kjpaw_psl.1.0.0.UPF: wavefunction(s)  3S renormalized

     gamma-point specific algorithms are used
     Message from routine setup:
     using ibrav=0 with symmetry is DISCOURAGED, use correct ibrav instead

     Subspace diagonalization in iterative solution of the eigenvalue problem:
     a serial algorithm will be used

     Using Slab Decomposition

     bravais-lattice index     =            0
     lattice parameter (alat)  =      11.7090  a.u.
     unit-cell volume          =    1135.1240 (a.u.)^3
     number of atoms/cell      =           10
     number of atomic types    =            4
     number of electrons       =        97.00
     number of Kohn-Sham states=           59
     kinetic-energy cutoff     =      30.0000  Ry
     charge density cutoff     =     240.0000  Ry
     scf convergence threshold =      1.0E-06
     mixing beta               =       0.7000
     number of iterations used =            8  plain     mixing
     Exchange-correlation=  SLA  PW   PBX  PBC
                           (   1   4   3   4   0   0   0)

     celldm(1)=  11.708990  celldm(2)=   0.000000  celldm(3)=   0.000000
     celldm(4)=   0.000000  celldm(5)=   0.000000  celldm(6)=   0.000000

     crystal axes: (cart. coord. in units of alat)
               a(1) = (   1.000000   0.000000   0.000000 )
               a(2) = (   0.500000   0.866025   0.000000 )
               a(3) = (   0.500000   0.288675   0.816497 )

     reciprocal axes: (cart. coord. in units 2 pi/alat)
               b(1) = (  1.000000 -0.577350 -0.408248 )
               b(2) = (  0.000000  1.154701 -0.408248 )
               b(3) = (  0.000000  0.000000  1.224745 )

     PseudoPot. # 1 for K  read from file:
     /home/pragov/projects/rrg-bengioy-ad/pragov/crystal_structure_design/SSSP/K.pbe-spn-kjpaw_psl.1.0.0.UPF
     MD5 check sum: 7d58810084cac21f60fbe77ea2b688fd
     Pseudo is Projector augmented-wave + core cor, Zval =  9.0
     Generated using "atomic" code by A. Dal Corso  v.5.1
     Shape of augmentation charge: PSQ
     Using radial grid of 1165 points,  6 beta functions with:
                l(1) =   0
                l(2) =   0
                l(3) =   1
                l(4) =   1
                l(5) =   2
                l(6) =   2
     Q(r) pseudized with 0 coefficients

     PseudoPot. # 2 for Ag read from file:
     /home/pragov/projects/rrg-bengioy-ad/pragov/crystal_structure_design/SSSP/Ag_ONCV_PBE-1.0.oncvpsp.upf
     MD5 check sum: 94f47bd0669c641108e45594df92fabc
     Pseudo is Norm-conserving, Zval = 19.0
     Generated using ONCVPSP code by D. R. Hamann
     Using radial grid of 1398 points,  6 beta functions with:
                l(1) =   0
                l(2) =   0
                l(3) =   1
                l(4) =   1
                l(5) =   2
                l(6) =   2

     PseudoPot. # 3 for Pd read from file:
     /home/pragov/projects/rrg-bengioy-ad/pragov/crystal_structure_design/SSSP/Pd_ONCV_PBE-1.0.oncvpsp.upf
     MD5 check sum: eb77f42b51d86fb18e25f68156a31cf1
     Pseudo is Norm-conserving, Zval = 18.0
     Generated using ONCVPSP code by D. R. Hamann
     Using radial grid of 1410 points,  6 beta functions with:
                l(1) =   0
                l(2) =   0
                l(3) =   1
                l(4) =   1
                l(5) =   2
                l(6) =   2

     PseudoPot. # 4 for F  read from file:
     /home/pragov/projects/rrg-bengioy-ad/pragov/crystal_structure_design/SSSP/f_pbe_v1.4.uspp.F.UPF
     MD5 check sum: 4c38b6a325caf53ec0e86aed9459de46
     Pseudo is Ultrasoft, Zval =  7.0
     Generated by new atomic code, or converted to UPF format
     Using radial grid of  799 points,  4 beta functions with:
                l(1) =   0
                l(2) =   0
                l(3) =   1
                l(4) =   1
     Q(r) pseudized with  8 coefficients,  rinner =    0.950   0.950   0.950

     atomic species   valence    mass     pseudopotential
        K              9.00    39.09830     K ( 1.00)
        Ag            19.00   107.86820     Ag( 1.00)
        Pd            18.00   106.42000     Pd( 1.00)
        F              7.00    18.99840     F ( 1.00)

     12 Sym. Ops., with inversion, found

                                    s                        frac. trans.

      isym =  1     identity

 cryst.   s( 1) = (     1          0          0      )
                  (     0          1          0      )
                  (     0          0          1      )

 cart.    s( 1) = (  1.0000000  0.0000000 -0.0000000 )
                  (  0.0000000  1.0000000 -0.0000000 )
                  (  0.0000000  0.0000000  1.0000000 )

      isym =  2     180 deg rotation - cart. axis [1,0,0]

[...]

      isym =  3     120 deg rotation - cryst. axis [0,0,1]

[...]

      isym =  6     180 deg rotation - cryst. axis [1,1,0]

[...]

      isym =  7     inversion

[...]

      isym =  8     inv. 180 deg rotation - cart. axis [1,0,0]

[...]

      isym =  9     inv. 120 deg rotation - cryst. axis [0,0,1]

 cryst.   s( 9) = (     1         -1          0      )
                  (     1          0          0      )
                  (     1          0         -1      )

 cart.    s( 9) = (  0.5000000  0.8660254 -0.0000000 )
                  ( -0.8660254  0.5000000 -0.0000000 )
                  (  0.0000000  0.0000000 -1.0000000 )

[...]

 cryst.   s(10) = (     0          1          0      )
                  (    -1          1          0      )
                  (     0          1         -1      )

 cart.    s(10) = (  0.5000000 -0.8660254  0.0000000 )
                  (  0.8660254  0.5000000 -0.0000000 )
                  (  0.0000000  0.0000000 -1.0000000 )

[...]

      isym = 12     inv. 180 deg rotation - cryst. axis [1,1,0]

 cryst.   s(12) = (     1         -1          0      )
                  (     0         -1          0      )
                  (     0         -1          1      )

 cart.    s(12) = (  0.5000000 -0.8660254  0.0000000 )
                  ( -0.8660254 -0.5000000  0.0000000 )
                  (  0.0000000  0.0000000  1.0000000 )

   Cartesian axes

     site n.     atom                  positions (alat units)
         1           K   tau(   1) = (   1.5000000   0.8660254   0.6123724  )
         2           K   tau(   2) = (   0.5000000   0.2886751   0.2041241  )
         3           Ag  tau(   3) = (   1.0000000   0.5773503   0.4082483  )
         4           Pd  tau(   4) = (   0.0000000   0.0000000   0.0000000  )
         5           F   tau(   5) = (   1.0000000   0.2756143   0.1948888  )
         6           F   tau(   6) = (   0.7386890   0.4264823   0.6216078  )
         7           F   tau(   7) = (   1.0000000   0.8790862   0.6216078  )
         8           F   tau(   8) = (   0.7386890   0.7282182   0.1948888  )
         9           F   tau(   9) = (   1.2613110   0.4264823   0.6216078  )
        10           F   tau(  10) = (   1.2613110   0.7282182   0.1948888  )

   Crystallographic axes

     site n.     atom                  positions (cryst. coord.)
         1           K   tau(   1) = (  0.7500000  0.7500000  0.7500000  )
         2           K   tau(   2) = (  0.2500000  0.2500000  0.2500000  )
         3           Ag  tau(   3) = (  0.5000000  0.5000000  0.5000000  )
         4           Pd  tau(   4) = (  0.0000000  0.0000000  0.0000000  )
         5           F   tau(   5) = (  0.7613110  0.2386890  0.2386890  )
         6           F   tau(   6) = (  0.2386890  0.2386890  0.7613110  )
         7           F   tau(   7) = (  0.2386890  0.7613110  0.7613110  )
         8           F   tau(   8) = (  0.2386890  0.7613110  0.2386890  )
         9           F   tau(   9) = (  0.7613110  0.2386890  0.7613110  )
        10           F   tau(  10) = (  0.7613110  0.7613110  0.2386890  )

     number of k points=     1  Methfessel-Paxton smearing, width (Ry)=  0.0010
                       cart. coord. in units 2pi/alat
        k(    1) = (   0.0000000   0.0000000   0.0000000), wk =   2.0000000

                       cryst. coord.
        k(    1) = (   0.0000000   0.0000000   0.0000000), wk =   2.0000000

     Check: negative core charge=   -0.000003

     Initial potential from superposition of free atoms

     starting charge      96.9617, renormalised to      97.0000
     Starting wfcs are   60 randomized atomic wfcs
     Checking if some PAW data can be deallocated...

     Self-consistent Calculation

     iteration #  1     ecut=    30.00 Ry     beta= 0.70
     Davidson diagonalization with overlap

     ethr =  1.00E-02,  avg # of iterations =  7.0

     Threshold (ethr) on eigenvalues was too large:
     Diagonalizing with lowered threshold

     Davidson diagonalization with overlap

[...]

     total energy              =   -1057.66941487 Ry
     estimated scf accuracy    <       0.90717983 Ry

[...]

     total energy              =   -1058.04917012 Ry
     estimated scf accuracy    <       0.00001351 Ry

     iteration # 17     ecut=    30.00 Ry     beta= 0.70
     Davidson diagonalization with overlap

     ethr =  4.79E-09,  avg # of iterations =  1.0

     End of self-consistent calculation

          k = 0.0000 0.0000 0.0000 (  1572 PWs)   bands (ev):

   -86.3582 -79.9073 -49.3893 -49.3893 -49.3893 -45.2757 -45.2757 -45.2756
   -23.7008 -23.6877 -16.9926 -16.7012 -16.7012 -16.6893 -16.6893 -16.6893
    -7.2275  -7.2275  -7.2275  -7.1616  -7.1615  -7.1615  -0.6666  -0.5953
    -0.5953   0.6240   0.6240   0.6240   0.7880   0.7881   0.7881   2.2331
     2.2331   2.2331   2.2672   2.2672   2.2672   2.6509   2.6509   2.6509
     2.7731   2.7731   2.7731   3.3117   3.3117   4.5836   4.5836   4.5836
     6.7952   6.7953   7.9571  12.1634  12.1634  12.1634  12.3689  12.3690
    13.1377  14.4207  14.4640

     occupation numbers
     1.0000   1.0000   1.0000   1.0000   1.0000   1.0000   1.0000   1.0000
     1.0000   1.0000   1.0000   1.0000   1.0000   1.0000   1.0000   1.0000
     1.0000   1.0000   1.0000   1.0000   1.0000   1.0000   1.0000   1.0000
     1.0000   1.0000   1.0000   1.0000   1.0000   1.0000   1.0000   1.0000
     1.0000   1.0000   1.0000   1.0000   1.0000   1.0000   1.0000   1.0000
     1.0000   1.0000   1.0000   1.0000   1.0000   1.0000   1.0000   1.0000
     0.2512   0.2488  -0.0000  -0.0000  -0.0000  -0.0000  -0.0000  -0.0000
    -0.0000  -0.0000  -0.0000

     the Fermi energy is     6.7910 ev

!    total energy              =   -1058.04916984 Ry
     estimated scf accuracy    <       0.00000055 Ry
     smearing contrib. (-TS)   =      -0.00041261 Ry
     internal energy E=F+TS    =   -1058.04875723 Ry

     The total energy is F=E-TS. E is the sum of the following terms:
     one-electron contribution =    -581.04311502 Ry
     hartree contribution      =     330.62228558 Ry
     xc contribution           =    -130.52086943 Ry
     ewald contribution        =    -566.27072250 Ry
     one-center paw contrib.   =    -110.83633587 Ry
      -> PAW hartree energy AE =      75.35658112 Ry
      -> PAW hartree energy PS =     -74.93532231 Ry
      -> PAW xc energy AE      =    -132.44005135 Ry
      -> PAW xc energy PS      =      21.18245668 Ry
      -> total E_H with PAW    =     331.04354439 Ry
      -> total E_XC with PAW   =    -241.77846410 Ry

     convergence has been achieved in  17 iterations

     Forces acting on atoms (cartesian axes, Ry/au):

     atom    1 type  1   force =     0.00000000    0.00000000   -0.00000001
     atom    2 type  1   force =    -0.00000000   -0.00000000    0.00000001
     atom    3 type  2   force =     0.00000000    0.00000000    0.00000000
     atom    4 type  3   force =     0.00000000    0.00000000    0.00000000
     atom    5 type  4   force =     0.00000000    0.00845446    0.00597821
     atom    6 type  4   force =     0.00732177    0.00422723   -0.00597821
     atom    7 type  4   force =     0.00000000   -0.00845446   -0.00597821
     atom    8 type  4   force =     0.00732177   -0.00422723    0.00597821
     atom    9 type  4   force =    -0.00732177    0.00422723   -0.00597821
     atom   10 type  4   force =    -0.00732177   -0.00422723    0.00597821
     The non-local contrib.  to forces
     atom    1 type  1   force =     0.00000000    0.00000000    0.00000001
     atom    2 type  1   force =     0.00000000    0.00000000   -0.00000001
     atom    3 type  2   force =     0.00000000    0.00000000    0.00000000
     atom    4 type  3   force =     0.00000000    0.00000000   -0.00000000
     atom    5 type  4   force =     0.00000000   -0.19859879   -0.14043050
     atom    6 type  4   force =    -0.17199159   -0.09929939    0.14043050
     atom    7 type  4   force =     0.00000000    0.19859879    0.14043050
     atom    8 type  4   force =    -0.17199159    0.09929939   -0.14043050
     atom    9 type  4   force =     0.17199159   -0.09929939    0.14043050
     atom   10 type  4   force =     0.17199159    0.09929939   -0.14043050
     The ionic contribution  to forces
     atom    1 type  1   force =     0.00000000   -0.00000000    0.00000000
     atom    2 type  1   force =    -0.00000000   -0.00000000   -0.00000000
     atom    3 type  2   force =    -0.00000000    0.00000000   -0.00000000
     atom    4 type  3   force =    -0.00000000   -0.00000000    0.00000000
     atom    5 type  4   force =    -0.00000000    3.05900867    2.16304577
     atom    6 type  4   force =     2.64917922    1.52950433   -2.16304577
     atom    7 type  4   force =     0.00000000   -3.05900867   -2.16304577
     atom    8 type  4   force =     2.64917922   -1.52950433    2.16304577
     atom    9 type  4   force =    -2.64917922    1.52950433   -2.16304577
     atom   10 type  4   force =    -2.64917922   -1.52950433    2.16304577
     The local contribution  to forces
     atom    1 type  1   force =     0.00000025   -0.00000000    0.00000008
     atom    2 type  1   force =     0.00000002    0.00000008    0.00000008
     atom    3 type  2   force =     0.00000187    0.00000342   -0.00000016
     atom    4 type  3   force =    -0.00000261   -0.00000490    0.00000000
     atom    5 type  4   force =     0.00000006   -2.85163066   -2.01640729
     atom    6 type  4   force =    -2.46984019   -1.42596296    2.01661601
     atom    7 type  4   force =    -0.00000022    2.85163087    2.01640751
     atom    8 type  4   force =    -2.47017003    1.42615313   -2.01688499
     atom    9 type  4   force =     2.47016966   -1.42615336    2.01688531
     atom   10 type  4   force =     2.46984019    1.42596275   -2.01661616
     The core correction contribution to forces
     atom    1 type  1   force =     0.00000000   -0.00000000    0.00000000
     atom    2 type  1   force =     0.00000000    0.00000000    0.00000000
     atom    3 type  2   force =     0.00000000    0.00000000    0.00000000
     atom    4 type  3   force =     0.00000000    0.00000000    0.00000000
     atom    5 type  4   force =     0.00000000    0.00000000    0.00000000
     atom    6 type  4   force =     0.00000000    0.00000000    0.00000000
     atom    7 type  4   force =     0.00000000    0.00000000    0.00000000
     atom    8 type  4   force =     0.00000000    0.00000000    0.00000000
     atom    9 type  4   force =     0.00000000    0.00000000    0.00000000
     atom   10 type  4   force =     0.00000000    0.00000000    0.00000000
     The Hubbard contrib.    to forces
     atom    1 type  1   force =     0.00000000    0.00000000    0.00000000
     atom    2 type  1   force =     0.00000000    0.00000000    0.00000000
     atom    3 type  2   force =     0.00000000    0.00000000    0.00000000
     atom    4 type  3   force =     0.00000000    0.00000000    0.00000000
     atom    5 type  4   force =     0.00000000    0.00000000    0.00000000
     atom    6 type  4   force =     0.00000000    0.00000000    0.00000000
     atom    7 type  4   force =     0.00000000    0.00000000    0.00000000
     atom    8 type  4   force =     0.00000000    0.00000000    0.00000000
     atom    9 type  4   force =     0.00000000    0.00000000    0.00000000
     atom   10 type  4   force =     0.00000000    0.00000000    0.00000000
     The SCF correction term to forces
     atom    1 type  1   force =    -0.00000030    0.00000015   -0.00000008
     atom    2 type  1   force =    -0.00000005   -0.00000014   -0.00000004
     atom    3 type  2   force =    -0.00000256   -0.00000436    0.00000039
     atom    4 type  3   force =     0.00000292    0.00000540   -0.00000008
     atom    5 type  4   force =    -0.00000017   -0.00017555   -0.00012444
     atom    6 type  4   force =    -0.00001427   -0.00000820    0.00001169
     atom    7 type  4   force =     0.00000033    0.00017545    0.00012429
     atom    8 type  4   force =     0.00016372   -0.00009429    0.00013338
     atom    9 type  4   force =    -0.00016341    0.00009462   -0.00013365
     atom   10 type  4   force =     0.00001458    0.00000848   -0.00001172

     Total force =     0.025363     Total SCF correction =     0.000448

     Computing stress (Cartesian axis) and pressure

          total   stress  (Ry/bohr**3)                   (kbar)     P=     -421.71
  -0.00286675   0.00000000   0.00000000         -421.71        0.00        0.00
  -0.00000000  -0.00286675   0.00000000           -0.00     -421.71        0.00
   0.00000000   0.00000000  -0.00286675            0.00        0.00     -421.71

     kinetic stress (kbar)  28805.65     -0.00     -0.00
                               -0.00  28805.65     -0.00
                               -0.00     -0.00  28805.65

     local   stress (kbar) -16320.28      0.90     -1.28
                                0.90 -16317.62      1.88
                               -1.28      1.88 -16318.95

     nonloc. stress (kbar)   2552.24     -0.00     -0.00
                               -0.00   2552.24     -0.00
                               -0.00     -0.00   2552.24

     hartree stress (kbar)  14282.82     -0.42      0.59
                               -0.42  14281.58     -0.88
                                0.59     -0.88  14282.20

     exc-cor stress (kbar)  -4581.90     -0.00      0.00
                               -0.00  -4581.90     -0.00
                                0.00     -0.00  -4581.90

     corecor stress (kbar)   -699.23      0.00     -0.00
                                0.00   -699.23     -0.00
                               -0.00     -0.00   -699.23

     ewald   stress (kbar) -24461.73      0.00     -0.00
                                0.00 -24461.73      0.00
                               -0.00      0.00 -24461.73

     hubbard stress (kbar)      0.00      0.00      0.00
                                0.00      0.00      0.00
                                0.00      0.00      0.00

     DFT-D   stress (kbar)      0.00      0.00      0.00
                                0.00      0.00      0.00
                                0.00      0.00      0.00

     XDM     stress (kbar)      0.00      0.00      0.00
                                0.00      0.00      0.00
                                0.00      0.00      0.00

     dft-nl  stress (kbar)      0.00      0.00      0.00
                                0.00      0.00      0.00
                                0.00      0.00      0.00

     TS-vdW  stress (kbar)      0.00      0.00      0.00
                                0.00      0.00      0.00
                                0.00      0.00      0.00

[...]

                                0.00      0.00      0.00

     Writing all to output data dir new_calculations/myprefix.save/

     General routines

     Parallel routines

     PAW routines

   This run was terminated on:  11:12: 5  20May2023

   JOB DONE.