     Program PWSCF v.7.0 starts on 20May2023 at 13:28:36

     Reading input from espresso_19305.pwi
Warning: card &CELL ignored
Warning: card / ignored

     Current dimensions of program PWSCF are:
     Max number of different atomic species (ntypx) = 10
     Max number of k-points (npk) =  40000
     Max angular momentum in pseudopotentials (lmaxx) =  4
     file O.pbe-n-kjpaw_psl.0.1.UPF: wavefunction(s)  2P renormalized

     gamma-point specific algorithms are used
     Message from routine setup:
     using ibrav=0 with symmetry is DISCOURAGED, use correct ibrav instead

     Subspace diagonalization in iterative solution of the eigenvalue problem:
     a serial algorithm will be used

     Using Slab Decomposition

     bravais-lattice index     =            0
     lattice parameter (alat)  =      11.1610  a.u.
     unit-cell volume          =    1139.1387 (a.u.)^3
     number of atoms/cell      =           12
     number of atomic types    =            3
     number of electrons       =       110.00
     number of Kohn-Sham states=           66
     kinetic-energy cutoff     =      30.0000  Ry
     charge density cutoff     =     240.0000  Ry
     scf convergence threshold =      1.0E-06
     mixing beta               =       0.7000
     number of iterations used =            8  plain     mixing
     Exchange-correlation= SLA  PW   PBX  PBC
                           (   1   4   3   4   0   0   0)

     celldm(1)=  11.161028  celldm(2)=   0.000000  celldm(3)=   0.000000
     celldm(4)=   0.000000  celldm(5)=   0.000000  celldm(6)=   0.000000

     crystal axes: (cart. coord. in units of alat)
               a(1) = (   1.000000   0.000000   0.000000 )
               a(2) = (  -0.478130   0.878289   0.000000 )
               a(3) = (   0.186527   0.313919   0.932882 )

     reciprocal axes: (cart. coord. in units 2 pi/alat)
               b(1) = (  1.000000  0.544388 -0.383137 )
               b(2) = (  0.000000  1.138577 -0.383137 )
               b(3) = (  0.000000  0.000000  1.071947 )

     PseudoPot. # 1 for Na read from file:
     /home/pragov/projects/rrg-bengioy-ad/pragov/crystal_structure_design/SSSP/na_pbe_v1.5.uspp.F.UPF
     MD5 check sum: 44600605ef58000f06b90626533354dc
     Pseudo is Ultrasoft, Zval =  9.0
     Generated by new atomic code, or converted to UPF format
     Using radial grid of  819 points,  5 beta functions with:
                l(1) =   0
                l(2) =   0
                l(3) =   1
                l(4) =   1
                l(5) =   2
     Q(r) pseudized with  8 coefficients,  rinner =    1.250   1.250   1.250
                                                       1.250   1.250

     PseudoPot. # 2 for Tb read from file:
     /home/pragov/projects/rrg-bengioy-ad/pragov/crystal_structure_design/SSSP/Tb.GGA-PBE-paw-v1.0.UPF
     MD5 check sum: f7bf3d58e9b293961564f5b9598c921e
     Pseudo is Projector augmented-wave + core cor, Zval = 19.0
     Generated using ATOMPAW code
     Shape of augmentation charge: BESSEL
     Using radial grid of 1111 points,  8 beta functions with:
                l(1) =   0
                l(2) =   0
                l(3) =   1
                l(4) =   1
                l(5) =   2
                l(6) =   2
                l(7) =   3
                l(8) =   3
     Q(r) pseudized with 0 coefficients

     PseudoPot. # 3 for O  read from file:
     /home/pragov/projects/rrg-bengioy-ad/pragov/crystal_structure_design/SSSP/O.pbe-n-kjpaw_psl.0.1.UPF
     MD5 check sum: 0234752ac141de4415c5fc33072bef88
     Pseudo is Projector augmented-wave + core cor, Zval =  6.0
     Generated using "atomic" code by A. Dal Corso  v.5.0.99 svn rev. 10869
     Shape of augmentation charge: BESSEL
     Using radial grid of 1095 points,  4 beta functions with:
                l(1) =   0
                l(2) =   0
                l(3) =   1
                l(4) =   1
     Q(r) pseudized with 0 coefficients

     atomic species   valence    mass     pseudopotential
        Na             9.00    22.98977     Na( 1.00)
        Tb            19.00   158.92535     Tb( 1.00)
        O              6.00    15.99900     O ( 1.00)

      2 Sym. Ops., with inversion, found

                                    s                        frac. trans.

      isym =  1     identity

 cryst.   s( 1) = (     1          0          0      )
                  (     0          1          0      )
                  (     0          0          1      )

 cart.    s( 1) = (  1.0000000 -0.0000000  0.0000000 )
                  (  0.0000000  1.0000000  0.0000000 )
                  (  0.0000000  0.0000000  1.0000000 )

      isym =  2     inversion

 cryst.   s( 2) = (    -1          0          0      )
                  (     0         -1          0      )
                  (     0          0         -1      )

 cart.    s( 2) = ( -1.0000000  0.0000000 -0.0000000 )
                  (  0.0000000 -1.0000000 -0.0000000 )
                  (  0.0000000  0.0000000 -1.0000000 )

   Cartesian axes

     site n.     atom                  positions (alat units)
         1           Na  tau(   1) = (   1.0210007   0.3060856   0.6996612  )
         2           Na  tau(   2) = (   0.0249878   0.8979057   0.6996612  )
         3           Na  tau(   3) = (  -0.3126034   0.8861228   0.2332204  )
         4           Na  tau(   4) = (   0.6834095   0.2943027   0.2332204  )
         5           Tb  tau(   5) = (   0.5405256   0.5915787   0.6996612  )
         6           Tb  tau(   6) = (   0.1678716   0.6006297   0.2332204  )
         7           O   tau(   7) = (   0.3612390   0.8440005   0.4591933  )
         8           O   tau(   8) = (   0.3471583   0.3482078   0.4736884  )
         9           O   tau(   9) = (   0.0465765   0.3144343   0.0072476  )
        10           O   tau(  10) = (  -0.1458014   0.5961042   0.4664408  )
        11           O   tau(  11) = (   0.6618208   0.8777740   0.9256341  )
        12           O   tau(  12) = (   0.5000000   0.0000000   0.0000000  )

   Crystallographic axes

     site n.     atom                  positions (cryst. coord.)
         1           Na  tau(   1) = (  0.9195640  0.0804360  0.7500000  )
         2           Na  tau(   2) = (  0.2457310  0.7542690  0.7500000  )
         3           Na  tau(   3) = (  0.0804360  0.9195640  0.2500000  )
         4           Na  tau(   4) = (  0.7542690  0.2457310  0.2500000  )
         5           Tb  tau(   5) = (  0.5945080  0.4054920  0.7500000  )
         6           Tb  tau(   6) = (  0.4054920  0.5945080  0.2500000  )
         7           O   tau(   7) = (  0.6447690  0.7850260  0.4922310  )
         8           O   tau(   8) = (  0.3552310  0.2149740  0.5077690  )
         9           O   tau(   9) = (  0.2149740  0.3552310  0.0077690  )
        10           O   tau(  10) = ( -0.0000000  0.5000000  0.5000000  )
        11           O   tau(  11) = (  0.7850260  0.6447690  0.9922310  )
        12           O   tau(  12) = (  0.5000000  0.0000000  0.0000000  )

     number of k points=     1  Methfessel-Paxton smearing, width (Ry)=  0.0010
                       cart. coord. in units 2pi/alat
        k(    1) = (   0.0000000   0.0000000   0.0000000), wk =   2.0000000

                       cryst. coord.
        k(    1) = (   0.0000000   0.0000000   0.0000000), wk =   2.0000000

     Check: negative core charge=   -0.000012

     Initial potential from superposition of free atoms

     starting charge     109.9660, renormalised to     110.0000
     Starting wfcs are  108 randomized atomic wfcs
     Checking if some PAW data can be deallocated...

     Self-consistent Calculation

     iteration #  1     ecut=    30.00 Ry     beta= 0.70
     Davidson diagonalization with overlap

     ethr =  1.00E-02,  avg # of iterations =  2.0

     total energy              =   -2085.09984816 Ry
     estimated scf accuracy    <       4.38023081 Ry

[...]

     total energy              =   -2088.77369051 Ry
     estimated scf accuracy    <       0.00000851 Ry

     iteration # 88     ecut=    30.00 Ry     beta= 0.70
     Davidson diagonalization with overlap

     ethr =  2.94E-09,  avg # of iterations =  1.0

     End of self-consistent calculation

          k = 0.0000 0.0000 0.0000 (  1574 PWs)   bands (ev):

   -43.1662 -43.1627 -43.0663 -43.0638 -35.8396 -35.8041 -15.1558 -15.1175
   -15.1108 -15.0978 -15.0793 -15.0689 -15.0317 -15.0232 -15.0037 -14.9878
   -14.9859 -14.9845 -13.5928 -13.3021 -13.2572 -13.0171 -12.8519 -12.6871
    -9.8454  -9.3618  -9.1912  -8.7684  -8.6980  -8.4200   3.4909   3.9369
     4.0505   4.2850   4.3385   4.3777   4.5753   4.7901   4.8260   4.8288
     4.9706   5.2100   5.3314   5.3465   5.4006   5.4996   5.5062   5.7226
     6.5874   6.6136   6.7490   6.7513   6.7549   6.7846   6.8668   6.8700
     6.9340   6.9562   6.9679   7.2529   7.3260   7.4141  10.4983  12.8425
    12.8941  13.1784

     occupation numbers
     1.0000   1.0000   1.0000   1.0000   1.0000   1.0000   1.0000   1.0000
     1.0000   1.0000   1.0000   1.0000   1.0000   1.0000   1.0000   1.0000
     1.0000   1.0000   1.0000   1.0000   1.0000   1.0000   1.0000   1.0000
     1.0000   1.0000   1.0000   1.0000   1.0000   1.0000   1.0000   1.0000
     1.0000   1.0000   1.0000   1.0000   1.0000   1.0000   1.0000   1.0000
     1.0000   1.0000   1.0000   1.0000   1.0000   1.0000   1.0000   1.0000
     1.0000   1.0000   1.0000   1.0000   1.0000   1.0000   0.5983   0.4017
    -0.0000  -0.0000  -0.0000  -0.0000  -0.0000  -0.0000  -0.0000  -0.0000
    -0.0000  -0.0000

     the Fermi energy is     6.8684 ev

!    total energy              =   -2088.77369071 Ry
     estimated scf accuracy    <       0.00000051 Ry
     smearing contrib. (-TS)   =      -0.00054128 Ry
     internal energy E=F+TS    =   -2088.77314943 Ry

     The total energy is F=E-TS. E is the sum of the following terms:
     one-electron contribution =    -589.01757762 Ry
     hartree contribution      =     351.30586133 Ry
     xc contribution           =    -152.22772225 Ry
     ewald contribution        =    -694.17615241 Ry
     one-center paw contrib.   =   -1004.65755848 Ry
      -> PAW hartree energy AE =     600.06639620 Ry
      -> PAW hartree energy PS =    -573.64910897 Ry
      -> PAW xc energy AE      =   -1122.74899577 Ry
      -> PAW xc energy PS      =      91.67415005 Ry
      -> total E_H with PAW    =     377.72314857 Ry
      -> total E_XC with PAW   =   -1183.30256796 Ry

     convergence has been achieved in  88 iterations

     Forces acting on atoms (cartesian axes, Ry/au):

     atom    1 type  1   force =     0.00035141   -0.00023897   -0.00001441
     atom    2 type  1   force =     0.00085390   -0.00044539   -0.00003162
     atom    3 type  1   force =    -0.00035141    0.00023897    0.00001441
     atom    4 type  1   force =    -0.00085390    0.00044539    0.00003162
     atom    5 type  2   force =    -0.03179650    0.01881683   -0.00002999
     atom    6 type  2   force =     0.03179650   -0.01881683    0.00002999
     atom    7 type  3   force =    -0.00782974   -0.02353594   -0.00455015
     atom    8 type  3   force =     0.00782974    0.02353594    0.00455015
     atom    9 type  3   force =     0.01693246    0.01812573    0.00453153
     atom   10 type  3   force =     0.00000000    0.00000000    0.00000000
     atom   11 type  3   force =    -0.01693246   -0.01812573   -0.00453153
     atom   12 type  3   force =     0.00000000    0.00000000    0.00000000
     The non-local contrib.  to forces
     atom    1 type  1   force =    -0.01600203    0.00954611   -0.00003854
     atom    2 type  1   force =    -0.09801207    0.05829319   -0.00010737
     atom    3 type  1   force =     0.01600203   -0.00954611    0.00003854
     atom    4 type  1   force =     0.09801207   -0.05829319    0.00010737
     atom    5 type  2   force =    -0.09306681    0.05493400   -0.00027887
     atom    6 type  2   force =     0.09306681   -0.05493400    0.00027887
     atom    7 type  3   force =    -0.02131575   -0.28937599   -0.02601110
     atom    8 type  3   force =     0.02131575    0.28937599    0.02601110
     atom    9 type  3   force =     0.24402117    0.15707869    0.02597777
     atom   10 type  3   force =     0.00000000    0.00000000    0.00000000
     atom   11 type  3   force =    -0.24402117   -0.15707869   -0.02597777
     atom   12 type  3   force =     0.00000000    0.00000000    0.00000000
     The ionic contribution  to forces
     atom    1 type  1   force =     0.53737739   -0.31930383    0.00000000
     atom    2 type  1   force =    -1.85960486    1.10495710    0.00000000
     atom    3 type  1   force =    -0.53737739    0.31930383   -0.00000000
     atom    4 type  1   force =     1.85960486   -1.10495710   -0.00000000
     atom    5 type  2   force =     3.76321019   -2.23605879    0.00000000
     atom    6 type  2   force =    -3.76321019    2.23605879   -0.00000000
     atom    7 type  3   force =     0.34246323    7.48481637   -0.02136141
     atom    8 type  3   force =    -0.34246323   -7.48481637    0.02136141
     atom    9 type  3   force =    -6.41008967   -3.87949838    0.02136140
     atom   10 type  3   force =     0.00000000    0.00000000   -0.00000000
     atom   11 type  3   force =     6.41008967    3.87949838   -0.02136140
     atom   12 type  3   force =     0.00000000    0.00000000    0.00000000
     The local contribution  to forces
     atom    1 type  1   force =    -0.52092174    0.30954614    0.00008127
     atom    2 type  1   force =     1.95842135   -1.16386854    0.00020057
     atom    3 type  1   force =     0.52090267   -0.30957915   -0.00007476
     atom    4 type  1   force =    -1.95830707    1.16383152   -0.00018306
     atom    5 type  2   force =    -3.70194385    2.20023781    0.00022228
     atom    6 type  2   force =     3.70183657   -2.20009658   -0.00041453
     atom    7 type  3   force =    -0.32924885   -7.22138711    0.04250100
     atom    8 type  3   force =     0.32905884    7.22139444   -0.04281127
     atom    9 type  3   force =     6.18483867    3.74194064   -0.04256654
     atom   10 type  3   force =     0.00015326   -0.00000285   -0.00017213
     atom   11 type  3   force =    -6.18494903   -3.74172018    0.04286332
     atom   12 type  3   force =     0.00008786   -0.00017057    0.00014312
     The core correction contribution to forces
     atom    1 type  1   force =     0.00000000    0.00000000    0.00000000
     atom    2 type  1   force =     0.00000000    0.00000000    0.00000000
     atom    3 type  1   force =     0.00000000    0.00000000    0.00000000
     atom    4 type  1   force =     0.00000000    0.00000000    0.00000000
     atom    5 type  2   force =     0.00000581   -0.00000343    0.00000001
     atom    6 type  2   force =    -0.00000581    0.00000343   -0.00000001
     atom    7 type  3   force =     0.00019183    0.00239208    0.00010980
     atom    8 type  3   force =    -0.00019178   -0.00239218   -0.00010983
     atom    9 type  3   force =    -0.00201004   -0.00131235   -0.00010941
     atom   10 type  3   force =    -0.00000002    0.00000006   -0.00000004
     atom   11 type  3   force =     0.00201001    0.00131238    0.00010937
     atom   12 type  3   force =     0.00000005   -0.00000001   -0.00000004
     The Hubbard contrib.    to forces
     atom    1 type  1   force =     0.00000000    0.00000000    0.00000000
     atom    2 type  1   force =     0.00000000    0.00000000    0.00000000
     atom    3 type  1   force =     0.00000000    0.00000000    0.00000000
     atom    4 type  1   force =     0.00000000    0.00000000    0.00000000
     atom    5 type  2   force =     0.00000000    0.00000000    0.00000000
     atom    6 type  2   force =     0.00000000    0.00000000    0.00000000
     atom    7 type  3   force =     0.00000000    0.00000000    0.00000000
     atom    8 type  3   force =     0.00000000    0.00000000    0.00000000
     atom    9 type  3   force =     0.00000000    0.00000000    0.00000000
     atom   10 type  3   force =     0.00000000    0.00000000    0.00000000
     atom   11 type  3   force =     0.00000000    0.00000000    0.00000000
     atom   12 type  3   force =     0.00000000    0.00000000    0.00000000
     The SCF correction term to forces
     atom    1 type  1   force =    -0.00009969   -0.00002693   -0.00005717
     atom    2 type  1   force =     0.00004844    0.00017279   -0.00012533
     atom    3 type  1   force =     0.00012381    0.00006084    0.00005058
     atom    4 type  1   force =    -0.00016480   -0.00013591    0.00010680
     atom    5 type  2   force =     0.00000060   -0.00028667    0.00000180
     atom    6 type  2   force =     0.00011156    0.00015763    0.00014087
     atom    7 type  3   force =     0.00008098    0.00001855    0.00021034
     atom    8 type  3   force =     0.00011136   -0.00002609    0.00009751
     atom    9 type  3   force =     0.00017144   -0.00008053   -0.00013259
     atom   10 type  3   force =    -0.00015189    0.00000732    0.00016594
     atom   11 type  3   force =    -0.00006283   -0.00013528   -0.00016595
     atom   12 type  3   force =    -0.00008401    0.00017213   -0.00014871

     Total force =     0.072635     Total SCF correction =     0.000752

     Computing stress (Cartesian axis) and pressure

          total   stress  (Ry/bohr**3)                   (kbar)     P=     -357.53
  -0.00244812   0.00002318  -0.00004493         -360.13        3.41       -6.61
   0.00002318  -0.00242981  -0.00007711            3.41     -357.44      -11.34
  -0.00004493  -0.00007711  -0.00241344           -6.61      -11.34     -355.03

     kinetic stress (kbar)  18693.73      6.52      2.32
                                6.52  18700.57      3.89
                                2.32      3.89  18708.13

     local   stress (kbar)  16521.23   2051.36   -467.84
                             2051.36  18758.14   -786.98
                             -467.84   -786.98  12581.81

     nonloc. stress (kbar) -14022.13    -14.56     -3.65
                              -14.56 -14040.97     -6.75
                               -3.65     -6.75 -14055.08

     hartree stress (kbar)  14903.36   -875.71    178.87
                             -875.71  13948.69    301.05
                              178.87    301.05  16514.58

     exc-cor stress (kbar)  -5885.75     -0.67      0.22
                               -0.67  -5886.48      0.38
                                0.22      0.38  -5884.35

     corecor stress (kbar)   -328.04      0.03     -0.01
                                0.03   -328.00     -0.02
                               -0.01     -0.02   -328.14

     ewald   stress (kbar) -30242.53  -1163.57    283.49
                            -1163.57 -31509.39    477.10
                              283.49    477.10 -27891.99

     hubbard stress (kbar)      0.00      0.00      0.00
                                0.00      0.00      0.00
                                0.00      0.00      0.00

     DFT-D   stress (kbar)      0.00      0.00      0.00
                                0.00      0.00      0.00
                                0.00      0.00      0.00

     XDM     stress (kbar)      0.00      0.00      0.00
                                0.00      0.00      0.00
                                0.00      0.00      0.00

     dft-nl  stress (kbar)      0.00      0.00      0.00
                                0.00      0.00      0.00
                                0.00      0.00      0.00

     TS-vdW  stress (kbar)      0.00      0.00      0.00
                                0.00      0.00      0.00
                                0.00      0.00      0.00

[...]

                                0.00      0.00      0.00

     Writing all to output data dir new_calculations/myprefix.save/

     General routines

     Parallel routines

     PAW routines

   This run was terminated on:  13:31:14  20May2023

   JOB DONE.