     Program PWSCF v.7.0 starts on 21May2023 at  1:18:38

     Reading input from espresso_23262.pwi
Warning: card &CELL ignored
Warning: card / ignored

     Current dimensions of program PWSCF are:
     Max number of different atomic species (ntypx) = 10
     Max number of k-points (npk) =  40000
     Max angular momentum in pseudopotentials (lmaxx) =  4

     gamma-point specific algorithms are used
     Message from routine setup:
     using ibrav=0 with symmetry is DISCOURAGED, use correct ibrav instead

     Subspace diagonalization in iterative solution of the eigenvalue problem:
     a serial algorithm will be used

     Using Slab Decomposition

     bravais-lattice index     =            0
     lattice parameter (alat)  =      11.8944  a.u.
     unit-cell volume          =    2994.7268 (a.u.)^3
     number of atoms/cell      =           16
     number of atomic types    =            2
     number of electrons       =       200.00
     number of Kohn-Sham states=          120
     kinetic-energy cutoff     =      30.0000  Ry
     charge density cutoff     =     240.0000  Ry
     scf convergence threshold =      1.0E-06
     mixing beta               =       0.7000
     number of iterations used =            8  plain     mixing
     Exchange-correlation=  SLA  PW   PBX  PBC
                           (   1   4   3   4   0   0   0)

     celldm(1)=  11.894401  celldm(2)=   0.000000  celldm(3)=   0.000000
     celldm(4)=   0.000000  celldm(5)=   0.000000  celldm(6)=   0.000000

     crystal axes: (cart. coord. in units of alat)
               a(1) = (   1.000000   0.000000   0.000000 )
               a(2) = (   0.000000   1.433848   0.000000 )
               a(3) = (   0.000000  -0.716924   1.241156 )

     reciprocal axes: (cart. coord. in units 2 pi/alat)
               b(1) = (  1.000000  0.000000  0.000000 )
               b(2) = (  0.000000  0.697424  0.402850 )
               b(3) = (  0.000000  0.000000  0.805700 )

     PseudoPot. # 1 for Y  read from file:
     /home/pragov/projects/rrg-bengioy-ad/pragov/crystal_structure_design/SSSP/Y_pbe_v1.uspp.F.UPF
     MD5 check sum: 2cf71db95cafeb975fc457bd7f14888e
     Pseudo is Ultrasoft + core correction, Zval = 11.0
     Generated by new atomic code, or converted to UPF format
     Using radial grid of  885 points,  6 beta functions with:
                l(1) =   0
                l(2) =   0
                l(3) =   1
                l(4) =   1
                l(5) =   2
                l(6) =   2
     Q(r) pseudized with  6 coefficients,  rinner =    1.200   1.200   1.200
                                                       1.200   1.200

     PseudoPot. # 2 for Sb read from file:
     /home/pragov/projects/rrg-bengioy-ad/pragov/crystal_structure_design/SSSP/sb_pbe_v1.4.uspp.F.UPF
     MD5 check sum: 9bc50dfb53373b713f5709b9110fe27f
     Pseudo is Ultrasoft + core correction, Zval = 15.0
     Generated by new atomic code, or converted to UPF format
     Using radial grid of  891 points,  6 beta functions with:
                l(1) =   0
                l(2) =   0
                l(3) =   1
                l(4) =   1
                l(5) =   2
                l(6) =   2
     Q(r) pseudized with  8 coefficients,  rinner =    1.350   1.350   1.350
                                                       1.350   1.350

     atomic species   valence    mass     pseudopotential
        Y             11.00    88.90584     Y ( 1.00)
        Sb            15.00   121.76000     Sb( 1.00)

      4 Sym. Ops. (no inversion) found ( 2 have fractional translation)

                                    s                        frac. trans.

      isym =  1     identity

 cryst.   s( 1) = (     1          0          0      )
                  (     0          1          0      )
                  (     0          0          1      )

 cart.    s( 1) = (  1.0000000  0.0000000  0.0000000 )
                  (  0.0000000  1.0000000 -0.0000000 )
                  (  0.0000000  0.0000000  1.0000000 )

      isym =  2     180 deg rotation - cart. axis [1,0,0]

 cryst.   s( 2) = (     1          0          0      )    f =(  0.5000000 )
                  (     0         -1          0      )       (  0.0000000 )
                  (     0          0         -1      )       ( -0.0000000 )

 cart.    s( 2) = (  1.0000000  0.0000000  0.0000000 )    f =(  0.5000000 )
                  (  0.0000000 -1.0000000  0.0000000 )       (  0.0000000 )
                  (  0.0000000  0.0000000 -1.0000000 )       ( -0.0000000 )

      isym =  3     inv. 180 deg rotation - cart. axis [0,0,1]

 cryst.   s( 3) = (     1          0          0      )
                  (     0          1          0      )
                  (     0         -1         -1      )

 cart.    s( 3) = (  1.0000000  0.0000000  0.0000000 )
                  (  0.0000000  1.0000000  0.0000001 )
                  (  0.0000000  0.0000000 -1.0000000 )

      isym =  4     inv. 180 deg rotation - cart. axis [0,1,0]

 cryst.   s( 4) = (     1          0          0      )    f =(  0.5000000 )
                  (     0         -1          0      )       (  0.0000000 )
                  (     0          1          1      )       (  0.0000000 )

 cart.    s( 4) = (  1.0000000  0.0000000  0.0000000 )    f =(  0.5000000 )
                  (  0.0000000 -1.0000000 -0.0000001 )       (  0.0000000 )
                  (  0.0000000  0.0000000  1.0000000 )       (  0.0000000 )

   Cartesian axes

     site n.     atom                  positions (alat units)
         1           Y   tau(   1) = (   0.5000000  -0.0000108   0.8274379  )
         2           Y   tau(   2) = (   0.5000000   0.7169131   0.4137183  )
         3           Y   tau(   3) = (   0.0000000   0.7169346   0.4137183  )
         4           Y   tau(   4) = (   0.0000000   0.0000107   0.8274379  )
         5           Y   tau(   5) = (   0.7499990   0.3546981   0.0000000  )
         6           Y   tau(   6) = (   0.7500010   0.5396436   0.9341798  )
         7           Y   tau(   7) = (   0.7500010  -0.1772802   0.3069764  )
         8           Y   tau(   8) = (   0.2499990   1.0791496   0.0000000  )
         9           Y   tau(   9) = (   0.2500010   0.1772802   0.3069764  )
        10           Y   tau(  10) = (   0.2500010   0.8942040   0.9341798  )
        11           Sb  tau(  11) = (   0.7499960   0.8778231   0.0000000  )
        12           Sb  tau(  12) = (   0.7500020   0.2779965   0.4812918  )
        13           Sb  tau(  13) = (   0.7500020   0.9949189   0.7598644  )
        14           Sb  tau(  14) = (   0.2499960   0.5560246   0.0000000  )
        15           Sb  tau(  15) = (   0.2500020   0.4389273   0.7598644  )
        16           Sb  tau(  16) = (   0.2500020  -0.2779951   0.4812918  )

   Crystallographic axes

     site n.     atom                  positions (cryst. coord.)
         1           Y   tau(   1) = (  0.5000000  0.3333260  0.6666670  )
         2           Y   tau(   2) = (  0.5000000  0.6666590  0.3333330  )
         3           Y   tau(   3) = (  0.0000000  0.6666740  0.3333330  )
         4           Y   tau(   4) = (  0.0000000  0.3333410  0.6666670  )
         5           Y   tau(   5) = (  0.7499990  0.2473750  0.0000000  )
         6           Y   tau(   6) = (  0.7500010  0.7526950  0.7526690  )
         7           Y   tau(   7) = (  0.7500010  0.0000260  0.2473310  )
         8           Y   tau(   8) = (  0.2499990  0.7526250  0.0000000  )
         9           Y   tau(   9) = (  0.2500010  0.2473050  0.2473310  )
        10           Y   tau(  10) = (  0.2500010  0.9999740  0.7526690  )
        11           Sb  tau(  11) = (  0.7499960  0.6122150  0.0000000  )
        12           Sb  tau(  12) = (  0.7500020  0.3877700  0.3877770  )
        13           Sb  tau(  13) = (  0.7500020  0.9999920  0.6122230  )
        14           Sb  tau(  14) = (  0.2499960  0.3877850  0.0000000  )
        15           Sb  tau(  15) = (  0.2500020  0.6122300  0.6122230  )
        16           Sb  tau(  16) = (  0.2500020  0.0000080  0.3877770  )

     number of k points=     1  Methfessel-Paxton smearing, width (Ry)=  0.0010
                       cart. coord. in units 2pi/alat
        k(    1) = (   0.0000000   0.0000000   0.0000000), wk =   2.0000000

                       cryst. coord.
        k(    1) = (   0.0000000   0.0000000   0.0000000), wk =   2.0000000

     Check: negative core charge=   -0.000006

     Initial potential from superposition of free atoms

     starting charge     193.9552, renormalised to     200.0000

     negative rho (up, down):  4.431E-01 0.000E+00
     Starting wfcs are  184 randomized atomic wfcs

     Self-consistent Calculation

     iteration #  1     ecut=    30.00 Ry     beta= 0.70
     Davidson diagonalization with overlap

     ethr =  1.00E-02,  avg # of iterations =  2.0

     negative rho (up, down):  4.192E-01 0.000E+00

     total energy              =   -1983.39179808 Ry
     estimated scf accuracy    <       4.43521455 Ry

[...]

     total energy              =   -1985.72303956 Ry
     estimated scf accuracy    <       0.00000195 Ry

     iteration # 16     ecut=    30.00 Ry     beta= 0.70
     Davidson diagonalization with overlap

     ethr =  9.76E-10,  avg # of iterations =  3.0

[...]

     End of self-consistent calculation

          k = 0.0000 0.0000 0.0000 (  4160 PWs)   bands (ev):

   -31.4193 -31.4088 -31.4083 -31.4021 -31.4004 -31.3999 -30.9302 -30.9295
   -30.8299 -30.8292 -16.9751 -16.9745 -16.9744 -16.9740 -16.9740 -16.9733
   -16.9730 -16.9681 -16.9670 -16.9668 -16.9665 -16.9665 -16.9502 -16.9458
   -16.9456 -16.9406 -16.9404 -16.9380 -16.9212 -16.9173 -16.9171 -16.9167
   -16.9165 -16.9153 -16.9150 -16.9135 -16.9129 -16.9126 -16.9117 -16.9030
   -11.5295 -11.4748 -11.4744 -11.4735 -11.4730 -11.4552 -11.4490 -11.4356
   -11.4352 -11.4295 -11.4190 -11.3859 -11.3855 -11.3540 -11.3536 -11.3496
   -11.3492 -11.3430 -11.3220 -11.2773 -11.0050 -11.0049 -11.0038 -11.0037
   -10.8956 -10.8954 -10.8885 -10.8884 -10.4166 -10.4144   1.3263   2.1883
     2.1885   2.7379   2.7388   2.8500   7.0609   7.5360   7.9463   7.9472
     8.0360   8.3006   8.3009   8.4755   8.4764   8.8842   8.8856   9.6449
     9.7200   9.7223   9.7789   9.7800   9.9426  10.3237  10.8866  11.0036
    11.0436  11.0523  11.0527  11.4748  11.6076  11.6088  11.7805  12.0334
    12.3399  12.3407  12.6923  12.6958  12.8133  12.8149  13.2807  13.9709
    13.9715  14.1287  14.1300  14.3917  14.3942  14.4028  14.4549  14.7268

     occupation numbers
     1.0000   1.0000   1.0000   1.0000   1.0000   1.0000   1.0000   1.0000
     1.0000   1.0000   1.0000   1.0000   1.0000   1.0000   1.0000   1.0000
     1.0000   1.0000   1.0000   1.0000   1.0000   1.0000   1.0000   1.0000
     1.0000   1.0000   1.0000   1.0000   1.0000   1.0000   1.0000   1.0000
     1.0000   1.0000   1.0000   1.0000   1.0000   1.0000   1.0000   1.0000
     1.0000   1.0000   1.0000   1.0000   1.0000   1.0000   1.0000   1.0000
     1.0000   1.0000   1.0000   1.0000   1.0000   1.0000   1.0000   1.0000
     1.0000   1.0000   1.0000   1.0000   1.0000   1.0000   1.0000   1.0000
     1.0000   1.0000   1.0000   1.0000   1.0000   1.0000   1.0000   1.0000
     1.0000   1.0000   1.0000   1.0000   1.0000   1.0000   1.0000   1.0000
     1.0000   1.0000   1.0000   1.0000   1.0000   1.0000   1.0000   1.0000
     1.0000   1.0000   1.0000   1.0000   1.0000   1.0000   1.0000   1.0000
     1.0000   1.0000   1.0000   1.0000  -0.0000  -0.0000  -0.0000  -0.0000
    -0.0000  -0.0000  -0.0000  -0.0000  -0.0000  -0.0000  -0.0000  -0.0000
    -0.0000  -0.0000  -0.0000  -0.0000  -0.0000  -0.0000  -0.0000  -0.0000

     the Fermi energy is    11.5424 ev

!    total energy              =   -1985.72303932 Ry
     estimated scf accuracy    <       0.00000069 Ry
     smearing contrib. (-TS)   =       0.00000000 Ry
     internal energy E=F+TS    =   -1985.72303932 Ry

     The total energy is F=E-TS. E is the sum of the following terms:
     one-electron contribution =    -681.94249681 Ry
     hartree contribution      =     431.87559148 Ry
     xc contribution           =    -484.61827364 Ry
     ewald contribution        =   -1251.03786036 Ry

     convergence has been achieved in  16 iterations

     negative rho (up, down):  4.276E-01 0.000E+00

     Forces acting on atoms (cartesian axes, Ry/au):

     atom    1 type  1   force =    -0.00000114    0.00002214    0.00004269
     atom    2 type  1   force =    -0.00000114    0.00002214   -0.00004269
     atom    3 type  1   force =    -0.00000114   -0.00002214   -0.00004269
     atom    4 type  1   force =    -0.00000114   -0.00002214    0.00004269
     atom    5 type  1   force =    -0.00000144   -0.00504838   -0.00000000
     atom    6 type  1   force =     0.00000156    0.00249697    0.00447558
     atom    7 type  1   force =     0.00000156    0.00249697   -0.00447558
     atom    8 type  1   force =    -0.00000144    0.00504838    0.00000000
     atom    9 type  1   force =     0.00000156   -0.00249697   -0.00447558
     atom   10 type  1   force =     0.00000156   -0.00249697    0.00447558
     atom   11 type  2   force =    -0.00000515   -0.01202237   -0.00000000
     atom   12 type  2   force =     0.00000287    0.00619005    0.01073957
     atom   13 type  2   force =     0.00000287    0.00619005   -0.01073956
     atom   14 type  2   force =    -0.00000515    0.01202237    0.00000000
     atom   15 type  2   force =     0.00000287   -0.00619005   -0.01073957
     atom   16 type  2   force =     0.00000287   -0.00619005    0.01073956
     The non-local contrib.  to forces
     atom    1 type  1   force =    -0.00000017   -0.00001287    0.00011508
     atom    2 type  1   force =    -0.00000017   -0.00001287   -0.00011508
     atom    3 type  1   force =    -0.00000017    0.00001287   -0.00011508
     atom    4 type  1   force =    -0.00000017    0.00001287    0.00011508
     atom    5 type  1   force =     0.00000284    0.05882096    0.00000000
     atom    6 type  1   force =    -0.00000505   -0.02939692   -0.05091993
     atom    7 type  1   force =    -0.00000505   -0.02939692    0.05091992
     atom    8 type  1   force =     0.00000284   -0.05882096   -0.00000000
     atom    9 type  1   force =    -0.00000505    0.02939692    0.05091993
     atom   10 type  1   force =    -0.00000505    0.02939692   -0.05091992
     atom   11 type  2   force =     0.00001403    0.02229289    0.00000000
     atom   12 type  2   force =    -0.00000659   -0.01099491   -0.01898827
     atom   13 type  2   force =    -0.00000659   -0.01099491    0.01898827
     atom   14 type  2   force =     0.00001403   -0.02229289   -0.00000000
     atom   15 type  2   force =    -0.00000659    0.01099491    0.01898827
     atom   16 type  2   force =    -0.00000659    0.01099491   -0.01898827
     The ionic contribution  to forces
     atom    1 type  1   force =     0.00004376    0.00032530   -0.00569686
     atom    2 type  1   force =    -0.00004112    0.00039946    0.00569686
     atom    3 type  1   force =     0.00004376   -0.00032530    0.00569686
     atom    4 type  1   force =    -0.00004112   -0.00039946   -0.00569686
     atom    5 type  1   force =     0.00003673   -7.30846882   -0.00001871
     atom    6 type  1   force =    -0.00002851    3.65488683    6.33111876
     atom    7 type  1   force =    -0.00002851    3.65490621   -6.33106803
     atom    8 type  1   force =     0.00003673    7.30846882    0.00001871
     atom    9 type  1   force =    -0.00002851   -3.65488683   -6.33111876
     atom   10 type  1   force =    -0.00002851   -3.65490621    6.33106803
     atom   11 type  2   force =    -0.00016386    4.27862871    0.00000509
     atom   12 type  2   force =     0.00009076   -2.13600866   -3.70054219
     atom   13 type  2   force =     0.00009075   -2.13586730    3.70055362
     atom   14 type  2   force =    -0.00016386   -4.27862871   -0.00000509
     atom   15 type  2   force =     0.00009076    2.13600866    3.70054219
     atom   16 type  2   force =     0.00009075    2.13586730   -3.70055362
     The local contribution  to forces
     atom    1 type  1   force =     0.00002093    0.00016597    0.00568138
     atom    2 type  1   force =     0.00011161   -0.00018865   -0.00628568
     atom    3 type  1   force =    -0.00010911    0.00048246   -0.00630476
     atom    4 type  1   force =    -0.00001655    0.00081293    0.00566503
     atom    5 type  1   force =    -0.00029776    7.24961243    0.00064886
     atom    6 type  1   force =    -0.00021319   -3.62541985   -6.27986630
     atom    7 type  1   force =    -0.00020609   -3.62591732    6.27936524
     atom    8 type  1   force =     0.00022189   -7.24988725    0.00078089
     atom    9 type  1   force =     0.00029435    3.62557886    6.27999244
     atom   10 type  1   force =     0.00030658    3.62506634   -6.28000613
     atom   11 type  2   force =    -0.00036997   -4.31525493    0.00150057
     atom   12 type  2   force =    -0.00059545    2.15508564    3.73158046
     atom   13 type  2   force =    -0.00060984    2.15329707   -3.73282039
     atom   14 type  2   force =     0.00067552    4.31611056    0.00167177
     atom   15 type  2   force =     0.00044243   -2.15415269   -3.73279980
     atom   16 type  2   force =     0.00042241   -2.15500385    3.73078691
     The core correction contribution to forces
     atom    1 type  1   force =     0.00000008    0.00000703   -0.00000615
     atom    2 type  1   force =     0.00000004    0.00000242    0.00000452
     atom    3 type  1   force =    -0.00000005    0.00000027    0.00000390
     atom    4 type  1   force =     0.00000021    0.00000362   -0.00000623
     atom    5 type  1   force =    -0.00000178   -0.00513559   -0.00000244
     atom    6 type  1   force =    -0.00000076    0.00256646    0.00445185
     atom    7 type  1   force =    -0.00000061    0.00256566   -0.00445411
     atom    8 type  1   force =     0.00000181    0.00513120    0.00000102
     atom    9 type  1   force =     0.00000184   -0.00256599   -0.00444697
     atom   10 type  1   force =     0.00000255   -0.00256676    0.00444903
     atom   11 type  2   force =    -0.00000346    0.00256492    0.00000475
     atom   12 type  2   force =    -0.00000330   -0.00129167   -0.00222810
     atom   13 type  2   force =    -0.00000347   -0.00129506    0.00223271
     atom   14 type  2   force =     0.00000369   -0.00255888    0.00000157
     atom   15 type  2   force =     0.00000368    0.00129124    0.00223093
     atom   16 type  2   force =     0.00000302    0.00128760   -0.00223122
     The Hubbard contrib.    to forces
     atom    1 type  1   force =     0.00000000    0.00000000    0.00000000
     atom    2 type  1   force =     0.00000000    0.00000000    0.00000000
     atom    3 type  1   force =     0.00000000    0.00000000    0.00000000
     atom    4 type  1   force =     0.00000000    0.00000000    0.00000000
     atom    5 type  1   force =     0.00000000    0.00000000    0.00000000
     atom    6 type  1   force =     0.00000000    0.00000000    0.00000000
     atom    7 type  1   force =     0.00000000    0.00000000    0.00000000
     atom    8 type  1   force =     0.00000000    0.00000000    0.00000000
     atom    9 type  1   force =     0.00000000    0.00000000    0.00000000
     atom   10 type  1   force =     0.00000000    0.00000000    0.00000000
     atom   11 type  2   force =     0.00000000    0.00000000    0.00000000
     atom   12 type  2   force =     0.00000000    0.00000000    0.00000000
     atom   13 type  2   force =     0.00000000    0.00000000    0.00000000
     atom   14 type  2   force =     0.00000000    0.00000000    0.00000000
     atom   15 type  2   force =     0.00000000    0.00000000    0.00000000
     atom   16 type  2   force =     0.00000000    0.00000000    0.00000000
     The SCF correction term to forces
     atom    1 type  1   force =    -0.00005996   -0.00040566   -0.00005196
     atom    2 type  1   force =    -0.00006732   -0.00016089    0.00065761
     atom    3 type  1   force =     0.00006742   -0.00016765    0.00066569
     atom    4 type  1   force =     0.00005511   -0.00040193   -0.00004296
     atom    5 type  1   force =     0.00024756    0.00010015   -0.00065673
     atom    6 type  1   force =     0.00024474   -0.00012272   -0.00029327
     atom    7 type  1   force =     0.00023509    0.00032516    0.00072694
     atom    8 type  1   force =    -0.00024796    0.00013407   -0.00079837
     atom    9 type  1   force =    -0.00025241    0.00000055    0.00021106
     atom   10 type  1   force =    -0.00026004    0.00049491   -0.00013216
     atom   11 type  2   force =     0.00053152   -0.00027246   -0.00145870
     atom   12 type  2   force =     0.00054422   -0.00058197    0.00082621
     atom   13 type  2   force =     0.00054914    0.00106140    0.00025804
     atom   14 type  2   force =    -0.00054216   -0.00062620   -0.00159465
     atom   15 type  2   force =    -0.00054673   -0.00028260    0.00026225
     atom   16 type  2   force =    -0.00051972    0.00064394    0.00173244

     Total force =     0.032554     Total SCF correction =     0.004055
     SCF correction compared to forces is large: reduce conv_thr to get better values

     Computing stress (Cartesian axis) and pressure

     negative rho (up, down):  4.276E-01 0.000E+00
          total   stress  (Ry/bohr**3)                   (kbar)     P=      -88.75
  -0.00063453   0.00000000   0.00000000          -93.34        0.00        0.00
   0.00000000  -0.00059085  -0.00000000            0.00      -86.92       -0.00
   0.00000000  -0.00000000  -0.00058454            0.00       -0.00      -85.99

     kinetic stress (kbar)  14313.95      0.00      0.00
                                0.00  14257.32      0.00
                                0.00      0.00  14258.09

     local   stress (kbar)  -3322.78      0.00      0.00
                                0.00  -2713.79      0.04
                                0.00      0.04  -2724.44

     nonloc. stress (kbar)   6777.62      0.00     -0.00
                                0.00   6782.18      0.00
                               -0.00      0.00   6782.59

     hartree stress (kbar)   7444.43     -0.00     -0.00
                               -0.00   6883.07     -0.03
                               -0.00     -0.03   6886.82

     exc-cor stress (kbar)   7993.01     -0.00     -0.00
                               -0.00   7993.96     -0.00
                               -0.00     -0.00   7993.97

     corecor stress (kbar) -12806.68      0.00      0.00
                                0.00 -12806.44      0.00
                                0.00      0.00 -12806.44

     ewald   stress (kbar) -20492.89      0.00     -0.00
                                0.00 -20483.21     -0.00
                               -0.00     -0.00 -20476.59

     hubbard stress (kbar)      0.00      0.00      0.00
                                0.00      0.00      0.00
                                0.00      0.00      0.00

     DFT-D   stress (kbar)      0.00      0.00      0.00
                                0.00      0.00      0.00
                                0.00      0.00      0.00

     XDM     stress (kbar)      0.00      0.00      0.00
                                0.00      0.00      0.00
                                0.00      0.00      0.00

     dft-nl  stress (kbar)      0.00      0.00      0.00
                                0.00      0.00      0.00
                                0.00      0.00      0.00

     TS-vdW  stress (kbar)      0.00      0.00      0.00
                                0.00      0.00      0.00
                                0.00      0.00      0.00

[...]

                                0.00      0.00      0.00

     Writing all to output data dir new_calculations/myprefix.save/

     General routines

     Parallel routines

   This run was terminated on:   1:19:37  21May2023

   JOB DONE.