     Program PWSCF v.7.0 starts on 20May2023 at 12:31: 6

     Reading input from espresso_3477.pwi
Warning: card &CELL ignored
Warning: card / ignored

     Current dimensions of program PWSCF are:
     Max number of different atomic species (ntypx) = 10
     Max number of k-points (npk) =  40000
     Max angular momentum in pseudopotentials (lmaxx) =  4
     file O.pbe-n-kjpaw_psl.0.1.UPF: wavefunction(s)  2P renormalized

     gamma-point specific algorithms are used
     Message from routine setup:
     using ibrav=0 with symmetry is DISCOURAGED, use correct ibrav instead

     Subspace diagonalization in iterative solution of the eigenvalue problem:
     a serial algorithm will be used

     Using Slab Decomposition

     bravais-lattice index     =            0
     lattice parameter (alat)  =      10.7650  a.u.
     unit-cell volume          =    1693.8261 (a.u.)^3
     number of atoms/cell      =           20
     number of atomic types    =            4
     number of electrons       =       164.00
     number of Kohn-Sham states=           98
     kinetic-energy cutoff     =      30.0000  Ry
     charge density cutoff     =     240.0000  Ry
     scf convergence threshold =      1.0E-06
     mixing beta               =       0.7000
     number of iterations used =            8  plain     mixing
     Exchange-correlation= SLA  PW   PBX  PBC
                           (   1   4   3   4   0   0   0)

     celldm(1)=  10.765016  celldm(2)=   0.000000  celldm(3)=   0.000000
     celldm(4)=   0.000000  celldm(5)=   0.000000  celldm(6)=   0.000000

     crystal axes: (cart. coord. in units of alat)
               a(1) = (   1.000000   0.000000   0.000000 )
               a(2) = (   0.000000   0.974376   0.000000 )
               a(3) = (   0.000000   0.973693   1.393473 )

     reciprocal axes: (cart. coord. in units 2 pi/alat)
               b(1) = (  1.000000  0.000000  0.000000 )
               b(2) = (  0.000000  1.026298 -0.717129 )
               b(3) = (  0.000000  0.000000  0.717632 )

     PseudoPot. # 1 for Ca read from file:
     /home/pragov/projects/rrg-bengioy-ad/pragov/crystal_structure_design/SSSP/Ca_pbe_v1.uspp.F.UPF
     MD5 check sum: 403a4c14b9e4d4dfdc3024c9a3812218
     Pseudo is Ultrasoft + core correction, Zval = 10.0
     Generated by new atomic code, or converted to UPF format
     Using radial grid of  845 points,  6 beta functions with:
                l(1) =   0
                l(2) =   0
                l(3) =   1
                l(4) =   1
                l(5) =   2
                l(6) =   2
     Q(r) pseudized with  8 coefficients,  rinner =    1.500   1.500   1.500
                                                       1.500   1.500

     PseudoPot. # 2 for Sc read from file:
     /home/pragov/projects/rrg-bengioy-ad/pragov/crystal_structure_design/SSSP/Sc_ONCV_PBE-1.0.oncvpsp.upf
     MD5 check sum: e21af8023abb52e52cb7cd3133e4a229
     Pseudo is Norm-conserving, Zval = 11.0
     Generated using ONCVPSP code by D. R. Hamann
     Using radial grid of 1662 points,  6 beta functions with:
                l(1) =   0
                l(2) =   0
                l(3) =   1
                l(4) =   1
                l(5) =   2
                l(6) =   2

     PseudoPot. # 3 for Sb read from file:
     /home/pragov/projects/rrg-bengioy-ad/pragov/crystal_structure_design/SSSP/sb_pbe_v1.4.uspp.F.UPF
     MD5 check sum: 9bc50dfb53373b713f5709b9110fe27f
     Pseudo is Ultrasoft + core correction, Zval = 15.0
     Generated by new atomic code, or converted to UPF format
     Using radial grid of  891 points,  6 beta functions with:
                l(1) =   0
                l(2) =   0
                l(3) =   1
                l(4) =   1
                l(5) =   2
                l(6) =   2
     Q(r) pseudized with  8 coefficients,  rinner =    1.350   1.350   1.350
                                                       1.350   1.350

     PseudoPot. # 4 for O  read from file:
     /home/pragov/projects/rrg-bengioy-ad/pragov/crystal_structure_design/SSSP/O.pbe-n-kjpaw_psl.0.1.UPF
     MD5 check sum: 0234752ac141de4415c5fc33072bef88
     Pseudo is Projector augmented-wave + core cor, Zval =  6.0
     Generated using "atomic" code by A. Dal Corso  v.5.0.99 svn rev. 10869
     Shape of augmentation charge: BESSEL
     Using radial grid of 1095 points,  4 beta functions with:
                l(1) =   0
                l(2) =   0
                l(3) =   1
                l(4) =   1
     Q(r) pseudized with 0 coefficients

     atomic species   valence    mass     pseudopotential
        Ca            10.00    40.07800     Ca( 1.00)
        Sc            11.00    44.95591     Sc( 1.00)
        Sb            15.00   121.76000     Sb( 1.00)
        O              6.00    15.99900     O ( 1.00)

      4 Sym. Ops., with inversion, found ( 2 have fractional translation)

                                    s                        frac. trans.

      isym =  1     identity

 cryst.   s( 1) = (     1          0          0      )
                  (     0          1          0      )
                  (     0          0          1      )

 cart.    s( 1) = (  1.0000000  0.0000000  0.0000000 )
                  (  0.0000000  1.0000000 -0.0000000 )
                  (  0.0000000  0.0000000  1.0000000 )

      isym =  2     180 deg rotation - cart. axis [1,0,0]

 cryst.   s( 2) = (     1          0          0      )    f =(  0.5000000 )
                  (     0         -1          0      )       ( -0.0000000 )
                  (     0          0         -1      )       ( -0.5000000 )

 cart.    s( 2) = (  1.0000000  0.0000000  0.0000000 )    f =(  0.5000000 )
                  (  0.0000000 -1.0000000  0.0000000 )       ( -0.4868465 )
                  (  0.0000000  0.0000000 -1.0000000 )       ( -0.6967363 )

      isym =  3     inversion

 cryst.   s( 3) = (    -1          0          0      )
                  (     0         -1          0      )
                  (     0          0         -1      )

 cart.    s( 3) = ( -1.0000000  0.0000000  0.0000000 )
                  (  0.0000000 -1.0000000  0.0000000 )
                  (  0.0000000  0.0000000 -1.0000000 )

      isym =  4     inv. 180 deg rotation - cart. axis [1,0,0]

 cryst.   s( 4) = (    -1          0          0      )    f =(  0.5000000 )
                  (     0          1          0      )       ( -0.0000000 )
                  (     0          0          1      )       ( -0.5000000 )

 cart.    s( 4) = ( -1.0000000  0.0000000  0.0000000 )    f =(  0.5000000 )
                  (  0.0000000  1.0000000 -0.0000000 )       ( -0.4868465 )
                  (  0.0000000  0.0000000  1.0000000 )       ( -0.6967363 )

   Cartesian axes

     site n.     atom                  positions (alat units)
         1           Ca  tau(   1) = (   0.5481860   1.4742395   1.0455698  )
         2           Ca  tau(   2) = (   0.9518140   0.9873929   0.3488336  )
         3           Ca  tau(   3) = (   0.4518140   0.4738292   0.3479027  )
         4           Ca  tau(   4) = (   0.0481860   0.9606758   1.0446390  )
         5           Sc  tau(   5) = (   0.5000000   0.9740343   0.6967363  )
         6           Sc  tau(   6) = (   0.0000000   0.4871878   0.0000000  )
         7           Sb  tau(   7) = (   0.0000000   0.4868465   0.6967363  )
         8           Sb  tau(   8) = (   0.5000000   0.0000000   0.0000000  )
         9           O   tau(   9) = (   0.7998530   0.7686485   0.7665618  )
        10           O   tau(  10) = (   0.7001470   0.2818020   0.0698255  )
        11           O   tau(  11) = (   0.2001470   1.1794201   0.6269107  )
        12           O   tau(  12) = (   0.2998530   1.6662667   1.3236470  )
        13           O   tau(  13) = (   0.7875830   1.7568138   1.3190290  )
        14           O   tau(  14) = (   0.7124170   1.2699672   0.6222928  )
        15           O   tau(  15) = (   0.2124170   0.1912549   0.0744435  )
        16           O   tau(  16) = (   0.2875830   0.6781014   0.7711797  )
        17           O   tau(  17) = (   0.9662640   1.3657129   1.0349474  )
        18           O   tau(  18) = (   0.5337360   0.8788663   0.3382111  )
        19           O   tau(  19) = (   0.0337360   0.5823558   0.3585252  )
        20           O   tau(  20) = (   0.4662640   1.0692024   1.0552614  )

   Crystallographic axes

     site n.     atom                  positions (cryst. coord.)
         1           Ca  tau(   1) = (  0.5481860  0.7632010  0.7503340  )
         2           Ca  tau(   2) = (  0.9518140  0.7632010  0.2503340  )
         3           Ca  tau(   3) = (  0.4518140  0.2367990  0.2496660  )
         4           Ca  tau(   4) = (  0.0481860  0.2367990  0.7496660  )
         5           Sc  tau(   5) = (  0.5000000  0.5000000  0.5000000  )
         6           Sc  tau(   6) = (  0.0000000  0.5000000  0.0000000  )
         7           Sb  tau(   7) = (  0.0000000  0.0000000  0.5000000  )
         8           Sb  tau(   8) = (  0.5000000  0.0000000  0.0000000  )
         9           O   tau(   9) = (  0.7998530  0.2391390  0.5501090  )
        10           O   tau(  10) = (  0.7001470  0.2391390  0.0501090  )
        11           O   tau(  11) = (  0.2001470  0.7608610  0.4498910  )
        12           O   tau(  12) = (  0.2998530  0.7608610  0.9498910  )
        13           O   tau(  13) = (  0.7875830  0.8571010  0.9465770  )
        14           O   tau(  14) = (  0.7124170  0.8571010  0.4465770  )
        15           O   tau(  15) = (  0.2124170  0.1428990  0.0534230  )
        16           O   tau(  16) = (  0.2875830  0.1428990  0.5534230  )
        17           O   tau(  17) = (  0.9662640  0.6594380  0.7427110  )
        18           O   tau(  18) = (  0.5337360  0.6594380  0.2427110  )
        19           O   tau(  19) = (  0.0337360  0.3405620  0.2572890  )
        20           O   tau(  20) = (  0.4662640  0.3405620  0.7572890  )

     number of k points=     1  Methfessel-Paxton smearing, width (Ry)=  0.0010
                       cart. coord. in units 2pi/alat
        k(    1) = (   0.0000000   0.0000000   0.0000000), wk =   2.0000000

                       cryst. coord.
        k(    1) = (   0.0000000   0.0000000   0.0000000), wk =   2.0000000

     Check: negative core charge=   -0.000013

     Initial potential from superposition of free atoms

     starting charge     161.9728, renormalised to     164.0000
     Starting wfcs are  126 randomized atomic wfcs
     Checking if some PAW data can be deallocated...

     Self-consistent Calculation

     iteration #  1     ecut=    30.00 Ry     beta= 0.70
     Davidson diagonalization with overlap

     ethr =  1.00E-02,  avg # of iterations =  2.0

     total energy              =   -1352.45754284 Ry
     estimated scf accuracy    <       4.35603498 Ry

[...]

     total energy              =   -1354.57739996 Ry
     estimated scf accuracy    <       0.00000199 Ry

     iteration # 10     ecut=    30.00 Ry     beta= 0.70
     Davidson diagonalization with overlap

     ethr =  1.21E-09,  avg # of iterations =  5.0

     End of self-consistent calculation

          k = 0.0000 0.0000 0.0000 (  2344 PWs)   bands (ev):

   -38.7881 -38.7860 -29.4103 -29.4057 -29.3983 -29.3941 -19.8114 -19.8107
   -19.7898 -19.7877 -19.6448 -19.6387 -19.6289 -19.6236 -19.6197 -19.6163
   -17.5158 -17.5127 -17.5009 -17.4982 -17.4597 -17.4578 -10.8990 -10.7221
   -10.7023 -10.6377 -10.6247 -10.5589 -10.5290 -10.4730 -10.4501 -10.4358
   -10.4318 -10.4241  -9.3937  -8.7184  -7.8718  -7.7537  -7.7051  -7.6429
    -7.5183  -7.4567  -7.3073  -7.1626  -7.1178  -7.0096   0.8260   1.0304
     4.3819   4.6288   4.6391   4.6405   4.7095   5.0967   5.1413   5.7073
     5.7600   5.7632   5.8802   6.4224   6.5154   6.5357   6.5563   6.7350
     7.2029   7.2534   7.2646   7.3044   7.4018   7.4234   7.5312   7.7430
     7.7796   7.8131   7.8784   8.0900   8.1014   8.1135   8.1280   8.1774
     8.2030   8.2196  12.0252  12.3166  13.7088  13.7577  13.8012  14.0052
    14.1158  14.3230  15.0021  15.0099  15.1051  15.1325  15.4257  15.4592
    15.9606  16.0426

     occupation numbers
     1.0000   1.0000   1.0000   1.0000   1.0000   1.0000   1.0000   1.0000
     1.0000   1.0000   1.0000   1.0000   1.0000   1.0000   1.0000   1.0000
     1.0000   1.0000   1.0000   1.0000   1.0000   1.0000   1.0000   1.0000
     1.0000   1.0000   1.0000   1.0000   1.0000   1.0000   1.0000   1.0000
     1.0000   1.0000   1.0000   1.0000   1.0000   1.0000   1.0000   1.0000
     1.0000   1.0000   1.0000   1.0000   1.0000   1.0000   1.0000   1.0000
     1.0000   1.0000   1.0000   1.0000   1.0000   1.0000   1.0000   1.0000
     1.0000   1.0000   1.0000   1.0000   1.0000   1.0000   1.0000   1.0000
     1.0000   1.0000   1.0000   1.0000   1.0000   1.0000   1.0000   1.0000
     1.0000   1.0000   1.0000   1.0000   1.0000   1.0000   1.0000   1.0000
     1.0000   1.0000  -0.0000  -0.0000  -0.0000  -0.0000  -0.0000  -0.0000
    -0.0000  -0.0000  -0.0000  -0.0000  -0.0000  -0.0000  -0.0000  -0.0000
    -0.0000  -0.0000

     the Fermi energy is     9.2908 ev

!    total energy              =   -1354.57740030 Ry
     estimated scf accuracy    <       0.00000037 Ry
     smearing contrib. (-TS)   =       0.00000000 Ry
     internal energy E=F+TS    =   -1354.57740030 Ry

     The total energy is F=E-TS. E is the sum of the following terms:
     one-electron contribution =    -376.64172489 Ry
     hartree contribution      =     282.07531399 Ry
     xc contribution           =    -250.41925912 Ry
     ewald contribution        =    -895.36315970 Ry
     one-center paw contrib.   =    -114.22857058 Ry
      -> PAW hartree energy AE =     360.23569972 Ry
      -> PAW hartree energy PS =    -358.95681286 Ry
      -> PAW xc energy AE      =    -206.72584163 Ry
      -> PAW xc energy PS      =      91.21838420 Ry
      -> total E_H with PAW    =     283.35420084 Ry
      -> total E_XC with PAW   =    -365.92671655 Ry

     convergence has been achieved in  10 iterations

     Forces acting on atoms (cartesian axes, Ry/au):

     atom    1 type  1   force =     0.01111436    0.00578291    0.00120941
     atom    2 type  1   force =    -0.01111436    0.00578291    0.00120941
     atom    3 type  1   force =    -0.01111436   -0.00578291   -0.00120941
     atom    4 type  1   force =     0.01111436   -0.00578291   -0.00120941
     atom    5 type  2   force =     0.00000000    0.00000000    0.00000000
     atom    6 type  2   force =    -0.00000000    0.00000000   -0.00000000
     atom    7 type  3   force =     0.00000000    0.00000000    0.00000000
     atom    8 type  3   force =     0.00000000    0.00000000    0.00000000
     atom    9 type  4   force =     0.00544954    0.01828046    0.01344870
     atom   10 type  4   force =    -0.00544954    0.01828046    0.01344870
     atom   11 type  4   force =    -0.00544954   -0.01828046   -0.01344870
     atom   12 type  4   force =     0.00544954   -0.01828046   -0.01344870
     atom   13 type  4   force =     0.00732456    0.00830824   -0.01457452
     atom   14 type  4   force =    -0.00732456    0.00830824   -0.01457452
     atom   15 type  4   force =    -0.00732456   -0.00830824    0.01457452
     atom   16 type  4   force =     0.00732456   -0.00830824    0.01457452
     atom   17 type  4   force =    -0.00987612   -0.00415892   -0.00183712
     atom   18 type  4   force =     0.00987612   -0.00415892   -0.00183712
     atom   19 type  4   force =     0.00987612    0.00415892    0.00183712
     atom   20 type  4   force =    -0.00987612    0.00415892    0.00183712
     The non-local contrib.  to forces
     atom    1 type  1   force =     0.00522611    0.01171994   -0.00410134
     atom    2 type  1   force =    -0.00522611    0.01171994   -0.00410134
     atom    3 type  1   force =    -0.00522611   -0.01171994    0.00410134
     atom    4 type  1   force =     0.00522611   -0.01171994    0.00410134
     atom    5 type  2   force =     0.00000000   -0.00000000    0.00000000
     atom    6 type  2   force =     0.00000000    0.00000000   -0.00000000
     atom    7 type  3   force =     0.00000000    0.00000000    0.00000000
     atom    8 type  3   force =     0.00000000    0.00000000    0.00000000
     atom    9 type  4   force =     0.27745848   -0.58128398   -0.15878221
     atom   10 type  4   force =    -0.27745848   -0.58128398   -0.15878221
     atom   11 type  4   force =    -0.27745848    0.58128398    0.15878221
     atom   12 type  4   force =     0.27745848    0.58128398    0.15878221
     atom   13 type  4   force =    -0.55824765    0.24729684    0.17123723
     atom   14 type  4   force =     0.55824765    0.24729684    0.17123723
     atom   15 type  4   force =     0.55824765   -0.24729684   -0.17123723
     atom   16 type  4   force =    -0.55824765   -0.24729684   -0.17123723
     atom   17 type  4   force =     0.06418570    0.24983239   -0.54946842
     atom   18 type  4   force =    -0.06418570    0.24983239   -0.54946842
     atom   19 type  4   force =    -0.06418570   -0.24983239    0.54946842
     atom   20 type  4   force =     0.06418570   -0.24983239    0.54946842
     The ionic contribution  to forces
     atom    1 type  1   force =    -1.58760913   -0.94709607   -0.09399672
     atom    2 type  1   force =     1.58760913   -0.94709607   -0.09399672
     atom    3 type  1   force =     1.58760913    0.94709607    0.09399672
     atom    4 type  1   force =    -1.58760913    0.94709607    0.09399672
     atom    5 type  2   force =    -0.00000000   -0.00000000    0.00000000
     atom    6 type  2   force =     0.00000000   -0.00000000   -0.00000000
     atom    7 type  3   force =    -0.00000000    0.00000000    0.00000000
     atom    8 type  3   force =     0.00000000   -0.00000000   -0.00000000
     atom    9 type  4   force =    -1.89233573    4.01326664    1.05072965
     atom   10 type  4   force =     1.89233573    4.01326664    1.05072965
     atom   11 type  4   force =     1.89233573   -4.01326664   -1.05072965
     atom   12 type  4   force =    -1.89233573   -4.01326664   -1.05072965
     atom   13 type  4   force =     3.65287395   -1.20689059   -1.16239106
     atom   14 type  4   force =    -3.65287395   -1.20689059   -1.16239106
     atom   15 type  4   force =    -3.65287395    1.20689059    1.16239106
     atom   16 type  4   force =     3.65287395    1.20689059    1.16239106
     atom   17 type  4   force =     0.15877560   -2.50042979    3.83590651
     atom   18 type  4   force =    -0.15877560   -2.50042979    3.83590651
     atom   19 type  4   force =    -0.15877560    2.50042979   -3.83590651
     atom   20 type  4   force =     0.15877560    2.50042979   -3.83590651
     The local contribution  to forces
     atom    1 type  1   force =     1.59347278    0.94091617    0.09950201
     atom    2 type  1   force =    -1.59325817    0.94093030    0.09881005
     atom    3 type  1   force =    -1.59351239   -0.94094626   -0.09947154
     atom    4 type  1   force =     1.59324966   -0.94092669   -0.09881179
     atom    5 type  2   force =     0.00000802    0.00001606   -0.00032144
     atom    6 type  2   force =     0.00001971   -0.00004634    0.00034278
     atom    7 type  3   force =    -0.00000574    0.00001505   -0.00031500
     atom    8 type  3   force =     0.00000458    0.00002957    0.00027878
     atom    9 type  4   force =     1.62335818   -3.42019911   -0.88030107
     atom   10 type  4   force =    -1.62312041   -3.42010704   -0.88027389
     atom   11 type  4   force =    -1.62334862    3.42020906    0.88012607
     atom   12 type  4   force =     1.62312719    3.42006768    0.88044283
     atom   13 type  4   force =    -3.09340357    0.97061381    0.97865573
     atom   14 type  4   force =     3.09355441    0.97073848    0.97833929
     atom   15 type  4   force =     3.09342525   -0.97061302   -0.97849548
     atom   16 type  4   force =    -3.09353883   -0.97073337   -0.97850997
     atom   17 type  4   force =    -0.23199764    2.24908536   -3.29398165
     atom   18 type  4   force =     0.23205108    2.24897852   -3.29436640
     atom   19 type  4   force =     0.23197301   -2.24912835    3.29405668
     atom   20 type  4   force =    -0.23205826   -2.24894105    3.29432732
     The core correction contribution to forces
     atom    1 type  1   force =     0.00012838    0.00002542    0.00002827
     atom    2 type  1   force =    -0.00012660    0.00002479    0.00002215
     atom    3 type  1   force =    -0.00012887   -0.00002556   -0.00002742
     atom    4 type  1   force =     0.00012642   -0.00002506   -0.00002214
     atom    5 type  2   force =     0.00000000    0.00000000    0.00000000
     atom    6 type  2   force =     0.00000000    0.00000000    0.00000000
     atom    7 type  3   force =     0.00000015    0.00000062    0.00000032
     atom    8 type  3   force =     0.00000080   -0.00000086   -0.00000075
     atom    9 type  4   force =    -0.00299570    0.00639508    0.00172551
     atom   10 type  4   force =     0.00299420    0.00639386    0.00172467
     atom   11 type  4   force =     0.00299575   -0.00639505   -0.00172420
     atom   12 type  4   force =    -0.00299410   -0.00639418   -0.00172595
     atom   13 type  4   force =     0.00620994   -0.00276181   -0.00184690
     atom   14 type  4   force =    -0.00621187   -0.00276313   -0.00184561
     atom   15 type  4   force =    -0.00620957    0.00276150    0.00184556
     atom   16 type  4   force =     0.00621208    0.00276327    0.00184692
     atom   17 type  4   force =    -0.00082019   -0.00264188    0.00595103
     atom   18 type  4   force =     0.00082028   -0.00264217    0.00595359
     atom   19 type  4   force =     0.00081996    0.00264166   -0.00594986
     atom   20 type  4   force =    -0.00082043    0.00264236   -0.00595472
     The Hubbard contrib.    to forces
     atom    1 type  1   force =     0.00000000    0.00000000    0.00000000
     atom    2 type  1   force =     0.00000000    0.00000000    0.00000000
     atom    3 type  1   force =     0.00000000    0.00000000    0.00000000
     atom    4 type  1   force =     0.00000000    0.00000000    0.00000000
     atom    5 type  2   force =     0.00000000    0.00000000    0.00000000
     atom    6 type  2   force =     0.00000000    0.00000000    0.00000000
     atom    7 type  3   force =     0.00000000    0.00000000    0.00000000
     atom    8 type  3   force =     0.00000000    0.00000000    0.00000000
     atom    9 type  4   force =     0.00000000    0.00000000    0.00000000
     atom   10 type  4   force =     0.00000000    0.00000000    0.00000000
     atom   11 type  4   force =     0.00000000    0.00000000    0.00000000
     atom   12 type  4   force =     0.00000000    0.00000000    0.00000000
     atom   13 type  4   force =     0.00000000    0.00000000    0.00000000
     atom   14 type  4   force =     0.00000000    0.00000000    0.00000000
     atom   15 type  4   force =     0.00000000    0.00000000    0.00000000
     atom   16 type  4   force =     0.00000000    0.00000000    0.00000000
     atom   17 type  4   force =     0.00000000    0.00000000    0.00000000
     atom   18 type  4   force =     0.00000000    0.00000000    0.00000000
     atom   19 type  4   force =     0.00000000    0.00000000    0.00000000
     atom   20 type  4   force =     0.00000000    0.00000000    0.00000000
     The SCF correction term to forces
     atom    1 type  1   force =    -0.00010171    0.00021622   -0.00022307
     atom    2 type  1   force =    -0.00010811    0.00020427    0.00047592
     atom    3 type  1   force =     0.00013933   -0.00018656    0.00019424
     atom    4 type  1   force =     0.00011916   -0.00020887   -0.00047588
     atom    5 type  2   force =    -0.00000841   -0.00001679    0.00035447
     atom    6 type  2   force =    -0.00002238    0.00005035   -0.00037353
     atom    7 type  3   force =     0.00001849   -0.00000989    0.00040764
     atom    8 type  3   force =    -0.00000180   -0.00005511   -0.00036425
     atom    9 type  4   force =    -0.00009091    0.00013616    0.00010408
     atom   10 type  4   force =    -0.00025376   -0.00002838    0.00002683
     atom   11 type  4   force =     0.00008186   -0.00014191    0.00016759
     atom   12 type  4   force =     0.00025154    0.00005378   -0.00028528
     atom   13 type  4   force =    -0.00017202    0.00008929   -0.00028490
     atom   14 type  4   force =    -0.00010957   -0.00011914    0.00014034
     atom   15 type  4   force =     0.00016859   -0.00010967    0.00002543
     atom   16 type  4   force =     0.00010270    0.00012085    0.00012823
     atom   17 type  4   force =    -0.00001930    0.00000002   -0.00032976
     atom   18 type  4   force =    -0.00003322    0.00009624    0.00022099
     atom   19 type  4   force =     0.00003431    0.00003680    0.00031240
     atom   20 type  4   force =     0.00003155   -0.00012918   -0.00024315

     Total force =     0.068014     Total SCF correction =     0.001494

     Computing stress (Cartesian axis) and pressure

          total   stress  (Ry/bohr**3)                   (kbar)     P=     -389.54
  -0.00246567   0.00000000   0.00000000         -362.71        0.00        0.00
   0.00000000  -0.00266730  -0.00000295            0.00     -392.37       -0.43
   0.00000000  -0.00000295  -0.00281109            0.00       -0.43     -413.53

     kinetic stress (kbar)  24677.71      0.00      0.00
                                0.00  24606.63    -12.68
                                0.00    -12.68  24538.52

     local   stress (kbar)  -3673.88      0.04     -0.00
                                0.04  -3993.72   -470.93
                               -0.00   -470.93  -3726.48

     nonloc. stress (kbar)   2402.95      0.00      0.00
                                0.00   2396.94      2.72
                                0.00      2.72   2401.00

     hartree stress (kbar)   8093.79     -0.03      0.00
                               -0.03   8181.43    200.69
                                0.00    200.69   8222.40

     exc-cor stress (kbar)   -823.62      0.00      0.00
                                0.00   -823.22      0.15
                                0.00      0.15   -824.37

     corecor stress (kbar)  -5021.65     -0.00     -0.00
                               -0.00  -5021.54      0.02
                               -0.00      0.02  -5021.18

     ewald   stress (kbar) -26018.02      0.00      0.00
                                0.00 -25738.89    279.59
                                0.00    279.59 -26003.42

     hubbard stress (kbar)      0.00      0.00      0.00
                                0.00      0.00      0.00
                                0.00      0.00      0.00

     DFT-D   stress (kbar)      0.00      0.00      0.00
                                0.00      0.00      0.00
                                0.00      0.00      0.00

     XDM     stress (kbar)      0.00      0.00      0.00
                                0.00      0.00      0.00
                                0.00      0.00      0.00

     dft-nl  stress (kbar)      0.00      0.00      0.00
                                0.00      0.00      0.00
                                0.00      0.00      0.00

     TS-vdW  stress (kbar)      0.00      0.00      0.00
                                0.00      0.00      0.00
                                0.00      0.00      0.00

[...]

                                0.00      0.00      0.00

     Writing all to output data dir new_calculations/myprefix.save/

     General routines

     Parallel routines

     PAW routines

   This run was terminated on:  12:31:28  20May2023

   JOB DONE.