     Program PWSCF v.7.0 starts on 21May2023 at  7:23:22

     Reading input from espresso_8204.pwi
Warning: card &CELL ignored
Warning: card / ignored

     Current dimensions of program PWSCF are:
     Max number of different atomic species (ntypx) = 10
     Max number of k-points (npk) =  40000
     Max angular momentum in pseudopotentials (lmaxx) =  4

     gamma-point specific algorithms are used
     Message from routine setup:
     using ibrav=0 with symmetry is DISCOURAGED, use correct ibrav instead

     Subspace diagonalization in iterative solution of the eigenvalue problem:
     a serial algorithm will be used

     Using Slab Decomposition

     bravais-lattice index     =            0
     lattice parameter (alat)  =      12.6306  a.u.
     unit-cell volume          =    1424.8141 (a.u.)^3
     number of atoms/cell      =           10
     number of atomic types    =            4
     number of electrons       =        89.00
     number of Kohn-Sham states=           54
     kinetic-energy cutoff     =      30.0000  Ry
     charge density cutoff     =     240.0000  Ry
     scf convergence threshold =      1.0E-06
     mixing beta               =       0.7000
     number of iterations used =            8  plain     mixing
     Exchange-correlation=  SLA  PW   PBX  PBC
                           (   1   4   3   4   0   0   0)

     celldm(1)=  12.630612  celldm(2)=   0.000000  celldm(3)=   0.000000
     celldm(4)=   0.000000  celldm(5)=   0.000000  celldm(6)=   0.000000

     crystal axes: (cart. coord. in units of alat)
               a(1) = (   1.000000   0.000000   0.000000 )
               a(2) = (   0.500000   0.866025   0.000000 )
               a(3) = (   0.500000   0.288675   0.816497 )

     reciprocal axes: (cart. coord. in units 2 pi/alat)
               b(1) = (  1.000000 -0.577350 -0.408248 )
               b(2) = (  0.000000  1.154701 -0.408248 )
               b(3) = (  0.000000  0.000000  1.224745 )

     PseudoPot. # 1 for Cs read from file:
     /home/pragov/projects/rrg-bengioy-ad/pragov/crystal_structure_design/SSSP/Cs_pbe_v1.uspp.F.UPF
     MD5 check sum: 3476d69cb178dfad3ffaa59df4e07ca4
     Pseudo is Ultrasoft + core correction, Zval =  9.0
     Generated by new atomic code, or converted to UPF format
     Using radial grid of  905 points,  6 beta functions with:
                l(1) =   0
                l(2) =   0
                l(3) =   1
                l(4) =   1
                l(5) =   2
                l(6) =   2
     Q(r) pseudized with  6 coefficients,  rinner =    1.500   1.500   1.500
                                                       1.500   1.500

     PseudoPot. # 2 for Tl read from file:
     /home/pragov/projects/rrg-bengioy-ad/pragov/crystal_structure_design/SSSP/Tl_pbe_v1.2.uspp.F.UPF
     MD5 check sum: b76cf1f7e72655a2b2c53cf6385d7059
     Pseudo is Ultrasoft + core correction, Zval = 13.0
     Generated by new atomic code, or converted to UPF format
     Using radial grid of  899 points,  6 beta functions with:
                l(1) =   0
                l(2) =   0
                l(3) =   1
                l(4) =   1
                l(5) =   2
                l(6) =   2
     Q(r) pseudized with  6 coefficients,  rinner =    1.100   1.100   1.100
                                                       1.100   1.100

     PseudoPot. # 3 for Ru read from file:
     /home/pragov/projects/rrg-bengioy-ad/pragov/crystal_structure_design/SSSP/Ru_ONCV_PBE-1.0.oncvpsp.upf
     MD5 check sum: be037bb81c227cfb9b1461a9f099f4bd
     Pseudo is Norm-conserving, Zval = 16.0
     Generated using ONCVPSP code by D. R. Hamann
     Using radial grid of 1458 points,  6 beta functions with:
                l(1) =   0
                l(2) =   0
                l(3) =   1
                l(4) =   1
                l(5) =   2
                l(6) =   2

     PseudoPot. # 4 for F  read from file:
     /home/pragov/projects/rrg-bengioy-ad/pragov/crystal_structure_design/SSSP/f_pbe_v1.4.uspp.F.UPF
     MD5 check sum: 4c38b6a325caf53ec0e86aed9459de46
     Pseudo is Ultrasoft, Zval =  7.0
     Generated by new atomic code, or converted to UPF format
     Using radial grid of  799 points,  4 beta functions with:
                l(1) =   0
                l(2) =   0
                l(3) =   1
                l(4) =   1
     Q(r) pseudized with  8 coefficients,  rinner =    0.950   0.950   0.950

     atomic species   valence    mass     pseudopotential
        Cs             9.00   132.90545     Cs( 1.00)
        Tl            13.00   204.38000     Tl( 1.00)
        Ru            16.00   101.07000     Ru( 1.00)
        F              7.00    18.99840     F ( 1.00)

     12 Sym. Ops., with inversion, found

                                    s                        frac. trans.

      isym =  1     identity

 cryst.   s( 1) = (     1          0          0      )
                  (     0          1          0      )
                  (     0          0          1      )

 cart.    s( 1) = (  1.0000000  0.0000000  0.0000000 )
                  (  0.0000000  1.0000000  0.0000000 )
                  (  0.0000000  0.0000000  1.0000000 )

      isym =  2     180 deg rotation - cart. axis [1,0,0]

[...]

      isym =  3     120 deg rotation - cryst. axis [0,0,1]

[...]

      isym =  6     180 deg rotation - cryst. axis [1,1,0]

[...]

      isym =  7     inversion

[...]

      isym =  8     inv. 180 deg rotation - cart. axis [1,0,0]

[...]

      isym =  9     inv. 120 deg rotation - cryst. axis [0,0,1]

 cryst.   s( 9) = (     1         -1          0      )
                  (     1          0          0      )
                  (     1          0         -1      )

 cart.    s( 9) = (  0.5000000  0.8660254  0.0000000 )
                  ( -0.8660254  0.5000000 -0.0000000 )
                  (  0.0000000  0.0000000 -1.0000000 )

[...]

 cryst.   s(10) = (     0          1          0      )
                  (    -1          1          0      )
                  (     0          1         -1      )

 cart.    s(10) = (  0.5000000 -0.8660254  0.0000000 )
                  (  0.8660254  0.5000000  0.0000000 )
                  (  0.0000000  0.0000000 -1.0000000 )

[...]

      isym = 12     inv. 180 deg rotation - cryst. axis [1,1,0]

 cryst.   s(12) = (     1         -1          0      )
                  (     0         -1          0      )
                  (     0         -1          1      )

 cart.    s(12) = (  0.5000000 -0.8660254  0.0000000 )
                  ( -0.8660254 -0.5000000 -0.0000000 )
                  (  0.0000000  0.0000000  1.0000000 )

   Cartesian axes

     site n.     atom                  positions (alat units)
         1           Cs  tau(   1) = (   0.5000000   0.2886751   0.2041241  )
         2           Cs  tau(   2) = (   1.5000000   0.8660254   0.6123724  )
         3           Tl  tau(   3) = (   1.0000000   0.5773503   0.4082483  )
         4           Ru  tau(   4) = (   0.0000000   0.0000000   0.0000000  )
         5           F   tau(   5) = (   0.7155410   0.4131178   0.6405081  )
         6           F   tau(   6) = (   1.0000000   0.9058152   0.6405081  )
         7           F   tau(   7) = (   1.2844590   0.7415827   0.1759885  )
         8           F   tau(   8) = (   0.7155410   0.7415827   0.1759885  )
         9           F   tau(   9) = (   1.2844590   0.4131178   0.6405081  )
        10           F   tau(  10) = (   1.0000000   0.2488853   0.1759885  )

   Crystallographic axes

     site n.     atom                  positions (cryst. coord.)
         1           Cs  tau(   1) = (  0.2500000  0.2500000  0.2500000  )
         2           Cs  tau(   2) = (  0.7500000  0.7500000  0.7500000  )
         3           Tl  tau(   3) = (  0.5000000  0.5000000  0.5000000  )
         4           Ru  tau(   4) = (  0.0000000  0.0000000  0.0000000  )
         5           F   tau(   5) = (  0.2155410  0.2155410  0.7844590  )
         6           F   tau(   6) = (  0.2155410  0.7844590  0.7844590  )
         7           F   tau(   7) = (  0.7844590  0.7844590  0.2155410  )
         8           F   tau(   8) = (  0.2155410  0.7844590  0.2155410  )
         9           F   tau(   9) = (  0.7844590  0.2155410  0.7844590  )
        10           F   tau(  10) = (  0.7844590  0.2155410  0.2155410  )

     number of k points=     1  Methfessel-Paxton smearing, width (Ry)=  0.0010
                       cart. coord. in units 2pi/alat
        k(    1) = (   0.0000000   0.0000000   0.0000000), wk =   2.0000000

                       cryst. coord.
        k(    1) = (   0.0000000   0.0000000   0.0000000), wk =   2.0000000

     Check: negative core charge=   -0.000003

     Initial potential from superposition of free atoms

     starting charge      88.9158, renormalised to      89.0000

     negative rho (up, down):  5.040E-02 0.000E+00
     Starting wfcs are   69 randomized atomic wfcs

     Self-consistent Calculation

     iteration #  1     ecut=    30.00 Ry     beta= 0.70
     Davidson diagonalization with overlap

     ethr =  1.00E-02,  avg # of iterations =  3.0
     Minimization algorithm failed to find Fermi energy: reverting to bisection
     Possible cause: smearing is larger than the electronic band-gap.

     negative rho (up, down):  5.050E-02 0.000E+00

     total energy              =    -751.22030924 Ry
     estimated scf accuracy    <       1.12641503 Ry

[...]

     ethr =  1.27E-03,  avg # of iterations =  3.0

[...]

     ethr =  8.07E-06,  avg # of iterations =  1.0

[...]

     total energy              =    -751.75005515 Ry
     estimated scf accuracy    <       0.00003261 Ry

     iteration # 22     ecut=    30.00 Ry     beta= 0.70
     Davidson diagonalization with overlap

     ethr =  3.08E-09,  avg # of iterations =  1.0
     Minimization algorithm failed to find Fermi energy: reverting to bisection
     Possible cause: smearing is larger than the electronic band-gap.

[...]

     End of self-consistent calculation

          k = 0.0000 0.0000 0.0000 (  1920 PWs)   bands (ev):

   -66.7305 -36.6769 -36.6768 -36.6768 -17.0529 -16.7918 -16.7917 -16.6899
   -16.6899 -16.6898 -15.1466 -15.1430  -4.8571  -4.8571  -4.8571  -4.8508
    -4.8508  -2.2806  -2.2806  -2.2806  -2.0222  -2.0222  -2.0222  -0.9874
     0.1746   0.1746   1.0089   1.0089   1.0090   1.1973   1.1973   1.1974
     2.1250   2.1250   2.1250   2.2096   2.2096   2.2096   2.5325   2.5325
     2.5326   2.9059   6.1688   6.1688   6.1688   8.5548   8.5548   9.4046
     9.4046   9.4046  10.3865  10.7680  10.7680  13.1270

     occupation numbers
     1.0000   1.0000   1.0000   1.0000   1.0000   1.0000   1.0000   1.0000
     1.0000   1.0000   1.0000   1.0000   1.0000   1.0000   1.0000   1.0000
     1.0000   1.0000   1.0000   1.0000   1.0000   1.0000   1.0000   1.0000
     1.0000   1.0000   1.0000   1.0000   1.0000   1.0000   1.0000   1.0000
     1.0000   1.0000   1.0000   1.0000   1.0000   1.0000   1.0000   1.0000
     1.0000   1.0000   0.8350   0.8325   0.8324  -0.0000  -0.0000  -0.0000
    -0.0000  -0.0000  -0.0000  -0.0000  -0.0000  -0.0000

     the Fermi energy is     6.1748 ev

!    total energy              =    -751.75005502 Ry
     estimated scf accuracy    <       0.00000074 Ry
     smearing contrib. (-TS)   =      -0.00043272 Ry
     internal energy E=F+TS    =    -751.74962231 Ry

     The total energy is F=E-TS. E is the sum of the following terms:
     one-electron contribution =    -396.93840044 Ry
     hartree contribution      =     246.13194906 Ry
     xc contribution           =    -198.62015190 Ry
     ewald contribution        =    -402.32301903 Ry

     convergence has been achieved in  22 iterations

     negative rho (up, down):  5.005E-02 0.000E+00

     Forces acting on atoms (cartesian axes, Ry/au):

     atom    1 type  1   force =     0.00000000    0.00000000   -0.00001280
     atom    2 type  1   force =     0.00000000    0.00000000    0.00001280
     atom    3 type  2   force =     0.00000000    0.00000000   -0.00000000
     atom    4 type  3   force =    -0.00000000   -0.00000000    0.00000000
     atom    5 type  4   force =    -0.00863518   -0.00498552    0.00702397
     atom    6 type  4   force =     0.00000000    0.00997105    0.00702397
     atom    7 type  4   force =     0.00863518    0.00498552   -0.00702397
     atom    8 type  4   force =    -0.00863518    0.00498552   -0.00702397
     atom    9 type  4   force =     0.00863518   -0.00498552    0.00702397
     atom   10 type  4   force =     0.00000000   -0.00997105   -0.00702397
     The non-local contrib.  to forces
     atom    1 type  1   force =     0.00000000    0.00000000    0.00000539
     atom    2 type  1   force =    -0.00000000   -0.00000000   -0.00000539
     atom    3 type  2   force =    -0.00000000   -0.00000000    0.00000000
     atom    4 type  3   force =    -0.00000000    0.00000000    0.00000000
     atom    5 type  4   force =    -0.45910928   -0.26506687    0.37483545
     atom    6 type  4   force =     0.00000000    0.53013374    0.37483545
     atom    7 type  4   force =     0.45910928    0.26506687   -0.37483545
     atom    8 type  4   force =    -0.45910928    0.26506687   -0.37483545
     atom    9 type  4   force =     0.45910928   -0.26506687    0.37483545
     atom   10 type  4   force =     0.00000000   -0.53013374   -0.37483545
     The ionic contribution  to forces
     atom    1 type  1   force =    -0.00000000   -0.00000000    0.00000000
     atom    2 type  1   force =     0.00000000    0.00000000   -0.00000000
     atom    3 type  2   force =    -0.00000000   -0.00000000   -0.00000000
     atom    4 type  3   force =     0.00000000    0.00000000    0.00000000
     atom    5 type  4   force =     8.45946383    4.88407372   -6.90712329
     atom    6 type  4   force =    -0.00000000   -9.76814744   -6.90712330
     atom    7 type  4   force =    -8.45946383   -4.88407372    6.90712329
     atom    8 type  4   force =     8.45946383   -4.88407372    6.90712329
     atom    9 type  4   force =    -8.45946383    4.88407372   -6.90712329
     atom   10 type  4   force =     0.00000000    9.76814744    6.90712330
     The local contribution  to forces
     atom    1 type  1   force =     0.00010608   -0.00006549   -0.00004736
     atom    2 type  1   force =    -0.00010281    0.00004807    0.00004684
     atom    3 type  2   force =     0.00000222   -0.00000067   -0.00000434
     atom    4 type  3   force =     0.00000193   -0.00000022    0.00000144
     atom    5 type  4   force =    -8.00892824   -4.62419829    6.53934521
     atom    6 type  4   force =     0.00023488    9.24795874    6.53932046
     atom    7 type  4   force =     8.00892544    4.62419807   -6.53934451
     atom    8 type  4   force =    -8.00888545    4.62390381   -6.53951043
     atom    9 type  4   force =     8.00889195   -4.62390191    6.53950437
     atom   10 type  4   force =    -0.00023605   -9.24796092   -6.53932101
     The core correction contribution to forces
     atom    1 type  1   force =     0.00000468   -0.00000632   -0.00000266
     atom    2 type  1   force =    -0.00000356    0.00000181    0.00000217
     atom    3 type  2   force =     0.00000107    0.00000003   -0.00000040
     atom    4 type  3   force =     0.00000000    0.00000000    0.00000000
     atom    5 type  4   force =     0.00000000    0.00000000    0.00000000
     atom    6 type  4   force =     0.00000000    0.00000000    0.00000000
     atom    7 type  4   force =     0.00000000    0.00000000    0.00000000
     atom    8 type  4   force =     0.00000000    0.00000000    0.00000000
     atom    9 type  4   force =     0.00000000    0.00000000    0.00000000
     atom   10 type  4   force =     0.00000000    0.00000000    0.00000000
     The Hubbard contrib.    to forces
     atom    1 type  1   force =     0.00000000    0.00000000    0.00000000
     atom    2 type  1   force =     0.00000000    0.00000000    0.00000000
     atom    3 type  2   force =     0.00000000    0.00000000    0.00000000
     atom    4 type  3   force =     0.00000000    0.00000000    0.00000000
     atom    5 type  4   force =     0.00000000    0.00000000    0.00000000
     atom    6 type  4   force =     0.00000000    0.00000000    0.00000000
     atom    7 type  4   force =     0.00000000    0.00000000    0.00000000
     atom    8 type  4   force =     0.00000000    0.00000000    0.00000000
     atom    9 type  4   force =     0.00000000    0.00000000    0.00000000
     atom   10 type  4   force =     0.00000000    0.00000000    0.00000000
     The SCF correction term to forces
     atom    1 type  1   force =    -0.00007243    0.00003462    0.00003149
     atom    2 type  1   force =     0.00007353   -0.00003431   -0.00003116
     atom    3 type  2   force =     0.00000073    0.00000332    0.00000037
     atom    4 type  3   force =    -0.00000102    0.00000076   -0.00000265
     atom    5 type  4   force =    -0.00005898    0.00021234   -0.00003876
     atom    6 type  4   force =    -0.00023897    0.00003252   -0.00000451
     atom    7 type  4   force =     0.00005984   -0.00021297    0.00003504
     atom    8 type  4   force =    -0.00010333    0.00008713    0.00019625
     atom    9 type  4   force =     0.00010148   -0.00008776   -0.00019512
     atom   10 type  4   force =     0.00023918   -0.00002986    0.00000543

     Total force =     0.029876     Total SCF correction =     0.000587

     Computing stress (Cartesian axis) and pressure

     negative rho (up, down):  5.005E-02 0.000E+00
          total   stress  (Ry/bohr**3)                   (kbar)     P=      -71.36
  -0.00048554  -0.00000000  -0.00000000          -71.43       -0.00       -0.00
   0.00000000  -0.00048554  -0.00000000            0.00      -71.43       -0.00
  -0.00000000  -0.00000000  -0.00048426           -0.00       -0.00      -71.24

     kinetic stress (kbar)  14048.07      0.00      0.00
                                0.00  14048.07     -0.00
                                0.00      0.00  14047.60

     local   stress (kbar) -10494.11      0.78      0.81
                                0.78 -10493.00     -0.09
                                0.81     -0.09 -10492.72

     nonloc. stress (kbar)   5835.07      0.00      0.00
                                0.00   5835.07     -0.00
                                0.00     -0.00   5835.09

     hartree stress (kbar)   8470.87     -0.16     -0.22
                               -0.16   8470.55     -0.02
                               -0.22     -0.02   8470.51

     exc-cor stress (kbar)   5858.29     -0.00     -0.00
                               -0.00   5858.28      0.00
                               -0.00      0.00   5858.28

     corecor stress (kbar)  -9944.04      0.00      0.00
                                0.00  -9944.04     -0.00
                                0.00     -0.00  -9944.04

     ewald   stress (kbar) -13845.96      0.00      0.00
                                0.00 -13845.96     -0.00
                                0.00     -0.00 -13845.96

     hubbard stress (kbar)      0.00      0.00      0.00
                                0.00      0.00      0.00
                                0.00      0.00      0.00

     DFT-D   stress (kbar)      0.00      0.00      0.00
                                0.00      0.00      0.00
                                0.00      0.00      0.00

     XDM     stress (kbar)      0.00      0.00      0.00
                                0.00      0.00      0.00
                                0.00      0.00      0.00

     dft-nl  stress (kbar)      0.00      0.00      0.00
                                0.00      0.00      0.00
                                0.00      0.00      0.00

     TS-vdW  stress (kbar)      0.00      0.00      0.00
                                0.00      0.00      0.00
                                0.00      0.00      0.00

[...]

                                0.00      0.00      0.00

     Writing all to output data dir new_calculations/myprefix.save/

     General routines

     Parallel routines

   This run was terminated on:   7:24:21  21May2023

   JOB DONE.