     Program PWSCF v.7.0 starts on 20May2023 at 17:20: 7

     Reading input from espresso_20109.pwi
Warning: card &CELL ignored
Warning: card / ignored

     Current dimensions of program PWSCF are:
     Max number of different atomic species (ntypx) = 10
     Max number of k-points (npk) =  40000
     Max angular momentum in pseudopotentials (lmaxx) =  4
     file In.pbe-dn-rrkjus_psl.0.2.2.UPF: wavefunction(s)  5S renormalized

     gamma-point specific algorithms are used
     Message from routine setup:
     using ibrav=0 with symmetry is DISCOURAGED, use correct ibrav instead

     Subspace diagonalization in iterative solution of the eigenvalue problem:
     a serial algorithm will be used

     Using Slab Decomposition

     bravais-lattice index     =            0
     lattice parameter (alat)  =      12.4031  a.u.
     unit-cell volume          =    1906.2590 (a.u.)^3
     number of atoms/cell      =            8
     number of atomic types    =            4
     number of electrons       =       102.00
     number of Kohn-Sham states=           61
     kinetic-energy cutoff     =      30.0000  Ry
     charge density cutoff     =     240.0000  Ry
     scf convergence threshold =      1.0E-06
     mixing beta               =       0.7000
     number of iterations used =            8  plain     mixing
     Exchange-correlation= SLA  PW   PBE  PBE
                           (   1   4   3   4   0   0   0)

     celldm(1)=  12.403121  celldm(2)=   0.000000  celldm(3)=   0.000000
     celldm(4)=   0.000000  celldm(5)=   0.000000  celldm(6)=   0.000000

     crystal axes: (cart. coord. in units of alat)
               a(1) = (   1.000000   0.000000   0.000000 )
               a(2) = (   0.000000   1.000000   0.000000 )
               a(3) = (   0.500000   0.500000   0.999054 )

     reciprocal axes: (cart. coord. in units 2 pi/alat)
               b(1) = (  1.000000  0.000000 -0.500473 )
               b(2) = (  0.000000  1.000000 -0.500473 )
               b(3) = (  0.000000  0.000000  1.000947 )

     PseudoPot. # 1 for In read from file:
     /home/pragov/projects/rrg-bengioy-ad/pragov/crystal_structure_design/SSSP/In.pbe-dn-rrkjus_psl.0.2.2.UPF
     MD5 check sum: 25e7c42c3b55b68f4bf926be2e7201a4
     Pseudo is Ultrasoft + core correction, Zval = 13.0
     Generated using "atomic" code by A. Dal Corso  v.5.0.99 svn rev. 10869
     Using radial grid of 1241 points,  6 beta functions with:
                l(1) =   0
                l(2) =   0
                l(3) =   1
                l(4) =   1
                l(5) =   2
                l(6) =   2
     Q(r) pseudized with 0 coefficients

     PseudoPot. # 2 for Ge read from file:
     /home/pragov/projects/rrg-bengioy-ad/pragov/crystal_structure_design/SSSP/ge_pbe_v1.4.uspp.F.UPF
     MD5 check sum: 9c9eaa91e581c3f09632fb3098b2c6b2
     Pseudo is Ultrasoft + core correction, Zval = 14.0
     Generated by new atomic code, or converted to UPF format
     Using radial grid of  873 points,  6 beta functions with:
                l(1) =   0
                l(2) =   0
                l(3) =   1
                l(4) =   1
                l(5) =   2
                l(6) =   2
     Q(r) pseudized with  8 coefficients,  rinner =    1.400   1.400   1.400
                                                       1.400   1.400

     PseudoPot. # 3 for Sb read from file:
     /home/pragov/projects/rrg-bengioy-ad/pragov/crystal_structure_design/SSSP/sb_pbe_v1.4.uspp.F.UPF
     MD5 check sum: 9bc50dfb53373b713f5709b9110fe27f
     Pseudo is Ultrasoft + core correction, Zval = 15.0
     Generated by new atomic code, or converted to UPF format
     Using radial grid of  891 points,  6 beta functions with:
                l(1) =   0
                l(2) =   0
                l(3) =   1
                l(4) =   1
                l(5) =   2
                l(6) =   2
     Q(r) pseudized with  8 coefficients,  rinner =    1.350   1.350   1.350
                                                       1.350   1.350

     PseudoPot. # 4 for Te read from file:
     /home/pragov/projects/rrg-bengioy-ad/pragov/crystal_structure_design/SSSP/Te_pbe_v1.uspp.F.UPF
     MD5 check sum: c319670d6894cc26e93307826a071b75
     Pseudo is Ultrasoft + core correction, Zval =  6.0
     Generated by new atomic code, or converted to UPF format
     Using radial grid of  891 points,  5 beta functions with:
                l(1) =   0
                l(2) =   0
                l(3) =   1
                l(4) =   1
                l(5) =   2
     Q(r) pseudized with  6 coefficients,  rinner =    1.800   1.800   1.800
                                                       1.800   1.800

     atomic species   valence    mass     pseudopotential
        In            13.00   114.81800     In( 1.00)
        Ge            14.00    72.63000     Ge( 1.00)
        Sb            15.00   121.76000     Sb( 1.00)
        Te             6.00   127.60000     Te( 1.00)

      8 Sym. Ops. (no inversion) found ( 6 have fractional translation)

                                    s                        frac. trans.

      isym =  1     identity

 cryst.   s( 1) = (     1          0          0      )
                  (     0          1          0      )
                  (     0          0          1      )

 cart.    s( 1) = (  1.0000000  0.0000000 -0.0000000 )
                  (  0.0000000  1.0000000 -0.0000000 )
                  (  0.0000000  0.0000000  1.0000000 )

      isym =  2     180 deg rotation - cart. axis [0,0,1]

 cryst.   s( 2) = (    -1          0          0      )    f =(  0.5000000 )
                  (     0         -1          0      )       (  0.5000000 )
                  (    -1         -1          1      )       (  0.0000000 )

 cart.    s( 2) = ( -1.0000000  0.0000000 -0.0000002 )    f =(  0.5000000 )
                  (  0.0000000 -1.0000000 -0.0000002 )       (  0.5000000 )
                  (  0.0000000  0.0000000  1.0000000 )       (  0.0000000 )

[...]

      isym =  4     180 deg rotation - cart. axis [1,0,0]

[...]

      isym =  5     inv. 180 deg rotation - cart. axis [1,1,0]

 cryst.   s( 5) = (     0         -1          0      )
                  (    -1          0          0      )
                  (    -1         -1          1      )

 cart.    s( 5) = (  0.0000000 -1.0000000 -0.0000002 )
                  ( -1.0000000  0.0000000 -0.0000002 )
                  (  0.0000000  0.0000000  1.0000000 )

[...]

      isym =  8     inv.  90 deg rotation - cart. axis [0,0,1]

 cryst.   s( 8) = (     0         -1          0      )    f =(  0.2500000 )
                  (     1          0          0      )       ( -0.2500000 )
                  (     1          0         -1      )       (  0.5000000 )

 cart.    s( 8) = (  0.0000000  1.0000000  0.0000002 )    f =(  0.5000000 )
                  ( -1.0000000  0.0000000  0.0000000 )       ( -0.0000000 )
                  (  0.0000000  0.0000000 -1.0000000 )       (  0.4995270 )

   Cartesian axes

     site n.     atom                  positions (alat units)
         1           In  tau(   1) = (   0.5210814   1.4789184   0.9942396  )
         2           In  tau(   2) = (   0.5210815   1.0210815   0.5043414  )
         3           In  tau(   3) = (   0.9789184   1.0210814   0.9942396  )
         4           In  tau(   4) = (   0.9789185   0.4789185   0.5043414  )
         5           Ge  tau(   5) = (   0.7499999   1.2499999   0.7492905  )
         6           Sb  tau(   6) = (   0.7500000   0.7500000   0.2497635  )
         7           Sb  tau(   7) = (   0.2500000   0.2500000   0.2497635  )
         8           Te  tau(   8) = (   1.2499999   0.7499999   0.7492905  )

   Crystallographic axes

     site n.     atom                  positions (cryst. coord.)
         1           In  tau(   1) = (  0.0234910  0.9813280  0.9951810  )
         2           In  tau(   2) = (  0.2686720  0.7686720  0.5048190  )
         3           In  tau(   3) = (  0.4813280  0.5234910  0.9951810  )
         4           In  tau(   4) = (  0.7265090  0.2265090  0.5048190  )
         5           Ge  tau(   5) = (  0.3750000  0.8750000  0.7500000  )
         6           Sb  tau(   6) = (  0.6250000  0.6250000  0.2500000  )
         7           Sb  tau(   7) = (  0.1250000  0.1250000  0.2500000  )
         8           Te  tau(   8) = (  0.8750000  0.3750000  0.7500000  )

     number of k points=     1  Methfessel-Paxton smearing, width (Ry)=  0.0010
                       cart. coord. in units 2pi/alat
        k(    1) = (   0.0000000   0.0000000   0.0000000), wk =   2.0000000

                       cryst. coord.
        k(    1) = (   0.0000000   0.0000000   0.0000000), wk =   2.0000000

     Check: negative core charge=   -0.000002

     Initial potential from superposition of free atoms

     starting charge      99.9840, renormalised to     102.0000
     Starting wfcs are   67 randomized atomic wfcs

     Self-consistent Calculation

     iteration #  1     ecut=    30.00 Ry     beta= 0.70
     Davidson diagonalization with overlap

     ethr =  1.00E-02,  avg # of iterations =  3.0

     total energy              =   -1188.31813385 Ry
     estimated scf accuracy    <       1.67052240 Ry

[...]

     total energy              =   -1189.19098399 Ry
     estimated scf accuracy    <       0.00000153 Ry

     iteration # 17     ecut=    30.00 Ry     beta= 0.70
     Davidson diagonalization with overlap

     ethr =  1.50E-09,  avg # of iterations =  4.0

     End of self-consistent calculation

          k = 0.0000 0.0000 0.0000 (  2647 PWs)   bands (ev):

   -22.3942 -22.3924 -22.3924 -22.3879 -22.3879 -22.3822 -22.3802 -22.3728
   -22.3698 -22.3647 -17.7285 -17.7228 -17.7228 -17.7137 -17.7059  -8.3103
    -8.2941  -8.2868  -8.2408  -8.2408  -8.2246  -8.2177  -8.2151  -8.2039
    -8.2038  -8.1895  -8.1795  -8.1792  -8.1789  -8.1751  -8.1748  -8.1540
    -8.1538  -8.1475  -8.1411  -5.0008  -3.4537  -2.4581  -1.7662   0.5164
     0.6212   0.6213   3.3394   3.3394   3.4889   3.6402   4.0886   4.0887
     5.5364   6.0471   6.0499   6.0499   7.4461   7.4898   9.0016   9.1719
     9.1720   9.5302   9.5302  10.1766  10.3012

     occupation numbers
     1.0000   1.0000   1.0000   1.0000   1.0000   1.0000   1.0000   1.0000
     1.0000   1.0000   1.0000   1.0000   1.0000   1.0000   1.0000   1.0000
     1.0000   1.0000   1.0000   1.0000   1.0000   1.0000   1.0000   1.0000
     1.0000   1.0000   1.0000   1.0000   1.0000   1.0000   1.0000   1.0000
     1.0000   1.0000   1.0000   1.0000   1.0000   1.0000   1.0000   1.0000
     1.0000   1.0000   1.0000   1.0000   1.0000   1.0000   1.0000   1.0000
     1.0000   0.7687   0.6164   0.6150  -0.0000  -0.0000  -0.0000  -0.0000
    -0.0000  -0.0000  -0.0000  -0.0000  -0.0000

     the Fermi energy is     6.0517 ev

!    total energy              =   -1189.19098379 Ry
     estimated scf accuracy    <       0.00000077 Ry
     smearing contrib. (-TS)   =      -0.00072659 Ry
     internal energy E=F+TS    =   -1189.19025720 Ry

     The total energy is F=E-TS. E is the sum of the following terms:
     one-electron contribution =    -674.45353212 Ry
     hartree contribution      =     405.47919133 Ry
     xc contribution           =    -351.30660762 Ry
     ewald contribution        =    -568.90930879 Ry

     convergence has been achieved in  17 iterations

     Forces acting on atoms (cartesian axes, Ry/au):

     atom    1 type  1   force =    -0.00377987    0.00377987   -0.00786752
     atom    2 type  1   force =    -0.00377987   -0.00377987    0.00786752
     atom    3 type  1   force =     0.00377987   -0.00377987   -0.00786752
     atom    4 type  1   force =     0.00377987    0.00377987    0.00786752
     atom    5 type  2   force =     0.00000000    0.00000000    0.00000000
     atom    6 type  3   force =     0.00000000    0.00000000    0.00000000
     atom    7 type  3   force =     0.00000000    0.00000000    0.00000000
     atom    8 type  4   force =     0.00000000    0.00000000    0.00000000
     The non-local contrib.  to forces
     atom    1 type  1   force =    -0.06029788    0.06029788    0.02077940
     atom    2 type  1   force =    -0.06029788   -0.06029788   -0.02077941
     atom    3 type  1   force =     0.06029788   -0.06029788    0.02077940
     atom    4 type  1   force =     0.06029788    0.06029788   -0.02077939
     atom    5 type  2   force =     0.00000000    0.00000000    0.00000000
     atom    6 type  3   force =     0.00000000    0.00000000    0.00000000
     atom    7 type  3   force =     0.00000000    0.00000000   -0.00000000
     atom    8 type  4   force =     0.00000000    0.00000000   -0.00000000
     The ionic contribution  to forces
     atom    1 type  1   force =    -4.38124741    4.38124383   -2.33861946
     atom    2 type  1   force =    -4.38124711   -4.38124711    2.33861872
     atom    3 type  1   force =     4.38124383   -4.38124741   -2.33861946
     atom    4 type  1   force =     4.38124413    4.38124413    2.33862019
     atom    5 type  2   force =     0.00000216    0.00000216    0.00000000
     atom    6 type  3   force =     0.00000275    0.00000097    0.00000000
     atom    7 type  3   force =     0.00000097    0.00000275    0.00000000
     atom    8 type  4   force =     0.00000066    0.00000066    0.00000000
     The local contribution  to forces
     atom    1 type  1   force =     4.43588963   -4.43425478    2.30722001
     atom    2 type  1   force =     4.43580738    4.43436463   -2.30763855
     atom    3 type  1   force =    -4.43274610    4.43437625    2.30825355
     atom    4 type  1   force =    -4.43271660   -4.43413004   -2.30876821
     atom    5 type  2   force =    -0.00186019   -0.00007155    0.00043199
     atom    6 type  3   force =    -0.00111580   -0.00027515   -0.00015555
     atom    7 type  3   force =    -0.00113019    0.00012065   -0.00017982
     atom    8 type  4   force =     0.00010759    0.00000434    0.00002617
     The core correction contribution to forces
     atom    1 type  1   force =     0.00355240   -0.00349112    0.00218776
     atom    2 type  1   force =     0.00354892    0.00349475   -0.00220145
     atom    3 type  1   force =    -0.00342994    0.00350115    0.00222281
     atom    4 type  1   force =    -0.00343160   -0.00349072   -0.00223820
     atom    5 type  2   force =    -0.00002037   -0.00000099    0.00000474
     atom    6 type  3   force =    -0.00001311   -0.00000458   -0.00000251
     atom    7 type  3   force =    -0.00001318    0.00000237   -0.00000130
     atom    8 type  4   force =    -0.00000973   -0.00000077    0.00000703
     The Hubbard contrib.    to forces
     atom    1 type  1   force =     0.00000000    0.00000000    0.00000000
     atom    2 type  1   force =     0.00000000    0.00000000    0.00000000
     atom    3 type  1   force =     0.00000000    0.00000000    0.00000000
     atom    4 type  1   force =     0.00000000    0.00000000    0.00000000
     atom    5 type  2   force =     0.00000000    0.00000000    0.00000000
     atom    6 type  3   force =     0.00000000    0.00000000    0.00000000
     atom    7 type  3   force =     0.00000000    0.00000000    0.00000000
     atom    8 type  4   force =     0.00000000    0.00000000    0.00000000
     The SCF correction term to forces
     atom    1 type  1   force =    -0.00123885   -0.00003419    0.00034615
     atom    2 type  1   force =    -0.00124945   -0.00012246   -0.00002644
     atom    3 type  1   force =    -0.00127640   -0.00007799   -0.00041543
     atom    4 type  1   force =    -0.00122508   -0.00003613    0.00079758
     atom    5 type  2   force =     0.00161069    0.00006382   -0.00041610
     atom    6 type  3   force =     0.00083283    0.00021613    0.00022832
     atom    7 type  3   force =     0.00085853   -0.00008125    0.00023602
     atom    8 type  4   force =    -0.00005436   -0.00000009   -0.00010021

     Total force =     0.019023     Total SCF correction =     0.003399
     SCF correction compared to forces is large: reduce conv_thr to get better values

     Computing stress (Cartesian axis) and pressure

          total   stress  (Ry/bohr**3)                   (kbar)     P=       -8.71
   0.00011341   0.00000000   0.00000000           16.68        0.00        0.00
   0.00000000   0.00011341   0.00000000            0.00       16.68        0.00
   0.00000000   0.00000000  -0.00040449            0.00        0.00      -59.50

     kinetic stress (kbar)  10616.97      0.00      0.00
                                0.00  10616.97      0.00
                                0.00      0.00  10525.61

     local   stress (kbar)  -2464.99      0.21     -0.09
                                0.21  -2464.67     -1.79
                               -0.09     -1.79  -3526.33

     nonloc. stress (kbar)   1026.25      0.00      0.00
                                0.00   1026.25      0.00
                                0.00      0.00   1020.10

     hartree stress (kbar)  10267.14     -0.13      0.05
                               -0.13  10266.99      1.09
                                0.05      1.09  10756.51

     exc-cor stress (kbar)  11201.68     -0.00      0.00
                               -0.00  11201.67      0.01
                                0.00      0.01  11201.33

     corecor stress (kbar) -15798.68      0.00     -0.00
                                0.00 -15798.67     -0.03
                               -0.00     -0.03 -15797.79

     ewald   stress (kbar) -14831.76      0.00      0.00
                                0.00 -14831.76      0.00
                                0.00      0.00 -14238.93

     hubbard stress (kbar)      0.00      0.00      0.00
                                0.00      0.00      0.00
                                0.00      0.00      0.00

     DFT-D   stress (kbar)      0.00      0.00      0.00
                                0.00      0.00      0.00
                                0.00      0.00      0.00

     XDM     stress (kbar)      0.00      0.00      0.00
                                0.00      0.00      0.00
                                0.00      0.00      0.00

     dft-nl  stress (kbar)      0.00      0.00      0.00
                                0.00      0.00      0.00
                                0.00      0.00      0.00

     TS-vdW  stress (kbar)      0.00      0.00      0.00
                                0.00      0.00      0.00
                                0.00      0.00      0.00

[...]

                                0.00      0.00      0.00

     Writing all to output data dir new_calculations/myprefix.save/

     General routines

     Parallel routines

   This run was terminated on:  17:20:50  20May2023

   JOB DONE.