     Program PWSCF v.7.0 starts on 21May2023 at 13:15:37

     Reading input from espresso_20642.pwi
Warning: card &CELL ignored
Warning: card / ignored

     Current dimensions of program PWSCF are:
     Max number of different atomic species (ntypx) = 10
     Max number of k-points (npk) =  40000
     Max angular momentum in pseudopotentials (lmaxx) =  4
     file Ba.pbe-spn-kjpaw_psl.1.0.0.UPF: wavefunction(s)  5S 6S renormalized

     gamma-point specific algorithms are used
     Message from routine setup:
     using ibrav=0 with symmetry is DISCOURAGED, use correct ibrav instead

     Subspace diagonalization in iterative solution of the eigenvalue problem:
     a serial algorithm will be used

     Using Slab Decomposition

     bravais-lattice index     =            0
     lattice parameter (alat)  =       8.4467  a.u.
     unit-cell volume          =    3535.4710 (a.u.)^3
     number of atoms/cell      =           20
     number of atomic types    =            3
     number of electrons       =       240.00
     number of Kohn-Sham states=          144
     kinetic-energy cutoff     =      30.0000  Ry
     charge density cutoff     =     240.0000  Ry
     scf convergence threshold =      1.0E-06
     mixing beta               =       0.7000
     number of iterations used =            8  plain     mixing
     Exchange-correlation= SLA  PW   PBE  PBE
                           (   1   4   3   4   0   0   0)

     celldm(1)=   8.446686  celldm(2)=   0.000000  celldm(3)=   0.000000
     celldm(4)=   0.000000  celldm(5)=   0.000000  celldm(6)=   0.000000

     crystal axes: (cart. coord. in units of alat)
               a(1) = (   1.000000   0.000000   0.000000 )
               a(2) = (   0.000000   2.268519   0.000000 )
               a(3) = (   0.000000   0.000000   2.586102 )

     reciprocal axes: (cart. coord. in units 2 pi/alat)
               b(1) = (  1.000000  0.000000  0.000000 )
               b(2) = (  0.000000  0.440816  0.000000 )
               b(3) = (  0.000000  0.000000  0.386682 )

     PseudoPot. # 1 for Ba read from file:
     /home/pragov/projects/rrg-bengioy-ad/pragov/crystal_structure_design/SSSP/Ba.pbe-spn-kjpaw_psl.1.0.0.UPF
     MD5 check sum: c432291d3e53af55f19d5e8866385beb
     Pseudo is Projector augmented-wave + core cor, Zval = 10.0
     Generated using "atomic" code by A. Dal Corso  v.5.1
     Shape of augmentation charge: PSQ
     Using radial grid of 1251 points,  7 beta functions with:
                l(1) =   0
                l(2) =   0
                l(3) =   0
                l(4) =   1
                l(5) =   1
                l(6) =   2
                l(7) =   2
     Q(r) pseudized with 0 coefficients

     PseudoPot. # 2 for Cu read from file:
     /home/pragov/projects/rrg-bengioy-ad/pragov/crystal_structure_design/SSSP/Cu_pbe_v1.2.uspp.F.UPF
     MD5 check sum: 6e991ff952a84172a2a52a1c1e996048
     Pseudo is Ultrasoft + core correction, Zval = 19.0
     Generated by new atomic code, or converted to UPF format
     Using radial grid of  867 points,  6 beta functions with:
                l(1) =   0
                l(2) =   0
                l(3) =   1
                l(4) =   1
                l(5) =   2
                l(6) =   2
     Q(r) pseudized with  8 coefficients,  rinner =    1.150   1.150   1.150
                                                       1.150   1.150

     PseudoPot. # 3 for Te read from file:
     /home/pragov/projects/rrg-bengioy-ad/pragov/crystal_structure_design/SSSP/Te_pbe_v1.uspp.F.UPF
     MD5 check sum: c319670d6894cc26e93307826a071b75
     Pseudo is Ultrasoft + core correction, Zval =  6.0
     Generated by new atomic code, or converted to UPF format
     Using radial grid of  891 points,  5 beta functions with:
                l(1) =   0
                l(2) =   0
                l(3) =   1
                l(4) =   1
                l(5) =   2
     Q(r) pseudized with  6 coefficients,  rinner =    1.800   1.800   1.800
                                                       1.800   1.800

     atomic species   valence    mass     pseudopotential
        Ba            10.00   137.32700     Ba( 1.00)
        Cu            19.00    63.54600     Cu( 1.00)
        Te             6.00   127.60000     Te( 1.00)

      8 Sym. Ops., with inversion, found ( 6 have fractional translation)

                                    s                        frac. trans.

      isym =  1     identity

 cryst.   s( 1) = (     1          0          0      )
                  (     0          1          0      )
                  (     0          0          1      )

 cart.    s( 1) = (  1.0000000  0.0000000  0.0000000 )
                  (  0.0000000  1.0000000  0.0000000 )
                  (  0.0000000  0.0000000  1.0000000 )

      isym =  2     180 deg rotation - cart. axis [0,0,1]

 cryst.   s( 2) = (    -1          0          0      )    f =(  0.0000000 )
                  (     0         -1          0      )       (  0.5000000 )
                  (     0          0          1      )       ( -0.5000000 )

 cart.    s( 2) = ( -1.0000000  0.0000000  0.0000000 )    f =(  0.0000000 )
                  (  0.0000000 -1.0000000  0.0000000 )       (  1.1342595 )
                  (  0.0000000  0.0000000  1.0000000 )       ( -1.2930512 )

[...]

      isym =  4     180 deg rotation - cart. axis [1,0,0]

[...]

      isym =  5     inversion

 cryst.   s( 5) = (    -1          0          0      )
                  (     0         -1          0      )
                  (     0          0         -1      )

 cart.    s( 5) = ( -1.0000000  0.0000000  0.0000000 )
                  (  0.0000000 -1.0000000  0.0000000 )
                  (  0.0000000  0.0000000 -1.0000000 )

      isym =  6     inv. 180 deg rotation - cart. axis [0,0,1]

[...]

      isym =  8     inv. 180 deg rotation - cart. axis [1,0,0]

 cryst.   s( 8) = (    -1          0          0      )    f =(  0.5000000 )
                  (     0          1          0      )       (  0.0000000 )
                  (     0          0          1      )       (  0.0000000 )

 cart.    s( 8) = ( -1.0000000  0.0000000  0.0000000 )    f =(  0.5000000 )
                  (  0.0000000  1.0000000  0.0000000 )       (  0.0000000 )
                  (  0.0000000  0.0000000  1.0000000 )       (  0.0000000 )

   Cartesian axes

     site n.     atom                  positions (alat units)
         1           Ba  tau(   1) = (   0.7500000   0.5848242   1.7537602  )
         2           Ba  tau(   2) = (   0.2500000   1.6836949   0.8323422  )
         3           Ba  tau(   3) = (   0.7500000   1.7190838   2.1253934  )
         4           Ba  tau(   4) = (   0.2500000   0.5494353   0.4607090  )
         5           Cu  tau(   5) = (   0.2500000   1.3034344   0.1142333  )
         6           Cu  tau(   6) = (   0.7500000   0.9650847   2.4718691  )
         7           Cu  tau(   7) = (   0.7500000   2.0993443   1.4072845  )
         8           Cu  tau(   8) = (   0.2500000   0.1691748   1.1788179  )
         9           Cu  tau(   9) = (   0.7500000   1.0063672   1.0012613  )
        10           Cu  tau(  10) = (   0.2500000   1.2621518   1.5848411  )
        11           Cu  tau(  11) = (   0.7500000   2.1406268   0.2917899  )
        12           Cu  tau(  12) = (   0.2500000   0.1278923   2.2943125  )
        13           Te  tau(  13) = (   0.2500000   0.7702983   1.1955319  )
        14           Te  tau(  14) = (   0.7500000   1.4982207   1.3905705  )
        15           Te  tau(  15) = (   0.7500000   0.3639612   2.4885831  )
        16           Te  tau(  16) = (   0.2500000   1.9045579   0.0975193  )
        17           Te  tau(  17) = (   0.7500000   0.0525707   0.8540707  )
        18           Te  tau(  18) = (   0.2500000   2.2159484   1.7320317  )
        19           Te  tau(  19) = (   0.7500000   1.1868302   0.4389805  )
        20           Te  tau(  20) = (   0.2500000   1.0816889   2.1471219  )

   Crystallographic axes

     site n.     atom                  positions (cryst. coord.)
         1           Ba  tau(   1) = (  0.7500000  0.2578000  0.6781480  )
         2           Ba  tau(   2) = (  0.2500000  0.7422000  0.3218520  )
         3           Ba  tau(   3) = (  0.7500000  0.7578000  0.8218520  )
         4           Ba  tau(   4) = (  0.2500000  0.2422000  0.1781480  )
         5           Cu  tau(   5) = (  0.2500000  0.5745750  0.0441720  )
         6           Cu  tau(   6) = (  0.7500000  0.4254250  0.9558280  )
         7           Cu  tau(   7) = (  0.7500000  0.9254250  0.5441720  )
         8           Cu  tau(   8) = (  0.2500000  0.0745750  0.4558280  )
         9           Cu  tau(   9) = (  0.7500000  0.4436230  0.3871700  )
        10           Cu  tau(  10) = (  0.2500000  0.5563770  0.6128300  )
        11           Cu  tau(  11) = (  0.7500000  0.9436230  0.1128300  )
        12           Cu  tau(  12) = (  0.2500000  0.0563770  0.8871700  )
        13           Te  tau(  13) = (  0.2500000  0.3395600  0.4622910  )
        14           Te  tau(  14) = (  0.7500000  0.6604400  0.5377090  )
        15           Te  tau(  15) = (  0.7500000  0.1604400  0.9622910  )
        16           Te  tau(  16) = (  0.2500000  0.8395600  0.0377090  )
        17           Te  tau(  17) = (  0.7500000  0.0231740  0.3302540  )
        18           Te  tau(  18) = (  0.2500000  0.9768260  0.6697460  )
        19           Te  tau(  19) = (  0.7500000  0.5231740  0.1697460  )
        20           Te  tau(  20) = (  0.2500000  0.4768260  0.8302540  )

     number of k points=     1  Methfessel-Paxton smearing, width (Ry)=  0.0010
                       cart. coord. in units 2pi/alat
        k(    1) = (   0.0000000   0.0000000   0.0000000), wk =   2.0000000

                       cryst. coord.
        k(    1) = (   0.0000000   0.0000000   0.0000000), wk =   2.0000000

     Initial potential from superposition of free atoms

     starting charge     231.9302, renormalised to     240.0000
     Starting wfcs are  156 randomized atomic wfcs
     Checking if some PAW data can be deallocated...

     Self-consistent Calculation

     iteration #  1     ecut=    30.00 Ry     beta= 0.70
     Davidson diagonalization with overlap

     ethr =  1.00E-02,  avg # of iterations =  6.0

     total energy              =   -5183.44016445 Ry
     estimated scf accuracy    <       4.77721640 Ry

[...]

     total energy              =   -5186.30335164 Ry
     estimated scf accuracy    <       0.00000157 Ry

     iteration # 24     ecut=    30.00 Ry     beta= 0.70
     Davidson diagonalization with overlap

     ethr =  6.54E-10,  avg # of iterations =  4.0

     End of self-consistent calculation

          k = 0.0000 0.0000 0.0000 (  4917 PWs)   bands (ev):

  -103.2754-103.2751-103.2741-103.2736-103.1055-103.1051-103.1047-103.1044
   -60.6922 -60.6917 -60.6900 -60.6898 -60.6757 -60.6741 -60.6705 -60.6696
   -60.6390 -60.6386 -60.6383 -60.6382 -60.5379 -60.5371 -60.5367 -60.5344
   -60.5070 -60.5066 -60.5055 -60.5049 -60.4696 -60.4691 -60.4684 -60.4674
   -18.8894 -18.8884 -18.8872 -18.8865  -4.5276  -4.4564  -4.4459  -4.3805
[...]
     5.7762   5.7824   5.8382   5.8691   5.9106   5.9918   6.1363   6.2037
     6.2072   6.2525   6.5662   6.5777   6.5782   6.5901   6.6029   6.6083
     6.6483   6.6532   6.6756   6.7011   6.7104   6.7290   6.7856   6.7872
     6.8039   6.8328   6.8384   6.8449   6.9140   7.1927   7.2648   7.3190
     7.3288   7.4110   7.4548   7.5233   7.6528   7.9154   8.1069   8.1361
     8.1601   8.3275   8.3826   8.4149   8.8051   9.0447   9.0861   9.3431
     9.8932  10.1645  10.4005  10.5241  10.6937  10.8594  10.9274  10.9571
    11.2516  11.7009  11.7452  11.8230  11.8600  11.9143  12.0367  12.0731
    12.2967  12.6701  12.7369  12.9128  12.9454  13.2086  13.2576  13.2703

     occupation numbers
     1.0000   1.0000   1.0000   1.0000   1.0000   1.0000   1.0000   1.0000
     1.0000   1.0000   1.0000   1.0000   1.0000   1.0000   1.0000   1.0000
     1.0000   1.0000   1.0000   1.0000   1.0000   1.0000   1.0000   1.0000
     1.0000   1.0000   1.0000   1.0000   1.0000   1.0000   1.0000   1.0000
     1.0000   1.0000   1.0000   1.0000   1.0000   1.0000   1.0000   1.0000
     1.0000   1.0000   1.0000   1.0000   1.0000   1.0000   1.0000   1.0000
     1.0000   1.0000   1.0000   1.0000   1.0000   1.0000   1.0000   1.0000
     1.0000   1.0000   1.0000   1.0000   1.0000   1.0000   1.0000   1.0000
     1.0000   1.0000   1.0000   1.0000   1.0000   1.0000   1.0000   1.0000
     1.0000   1.0000   1.0000   1.0000   1.0000   1.0000   1.0000   1.0000
     1.0000   1.0000   1.0000   1.0000   1.0000   1.0000   1.0000   1.0000
     1.0000   1.0000   1.0000   1.0000   1.0000   1.0000   1.0000   1.0000
     1.0000   1.0000   1.0000   1.0000   1.0000   1.0000   1.0000   1.0000
     1.0000   1.0000   1.0000   1.0000   1.0000   1.0000   1.0000   1.0000
     1.0000   1.0000   1.0000   1.0000   1.0000   1.0000   1.0000   1.0000
    -0.0000  -0.0000  -0.0000  -0.0000  -0.0000  -0.0000  -0.0000  -0.0000
    -0.0000  -0.0000  -0.0000  -0.0000  -0.0000  -0.0000  -0.0000  -0.0000
    -0.0000  -0.0000  -0.0000  -0.0000  -0.0000  -0.0000  -0.0000  -0.0000

     the Fermi energy is     9.7558 ev

!    total energy              =   -5186.30335158 Ry
     estimated scf accuracy    <       0.00000048 Ry
     smearing contrib. (-TS)   =       0.00000000 Ry
     internal energy E=F+TS    =   -5186.30335158 Ry

     The total energy is F=E-TS. E is the sum of the following terms:
     one-electron contribution =   -3381.02781342 Ry
     hartree contribution      =    1791.86096426 Ry
     xc contribution           =    -508.34145454 Ry
     ewald contribution        =   -1588.98428132 Ry
     one-center paw contrib.   =   -1499.81076655 Ry
      -> PAW hartree energy AE =     114.95432911 Ry
      -> PAW hartree energy PS =    -114.52674984 Ry
      -> PAW xc energy AE      =   -1576.90506101 Ry
      -> PAW xc energy PS      =      76.66671519 Ry
      -> total E_H with PAW    =    1792.28854353 Ry
      -> total E_XC with PAW   =   -2008.57980036 Ry

     convergence has been achieved in  24 iterations

     Forces acting on atoms (cartesian axes, Ry/au):

     atom    1 type  1   force =     0.00000000    0.00450486   -0.00718956
     atom    2 type  1   force =    -0.00000000   -0.00450486    0.00718956
     atom    3 type  1   force =     0.00000000    0.00450486    0.00718956
     atom    4 type  1   force =     0.00000000   -0.00450486   -0.00718956
     atom    5 type  2   force =     0.00000000    0.01183189   -0.02928139
     atom    6 type  2   force =     0.00000000   -0.01183189    0.02928139
     atom    7 type  2   force =     0.00000000   -0.01183189   -0.02928139
     atom    8 type  2   force =     0.00000000    0.01183189    0.02928139
     atom    9 type  2   force =     0.00000000    0.02084628   -0.01420131
     atom   10 type  2   force =     0.00000000   -0.02084628    0.01420131
     atom   11 type  2   force =     0.00000000    0.02084628    0.01420131
     atom   12 type  2   force =     0.00000000   -0.02084628   -0.01420131
     atom   13 type  3   force =     0.00000000   -0.04687981    0.03594011
     atom   14 type  3   force =     0.00000000    0.04687981   -0.03594011
     atom   15 type  3   force =     0.00000000    0.04687981    0.03594011
     atom   16 type  3   force =     0.00000000   -0.04687981   -0.03594011
     atom   17 type  3   force =     0.00000000    0.00000342   -0.04171196
     atom   18 type  3   force =     0.00000000   -0.00000342    0.04171196
     atom   19 type  3   force =     0.00000000    0.00000342    0.04171196
     atom   20 type  3   force =     0.00000000   -0.00000342   -0.04171196
     The non-local contrib.  to forces
     atom    1 type  1   force =     0.00000000    0.01042882   -0.00007347
     atom    2 type  1   force =    -0.00000000   -0.01042882    0.00007347
     atom    3 type  1   force =     0.00000000    0.01042882    0.00007347
     atom    4 type  1   force =    -0.00000000   -0.01042882   -0.00007347
     atom    5 type  2   force =     0.00000000   -0.38363192    0.26289021
     atom    6 type  2   force =     0.00000000    0.38363192   -0.26289021
     atom    7 type  2   force =     0.00000000    0.38363192    0.26289021
     atom    8 type  2   force =     0.00000000   -0.38363192   -0.26289021
     atom    9 type  2   force =    -0.00000000   -0.17349582    0.26709988
     atom   10 type  2   force =     0.00000000    0.17349582   -0.26709988
     atom   11 type  2   force =    -0.00000000   -0.17349582   -0.26709988
     atom   12 type  2   force =    -0.00000000    0.17349582    0.26709988
     atom   13 type  3   force =    -0.00000000   -0.07305620    0.07131424
     atom   14 type  3   force =    -0.00000000    0.07305620   -0.07131424
     atom   15 type  3   force =     0.00000000    0.07305620    0.07131424
     atom   16 type  3   force =     0.00000000   -0.07305620   -0.07131424
     atom   17 type  3   force =     0.00000000    0.06074339   -0.15303819
     atom   18 type  3   force =     0.00000000   -0.06074339    0.15303819
     atom   19 type  3   force =     0.00000000    0.06074339    0.15303819
     atom   20 type  3   force =     0.00000000   -0.06074339   -0.15303819
     The ionic contribution  to forces
     atom    1 type  1   force =    -0.00000000    1.01775138    1.78282928
     atom    2 type  1   force =    -0.00000000   -1.01775138   -1.78282928
     atom    3 type  1   force =     0.00000000    1.01775138   -1.78282928
     atom    4 type  1   force =    -0.00000000   -1.01775138    1.78282928
     atom    5 type  2   force =     0.00000000   11.76869076    8.76765335
     atom    6 type  2   force =    -0.00000000  -11.76869076   -8.76765335
     atom    7 type  2   force =    -0.00000000  -11.76869076    8.76765335
     atom    8 type  2   force =     0.00000000   11.76869076   -8.76765335
     atom    9 type  2   force =    -0.00000000   -1.50999233   -7.00812763
     atom   10 type  2   force =     0.00000000    1.50999233    7.00812763
     atom   11 type  2   force =    -0.00000000   -1.50999233    7.00812762
     atom   12 type  2   force =    -0.00000000    1.50999233   -7.00812762
     atom   13 type  3   force =     0.00000000   -1.84681909    0.58416152
     atom   14 type  3   force =    -0.00000000    1.84681909   -0.58416152
     atom   15 type  3   force =    -0.00000000    1.84681909    0.58416152
     atom   16 type  3   force =     0.00000000   -1.84681909   -0.58416152
     atom   17 type  3   force =    -0.00000000    1.53582032   -5.84577414
     atom   18 type  3   force =    -0.00000000   -1.53582032    5.84577414
     atom   19 type  3   force =     0.00000000    1.53582032    5.84577414
     atom   20 type  3   force =     0.00000000   -1.53582032   -5.84577414
     The local contribution  to forces
     atom    1 type  1   force =     0.00014001   -1.02263039   -1.78943109
     atom    2 type  1   force =    -0.00000684    1.02342110    1.78947968
     atom    3 type  1   force =     0.00041095   -1.02322911    1.78932425
     atom    4 type  1   force =     0.00072524    1.02298340   -1.78943447
     atom    5 type  2   force =     0.00000289  -11.37381354   -9.05958250
     atom    6 type  2   force =    -0.00000449   11.37356345    9.05946141
     atom    7 type  2   force =     0.00000032   11.37380836   -9.05953195
     atom    8 type  2   force =    -0.00000105  -11.37363024    9.05961700
     atom    9 type  2   force =     0.00000004    1.70403550    6.72697086
     atom   10 type  2   force =     0.00000183   -1.70421761   -6.72697511
     atom   11 type  2   force =    -0.00000126    1.70422057   -6.72693768
     atom   12 type  2   force =    -0.00000007   -1.70404121    6.72690702
     atom   13 type  3   force =    -0.00000003    1.88138013   -0.62785774
     atom   14 type  3   force =     0.00000040   -1.88141075    0.62785155
     atom   15 type  3   force =     0.00000004   -1.88138378   -0.62786875
     atom   16 type  3   force =    -0.00000013    1.88142256    0.62787664
     atom   17 type  3   force =    -0.00000132   -1.60542306    5.97544559
     atom   18 type  3   force =    -0.00000087    1.60548672   -5.97543853
     atom   19 type  3   force =     0.00000099   -1.60548593   -5.97540808
     atom   20 type  3   force =    -0.00000226    1.60541032    5.97542054
     The core correction contribution to forces
     atom    1 type  1   force =     0.00000290   -0.00065651   -0.00051881
     atom    2 type  1   force =     0.00000018    0.00066711    0.00052015
     atom    3 type  1   force =     0.00000407   -0.00066361    0.00051821
     atom    4 type  1   force =     0.00000820    0.00066073   -0.00051938
     atom    5 type  2   force =     0.00000000    0.00037985   -0.00034495
     atom    6 type  2   force =    -0.00000000   -0.00037977    0.00034505
     atom    7 type  2   force =    -0.00000000   -0.00037985   -0.00034504
     atom    8 type  2   force =    -0.00000000    0.00037980    0.00034498
     atom    9 type  2   force =     0.00000000    0.00011675   -0.00015409
     atom   10 type  2   force =    -0.00000001   -0.00011666    0.00015409
     atom   11 type  2   force =     0.00000000    0.00011665    0.00015407
     atom   12 type  2   force =     0.00000000   -0.00011673   -0.00015407
     atom   13 type  3   force =     0.00000001   -0.00841028    0.00830602
     atom   14 type  3   force =    -0.00000008    0.00840987   -0.00830562
     atom   15 type  3   force =     0.00000000    0.00841046    0.00830527
     atom   16 type  3   force =     0.00000002   -0.00840939   -0.00830731
     atom   17 type  3   force =     0.00000015    0.00888764   -0.01829453
     atom   18 type  3   force =     0.00000003   -0.00888688    0.01829364
     atom   19 type  3   force =    -0.00000013    0.00888715    0.01829481
     atom   20 type  3   force =     0.00000025   -0.00888769   -0.01829564
     The Hubbard contrib.    to forces
     atom    1 type  1   force =     0.00000000    0.00000000    0.00000000
     atom    2 type  1   force =     0.00000000    0.00000000    0.00000000
     atom    3 type  1   force =     0.00000000    0.00000000    0.00000000
     atom    4 type  1   force =     0.00000000    0.00000000    0.00000000
     atom    5 type  2   force =     0.00000000    0.00000000    0.00000000
     atom    6 type  2   force =     0.00000000    0.00000000    0.00000000
     atom    7 type  2   force =     0.00000000    0.00000000    0.00000000
     atom    8 type  2   force =     0.00000000    0.00000000    0.00000000
     atom    9 type  2   force =     0.00000000    0.00000000    0.00000000
     atom   10 type  2   force =     0.00000000    0.00000000    0.00000000
     atom   11 type  2   force =     0.00000000    0.00000000    0.00000000
     atom   12 type  2   force =     0.00000000    0.00000000    0.00000000
     atom   13 type  3   force =     0.00000000    0.00000000    0.00000000
     atom   14 type  3   force =     0.00000000    0.00000000    0.00000000
     atom   15 type  3   force =     0.00000000    0.00000000    0.00000000
     atom   16 type  3   force =     0.00000000    0.00000000    0.00000000
     atom   17 type  3   force =     0.00000000    0.00000000    0.00000000
     atom   18 type  3   force =     0.00000000    0.00000000    0.00000000
     atom   19 type  3   force =     0.00000000    0.00000000    0.00000000
     atom   20 type  3   force =     0.00000000    0.00000000    0.00000000
     The SCF correction term to forces
     atom    1 type  1   force =    -0.00002213    0.00001074    0.00000405
     atom    2 type  1   force =     0.00000025   -0.00010334   -0.00004694
     atom    3 type  1   force =    -0.00005342    0.00005845    0.00005919
     atom    4 type  1   force =    -0.00009812   -0.00003810   -0.00002722
     atom    5 type  2   force =    -0.00000342    0.00022280    0.00012602
     atom    6 type  2   force =     0.00000326    0.00006026    0.00004152
     atom    7 type  2   force =     0.00000139   -0.00021743    0.00003633
     atom    8 type  2   force =    -0.00000034    0.00000855   -0.00015226
     atom    9 type  2   force =     0.00000175    0.00019374   -0.00000216
     atom   10 type  2   force =    -0.00000336    0.00001771    0.00000429
     atom   11 type  2   force =     0.00000144   -0.00001298   -0.00004812
     atom   12 type  2   force =    -0.00000061   -0.00019297    0.00008973
     atom   13 type  3   force =    -0.00000008    0.00002953    0.00001081
     atom   14 type  3   force =     0.00000033    0.00001203   -0.00001931
     atom   15 type  3   force =     0.00000012   -0.00003068    0.00004084
     atom   16 type  3   force =    -0.00000008   -0.00002351   -0.00001686
     atom   17 type  3   force =     0.00000002   -0.00003167   -0.00005862
     atom   18 type  3   force =     0.00000028   -0.00004595    0.00005322
     atom   19 type  3   force =     0.00000035    0.00004511    0.00001001
     atom   20 type  3   force =    -0.00000014    0.00004388   -0.00001078

     Total force =     0.166552     Total SCF correction =     0.000531

     Computing stress (Cartesian axis) and pressure

          total   stress  (Ry/bohr**3)                   (kbar)     P=     -141.10
  -0.00027993   0.00000000   0.00000000          -41.18        0.00        0.00
   0.00000000  -0.00130414   0.00000000            0.00     -191.85        0.00
   0.00000000   0.00000000  -0.00129342            0.00        0.00     -190.27

     kinetic stress (kbar)  12465.83      0.00      0.00
                                0.00  12382.33      0.00
                                0.00      0.00  12331.07

     local   stress (kbar) -24218.23      0.00      0.00
                                0.00  -9843.89     -0.00
                                0.00     -0.00 -11251.72

     nonloc. stress (kbar)   5094.41      0.00      0.00
                                0.00   5245.58      0.00
                                0.00      0.00   5218.43

     hartree stress (kbar)  29288.63     -0.00     -0.00
                               -0.00  22583.05      0.00
                               -0.00      0.00  22684.67

     exc-cor stress (kbar)    492.24      0.00      0.00
                                0.00    489.19      0.00
                                0.00      0.00    493.44

     corecor stress (kbar)  -5931.61     -0.00      0.00
                               -0.00  -5915.35     -0.00
                                0.00     -0.00  -5916.36

     ewald   stress (kbar) -17232.45      0.00     -0.00
                                0.00 -25132.75      0.00
                               -0.00      0.00 -23749.80

     hubbard stress (kbar)      0.00      0.00      0.00
                                0.00      0.00      0.00
                                0.00      0.00      0.00

     DFT-D   stress (kbar)      0.00      0.00      0.00
                                0.00      0.00      0.00
                                0.00      0.00      0.00

     XDM     stress (kbar)      0.00      0.00      0.00
                                0.00      0.00      0.00
                                0.00      0.00      0.00

     dft-nl  stress (kbar)      0.00      0.00      0.00
                                0.00      0.00      0.00
                                0.00      0.00      0.00

     TS-vdW  stress (kbar)      0.00      0.00      0.00
                                0.00      0.00      0.00
                                0.00      0.00      0.00

[...]

                                0.00      0.00      0.00

     Writing all to output data dir new_calculations/myprefix.save/

     General routines

     Parallel routines

     PAW routines

   This run was terminated on:  13:17:57  21May2023

   JOB DONE.