     Program PWSCF v.7.0 starts on 20May2023 at  7: 7:24

     Reading input from espresso_3229.pwi
Warning: card &CELL ignored
Warning: card / ignored

     Current dimensions of program PWSCF are:
     Max number of different atomic species (ntypx) = 10
     Max number of k-points (npk) =  40000
     Max angular momentum in pseudopotentials (lmaxx) =  4
     file O.pbe-n-kjpaw_psl.0.1.UPF: wavefunction(s)  2P renormalized

     gamma-point specific algorithms are used
     Message from routine setup:
     using ibrav=0 with symmetry is DISCOURAGED, use correct ibrav instead

     Subspace diagonalization in iterative solution of the eigenvalue problem:
     a serial algorithm will be used

     Using Slab Decomposition

     bravais-lattice index     =            0
     lattice parameter (alat)  =       9.0113  a.u.
     unit-cell volume          =    1015.0420 (a.u.)^3
     number of atoms/cell      =           12
     number of atomic types    =            4
     number of electrons       =        86.00
     number of Kohn-Sham states=           52
     kinetic-energy cutoff     =      30.0000  Ry
     charge density cutoff     =     240.0000  Ry
     scf convergence threshold =      1.0E-06
     mixing beta               =       0.7000
     number of iterations used =            8  plain     mixing
     Exchange-correlation= SLA  PW   PBX  PBC
                           (   1   4   3   4   0   0   0)

     celldm(1)=   9.011332  celldm(2)=   0.000000  celldm(3)=   0.000000
     celldm(4)=   0.000000  celldm(5)=   0.000000  celldm(6)=   0.000000

     crystal axes: (cart. coord. in units of alat)
               a(1) = (   1.000000   0.000000   0.000000 )
               a(2) = (   0.397637   0.917543   0.000000 )
               a(3) = (   0.062603   0.041099   1.511787 )

     reciprocal axes: (cart. coord. in units 2 pi/alat)
               b(1) = (  1.000000 -0.433371 -0.029629 )
               b(2) = (  0.000000  1.089867 -0.029629 )
               b(3) = (  0.000000  0.000000  0.661469 )

     PseudoPot. # 1 for Na read from file:
     /home/pragov/projects/rrg-bengioy-ad/pragov/crystal_structure_design/SSSP/na_pbe_v1.5.uspp.F.UPF
     MD5 check sum: 44600605ef58000f06b90626533354dc
     Pseudo is Ultrasoft, Zval =  9.0
     Generated by new atomic code, or converted to UPF format
     Using radial grid of  819 points,  5 beta functions with:
                l(1) =   0
                l(2) =   0
                l(3) =   1
                l(4) =   1
                l(5) =   2
     Q(r) pseudized with  8 coefficients,  rinner =    1.250   1.250   1.250
                                                       1.250   1.250

     PseudoPot. # 2 for Rh read from file:
     /home/pragov/projects/rrg-bengioy-ad/pragov/crystal_structure_design/SSSP/Rh_ONCV_PBE-1.0.oncvpsp.upf
     MD5 check sum: ba07c69523b14cacd10683cd4c4284c1
     Pseudo is Norm-conserving, Zval = 17.0
     Generated using ONCVPSP code by D. R. Hamann
     Using radial grid of 1442 points,  6 beta functions with:
                l(1) =   0
                l(2) =   0
                l(3) =   1
                l(4) =   1
                l(5) =   2
                l(6) =   2

     PseudoPot. # 3 for S  read from file:
     /home/pragov/projects/rrg-bengioy-ad/pragov/crystal_structure_design/SSSP/s_pbe_v1.4.uspp.F.UPF
     MD5 check sum: 88d86576ff6df21479756cfb9bdac1df
     Pseudo is Ultrasoft + core correction, Zval =  6.0
     Generated by new atomic code, or converted to UPF format
     Using radial grid of  907 points,  6 beta functions with:
                l(1) =   0
                l(2) =   0
                l(3) =   1
                l(4) =   1
                l(5) =   2
                l(6) =   2
     Q(r) pseudized with  8 coefficients,  rinner =    1.300   1.300   1.300
                                                       1.300   1.300

     PseudoPot. # 4 for O  read from file:
     /home/pragov/projects/rrg-bengioy-ad/pragov/crystal_structure_design/SSSP/O.pbe-n-kjpaw_psl.0.1.UPF
     MD5 check sum: 0234752ac141de4415c5fc33072bef88
     Pseudo is Projector augmented-wave + core cor, Zval =  6.0
     Generated using "atomic" code by A. Dal Corso  v.5.0.99 svn rev. 10869
     Shape of augmentation charge: BESSEL
     Using radial grid of 1095 points,  4 beta functions with:
                l(1) =   0
                l(2) =   0
                l(3) =   1
                l(4) =   1
     Q(r) pseudized with 0 coefficients

     atomic species   valence    mass     pseudopotential
        Na             9.00    22.98977     Na( 1.00)
        Rh            17.00   102.90550     Rh( 1.00)
        S              6.00    32.06000     S ( 1.00)
        O              6.00    15.99900     O ( 1.00)

      2 Sym. Ops., with inversion, found

                                    s                        frac. trans.

      isym =  1     identity

 cryst.   s( 1) = (     1          0          0      )
                  (     0          1          0      )
                  (     0          0          1      )

 cart.    s( 1) = (  1.0000000 -0.0000000 -0.0000000 )
                  (  0.0000000  1.0000000 -0.0000000 )
                  (  0.0000000  0.0000000  1.0000000 )

      isym =  2     inversion

 cryst.   s( 2) = (    -1          0          0      )
                  (     0         -1          0      )
                  (     0          0         -1      )

 cart.    s( 2) = ( -1.0000000  0.0000000  0.0000000 )
                  (  0.0000000 -1.0000000  0.0000000 )
                  (  0.0000000  0.0000000 -1.0000000 )

   Cartesian axes

     site n.     atom                  positions (alat units)
         1           Na  tau(   1) = (   0.0313016   0.0205494   0.7558935  )
         2           Rh  tau(   2) = (   0.0000000   0.0000000   0.0000000  )
         3           S   tau(   3) = (   0.5610393   0.3683201   1.1862175  )
         4           S   tau(   4) = (   0.8992006   0.5903216   0.3255694  )
         5           O   tau(   5) = (   0.4344482   0.2852135   0.9232921  )
         6           O   tau(   6) = (   1.0257917   0.6734281   0.5884948  )
         7           O   tau(   7) = (   0.8603416   0.2571092   1.1928301  )
         8           O   tau(   8) = (   0.5998982   0.7015325   0.3189568  )
         9           O   tau(   9) = (   0.8822277   0.2714773   0.3189568  )
        10           O   tau(  10) = (   0.5780122   0.6871643   1.1928301  )
        11           O   tau(  11) = (   0.4181243   0.2744969   1.4479986  )
        12           O   tau(  12) = (   1.0421156   0.6841447   0.0637883  )

   Crystallographic axes

     site n.     atom                  positions (cryst. coord.)
         1           Na  tau(   1) = ( -0.0000000  0.0000000  0.5000000  )
         2           Rh  tau(   2) = (  0.0000000  0.0000000  0.0000000  )
         3           S   tau(   3) = (  0.3662740  0.3662740  0.7846460  )
         4           S   tau(   4) = (  0.6337260  0.6337260  0.2153540  )
         5           O   tau(   5) = (  0.2834890  0.2834890  0.6107290  )
         6           O   tau(   6) = (  0.7165110  0.7165110  0.3892710  )
         7           O   tau(   7) = (  0.7135760  0.2448730  0.7890200  )
         8           O   tau(   8) = (  0.2864240  0.7551270  0.2109800  )
         9           O   tau(   9) = (  0.7551270  0.2864240  0.2109800  )
        10           O   tau(  10) = (  0.2448730  0.7135760  0.7890200  )
        11           O   tau(  11) = (  0.2562630  0.2562630  0.9578060  )
        12           O   tau(  12) = (  0.7437370  0.7437370  0.0421940  )

     number of k points=     1  Methfessel-Paxton smearing, width (Ry)=  0.0010
                       cart. coord. in units 2pi/alat
        k(    1) = (   0.0000000   0.0000000   0.0000000), wk =   2.0000000

                       cryst. coord.
        k(    1) = (   0.0000000   0.0000000   0.0000000), wk =   2.0000000

     Check: negative core charge=   -0.000014

     Initial potential from superposition of free atoms

     starting charge      85.9932, renormalised to      86.0000
     Starting wfcs are   55 randomized atomic wfcs
     Checking if some PAW data can be deallocated...

     Self-consistent Calculation

     iteration #  1     ecut=    30.00 Ry     beta= 0.70
     Davidson diagonalization with overlap

     ethr =  1.00E-02,  avg # of iterations =  6.0

     total energy              =    -692.07988463 Ry
     estimated scf accuracy    <       2.31489693 Ry

[...]

     total energy              =    -693.13607625 Ry
     estimated scf accuracy    <       0.00000146 Ry

     iteration # 11     ecut=    30.00 Ry     beta= 0.70
     Davidson diagonalization with overlap

     ethr =  1.70E-09,  avg # of iterations =  2.0

     End of self-consistent calculation

          k = 0.0000 0.0000 0.0000 (  1406 PWs)   bands (ev):

   -73.5524 -44.5648 -41.4364 -41.4009 -41.2843 -18.8292 -18.6396 -16.4920
   -16.4897 -16.4471 -14.9635 -14.6625 -14.5544 -14.4915 -14.4566 -14.3628
    -5.5385  -4.7461  -2.9791  -2.7928  -2.4066  -1.9063  -1.7288  -1.2126
    -0.3221   0.3131   0.7795   0.9832   1.4028   1.4066   1.9576   2.1618
     2.4253   2.4919   2.5501   3.1865   3.2944   3.8998   3.9889   4.1604
     4.2314   4.7890   4.8331   6.5584   7.3465  10.0390  12.1904  12.1953
    12.9063  13.6169  13.6303  13.8508

     occupation numbers
     1.0000   1.0000   1.0000   1.0000   1.0000   1.0000   1.0000   1.0000
     1.0000   1.0000   1.0000   1.0000   1.0000   1.0000   1.0000   1.0000
     1.0000   1.0000   1.0000   1.0000   1.0000   1.0000   1.0000   1.0000
     1.0000   1.0000   1.0000   1.0000   1.0000   1.0000   1.0000   1.0000
     1.0000   1.0000   1.0000   1.0000   1.0000   1.0000   1.0000   1.0000
     1.0000   1.0000   1.0000  -0.0000  -0.0000  -0.0000  -0.0000  -0.0000
    -0.0000  -0.0000  -0.0000  -0.0000

     the Fermi energy is     5.7673 ev

!    total energy              =    -693.13607629 Ry
     estimated scf accuracy    <       0.00000019 Ry
     smearing contrib. (-TS)   =       0.00000000 Ry
     internal energy E=F+TS    =    -693.13607629 Ry

     The total energy is F=E-TS. E is the sum of the following terms:
     one-electron contribution =    -373.61981679 Ry
     hartree contribution      =     226.02378882 Ry
     xc contribution           =    -113.44273822 Ry
     ewald contribution        =    -355.94022989 Ry
     one-center paw contrib.   =     -76.15708022 Ry
      -> PAW hartree energy AE =     249.36773921 Ry
      -> PAW hartree energy PS =    -248.49831943 Ry
      -> PAW xc energy AE      =    -139.26526916 Ry
      -> PAW xc energy PS      =      62.23876917 Ry
      -> total E_H with PAW    =     226.89320860 Ry
      -> total E_XC with PAW   =    -190.46923821 Ry

     convergence has been achieved in  11 iterations

     Forces acting on atoms (cartesian axes, Ry/au):

     atom    1 type  1   force =     0.00000000    0.00000000    0.00000000
     atom    2 type  2   force =     0.00000000    0.00000000    0.00000000
     atom    3 type  3   force =     0.01358847    0.00891894   -0.00439510
     atom    4 type  3   force =    -0.01358847   -0.00891894    0.00439510
     atom    5 type  4   force =    -0.00039328   -0.00025799   -0.03113213
     atom    6 type  4   force =     0.00039328    0.00025799    0.03113213
     atom    7 type  4   force =    -0.01654674    0.00266324    0.02162009
     atom    8 type  4   force =     0.01654674   -0.00266324   -0.02162009
     atom    9 type  4   force =     0.00413502    0.01623208   -0.02161698
     atom   10 type  4   force =    -0.00413502   -0.01623208    0.02161698
     atom   11 type  4   force =    -0.00796476   -0.00522998    0.02809240
     atom   12 type  4   force =     0.00796476    0.00522998   -0.02809240
     The non-local contrib.  to forces
     atom    1 type  1   force =     0.00000000    0.00000000    0.00000000
     atom    2 type  2   force =     0.00000000    0.00000000    0.00000000
     atom    3 type  3   force =     0.18096881    0.11881485    0.12396683
     atom    4 type  3   force =    -0.18096881   -0.11881485   -0.12396683
     atom    5 type  4   force =     0.88495809    0.58097528    2.09437547
     atom    6 type  4   force =    -0.88495809   -0.58097528   -2.09437547
     atom    7 type  4   force =    -1.72339310    0.35119343    0.61027457
     atom    8 type  4   force =     1.72339310   -0.35119343   -0.61027457
     atom    9 type  4   force =     0.36305461    1.72092496   -0.61026707
     atom   10 type  4   force =    -0.36305461   -1.72092496    0.61026707
     atom   11 type  4   force =     0.20115464    0.13206135   -1.95666431
     atom   12 type  4   force =    -0.20115464   -0.13206135    1.95666431
     The ionic contribution  to forces
     atom    1 type  1   force =     0.00000000   -0.00000000    0.00000000
     atom    2 type  2   force =    -0.00000000   -0.00000000   -0.00000000
     atom    3 type  3   force =     0.28201906    0.18514438   -6.01292570
     atom    4 type  3   force =    -0.28201906   -0.18514439    6.01292570
     atom    5 type  4   force =    -2.74098192   -1.79944369  -12.65238583
     atom    6 type  4   force =     2.74098192    1.79944369   12.65238583
     atom    7 type  4   force =     3.63476191    2.21471717  -10.21353203
     atom    8 type  4   force =    -3.63476191   -2.21471717   10.21353203
     atom    9 type  4   force =    -3.47741291   -2.45439721   10.21353203
     atom   10 type  4   force =     3.47741291    2.45439721  -10.21353203
     atom   11 type  4   force =     2.28804893    1.50209499    5.00776147
     atom   12 type  4   force =    -2.28804893   -1.50209499   -5.00776147
     The local contribution  to forces
     atom    1 type  1   force =    -0.00000729   -0.00000651    0.00007537
     atom    2 type  2   force =    -0.00004078   -0.00004964   -0.00033365
     atom    3 type  3   force =    -0.43690251   -0.28680627    5.89454362
     atom    4 type  3   force =     0.43690452    0.28680913   -5.89463326
     atom    5 type  4   force =     1.86298499    1.22304385   10.54537562
     atom    6 type  4   force =    -1.86293238   -1.22301111  -10.54511879
     atom    7 type  4   force =    -1.94340821   -2.56049673    9.63225774
     atom    8 type  4   force =     1.94329714    2.56049327   -9.63225720
     atom    9 type  4   force =     3.12208503    0.76491712   -9.63225749
     atom   10 type  4   force =    -3.12213565   -0.76501281    9.63226870
     atom   11 type  4   force =    -2.49738464   -1.63949790   -3.04090705
     atom   12 type  4   force =     2.49743973    1.63952775    3.04065620
     The core correction contribution to forces
     atom    1 type  1   force =     0.00000000    0.00000000    0.00000000
     atom    2 type  2   force =     0.00000000    0.00000000    0.00000000
     atom    3 type  3   force =    -0.01249263   -0.00820199   -0.00954245
     atom    4 type  3   force =     0.01249111    0.00820074    0.00954117
     atom    5 type  4   force =    -0.00737926   -0.00484451   -0.01824400
     atom    6 type  4   force =     0.00737890    0.00484425    0.01824379
     atom    7 type  4   force =     0.01559903   -0.00288237   -0.00699506
     atom    8 type  4   force =    -0.01559899    0.00288189    0.00699599
     atom    9 type  4   force =    -0.00355863   -0.01545865    0.00699592
     atom   10 type  4   force =     0.00355807    0.01545881   -0.00699495
     atom   11 type  4   force =     0.00002706    0.00001781    0.01799740
     atom   12 type  4   force =    -0.00002709   -0.00001782   -0.01799657
     The Hubbard contrib.    to forces
     atom    1 type  1   force =     0.00000000    0.00000000    0.00000000
     atom    2 type  2   force =     0.00000000    0.00000000    0.00000000
     atom    3 type  3   force =     0.00000000    0.00000000    0.00000000
     atom    4 type  3   force =     0.00000000    0.00000000    0.00000000
     atom    5 type  4   force =     0.00000000    0.00000000    0.00000000
     atom    6 type  4   force =     0.00000000    0.00000000    0.00000000
     atom    7 type  4   force =     0.00000000    0.00000000    0.00000000
     atom    8 type  4   force =     0.00000000    0.00000000    0.00000000
     atom    9 type  4   force =     0.00000000    0.00000000    0.00000000
     atom   10 type  4   force =     0.00000000    0.00000000    0.00000000
     atom   11 type  4   force =     0.00000000    0.00000000    0.00000000
     atom   12 type  4   force =     0.00000000    0.00000000    0.00000000
     The SCF correction term to forces
     atom    1 type  1   force =    -0.00000269    0.00000422   -0.00015601
     atom    2 type  2   force =     0.00002151    0.00004406    0.00039442
     atom    3 type  3   force =    -0.00001303   -0.00004241   -0.00043824
     atom    4 type  3   force =    -0.00000501    0.00002007    0.00052749
     atom    5 type  4   force =     0.00001618    0.00000554   -0.00026594
     atom    6 type  4   force =    -0.00008570   -0.00004911   -0.00001579
     atom    7 type  4   force =    -0.00010852    0.00011785   -0.00035833
     atom    8 type  4   force =     0.00021524   -0.00014169    0.00041046
     atom    9 type  4   force =    -0.00004970    0.00025075    0.00040859
     atom   10 type  4   force =     0.00006764   -0.00014544   -0.00036284
     atom   11 type  4   force =     0.00018578    0.00009219   -0.00006823
     atom   12 type  4   force =    -0.00024778   -0.00012518    0.00037202

     Total force =     0.085195     Total SCF correction =     0.001333

     Computing stress (Cartesian axis) and pressure

          total   stress  (Ry/bohr**3)                   (kbar)     P=     -383.92
  -0.00271029  -0.00019770   0.00000736         -398.70      -29.08        1.08
  -0.00019770  -0.00253912   0.00000479          -29.08     -373.52        0.70
   0.00000736   0.00000479  -0.00258004            1.08        0.70     -379.54

     kinetic stress (kbar)  23469.18    -88.87      8.85
                              -88.87  23546.21      5.81
                                8.85      5.81  23134.80

     local   stress (kbar) -14808.26    885.98   -619.61
                              885.98 -15576.24   -406.78
                             -619.61   -406.78  -2698.12

     nonloc. stress (kbar)  -1569.68     -7.28     16.22
                               -7.28  -1563.37     10.65
                               16.22     10.65  -1561.57

     hartree stress (kbar)  12852.17   -372.92    214.19
                             -372.92  13175.43    140.63
                              214.19    140.63   6728.92

     exc-cor stress (kbar)  -3280.01      0.32      1.32
                                0.32  -3280.29      0.87
                                1.32      0.87  -3274.05

     corecor stress (kbar)  -1619.87      0.03     -1.61
                                0.03  -1619.90     -1.06
                               -1.61     -1.06  -1622.43

     ewald   stress (kbar) -15442.22   -446.34    381.72
                             -446.34 -15055.36    250.60
                              381.72    250.60 -21087.10

     hubbard stress (kbar)      0.00      0.00      0.00
                                0.00      0.00      0.00
                                0.00      0.00      0.00

     DFT-D   stress (kbar)      0.00      0.00      0.00
                                0.00      0.00      0.00
                                0.00      0.00      0.00

     XDM     stress (kbar)      0.00      0.00      0.00
                                0.00      0.00      0.00
                                0.00      0.00      0.00

     dft-nl  stress (kbar)      0.00      0.00      0.00
                                0.00      0.00      0.00
                                0.00      0.00      0.00

     TS-vdW  stress (kbar)      0.00      0.00      0.00
                                0.00      0.00      0.00
                                0.00      0.00      0.00

[...]

                                0.00      0.00      0.00

     Writing all to output data dir new_calculations/myprefix.save/

     General routines

     Parallel routines

     PAW routines

   This run was terminated on:   7: 7:40  20May2023

   JOB DONE.