     Program PWSCF v.7.0 starts on 21May2023 at  2:33: 2

     Reading input from espresso_9905.pwi
Warning: card &CELL ignored
Warning: card / ignored

     Current dimensions of program PWSCF are:
     Max number of different atomic species (ntypx) = 10
     Max number of k-points (npk) =  40000
     Max angular momentum in pseudopotentials (lmaxx) =  4
     file Mg.pbe-n-kjpaw_psl.0.3.0.UPF: wavefunction(s)  3S renormalized

     gamma-point specific algorithms are used
     Message from routine setup:
     using ibrav=0 with symmetry is DISCOURAGED, use correct ibrav instead

     Subspace diagonalization in iterative solution of the eigenvalue problem:
     a serial algorithm will be used

     Using Slab Decomposition

     bravais-lattice index     =            0
     lattice parameter (alat)  =      10.4318  a.u.
     unit-cell volume          =     802.7157 (a.u.)^3
     number of atoms/cell      =            4
     number of atomic types    =            3
     number of electrons       =        35.00
     number of Kohn-Sham states=           22
     kinetic-energy cutoff     =      30.0000  Ry
     charge density cutoff     =     240.0000  Ry
     scf convergence threshold =      1.0E-06
     mixing beta               =       0.7000
     number of iterations used =            8  plain     mixing
     Exchange-correlation= SLA  PW   PBE  PBE
                           (   1   4   3   4   0   0   0)

     celldm(1)=  10.431792  celldm(2)=   0.000000  celldm(3)=   0.000000
     celldm(4)=   0.000000  celldm(5)=   0.000000  celldm(6)=   0.000000

     crystal axes: (cart. coord. in units of alat)
               a(1) = (   1.000000   0.000000   0.000000 )
               a(2) = (   0.500000   0.866025   0.000000 )
               a(3) = (   0.500000   0.288675   0.816497 )

     reciprocal axes: (cart. coord. in units 2 pi/alat)
               b(1) = (  1.000000 -0.577350 -0.408248 )
               b(2) = (  0.000000  1.154701 -0.408248 )
               b(3) = (  0.000000  0.000000  1.224745 )

     PseudoPot. # 1 for Ca read from file:
     /home/pragov/projects/rrg-bengioy-ad/pragov/crystal_structure_design/SSSP/Ca_pbe_v1.uspp.F.UPF
     MD5 check sum: 403a4c14b9e4d4dfdc3024c9a3812218
     Pseudo is Ultrasoft + core correction, Zval = 10.0
     Generated by new atomic code, or converted to UPF format
     Using radial grid of  845 points,  6 beta functions with:
                l(1) =   0
                l(2) =   0
                l(3) =   1
                l(4) =   1
                l(5) =   2
                l(6) =   2
     Q(r) pseudized with  8 coefficients,  rinner =    1.500   1.500   1.500
                                                       1.500   1.500

     PseudoPot. # 2 for Mg read from file:
     /home/pragov/projects/rrg-bengioy-ad/pragov/crystal_structure_design/SSSP/Mg.pbe-n-kjpaw_psl.0.3.0.UPF
     MD5 check sum: 24ecedc7f3e3cbe212e682f4413594e4
     Pseudo is Projector augmented-wave + core cor, Zval =  2.0
     Generated using "atomic" code by A. Dal Corso  v.5.0.99 svn rev. 10869
     Shape of augmentation charge: PSQ
     Using radial grid of 1129 points,  4 beta functions with:
                l(1) =   0
                l(2) =   0
                l(3) =   1
                l(4) =   1
     Q(r) pseudized with 0 coefficients

     PseudoPot. # 3 for Tl read from file:
     /home/pragov/projects/rrg-bengioy-ad/pragov/crystal_structure_design/SSSP/Tl_pbe_v1.2.uspp.F.UPF
     MD5 check sum: b76cf1f7e72655a2b2c53cf6385d7059
     Pseudo is Ultrasoft + core correction, Zval = 13.0
     Generated by new atomic code, or converted to UPF format
     Using radial grid of  899 points,  6 beta functions with:
                l(1) =   0
                l(2) =   0
                l(3) =   1
                l(4) =   1
                l(5) =   2
                l(6) =   2
     Q(r) pseudized with  6 coefficients,  rinner =    1.100   1.100   1.100
                                                       1.100   1.100

     atomic species   valence    mass     pseudopotential
        Ca            10.00    40.07800     Ca( 1.00)
        Mg             2.00    24.30500     Mg( 1.00)
        Tl            13.00   204.38000     Tl( 1.00)

     12 Sym. Ops., with inversion, found

                                    s                        frac. trans.

      isym =  1     identity

 cryst.   s( 1) = (     1          0          0      )
                  (     0          1          0      )
                  (     0          0          1      )

 cart.    s( 1) = (  1.0000000  0.0000000 -0.0000000 )
                  (  0.0000000  1.0000000 -0.0000000 )
                  (  0.0000000  0.0000000  1.0000000 )

      isym =  2     180 deg rotation - cart. axis [1,0,0]

[...]

      isym =  3     120 deg rotation - cryst. axis [0,0,1]

[...]

      isym =  6     180 deg rotation - cryst. axis [1,1,0]

[...]

      isym =  7     inversion

[...]

      isym =  8     inv. 180 deg rotation - cart. axis [1,0,0]

[...]

      isym =  9     inv. 120 deg rotation - cryst. axis [0,0,1]

 cryst.   s( 9) = (     1         -1          0      )
                  (     1          0          0      )
                  (     1          0         -1      )

 cart.    s( 9) = (  0.5000000  0.8660254 -0.0000000 )
                  ( -0.8660254  0.5000000  0.0000000 )
                  (  0.0000000  0.0000000 -1.0000000 )

[...]

 cryst.   s(10) = (     0          1          0      )
                  (    -1          1          0      )
                  (     0          1         -1      )

 cart.    s(10) = (  0.5000000 -0.8660254  0.0000000 )
                  (  0.8660254  0.5000000 -0.0000000 )
                  (  0.0000000  0.0000000 -1.0000000 )

[...]

      isym = 12     inv. 180 deg rotation - cryst. axis [1,1,0]

 cryst.   s(12) = (     1         -1          0      )
                  (     0         -1          0      )
                  (     0         -1          1      )

 cart.    s(12) = (  0.5000000 -0.8660254  0.0000000 )
                  ( -0.8660254 -0.5000000  0.0000000 )
                  (  0.0000000  0.0000000  1.0000000 )

   Cartesian axes

     site n.     atom                  positions (alat units)
         1           Ca  tau(   1) = (   1.5000000   0.8660254   0.6123724  )
         2           Ca  tau(   2) = (   0.5000000   0.2886751   0.2041241  )
         3           Mg  tau(   3) = (   1.0000000   0.5773503   0.4082483  )
         4           Tl  tau(   4) = (   0.0000000   0.0000000   0.0000000  )

   Crystallographic axes

     site n.     atom                  positions (cryst. coord.)
         1           Ca  tau(   1) = (  0.7500000  0.7500000  0.7500000  )
         2           Ca  tau(   2) = (  0.2500000  0.2500000  0.2500000  )
         3           Mg  tau(   3) = (  0.5000000  0.5000000  0.5000000  )
         4           Tl  tau(   4) = (  0.0000000  0.0000000  0.0000000  )

     number of k points=     1  Methfessel-Paxton smearing, width (Ry)=  0.0010
                       cart. coord. in units 2pi/alat
        k(    1) = (   0.0000000   0.0000000   0.0000000), wk =   2.0000000

                       cryst. coord.
        k(    1) = (   0.0000000   0.0000000   0.0000000), wk =   2.0000000

     Check: negative core charge=   -0.000004

     Initial potential from superposition of free atoms

     starting charge      34.9833, renormalised to      35.0000

     negative rho (up, down):  5.037E-02 0.000E+00
     Starting wfcs are   33 randomized atomic wfcs
     Checking if some PAW data can be deallocated...

     Self-consistent Calculation

     iteration #  1     ecut=    30.00 Ry     beta= 0.70
     Davidson diagonalization with overlap

     ethr =  1.00E-02,  avg # of iterations =  2.0
     Minimization algorithm failed to find Fermi energy: reverting to bisection
     Possible cause: smearing is larger than the electronic band-gap.

     Threshold (ethr) on eigenvalues was too large:
     Diagonalizing with lowered threshold

     Davidson diagonalization with overlap

[...]

     negative rho (up, down):  4.841E-02 0.000E+00

     total energy              =    -328.28114956 Ry
     estimated scf accuracy    <       0.04960013 Ry

[...]

     ethr =  2.91E-05,  avg # of iterations =  4.0

[...]

     ethr =  2.65E-05,  avg # of iterations =  1.0

[...]

     total energy              =    -328.29428419 Ry
     estimated scf accuracy    <       0.00008866 Ry

     iteration # 15     ecut=    30.00 Ry     beta= 0.70
     Davidson diagonalization with overlap

     ethr =  7.31E-08,  avg # of iterations =  2.0
     Minimization algorithm failed to find Fermi energy: reverting to bisection
     Possible cause: smearing is larger than the electronic band-gap.

[...]

     End of self-consistent calculation

          k = 0.0000 0.0000 0.0000 (  1115 PWs)   bands (ev):

   -34.2641 -34.2494 -15.3357 -15.3357 -15.3357 -15.2726 -15.2726 -15.2725
    -3.7442  -3.7441  -3.7441  -3.6951  -3.6950  -0.0663   5.9289   6.2388
     6.2388   6.2389   8.3891   8.3891  10.3736  10.3749

     occupation numbers
     1.0000   1.0000   1.0000   1.0000   1.0000   1.0000   1.0000   1.0000
     1.0000   1.0000   1.0000   1.0000   1.0000   1.0000   1.0000   0.8345
     0.8339   0.8316  -0.0000  -0.0000  -0.0000  -0.0000

     the Fermi energy is     6.2448 ev

!    total energy              =    -328.29428497 Ry
     estimated scf accuracy    <       0.00000061 Ry
     smearing contrib. (-TS)   =      -0.00043272 Ry
     internal energy E=F+TS    =    -328.29385225 Ry

     The total energy is F=E-TS. E is the sum of the following terms:
     one-electron contribution =    -111.76333584 Ry
     hartree contribution      =      69.54197460 Ry
     xc contribution           =     -87.59938429 Ry
     ewald contribution        =    -167.15002166 Ry
     one-center paw contrib.   =     -31.32308507 Ry
      -> PAW hartree energy AE =       1.06217664 Ry
      -> PAW hartree energy PS =      -1.05934578 Ry
      -> PAW xc energy AE      =     -32.77018385 Ry
      -> PAW xc energy PS      =       1.44426792 Ry
      -> total E_H with PAW    =      69.54480546 Ry
      -> total E_XC with PAW   =    -118.92530022 Ry

     convergence has been achieved in  15 iterations

     negative rho (up, down):  4.868E-02 0.000E+00

     Forces acting on atoms (cartesian axes, Ry/au):

     atom    1 type  1   force =     0.00000000    0.00000000   -0.00000013
     atom    2 type  1   force =     0.00000000    0.00000000    0.00000013
     atom    3 type  2   force =     0.00000000    0.00000000    0.00000000
     atom    4 type  3   force =    -0.00000000   -0.00000000   -0.00000000
     The non-local contrib.  to forces
     atom    1 type  1   force =     0.00000000    0.00000000    0.00000501
     atom    2 type  1   force =     0.00000000   -0.00000000   -0.00000501
     atom    3 type  2   force =    -0.00000000   -0.00000000    0.00000000
     atom    4 type  3   force =     0.00000000    0.00000000   -0.00000000
     The ionic contribution  to forces
     atom    1 type  1   force =    -0.00000000    0.00000000    0.00000000
     atom    2 type  1   force =     0.00000000    0.00000000   -0.00000000
     atom    3 type  2   force =     0.00000000   -0.00000000    0.00000000
     atom    4 type  3   force =     0.00000000   -0.00000000   -0.00000000
     The local contribution  to forces
     atom    1 type  1   force =    -0.00006263    0.00009871    0.00003493
     atom    2 type  1   force =     0.00012998   -0.00011871    0.00000631
     atom    3 type  2   force =     0.00000030    0.00000097    0.00000166
     atom    4 type  3   force =    -0.00007152    0.00004562   -0.00012062
     The core correction contribution to forces
     atom    1 type  1   force =     0.00000081   -0.00000051   -0.00000027
     atom    2 type  1   force =    -0.00000021   -0.00000045   -0.00000078
     atom    3 type  2   force =     0.00000013    0.00000018    0.00000015
     atom    4 type  3   force =    -0.00000139    0.00000158   -0.00000567
     The Hubbard contrib.    to forces
     atom    1 type  1   force =     0.00000000    0.00000000    0.00000000
     atom    2 type  1   force =     0.00000000    0.00000000    0.00000000
     atom    3 type  2   force =     0.00000000    0.00000000    0.00000000
     atom    4 type  3   force =     0.00000000    0.00000000    0.00000000
     The SCF correction term to forces
     atom    1 type  1   force =     0.00006445   -0.00007758   -0.00003310
     atom    2 type  1   force =    -0.00011689    0.00010726    0.00000630
     atom    3 type  2   force =    -0.00000041    0.00000129   -0.00000009
     atom    4 type  3   force =     0.00007339   -0.00006221    0.00006641

     Total force =     0.000000     Total SCF correction =     0.000224
     SCF correction compared to forces is large: reduce conv_thr to get better values

     Computing stress (Cartesian axis) and pressure

     negative rho (up, down):  4.868E-02 0.000E+00
          total   stress  (Ry/bohr**3)                   (kbar)     P=        7.91
   0.00005374  -0.00000000  -0.00000000            7.91       -0.00       -0.00
  -0.00000000   0.00005374   0.00000000           -0.00        7.91        0.00
  -0.00000000  -0.00000000   0.00005373           -0.00       -0.00        7.90

     kinetic stress (kbar)   6755.87     -0.00     -0.00
                                0.00   6755.87     -0.00
                               -0.00     -0.00   6755.88

     local   stress (kbar)  -2244.16      0.33      0.22
                                0.33  -2243.70     -0.16
                                0.22     -0.16  -2243.98

     nonloc. stress (kbar)   4410.01     -0.00     -0.00
                               -0.00   4410.01      0.00
                               -0.00      0.00   4410.03

     hartree stress (kbar)   4248.13     -0.15     -0.10
                               -0.15   4247.99      0.14
                               -0.10      0.14   4248.09

     exc-cor stress (kbar)   6668.60     -0.00     -0.00
                               -0.00   6668.59     -0.00
                               -0.00     -0.00   6668.60

     corecor stress (kbar)  -9620.11      0.00      0.00
                                0.00  -9620.10      0.01
                                0.00      0.01  -9620.11

     ewald   stress (kbar) -10210.60      0.00      0.00
                                0.00 -10210.60      0.00
                                0.00      0.00 -10210.60

     hubbard stress (kbar)      0.00      0.00      0.00
                                0.00      0.00      0.00
                                0.00      0.00      0.00

     DFT-D   stress (kbar)      0.00      0.00      0.00
                                0.00      0.00      0.00
                                0.00      0.00      0.00

     XDM     stress (kbar)      0.00      0.00      0.00
                                0.00      0.00      0.00
                                0.00      0.00      0.00

     dft-nl  stress (kbar)      0.00      0.00      0.00
                                0.00      0.00      0.00
                                0.00      0.00      0.00

     TS-vdW  stress (kbar)      0.00      0.00      0.00
                                0.00      0.00      0.00
                                0.00      0.00      0.00

[...]

                                0.00      0.00      0.00

     Writing all to output data dir new_calculations/myprefix.save/

     General routines

     Parallel routines

     PAW routines

   This run was terminated on:   2:33:11  21May2023

   JOB DONE.