     Program PWSCF v.7.0 starts on 21May2023 at  5:40:10

     Reading input from espresso_8133.pwi
Warning: card &CELL ignored
Warning: card / ignored

     Current dimensions of program PWSCF are:
     Max number of different atomic species (ntypx) = 10
     Max number of k-points (npk) =  40000
     Max angular momentum in pseudopotentials (lmaxx) =  4
     file C.pbe-n-kjpaw_psl.1.0.0.UPF: wavefunction(s)  2S 2P renormalized
     file O.pbe-n-kjpaw_psl.0.1.UPF: wavefunction(s)  2P renormalized

     gamma-point specific algorithms are used
     Message from routine setup:
     using ibrav=0 with symmetry is DISCOURAGED, use correct ibrav instead

     Subspace diagonalization in iterative solution of the eigenvalue problem:
     a serial algorithm will be used

     Using Slab Decomposition

     bravais-lattice index     =            0
     lattice parameter (alat)  =       9.3661  a.u.
     unit-cell volume          =    1261.9643 (a.u.)^3
     number of atoms/cell      =           12
     number of atomic types    =            4
     number of electrons       =        96.00
     number of Kohn-Sham states=           58
     kinetic-energy cutoff     =      30.0000  Ry
     charge density cutoff     =     240.0000  Ry
     scf convergence threshold =      1.0E-06
     mixing beta               =       0.7000
     number of iterations used =            8  plain     mixing
     Exchange-correlation= SLA  PW   PBX  PBC
                           (   1   4   3   4   0   0   0)

     celldm(1)=   9.366082  celldm(2)=   0.000000  celldm(3)=   0.000000
     celldm(4)=   0.000000  celldm(5)=   0.000000  celldm(6)=   0.000000

     crystal axes: (cart. coord. in units of alat)
               a(1) = (   1.000000   0.000000   0.000000 )
               a(2) = (   0.000000   0.912796   0.000000 )
               a(3) = (   0.000000   0.000000   1.682673 )

     reciprocal axes: (cart. coord. in units 2 pi/alat)
               b(1) = (  1.000000  0.000000  0.000000 )
               b(2) = (  0.000000  1.095536  0.000000 )
               b(3) = (  0.000000  0.000000  0.594293 )

     PseudoPot. # 1 for Na read from file:
     /home/pragov/projects/rrg-bengioy-ad/pragov/crystal_structure_design/SSSP/na_pbe_v1.5.uspp.F.UPF
     MD5 check sum: 44600605ef58000f06b90626533354dc
     Pseudo is Ultrasoft, Zval =  9.0
     Generated by new atomic code, or converted to UPF format
     Using radial grid of  819 points,  5 beta functions with:
                l(1) =   0
                l(2) =   0
                l(3) =   1
                l(4) =   1
                l(5) =   2
     Q(r) pseudized with  8 coefficients,  rinner =    1.250   1.250   1.250
                                                       1.250   1.250

     PseudoPot. # 2 for Co read from file:
     /home/pragov/projects/rrg-bengioy-ad/pragov/crystal_structure_design/SSSP/Co_pbe_v1.2.uspp.F.UPF
     MD5 check sum: 5f91765df6ddd3222702df6e7b74a16d
     Pseudo is Ultrasoft + core correction, Zval = 17.0
     Generated by new atomic code, or converted to UPF format
     Using radial grid of  863 points,  6 beta functions with:
                l(1) =   0
                l(2) =   0
                l(3) =   1
                l(4) =   1
                l(5) =   2
                l(6) =   2
     Q(r) pseudized with  8 coefficients,  rinner =    1.200   1.200   1.200
                                                       1.200   1.200

     PseudoPot. # 3 for C  read from file:
     /home/pragov/projects/rrg-bengioy-ad/pragov/crystal_structure_design/SSSP/C.pbe-n-kjpaw_psl.1.0.0.UPF
     MD5 check sum: 5d2aebdfa2cae82b50a7e79e9516da0f
     Pseudo is Projector augmented-wave + core cor, Zval =  4.0
     Generated using "atomic" code by A. Dal Corso  v.5.1
     Shape of augmentation charge: PSQ
     Using radial grid of 1073 points,  4 beta functions with:
                l(1) =   0
                l(2) =   0
                l(3) =   1
                l(4) =   1
     Q(r) pseudized with 0 coefficients

     PseudoPot. # 4 for O  read from file:
     /home/pragov/projects/rrg-bengioy-ad/pragov/crystal_structure_design/SSSP/O.pbe-n-kjpaw_psl.0.1.UPF
     MD5 check sum: 0234752ac141de4415c5fc33072bef88
     Pseudo is Projector augmented-wave + core cor, Zval =  6.0
     Generated using "atomic" code by A. Dal Corso  v.5.0.99 svn rev. 10869
     Shape of augmentation charge: BESSEL
     Using radial grid of 1095 points,  4 beta functions with:
                l(1) =   0
                l(2) =   0
                l(3) =   1
                l(4) =   1
     Q(r) pseudized with 0 coefficients

     atomic species   valence    mass     pseudopotential
        Na             9.00    22.98977     Na( 1.00)
        Co            17.00    58.93319     Co( 1.00)
        C              4.00    12.01100     C ( 1.00)
        O              6.00    15.99900     O ( 1.00)

      4 Sym. Ops. (no inversion) found

                                    s                        frac. trans.

      isym =  1     identity

 cryst.   s( 1) = (     1          0          0      )
                  (     0          1          0      )
                  (     0          0          1      )

 cart.    s( 1) = (  1.0000000  0.0000000  0.0000000 )
                  (  0.0000000  1.0000000  0.0000000 )
                  (  0.0000000  0.0000000  1.0000000 )

      isym =  2     180 deg rotation - cart. axis [1,0,0]

[...]

      isym =  3     inv. 180 deg rotation - cart. axis [0,0,1]

[...]

      isym =  4     inv. 180 deg rotation - cart. axis [0,1,0]

 cryst.   s( 4) = (     1          0          0      )
                  (     0         -1          0      )
                  (     0          0          1      )

 cart.    s( 4) = (  1.0000000  0.0000000  0.0000000 )
                  (  0.0000000 -1.0000000  0.0000000 )
                  (  0.0000000  0.0000000  1.0000000 )

   Cartesian axes

     site n.     atom                  positions (alat units)
         1           Na  tau(   1) = (   0.5045130   0.0000000   1.3064088  )
         2           Na  tau(   2) = (   0.9929250   0.4563978   1.2825788  )
         3           Na  tau(   3) = (   0.5045130   0.0000000   0.3762642  )
         4           Na  tau(   4) = (   0.9929250   0.4563978   0.4000942  )
         5           Na  tau(   5) = (   0.9863280   0.0000000   0.8413365  )
         6           Co  tau(   6) = (   0.0043720   0.0000000   0.0000000  )
         7           C   tau(   7) = (   0.4261360   0.4563978   0.8413365  )
         8           O   tau(   8) = (   0.0053920   0.0000000   1.3254029  )
         9           O   tau(   9) = (   0.0053920   0.0000000   0.3572702  )
        10           O   tau(  10) = (   0.1631130   0.4563978   0.8413365  )
        11           O   tau(  11) = (   0.5546960   0.4563978   1.0716002  )
        12           O   tau(  12) = (   0.5546960   0.4563978   0.6110728  )

   Crystallographic axes

     site n.     atom                  positions (cryst. coord.)
         1           Na  tau(   1) = (  0.5045130  0.0000000  0.7763890  )
         2           Na  tau(   2) = (  0.9929250  0.5000000  0.7622270  )
         3           Na  tau(   3) = (  0.5045130  0.0000000  0.2236110  )
         4           Na  tau(   4) = (  0.9929250  0.5000000  0.2377730  )
         5           Na  tau(   5) = (  0.9863280  0.0000000  0.5000000  )
         6           Co  tau(   6) = (  0.0043720  0.0000000  0.0000000  )
         7           C   tau(   7) = (  0.4261360  0.5000000  0.5000000  )
         8           O   tau(   8) = (  0.0053920  0.0000000  0.7876770  )
         9           O   tau(   9) = (  0.0053920  0.0000000  0.2123230  )
        10           O   tau(  10) = (  0.1631130  0.5000000  0.5000000  )
        11           O   tau(  11) = (  0.5546960  0.5000000  0.6368440  )
        12           O   tau(  12) = (  0.5546960  0.5000000  0.3631560  )

     number of k points=     1  Methfessel-Paxton smearing, width (Ry)=  0.0010
                       cart. coord. in units 2pi/alat
        k(    1) = (   0.0000000   0.0000000   0.0000000), wk =   2.0000000

                       cryst. coord.
        k(    1) = (   0.0000000   0.0000000   0.0000000), wk =   2.0000000

     Check: negative core charge=   -0.000015

     Initial potential from superposition of free atoms

     starting charge      94.9685, renormalised to      96.0000
     Starting wfcs are   62 randomized atomic wfcs
     Checking if some PAW data can be deallocated...

     Self-consistent Calculation

     iteration #  1     ecut=    30.00 Ry     beta= 0.70
     Davidson diagonalization with overlap

     ethr =  1.00E-02,  avg # of iterations =  6.0

     total energy              =    -998.59979959 Ry
     estimated scf accuracy    <       4.96780699 Ry

[...]

     negative rho (up, down):  9.805E-07 0.000E+00

[...]

     negative rho (up, down):  2.676E-06 0.000E+00

[...]

     total energy              =   -1001.99459473 Ry
     estimated scf accuracy    <       0.00000114 Ry

     iteration # 22     ecut=    30.00 Ry     beta= 0.70
     Davidson diagonalization with overlap

     ethr =  1.18E-09,  avg # of iterations =  1.0

     End of self-consistent calculation

          k = 0.0000 0.0000 0.0000 (  1753 PWs)   bands (ev):

   -90.3132 -54.6475 -53.0383 -52.9777 -48.2646 -47.7120 -47.7115 -46.6762
   -46.6759 -20.2706 -20.1509 -20.1208 -19.6984 -19.6751 -19.6178 -19.6157
   -19.5760 -19.5748 -19.1614 -18.6439 -18.6376 -18.6124 -18.5782 -18.5771
   -18.5573 -15.9833 -15.9809 -13.5491 -13.1717  -5.1738  -3.3560  -3.2155
    -3.2086  -0.6794   0.3475   0.5800   0.6739   0.8111   0.9098   1.0159
     1.2690   1.5353   1.5457   2.2341   2.5193   3.9358   4.1769   4.5255
     4.5274   5.4296   7.5200   7.8464   8.3400   9.4228  10.4765  10.4850
    11.0970  11.9916

     occupation numbers
     1.0000   1.0000   1.0000   1.0000   1.0000   1.0000   1.0000   1.0000
     1.0000   1.0000   1.0000   1.0000   1.0000   1.0000   1.0000   1.0000
     1.0000   1.0000   1.0000   1.0000   1.0000   1.0000   1.0000   1.0000
     1.0000   1.0000   1.0000   1.0000   1.0000   1.0000   1.0000   1.0000
     1.0000   1.0000   1.0000   1.0000   1.0000   1.0000   1.0000   1.0000
     1.0000   1.0000   1.0000   1.0000   1.0000   1.0000   1.0000   0.5586
     0.4414  -0.0000  -0.0000  -0.0000  -0.0000  -0.0000  -0.0000  -0.0000
    -0.0000  -0.0000

     the Fermi energy is     4.5265 ev

!    total energy              =   -1001.99459449 Ry
     estimated scf accuracy    <       0.00000048 Ry
     smearing contrib. (-TS)   =      -0.00055607 Ry
     internal energy E=F+TS    =   -1001.99403842 Ry

     The total energy is F=E-TS. E is the sum of the following terms:
     one-electron contribution =    -763.68347379 Ry
     hartree contribution      =     412.50837559 Ry
     xc contribution           =    -146.44729318 Ry
     ewald contribution        =    -450.61699904 Ry
     one-center paw contrib.   =     -53.75464801 Ry
      -> PAW hartree energy AE =     160.44314046 Ry
      -> PAW hartree energy PS =    -159.89706225 Ry
      -> PAW xc energy AE      =     -96.87431902 Ry
      -> PAW xc energy PS      =      42.57359280 Ry
      -> total E_H with PAW    =     413.05445380 Ry
      -> total E_XC with PAW   =    -200.74801939 Ry

     convergence has been achieved in  22 iterations

     Forces acting on atoms (cartesian axes, Ry/au):

     atom    1 type  1   force =    -0.00090426   -0.00000000    0.01001023
     atom    2 type  1   force =    -0.00198870   -0.00000000    0.00109725
     atom    3 type  1   force =    -0.00090426    0.00000000   -0.01001023
     atom    4 type  1   force =    -0.00198870    0.00000000   -0.00109725
     atom    5 type  1   force =    -0.00428795    0.00000000    0.00000000
     atom    6 type  2   force =     0.00180315    0.00000000    0.00000000
     atom    7 type  3   force =    -0.01459374    0.00000000    0.00000000
     atom    8 type  4   force =    -0.00128624    0.00000000    0.04160123
     atom    9 type  4   force =    -0.00128624    0.00000000   -0.04160123
     atom   10 type  4   force =     0.04135385    0.00000000    0.00000000
     atom   11 type  4   force =    -0.00795846    0.00000000   -0.00986899
     atom   12 type  4   force =    -0.00795846    0.00000000    0.00986899
     The non-local contrib.  to forces
     atom    1 type  1   force =    -0.00238344    0.00000000   -0.26094540
     atom    2 type  1   force =     0.01569306    0.00000000    0.07212172
     atom    3 type  1   force =    -0.00238344    0.00000000    0.26094540
     atom    4 type  1   force =     0.01569306    0.00000000   -0.07212172
     atom    5 type  1   force =    -0.15980668    0.00000000    0.00000000
     atom    6 type  2   force =    -0.00399066    0.00000000    0.00000000
     atom    7 type  3   force =    -0.02550057    0.00000000    0.00000000
     atom    8 type  4   force =    -0.00827541    0.00000000    0.61857113
     atom    9 type  4   force =    -0.00827541    0.00000000   -0.61857113
     atom   10 type  4   force =     1.93835807    0.00000000    0.00000000
     atom   11 type  4   force =    -0.93940725    0.00000000   -1.63265073
     atom   12 type  4   force =    -0.93940725    0.00000000    1.63265073
     The ionic contribution  to forces
     atom    1 type  1   force =    -0.31765915    0.00000000    2.03978703
     atom    2 type  1   force =    -0.09361827   -0.00000000    3.17368387
     atom    3 type  1   force =    -0.31765915   -0.00000000   -2.03978703
     atom    4 type  1   force =    -0.09361827   -0.00000000   -3.17368387
     atom    5 type  1   force =    -1.75734196   -0.00000000   -0.00000000
     atom    6 type  2   force =     0.37350374    0.00000000   -0.00000000
     atom    7 type  3   force =     1.17271291    0.00000000   -0.00000000
     atom    8 type  4   force =     0.27539071   -0.00000000   -9.30566744
     atom    9 type  4   force =     0.27539071   -0.00000000    9.30566744
     atom   10 type  4   force =    -5.70664864   -0.00000000   -0.00000000
     atom   11 type  4   force =     3.09477369    0.00000000    7.29216659
     atom   12 type  4   force =     3.09477369    0.00000000   -7.29216659
     The local contribution  to forces
     atom    1 type  1   force =     0.31912777    0.00000015   -1.76888634
     atom    2 type  1   force =     0.07599742   -0.00000254   -3.24468506
     atom    3 type  1   force =     0.31912773   -0.00000039    1.76888957
     atom    4 type  1   force =     0.07599835   -0.00000125    3.24468393
     atom    5 type  1   force =     1.91291283    0.00000074   -0.00002396
     atom    6 type  2   force =    -0.36782288    0.00000118    0.00009852
     atom    7 type  3   force =    -1.16125623    0.00000045   -0.00000644
     atom    8 type  4   force =    -0.26845236   -0.00000023    8.73454873
     atom    9 type  4   force =    -0.26845189   -0.00000363   -8.73454495
     atom   10 type  4   force =     3.82726119    0.00000160   -0.00001187
     atom   11 type  4   force =    -2.17194759   -0.00000228   -5.68413820
     atom   12 type  4   force =    -2.17194642   -0.00000400    5.68412174
     The core correction contribution to forces
     atom    1 type  1   force =     0.00000000    0.00000000    0.00000000
     atom    2 type  1   force =     0.00000000    0.00000000    0.00000000
     atom    3 type  1   force =     0.00000000    0.00000000    0.00000000
     atom    4 type  1   force =     0.00000000    0.00000000    0.00000000
     atom    5 type  1   force =     0.00000000    0.00000000    0.00000000
     atom    6 type  2   force =     0.00015845   -0.00000000    0.00000026
     atom    7 type  3   force =    -0.00057482    0.00000000   -0.00000006
     atom    8 type  4   force =     0.00008002   -0.00000001   -0.00594970
     atom    9 type  4   force =     0.00008002   -0.00000003    0.00594962
     atom   10 type  4   force =    -0.01752098   -0.00000000    0.00000003
     atom   11 type  4   force =     0.00856657   -0.00000002    0.01463564
     atom   12 type  4   force =     0.00856657   -0.00000003   -0.01463563
     The Hubbard contrib.    to forces
     atom    1 type  1   force =     0.00000000    0.00000000    0.00000000
     atom    2 type  1   force =     0.00000000    0.00000000    0.00000000
     atom    3 type  1   force =     0.00000000    0.00000000    0.00000000
     atom    4 type  1   force =     0.00000000    0.00000000    0.00000000
     atom    5 type  1   force =     0.00000000    0.00000000    0.00000000
     atom    6 type  2   force =     0.00000000    0.00000000    0.00000000
     atom    7 type  3   force =     0.00000000    0.00000000    0.00000000
     atom    8 type  4   force =     0.00000000    0.00000000    0.00000000
     atom    9 type  4   force =     0.00000000    0.00000000    0.00000000
     atom   10 type  4   force =     0.00000000    0.00000000    0.00000000
     atom   11 type  4   force =     0.00000000    0.00000000    0.00000000
     atom   12 type  4   force =     0.00000000    0.00000000    0.00000000
     The SCF correction term to forces
     atom    1 type  1   force =     0.00002506   -0.00000063    0.00005450
     atom    2 type  1   force =    -0.00004574    0.00000382   -0.00002559
     atom    3 type  1   force =     0.00002576    0.00000088   -0.00005861
     atom    4 type  1   force =    -0.00004736   -0.00000029    0.00002210
     atom    5 type  1   force =    -0.00003732   -0.00000077    0.00002550
     atom    6 type  2   force =    -0.00003067   -0.00000409   -0.00010255
     atom    7 type  3   force =     0.00003980   -0.00000036    0.00000732
     atom    8 type  4   force =    -0.00001435   -0.00000334    0.00009818
     atom    9 type  4   force =    -0.00001486    0.00000420   -0.00010255
     atom   10 type  4   force =    -0.00008095   -0.00000154    0.00001518
     atom   11 type  4   force =     0.00007091    0.00000130    0.00012019
     atom   12 type  4   force =     0.00006985    0.00000234   -0.00009878

     Total force =     0.077092     Total SCF correction =     0.000300

     Computing stress (Cartesian axis) and pressure

          total   stress  (Ry/bohr**3)                   (kbar)     P=     -284.50
  -0.00195371   0.00000000   0.00000000         -287.40        0.00        0.00
   0.00000000  -0.00181648   0.00000000            0.00     -267.21        0.00
   0.00000000   0.00000000  -0.00203176            0.00        0.00     -298.88

     kinetic stress (kbar)  17295.68      0.00      0.00
                                0.00  17486.45      0.00
                                0.00      0.00  16802.07

     local   stress (kbar)  16892.06      0.22     -0.00
                                0.22  14817.96      0.03
                               -0.00      0.03  -2568.85

     nonloc. stress (kbar) -20287.51      0.00      0.00
                                0.00 -20275.19      0.00
                                0.00      0.00 -20470.19

     hartree stress (kbar)  12749.70     -0.07      0.00
                               -0.07  14376.76     -0.01
                                0.00     -0.01  20958.96

     exc-cor stress (kbar)  -4729.58     -0.00      0.00
                               -0.00  -4741.51     -0.00
                                0.00     -0.00  -4720.61

     corecor stress (kbar)   -639.37      0.00     -0.00
                                0.00   -636.38      0.00
                               -0.00      0.00   -636.27

     ewald   stress (kbar) -21568.39      0.00     -0.00
                                0.00 -21295.30     -0.00
                               -0.00     -0.00  -9663.98

     hubbard stress (kbar)      0.00      0.00      0.00
                                0.00      0.00      0.00
                                0.00      0.00      0.00

     DFT-D   stress (kbar)      0.00      0.00      0.00
                                0.00      0.00      0.00
                                0.00      0.00      0.00

     XDM     stress (kbar)      0.00      0.00      0.00
                                0.00      0.00      0.00
                                0.00      0.00      0.00

     dft-nl  stress (kbar)      0.00      0.00      0.00
                                0.00      0.00      0.00
                                0.00      0.00      0.00

     TS-vdW  stress (kbar)      0.00      0.00      0.00
                                0.00      0.00      0.00
                                0.00      0.00      0.00

[...]

                                0.00      0.00      0.00

     Writing all to output data dir new_calculations/myprefix.save/

     General routines

     Parallel routines

     PAW routines

   This run was terminated on:   5:40:34  21May2023

   JOB DONE.