     Program PWSCF v.7.0 starts on 21May2023 at 20:58:51

     Reading input from espresso_26047.pwi
Warning: card &CELL ignored
Warning: card / ignored

     Current dimensions of program PWSCF are:
     Max number of different atomic species (ntypx) = 10
     Max number of k-points (npk) =  40000
     Max angular momentum in pseudopotentials (lmaxx) =  4

     gamma-point specific algorithms are used
     Message from routine setup:
     using ibrav=0 with symmetry is DISCOURAGED, use correct ibrav instead

     Subspace diagonalization in iterative solution of the eigenvalue problem:
     a serial algorithm will be used

     Using Slab Decomposition

     bravais-lattice index     =            0
     lattice parameter (alat)  =       6.3204  a.u.
     unit-cell volume          =    1156.5774 (a.u.)^3
     number of atoms/cell      =            6
     number of atomic types    =            2
     number of electrons       =        50.00
     number of Kohn-Sham states=           30
     kinetic-energy cutoff     =      30.0000  Ry
     charge density cutoff     =     240.0000  Ry
     scf convergence threshold =      1.0E-06
     mixing beta               =       0.7000
     number of iterations used =            8  plain     mixing
     Exchange-correlation=  SLA  PW   PBX  PBC
                           (   1   4   3   4   0   0   0)

     celldm(1)=   6.320423  celldm(2)=   0.000000  celldm(3)=   0.000000
     celldm(4)=   0.000000  celldm(5)=   0.000000  celldm(6)=   0.000000

     crystal axes: (cart. coord. in units of alat)
               a(1) = (   1.000000   0.000000   0.000000 )
               a(2) = (  -0.500000   0.866025   0.000000 )
               a(3) = (   0.000000   0.000000   5.289391 )

     reciprocal axes: (cart. coord. in units 2 pi/alat)
               b(1) = (  1.000000  0.577350  0.000000 )
               b(2) = (  0.000000  1.154700  0.000000 )
               b(3) = (  0.000000  0.000000  0.189058 )

     PseudoPot. # 1 for Ta read from file:
     /home/pragov/projects/rrg-bengioy-ad/pragov/crystal_structure_design/SSSP/Ta_pbe_v1.uspp.F.UPF
     MD5 check sum: f8bbe9446314a3b8ea5d9f3e3836c939
     Pseudo is Ultrasoft + core correction, Zval = 13.0
     Generated by new atomic code, or converted to UPF format
     Using radial grid of  921 points,  7 beta functions with:
                l(1) =   0
                l(2) =   0
                l(3) =   1
                l(4) =   1
                l(5) =   2
                l(6) =   2
                l(7) =   3
     Q(r) pseudized with  6 coefficients,  rinner =    1.300   1.300   1.300
                                                       1.300   1.300   1.300
                                                       1.300

     PseudoPot. # 2 for S  read from file:
     /home/pragov/projects/rrg-bengioy-ad/pragov/crystal_structure_design/SSSP/s_pbe_v1.4.uspp.F.UPF
     MD5 check sum: 88d86576ff6df21479756cfb9bdac1df
     Pseudo is Ultrasoft + core correction, Zval =  6.0
     Generated by new atomic code, or converted to UPF format
     Using radial grid of  907 points,  6 beta functions with:
                l(1) =   0
                l(2) =   0
                l(3) =   1
                l(4) =   1
                l(5) =   2
                l(6) =   2
     Q(r) pseudized with  8 coefficients,  rinner =    1.300   1.300   1.300
                                                       1.300   1.300

     atomic species   valence    mass     pseudopotential
        Ta            13.00   180.94788     Ta( 1.00)
        S              6.00    32.06000     S ( 1.00)

     24 Sym. Ops., with inversion, found (12 have fractional translation)

                                    s                        frac. trans.

      isym =  1     identity

 cryst.   s( 1) = (     1          0          0      )
                  (     0          1          0      )
                  (     0          0          1      )

 cart.    s( 1) = (  1.0000000 -0.0000000  0.0000000 )
                  (  0.0000000  1.0000000  0.0000000 )
                  (  0.0000000  0.0000000  1.0000000 )

      isym =  2     180 deg rotation - cart. axis [0,0,1]

 cryst.   s( 2) = (    -1          0          0      )    f =(  0.0000000 )
                  (     0         -1          0      )       (  0.0000000 )
                  (     0          0          1      )       (  0.5000000 )

 cart.    s( 2) = ( -1.0000000  0.0000000  0.0000000 )    f =(  0.0000000 )
                  (  0.0000000 -1.0000000  0.0000000 )       (  0.0000000 )
                  (  0.0000000  0.0000000  1.0000000 )       (  2.6446954 )

[...]

      isym =  4     180 deg rotation - cart. axis [1,0,0]

[...]

      isym =  5      60 deg rotation - cryst. axis [0,0,1]

[...]

 cryst.   s( 8) = (    -1         -1          0      )
                  (     1          0          0      )
                  (     0          0          1      )

 cart.    s( 8) = ( -0.5000001  0.8660254  0.0000000 )
                  ( -0.8660255 -0.4999999  0.0000000 )
                  (  0.0000000  0.0000000  1.0000000 )

[...]

 cryst.   s( 9) = (     0         -1          0      )    f =( -0.0000000 )
                  (    -1          0          0      )       ( -0.0000000 )
                  (     0          0         -1      )       (  0.5000000 )

 cart.    s( 9) = (  0.4999999 -0.8660255  0.0000000 )    f =( -0.0000000 )
                  ( -0.8660255 -0.4999999  0.0000000 )       ( -0.0000000 )
                  (  0.0000000  0.0000000 -1.0000000 )       (  2.6446954 )

[...]

 cryst.   s(10) = (     1          1          0      )    f =(  0.0000000 )
                  (     0         -1          0      )       ( -0.0000010 )
                  (     0          0         -1      )       (  0.5000000 )

 cart.    s(10) = (  0.5000001  0.8660252  0.0000000 )    f =(  0.0000005 )
                  (  0.8660255 -0.5000001  0.0000000 )       ( -0.0000009 )
                  (  0.0000000  0.0000000 -1.0000000 )       (  2.6446954 )

[...]

 cryst.   s(11) = (    -1         -1          0      )
                  (     0          1          0      )
                  (     0          0         -1      )

 cart.    s(11) = ( -0.5000001 -0.8660252  0.0000000 )
                  ( -0.8660255  0.5000001  0.0000000 )
                  (  0.0000000  0.0000000 -1.0000000 )

      isym = 12     180 deg rotation - cryst. axis [1,1,0]

[...]

      isym = 13     inversion

[...]

      isym = 14     inv. 180 deg rotation - cart. axis [0,0,1]

[...]

      isym = 16     inv. 180 deg rotation - cart. axis [1,0,0]

[...]

      isym = 17     inv.  60 deg rotation - cryst. axis [0,0,1]

[...]

 cryst.   s(22) = (    -1         -1          0      )    f =(  0.0000000 )
                  (     0          1          0      )       ( -0.0000010 )
                  (     0          0          1      )       (  0.5000000 )

 cart.    s(22) = ( -0.5000001 -0.8660252  0.0000000 )    f =(  0.0000005 )
                  ( -0.8660255  0.5000001  0.0000000 )       ( -0.0000009 )
                  (  0.0000000  0.0000000  1.0000000 )       (  2.6446954 )

[...]

      isym = 24     inv. 180 deg rotation - cryst. axis [1,1,0]

 cryst.   s(24) = (     0         -1          0      )
                  (    -1          0          0      )
                  (     0          0          1      )

 cart.    s(24) = (  0.4999999 -0.8660255  0.0000000 )
                  ( -0.8660255 -0.4999999  0.0000000 )
                  (  0.0000000  0.0000000  1.0000000 )

   Cartesian axes

     site n.     atom                  positions (alat units)
         1           Ta  tau(   1) = (  -0.0000004   0.5773506   3.9670431  )
         2           Ta  tau(   2) = (   0.5000005   0.2886749   1.3223477  )
         3           S   tau(   3) = (   0.0000000   0.0000000   4.4343238  )
         4           S   tau(   4) = (   0.0000000   0.0000000   3.4997625  )
         5           S   tau(   5) = (   0.0000000   0.0000000   1.7896284  )
         6           S   tau(   6) = (   0.0000000   0.0000000   0.8550671  )

   Crystallographic axes

     site n.     atom                  positions (cryst. coord.)
         1           Ta  tau(   1) = (  0.3333330  0.6666670  0.7500000  )
         2           Ta  tau(   2) = (  0.6666670  0.3333330  0.2500000  )
         3           S   tau(   3) = (  0.0000000  0.0000000  0.8383430  )
         4           S   tau(   4) = (  0.0000000  0.0000000  0.6616570  )
         5           S   tau(   5) = (  0.0000000  0.0000000  0.3383430  )
         6           S   tau(   6) = (  0.0000000  0.0000000  0.1616570  )

     number of k points=     1  Methfessel-Paxton smearing, width (Ry)=  0.0010
                       cart. coord. in units 2pi/alat
        k(    1) = (   0.0000000   0.0000000   0.0000000), wk =   2.0000000

                       cryst. coord.
        k(    1) = (   0.0000000   0.0000000   0.0000000), wk =   2.0000000

     Check: negative core charge=   -0.000002

     Initial potential from superposition of free atoms

     starting charge      49.9976, renormalised to      50.0000

     negative rho (up, down):  1.894E-01 0.000E+00
     Starting wfcs are   42 randomized atomic wfcs

     Self-consistent Calculation

     iteration #  1     ecut=    30.00 Ry     beta= 0.70
     Davidson diagonalization with overlap

     ethr =  1.00E-02,  avg # of iterations =  2.0

     negative rho (up, down):  1.875E-01 0.000E+00

     total energy              =    -379.30938681 Ry
     estimated scf accuracy    <       0.54957320 Ry

[...]

     total energy              =    -379.49699239 Ry
     estimated scf accuracy    <       0.00000130 Ry

     iteration # 29     ecut=    30.00 Ry     beta= 0.70
     Davidson diagonalization with overlap

     ethr =  2.59E-09,  avg # of iterations =  1.0

[...]

     End of self-consistent calculation

          k = 0.0000 0.0000 0.0000 (  1644 PWs)   bands (ev):

   -62.1135 -62.1129 -28.8246 -28.8241 -28.5315 -28.5315 -28.5310 -28.5310
    -9.4424  -9.4414  -8.1001  -8.0982  -0.8064  -0.7864   2.3950   2.3950
     2.3953   2.3953   2.9648   3.0636   3.2568   3.2568   3.2572   3.2572
     5.8373   5.9501   8.0521   8.0521   8.0936   8.0936

     occupation numbers
     1.0000   1.0000   1.0000   1.0000   1.0000   1.0000   1.0000   1.0000
     1.0000   1.0000   1.0000   1.0000   1.0000   1.0000   1.0000   1.0000
     1.0000   1.0000   1.0000   1.0000   1.0000   1.0000   1.0000   1.0000
     1.0000  -0.0000  -0.0000  -0.0000  -0.0000  -0.0000

     the Fermi energy is     5.8937 ev

!    total energy              =    -379.49699224 Ry
     estimated scf accuracy    <       0.00000019 Ry
     smearing contrib. (-TS)   =       0.00000000 Ry
     internal energy E=F+TS    =    -379.49699224 Ry

     The total energy is F=E-TS. E is the sum of the following terms:
     one-electron contribution =    -397.55593189 Ry
     hartree contribution      =     210.09180408 Ry
     xc contribution           =    -118.66945826 Ry
     ewald contribution        =     -73.36340618 Ry

     convergence has been achieved in  29 iterations

     negative rho (up, down):  1.870E-01 0.000E+00

     Forces acting on atoms (cartesian axes, Ry/au):

     atom    1 type  1   force =     0.00000000   -0.00000000    0.00000000
     atom    2 type  1   force =    -0.00000000    0.00000000    0.00000000
     atom    3 type  2   force =     0.00000000    0.00000000   -0.12275475
     atom    4 type  2   force =    -0.00000000   -0.00000000    0.12275475
     atom    5 type  2   force =     0.00000000    0.00000000   -0.12275475
     atom    6 type  2   force =     0.00000000    0.00000000    0.12275475
     The non-local contrib.  to forces
     atom    1 type  1   force =     0.00000000   -0.00000000   -0.00000000
     atom    2 type  1   force =     0.00000000    0.00000000    0.00000000
     atom    3 type  2   force =    -0.00000000   -0.00000000    0.15807394
     atom    4 type  2   force =    -0.00000000    0.00000000   -0.15807394
     atom    5 type  2   force =     0.00000000    0.00000000    0.15807394
     atom    6 type  2   force =     0.00000000    0.00000000   -0.15807394
     The ionic contribution  to forces
     atom    1 type  1   force =     0.00000930   -0.00000537   -0.00000000
     atom    2 type  1   force =    -0.00000930    0.00000537    0.00000000
     atom    3 type  2   force =    -0.00000465    0.00000268   19.74784177
     atom    4 type  2   force =    -0.00000465    0.00000268  -19.74784177
     atom    5 type  2   force =     0.00000465   -0.00000268   19.74784177
     atom    6 type  2   force =     0.00000465   -0.00000268  -19.74784177
     The local contribution  to forces
     atom    1 type  1   force =    -0.00000888    0.00000416    0.00014776
     atom    2 type  1   force =     0.00001124   -0.00000250    0.00099961
     atom    3 type  2   force =     0.00000461   -0.00000186  -20.01780543
     atom    4 type  2   force =     0.00000426   -0.00000255   20.01777373
     atom    5 type  2   force =    -0.00000772    0.00000454  -20.01768073
     atom    6 type  2   force =    -0.00001281    0.00000219   20.01808167
     The core correction contribution to forces
     atom    1 type  1   force =     0.00000011   -0.00000016    0.00000114
     atom    2 type  1   force =    -0.00000005    0.00000041   -0.00000152
     atom    3 type  2   force =     0.00000007   -0.00000007   -0.01106101
     atom    4 type  2   force =    -0.00000001   -0.00000007    0.01106195
     atom    5 type  2   force =    -0.00000021   -0.00000005   -0.01106736
     atom    6 type  2   force =     0.00000031   -0.00000008    0.01106864
     The Hubbard contrib.    to forces
     atom    1 type  1   force =     0.00000000    0.00000000    0.00000000
     atom    2 type  1   force =     0.00000000    0.00000000    0.00000000
     atom    3 type  2   force =     0.00000000    0.00000000    0.00000000
     atom    4 type  2   force =     0.00000000    0.00000000    0.00000000
     atom    5 type  2   force =     0.00000000    0.00000000    0.00000000
     atom    6 type  2   force =     0.00000000    0.00000000    0.00000000
     The SCF correction term to forces
     atom    1 type  1   force =     0.00000044    0.00000126   -0.00017782
     atom    2 type  1   force =    -0.00000281   -0.00000130   -0.00094799
     atom    3 type  2   force =     0.00000005   -0.00000047    0.00029761
     atom    4 type  2   force =     0.00000020    0.00000001   -0.00023808
     atom    5 type  2   force =     0.00000160    0.00000096    0.00000715
     atom    6 type  2   force =     0.00000212   -0.00000017   -0.00037583

     Total force =     0.245510     Total SCF correction =     0.001103

     Computing stress (Cartesian axis) and pressure

     negative rho (up, down):  1.870E-01 0.000E+00
          total   stress  (Ry/bohr**3)                   (kbar)     P=       85.94
   0.00154200  -0.00000000   0.00000000          226.84       -0.00        0.00
  -0.00000000   0.00154200   0.00000000           -0.00      226.84        0.00
   0.00000000   0.00000000  -0.00133141            0.00        0.00     -195.86

     kinetic stress (kbar)   9786.34     -0.00     -0.00
                               -0.00   9786.34      0.00
                                0.00      0.00   9466.66

     local   stress (kbar) -40714.21      0.01      0.00
                                0.01 -40714.19      0.00
                                0.00      0.00  51536.86

     nonloc. stress (kbar)  -2537.13      0.00      0.00
                                0.00  -2537.13     -0.00
                                0.00     -0.00  -2638.94

     hartree stress (kbar)  23060.38     -0.00     -0.00
                               -0.00  23060.37     -0.00
                               -0.00     -0.00 -19399.17

     exc-cor stress (kbar)   6476.39     -0.00     -0.00
                               -0.00   6476.39     -0.00
                               -0.00     -0.00   6479.91

     corecor stress (kbar)  -9331.66      0.00      0.00
                                0.00  -9331.66      0.00
                                0.00      0.00  -9336.64

     ewald   stress (kbar)  13486.72     -0.01      0.00
                               -0.01  13486.71      0.00
                                0.00      0.00 -36304.52

     hubbard stress (kbar)      0.00      0.00      0.00
                                0.00      0.00      0.00
                                0.00      0.00      0.00

     DFT-D   stress (kbar)      0.00      0.00      0.00
                                0.00      0.00      0.00
                                0.00      0.00      0.00

     XDM     stress (kbar)      0.00      0.00      0.00
                                0.00      0.00      0.00
                                0.00      0.00      0.00

     dft-nl  stress (kbar)      0.00      0.00      0.00
                                0.00      0.00      0.00
                                0.00      0.00      0.00

     TS-vdW  stress (kbar)      0.00      0.00      0.00
                                0.00      0.00      0.00
                                0.00      0.00      0.00

[...]

                                0.00      0.00      0.00

     Writing all to output data dir new_calculations/myprefix.save/

     General routines

     Parallel routines

   This run was terminated on:  20:59:12  21May2023

   JOB DONE.