     Program PWSCF v.7.0 starts on 20May2023 at 19:28: 9

     Reading input from espresso_10638.pwi
Warning: card &CELL ignored
Warning: card / ignored

     Current dimensions of program PWSCF are:
     Max number of different atomic species (ntypx) = 10
     Max number of k-points (npk) =  40000
     Max angular momentum in pseudopotentials (lmaxx) =  4
     file Al.pbe-n-kjpaw_psl.1.0.0.UPF: wavefunction(s)  3S 3P renormalized
     file Ga.pbe-dn-kjpaw_psl.1.0.0.UPF: wavefunction(s)  4S renormalized

     gamma-point specific algorithms are used

     Subspace diagonalization in iterative solution of the eigenvalue problem:
     a serial algorithm will be used

     Using Slab Decomposition

     bravais-lattice index     =            0
     lattice parameter (alat)  =      13.2785  a.u.
     unit-cell volume          =     637.7158 (a.u.)^3
     number of atoms/cell      =            4
     number of atomic types    =            3
     number of electrons       =        26.00
     number of Kohn-Sham states=           17
     kinetic-energy cutoff     =      30.0000  Ry
     charge density cutoff     =     240.0000  Ry
     scf convergence threshold =      1.0E-06
     mixing beta               =       0.7000
     number of iterations used =            8  plain     mixing
     Exchange-correlation= PBE
                           (   1   4   3   4   0   0   0)

     celldm(1)=  13.278506  celldm(2)=   0.000000  celldm(3)=   0.000000
     celldm(4)=   0.000000  celldm(5)=   0.000000  celldm(6)=   0.000000

     crystal axes: (cart. coord. in units of alat)
               a(1) = (   1.000000   0.000000   0.000000 )
               a(2) = (   0.833191   0.552985   0.000000 )
               a(3) = (   0.833192   0.251333   0.492568 )

     reciprocal axes: (cart. coord. in units 2 pi/alat)
               b(1) = (  1.000000 -1.506717 -0.922721 )
               b(2) = (  0.000000  1.808368 -0.922721 )
               b(3) = (  0.000000  0.000000  2.030175 )

     PseudoPot. # 1 for Al read from file:
     /home/pragov/projects/rrg-bengioy-ad/pragov/crystal_structure_design/SSSP/Al.pbe-n-kjpaw_psl.1.0.0.UPF
     MD5 check sum: cfc449ca30b5f3223ec38ddd88ac046d
     Pseudo is Projector augmented-wave + core cor, Zval =  3.0
     Generated using "atomic" code by A. Dal Corso  v.5.1
     Shape of augmentation charge: PSQ
     Using radial grid of 1135 points,  6 beta functions with:
                l(1) =   0
                l(2) =   0
                l(3) =   1
                l(4) =   1
                l(5) =   2
                l(6) =   2
     Q(r) pseudized with 0 coefficients

     PseudoPot. # 2 for Ga read from file:
     /home/pragov/projects/rrg-bengioy-ad/pragov/crystal_structure_design/SSSP/Ga.pbe-dn-kjpaw_psl.1.0.0.UPF
     MD5 check sum: a27b4342b1af7e5f338de752e9ed7044
     Pseudo is Projector augmented-wave + core cor, Zval = 13.0
     Generated using "atomic" code by A. Dal Corso  v.5.1
     Shape of augmentation charge: PSQ
     Using radial grid of 1205 points,  6 beta functions with:
                l(1) =   0
                l(2) =   0
                l(3) =   1
                l(4) =   1
                l(5) =   2
                l(6) =   2
     Q(r) pseudized with 0 coefficients

     PseudoPot. # 3 for As read from file:
     /home/pragov/projects/rrg-bengioy-ad/pragov/crystal_structure_design/SSSP/As.pbe-n-rrkjus_psl.0.2.UPF
     MD5 check sum: 767315de957beeeb34f87d97bf945c8f
     Pseudo is Ultrasoft + core correction, Zval =  5.0
     Generated using "atomic" code by A. Dal Corso  v.5.0.99 svn rev. 10869
     Using radial grid of 1209 points,  4 beta functions with:
                l(1) =   0
                l(2) =   0
                l(3) =   1
                l(4) =   1
     Q(r) pseudized with 0 coefficients

     atomic species   valence    mass     pseudopotential
        Al             3.00    26.98154     Al( 1.00)
        Ga            13.00    69.72300     Ga( 1.00)
        As             5.00    74.92159     As( 1.00)

     No symmetry found

                                    s                        frac. trans.

      isym =  1     identity

 cryst.   s( 1) = (     1          0          0      )
                  (     0          1          0      )
                  (     0          0          1      )

 cart.    s( 1) = (  1.0000000 -0.0000000  0.0000000 )
                  (  0.0000000  1.0000000 -0.0000000 )
                  (  0.0000000  0.0000000  1.0000000 )

   Cartesian axes

     site n.     atom                  positions (alat units)
         1           Al  tau(   1) = (   2.6660763   0.8042256   0.4925116  )
         2           Ga  tau(   2) = (   1.3333701   0.4022129   0.2463171  )
         3           As  tau(   3) = (   0.3327566   0.1003765   0.0614710  )
         4           As  tau(   4) = (   1.6671613   0.5029015   0.3079793  )

   Crystallographic axes

     site n.     atom                  positions (cryst. coord.)
         1           Al  tau(   1) = (  0.9998850  0.9998850  0.9998850  )
         2           Ga  tau(   2) = (  0.5000670  0.5000670  0.5000670  )
         3           As  tau(   3) = (  0.1247970  0.1247970  0.1247970  )
         4           As  tau(   4) = (  0.6252520  0.6252520  0.6252520  )

     number of k points=     1  Methfessel-Paxton smearing, width (Ry)=  0.0010
                       cart. coord. in units 2pi/alat
        k(    1) = (   0.0000000   0.0000000   0.0000000), wk =   2.0000000

                       cryst. coord.
        k(    1) = (   0.0000000   0.0000000   0.0000000), wk =   2.0000000

     Initial potential from superposition of free atoms

     starting charge      25.9943, renormalised to      26.0000
     Starting wfcs are   21 randomized atomic wfcs
     Checking if some PAW data can be deallocated...

     Self-consistent Calculation

     iteration #  1     ecut=    30.00 Ry     beta= 0.70
     Davidson diagonalization with overlap

     ethr =  1.00E-02,  avg # of iterations =  2.0

     total energy              =    -352.40428368 Ry
     estimated scf accuracy    <       0.60185167 Ry

[...]

     total energy              =    -352.58632560 Ry
     estimated scf accuracy    <       0.00006111 Ry

     iteration # 15     ecut=    30.00 Ry     beta= 0.70
     Davidson diagonalization with overlap

     ethr =  2.03E-07,  avg # of iterations =  1.0

     End of self-consistent calculation

          k = 0.0000 0.0000 0.0000 (   890 PWs)   bands (ev):

    -9.7190  -9.6284  -9.6281  -9.5709  -9.5709  -6.0131  -4.2659  -0.1207
     5.0887   5.0887   6.1883   6.1883   6.2428   6.3602   7.7315   9.5829
     9.5893

     occupation numbers
     1.0000   1.0000   1.0000   1.0000   1.0000   1.0000   1.0000   1.0000
     1.0000   1.0000   1.0000   1.0000   1.0000  -0.0000  -0.0000  -0.0000
    -0.0000

     the Fermi energy is     6.3015 ev

!    total energy              =    -352.58632921 Ry
     estimated scf accuracy    <       0.00000048 Ry
     smearing contrib. (-TS)   =       0.00000000 Ry
     internal energy E=F+TS    =    -352.58632921 Ry

     The total energy is F=E-TS. E is the sum of the following terms:
     one-electron contribution =    -142.62125194 Ry
     hartree contribution      =      90.28395851 Ry
     xc contribution           =     -59.48843202 Ry
     ewald contribution        =     -95.21857421 Ry
     one-center paw contrib.   =    -145.54202955 Ry
      -> PAW hartree energy AE =     140.47378500 Ry
      -> PAW hartree energy PS =    -138.22563439 Ry
      -> PAW xc energy AE      =    -187.17529567 Ry
      -> PAW xc energy PS      =      39.38511551 Ry
      -> total E_H with PAW    =      92.53210912 Ry
      -> total E_XC with PAW   =    -207.27861219 Ry

     convergence has been achieved in  15 iterations

     Forces acting on atoms (cartesian axes, Ry/au):

     atom    1 type  1   force =     0.01708112    0.00498549    0.00324722
     atom    2 type  2   force =     0.05786331    0.01801073    0.01033795
     atom    3 type  3   force =    -0.11506299   -0.03499598   -0.02108586
     atom    4 type  3   force =     0.04011856    0.01199975    0.00750069
     The non-local contrib.  to forces
     atom    1 type  1   force =    -0.10519594   -0.03177830   -0.01940522
     atom    2 type  2   force =    -0.38591419   -0.11648583   -0.07092312
     atom    3 type  3   force =     0.21252882    0.06406836    0.03939801
     atom    4 type  3   force =    -0.00189844   -0.00076176   -0.00033995
     The ionic contribution  to forces
     atom    1 type  1   force =    -0.00104248   -0.00031447   -0.00019331
     atom    2 type  2   force =     0.02847328    0.00858900    0.00525679
     atom    3 type  3   force =    -3.78937727   -1.14307083   -0.70001876
     atom    4 type  3   force =     3.76194647    1.13479629    0.69495528
     The local contribution  to forces
     atom    1 type  1   force =     0.11020680    0.03327972    0.02033908
     atom    2 type  2   force =     0.41177788    0.12431055    0.07577172
     atom    3 type  3   force =     3.50089827    1.05595410    0.64667429
     atom    4 type  3   force =    -3.72533795   -1.12343916   -0.68821835
     The core correction contribution to forces
     atom    1 type  1   force =     0.01206129    0.00364354    0.00222531
     atom    2 type  2   force =     0.00708976    0.00213572    0.00130371
     atom    3 type  3   force =    -0.03969156   -0.01197374   -0.00735054
     atom    4 type  3   force =     0.00444572    0.00138201    0.00081665
     The Hubbard contrib.    to forces
     atom    1 type  1   force =     0.00000000    0.00000000    0.00000000
     atom    2 type  2   force =     0.00000000    0.00000000    0.00000000
     atom    3 type  3   force =     0.00000000    0.00000000    0.00000000
     atom    4 type  3   force =     0.00000000    0.00000000    0.00000000
     The SCF correction term to forces
     atom    1 type  1   force =     0.00018828    0.00006113    0.00003205
     atom    2 type  2   force =    -0.00442661   -0.00063258   -0.00132047
     atom    3 type  3   force =    -0.00028444   -0.00006774   -0.00003818
     atom    4 type  3   force =     0.00009958   -0.00007151    0.00003775

     Total force =     0.144309     Total SCF correction =     0.004678

     Computing stress (Cartesian axis) and pressure

          total   stress  (Ry/bohr**3)                   (kbar)     P=      203.62
   0.00049410  -0.00042954  -0.00026319           72.69      -63.19      -38.72
  -0.00042954   0.00178881  -0.00007913          -63.19      263.14      -11.64
  -0.00026319  -0.00007913   0.00186973          -38.72      -11.64      275.05

     kinetic stress (kbar)   4191.29   -108.99    -66.76
                             -108.99   4519.75    -20.12
                              -66.76    -20.12   4540.32

     local   stress (kbar)   3787.95   2912.46   1783.54
                             2912.46  -4988.78    538.16
                             1783.54    538.16  -5537.73

     nonloc. stress (kbar)   1098.84     -2.59     -1.56
                               -2.59   1106.67     -0.49
                               -1.56     -0.49   1107.11

     hartree stress (kbar)   4046.58  -1397.53   -855.82
                            -1397.53   8258.15   -258.28
                             -855.82   -258.28   8521.52

     exc-cor stress (kbar)   3684.18      0.01      0.01
                                0.01   3684.15      0.00
                                0.01      0.00   3684.14

     corecor stress (kbar)  -6362.00      6.87      4.21
                                6.87  -6382.70      1.27
                                4.21      1.27  -6384.00

     ewald   stress (kbar) -10374.15  -1473.42   -902.33
                            -1473.42  -5934.08   -272.19
                             -902.33   -272.19  -5656.31

     hubbard stress (kbar)      0.00      0.00      0.00
                                0.00      0.00      0.00
                                0.00      0.00      0.00

     DFT-D   stress (kbar)      0.00      0.00      0.00
                                0.00      0.00      0.00
                                0.00      0.00      0.00

     XDM     stress (kbar)      0.00      0.00      0.00
                                0.00      0.00      0.00
                                0.00      0.00      0.00

     dft-nl  stress (kbar)      0.00      0.00      0.00
                                0.00      0.00      0.00
                                0.00      0.00      0.00

     TS-vdW  stress (kbar)      0.00      0.00      0.00
                                0.00      0.00      0.00
                                0.00      0.00      0.00

[...]

                                0.00      0.00      0.00

     Writing all to output data dir new_calculations/myprefix.save/

     General routines

     Parallel routines

     PAW routines

   This run was terminated on:  19:28:22  20May2023

   JOB DONE.