     Program PWSCF v.7.0 starts on 21May2023 at  4:35: 5

     Reading input from espresso_25320.pwi
Warning: card &CELL ignored
Warning: card / ignored

     Current dimensions of program PWSCF are:
     Max number of different atomic species (ntypx) = 10
     Max number of k-points (npk) =  40000
     Max angular momentum in pseudopotentials (lmaxx) =  4
     file Ba.pbe-spn-kjpaw_psl.1.0.0.UPF: wavefunction(s)  5S 6S renormalized
     file O.pbe-n-kjpaw_psl.0.1.UPF: wavefunction(s)  2P renormalized

     gamma-point specific algorithms are used
     Message from routine setup:
     using ibrav=0 with symmetry is DISCOURAGED, use correct ibrav instead

     Subspace diagonalization in iterative solution of the eigenvalue problem:
     a serial algorithm will be used

     Using Slab Decomposition

     bravais-lattice index     =            0
     lattice parameter (alat)  =      11.7083  a.u.
     unit-cell volume          =    1134.9115 (a.u.)^3
     number of atoms/cell      =           10
     number of atomic types    =            5
     number of electrons       =        87.00
     number of Kohn-Sham states=           53
     kinetic-energy cutoff     =      30.0000  Ry
     charge density cutoff     =     240.0000  Ry
     scf convergence threshold =      1.0E-06
     mixing beta               =       0.7000
     number of iterations used =            8  plain     mixing
     Exchange-correlation= SLA  PW   PBX  PBC
                           (   1   4   3   4   0   0   0)

     celldm(1)=  11.708259  celldm(2)=   0.000000  celldm(3)=   0.000000
     celldm(4)=   0.000000  celldm(5)=   0.000000  celldm(6)=   0.000000

     crystal axes: (cart. coord. in units of alat)
               a(1) = (   1.000000   0.000000   0.000000 )
               a(2) = (   0.500000   0.866025   0.000000 )
               a(3) = (   0.500000   0.288675   0.816497 )

     reciprocal axes: (cart. coord. in units 2 pi/alat)
               b(1) = (  1.000000 -0.577350 -0.408248 )
               b(2) = (  0.000000  1.154701 -0.408248 )
               b(3) = (  0.000000  0.000000  1.224745 )

     PseudoPot. # 1 for Ba read from file:
     /home/pragov/projects/rrg-bengioy-ad/pragov/crystal_structure_design/SSSP/Ba.pbe-spn-kjpaw_psl.1.0.0.UPF
     MD5 check sum: c432291d3e53af55f19d5e8866385beb
     Pseudo is Projector augmented-wave + core cor, Zval = 10.0
     Generated using "atomic" code by A. Dal Corso  v.5.1
     Shape of augmentation charge: PSQ
     Using radial grid of 1251 points,  7 beta functions with:
                l(1) =   0
                l(2) =   0
                l(3) =   0
                l(4) =   1
                l(5) =   1
                l(6) =   2
                l(7) =   2
     Q(r) pseudized with 0 coefficients

     PseudoPot. # 2 for Sr read from file:
     /home/pragov/projects/rrg-bengioy-ad/pragov/crystal_structure_design/SSSP/Sr_pbe_v1.uspp.F.UPF
     MD5 check sum: 6b418c05fbe9db5448babca5e47b7a5b
     Pseudo is Ultrasoft + core correction, Zval = 10.0
     Generated by new atomic code, or converted to UPF format
     Using radial grid of  883 points,  6 beta functions with:
                l(1) =   0
                l(2) =   0
                l(3) =   1
                l(4) =   1
                l(5) =   2
                l(6) =   2
     Q(r) pseudized with  6 coefficients,  rinner =    1.400   1.400   1.400
                                                       1.400   1.400

     PseudoPot. # 3 for Sm read from file:
     /home/pragov/projects/rrg-bengioy-ad/pragov/crystal_structure_design/SSSP/Sm.GGA-PBE-paw-v1.0.UPF
     MD5 check sum: 886f70968969f895acf876f5617e0641
     Pseudo is Projector augmented-wave + core cor, Zval = 16.0
     Generated using ATOMPAW code
     Shape of augmentation charge: BESSEL
     Using radial grid of 1107 points,  8 beta functions with:
                l(1) =   0
                l(2) =   0
                l(3) =   1
                l(4) =   1
                l(5) =   2
                l(6) =   2
                l(7) =   3
                l(8) =   3
     Q(r) pseudized with 0 coefficients

     PseudoPot. # 4 for Bi read from file:
     /home/pragov/projects/rrg-bengioy-ad/pragov/crystal_structure_design/SSSP/Bi_pbe_v1.uspp.F.UPF
     MD5 check sum: cceb9f28ec65b6d7ff33140f5b0b1758
     Pseudo is Ultrasoft + core correction, Zval = 15.0
     Generated by new atomic code, or converted to UPF format
     Using radial grid of  899 points,  6 beta functions with:
                l(1) =   0
                l(2) =   0
                l(3) =   1
                l(4) =   1
                l(5) =   2
                l(6) =   2
     Q(r) pseudized with  6 coefficients,  rinner =    1.000   1.000   1.000
                                                       1.000   1.000

     PseudoPot. # 5 for O  read from file:
     /home/pragov/projects/rrg-bengioy-ad/pragov/crystal_structure_design/SSSP/O.pbe-n-kjpaw_psl.0.1.UPF
     MD5 check sum: 0234752ac141de4415c5fc33072bef88
     Pseudo is Projector augmented-wave + core cor, Zval =  6.0
     Generated using "atomic" code by A. Dal Corso  v.5.0.99 svn rev. 10869
     Shape of augmentation charge: BESSEL
     Using radial grid of 1095 points,  4 beta functions with:
                l(1) =   0
                l(2) =   0
                l(3) =   1
                l(4) =   1
     Q(r) pseudized with 0 coefficients

     atomic species   valence    mass     pseudopotential
        Ba            10.00   137.32700     Ba( 1.00)
        Sr            10.00    87.62000     Sr( 1.00)
        Sm            16.00   150.36000     Sm( 1.00)
        Bi            15.00   208.98040     Bi( 1.00)
        O              6.00    15.99900     O ( 1.00)

      6 Sym. Ops. (no inversion) found

                                    s                        frac. trans.

      isym =  1     identity

 cryst.   s( 1) = (     1          0          0      )
                  (     0          1          0      )
                  (     0          0          1      )

 cart.    s( 1) = (  1.0000000  0.0000000 -0.0000000 )
                  (  0.0000000  1.0000000 -0.0000000 )
                  (  0.0000000  0.0000000  1.0000000 )

      isym =  2     120 deg rotation - cryst. axis [0,0,1]

[...]

      isym =  3     120 deg rotation - cryst. axis [0,0,-1]

[...]

      isym =  4     inv. 180 deg rotation - cart. axis [1,0,0]

[...]

      isym =  5     inv. 180 deg rotation - cryst. axis [0,1,0]

[...]

      isym =  6     inv. 180 deg rotation - cryst. axis [1,1,0]

 cryst.   s( 6) = (     1         -1          0      )
                  (     0         -1          0      )
                  (     0         -1          1      )

 cart.    s( 6) = (  0.5000000 -0.8660254  0.0000000 )
                  ( -0.8660254 -0.5000000  0.0000000 )
                  (  0.0000000  0.0000000  1.0000000 )

   Cartesian axes

     site n.     atom                  positions (alat units)
         1           Ba  tau(   1) = (   1.5000000   0.8660254   0.6123724  )
         2           Sr  tau(   2) = (   0.5000000   0.2886751   0.2041241  )
         3           Sm  tau(   3) = (   1.0000000   0.5773503   0.4082483  )
         4           Bi  tau(   4) = (   0.0000000   0.0000000   0.0000000  )
         5           O   tau(   5) = (   1.0000000   0.2790051   0.1972864  )
         6           O   tau(   6) = (   1.0000000   0.8756955   0.6192102  )
         7           O   tau(   7) = (   1.2583745   0.4281777   0.6192102  )
         8           O   tau(   8) = (   0.7416255   0.7265229   0.1972864  )
         9           O   tau(   9) = (   1.2583745   0.7265229   0.1972864  )
        10           O   tau(  10) = (   0.7416255   0.4281777   0.6192102  )

   Crystallographic axes

     site n.     atom                  positions (cryst. coord.)
         1           Ba  tau(   1) = (  0.7500000  0.7500000  0.7500000  )
         2           Sr  tau(   2) = (  0.2500000  0.2500000  0.2500000  )
         3           Sm  tau(   3) = (  0.5000000  0.5000000  0.5000000  )
         4           Bi  tau(   4) = (  0.0000000  0.0000000  0.0000000  )
         5           O   tau(   5) = (  0.7583745  0.2416255  0.2416255  )
         6           O   tau(   6) = (  0.2416255  0.7583745  0.7583745  )
         7           O   tau(   7) = (  0.7583745  0.2416255  0.7583745  )
         8           O   tau(   8) = (  0.2416255  0.7583745  0.2416255  )
         9           O   tau(   9) = (  0.7583745  0.7583745  0.2416255  )
        10           O   tau(  10) = (  0.2416255  0.2416255  0.7583745  )

     number of k points=     1  Methfessel-Paxton smearing, width (Ry)=  0.0010
                       cart. coord. in units 2pi/alat
        k(    1) = (   0.0000000   0.0000000   0.0000000), wk =   2.0000000

                       cryst. coord.
        k(    1) = (   0.0000000   0.0000000   0.0000000), wk =   2.0000000

     Check: negative core charge=   -0.000011

     Initial potential from superposition of free atoms

     starting charge      85.9437, renormalised to      87.0000

     negative rho (up, down):  1.043E-01 0.000E+00
     Starting wfcs are   83 randomized atomic wfcs
     Checking if some PAW data can be deallocated...

     Self-consistent Calculation

     iteration #  1     ecut=    30.00 Ry     beta= 0.70
     Davidson diagonalization with overlap

     ethr =  1.00E-02,  avg # of iterations =  2.0

     negative rho (up, down):  1.029E-01 0.000E+00

     total energy              =   -1540.61793946 Ry
     estimated scf accuracy    <       6.34620730 Ry

[...]

     ethr =  2.46E-05,  avg # of iterations =  1.0
     Minimization algorithm failed to find Fermi energy: reverting to bisection
     Possible cause: smearing is larger than the electronic band-gap.

[...]

     ethr =  2.46E-05,  avg # of iterations =  1.0
     Minimization algorithm failed to find Fermi energy: reverting to bisection
     Possible cause: smearing is larger than the electronic band-gap.

[...]

     total energy              =   -1545.54143876 Ry
     estimated scf accuracy    <       0.00001243 Ry

     iteration # 88     ecut=    30.00 Ry     beta= 0.70
     Davidson diagonalization with overlap

     ethr =  7.78E-09,  avg # of iterations =  1.0

[...]

     End of self-consistent calculation

          k = 0.0000 0.0000 0.0000 (  1572 PWs)   bands (ev):

   -28.1714 -26.1289 -17.7645 -12.7218 -12.7218 -12.3026 -12.3026 -12.3015
    -8.9957  -8.9956  -8.9793  -8.2655  -8.0640  -8.0521  -8.0521  -6.2670
    -6.2669  -5.8802  -5.8801  -5.8715  -2.9742  -2.9742  -2.9584   0.5920
     6.0426   6.0533   6.0533   6.7989   6.7989   6.8083   7.3690   7.3691
     8.1236   8.1316   8.1317   8.2245   8.2245   8.2397   9.0807   9.0864
     9.0865  11.0133  11.0173  11.0173  11.0325  11.2461  11.2881  11.2881
    11.3527  12.8983  12.8983  13.4732  13.7720

     occupation numbers
     1.0000   1.0000   1.0000   1.0000   1.0000   1.0000   1.0000   1.0000
     1.0000   1.0000   1.0000   1.0000   1.0000   1.0000   1.0000   1.0000
     1.0000   1.0000   1.0000   1.0000   1.0000   1.0000   1.0000   1.0000
     1.0000   1.0000   1.0000   1.0000   1.0000   1.0000   1.0000   1.0000
     1.0000   1.0000   1.0000   1.0000   1.0000   1.0000   1.0000   1.0000
     1.0000   0.9367   0.7729   0.7723   0.0182  -0.0000  -0.0000  -0.0000
    -0.0000  -0.0000  -0.0000  -0.0000  -0.0000

     the Fermi energy is    11.0220 ev

!    total energy              =   -1545.54143877 Ry
     estimated scf accuracy    <       0.00000019 Ry
     smearing contrib. (-TS)   =      -0.00038882 Ry
     internal energy E=F+TS    =   -1545.54104996 Ry

     The total energy is F=E-TS. E is the sum of the following terms:
     one-electron contribution =    -197.77661068 Ry
     hartree contribution      =     161.51542754 Ry
     xc contribution           =    -166.52192596 Ry
     ewald contribution        =    -460.87973099 Ry
     one-center paw contrib.   =    -881.87820988 Ry
      -> PAW hartree energy AE =     335.62751144 Ry
      -> PAW hartree energy PS =    -332.10717211 Ry
      -> PAW xc energy AE      =    -966.76811071 Ry
      -> PAW xc energy PS      =      81.36956150 Ry
      -> total E_H with PAW    =     165.03576687 Ry
      -> total E_XC with PAW   =   -1051.92047517 Ry

     convergence has been achieved in  88 iterations

     negative rho (up, down):  1.095E-01 0.000E+00

     Forces acting on atoms (cartesian axes, Ry/au):

     atom    1 type  1   force =     0.00000000    0.00000000    0.00117305
     atom    2 type  2   force =     0.00000000    0.00000000    0.00282603
     atom    3 type  3   force =     0.00000000    0.00000000    0.00715737
     atom    4 type  4   force =     0.00000000    0.00000000    0.01378217
     atom    5 type  5   force =     0.00000000    0.01872751    0.00871900
     atom    6 type  5   force =     0.00000000   -0.01986179   -0.01703187
     atom    7 type  5   force =    -0.01720081    0.00993089   -0.01703187
     atom    8 type  5   force =     0.01621850   -0.00936375    0.00871900
     atom    9 type  5   force =    -0.01621850   -0.00936375    0.00871900
     atom   10 type  5   force =     0.01720081    0.00993089   -0.01703187
     The non-local contrib.  to forces
     atom    1 type  1   force =     0.00000000    0.00000000    0.00079889
     atom    2 type  2   force =     0.00000000    0.00000000    0.00500222
     atom    3 type  3   force =     0.00000000    0.00000000    0.04084531
     atom    4 type  4   force =     0.00000000    0.00000000    0.04816823
     atom    5 type  5   force =     0.00000000   -0.39056089   -0.22519360
     atom    6 type  5   force =     0.00000000    0.38302693    0.34007585
     atom    7 type  5   force =     0.33171105   -0.19151347    0.34007585
     atom    8 type  5   force =    -0.33823565    0.19528044   -0.22519360
     atom    9 type  5   force =     0.33823565    0.19528044   -0.22519360
     atom   10 type  5   force =    -0.33171105   -0.19151347    0.34007585
     The ionic contribution  to forces
     atom    1 type  1   force =    -0.00000000    0.00000000   -0.00000000
     atom    2 type  2   force =    -0.00000000   -0.00000000    0.00000000
     atom    3 type  3   force =    -0.00000000    0.00000000    0.00000000
     atom    4 type  4   force =    -0.00000000   -0.00000000   -0.00000000
     atom    5 type  5   force =    -0.00000000    1.44480250    1.02162964
     atom    6 type  5   force =     0.00000000   -1.44480250   -1.02162964
     atom    7 type  5   force =    -1.25123567    0.72240125   -1.02162964
     atom    8 type  5   force =     1.25123567   -0.72240125    1.02162964
     atom    9 type  5   force =    -1.25123567   -0.72240125    1.02162964
     atom   10 type  5   force =     1.25123567    0.72240125   -1.02162964
     The local contribution  to forces
     atom    1 type  1   force =     0.00040383    0.00057485    0.00044201
     atom    2 type  2   force =    -0.00000646    0.00000836   -0.00182351
     atom    3 type  3   force =    -0.00000936    0.00001089   -0.03368521
     atom    4 type  4   force =     0.00001336   -0.00000174   -0.03085897
     atom    5 type  5   force =     0.00000690   -1.03997372   -0.79023702
     atom    6 type  5   force =    -0.00001238    1.04634896    0.66857838
     atom    7 type  5   force =     0.90617085   -0.52315330    0.66856320
     atom    8 type  5   force =    -0.90069989    0.51999934   -0.79021923
     atom    9 type  5   force =     0.90065776    0.51997035   -0.79022615
     atom   10 type  5   force =    -0.90616340   -0.52314123    0.66852903
     The core correction contribution to forces
     atom    1 type  1   force =     0.00002249    0.00002039   -0.00006291
     atom    2 type  2   force =    -0.00000002   -0.00000016   -0.00036651
     atom    3 type  3   force =     0.00000000    0.00000000    0.00000171
     atom    4 type  4   force =    -0.00000129    0.00000108   -0.00345759
     atom    5 type  5   force =    -0.00000000    0.00447734    0.00247102
     atom    6 type  5   force =    -0.00000007   -0.00443183   -0.00405851
     atom    7 type  5   force =    -0.00383800    0.00221613   -0.00405876
     atom    8 type  5   force =     0.00387689   -0.00223835    0.00247066
     atom    9 type  5   force =    -0.00387742   -0.00223868    0.00247088
     atom   10 type  5   force =     0.00383822    0.00221611   -0.00405918
     The Hubbard contrib.    to forces
     atom    1 type  1   force =     0.00000000    0.00000000    0.00000000
     atom    2 type  2   force =     0.00000000    0.00000000    0.00000000
     atom    3 type  3   force =     0.00000000    0.00000000    0.00000000
     atom    4 type  4   force =     0.00000000    0.00000000    0.00000000
     atom    5 type  5   force =     0.00000000    0.00000000    0.00000000
     atom    6 type  5   force =     0.00000000    0.00000000    0.00000000
     atom    7 type  5   force =     0.00000000    0.00000000    0.00000000
     atom    8 type  5   force =     0.00000000    0.00000000    0.00000000
     atom    9 type  5   force =     0.00000000    0.00000000    0.00000000
     atom   10 type  5   force =     0.00000000    0.00000000    0.00000000
     The SCF correction term to forces
     atom    1 type  1   force =    -0.00005154   -0.00005533   -0.00000662
     atom    2 type  2   force =     0.00000570   -0.00001114    0.00001213
     atom    3 type  3   force =     0.00002939   -0.00002687   -0.00000614
     atom    4 type  4   force =    -0.00002796    0.00001059   -0.00007119
     atom    5 type  5   force =    -0.00000959   -0.00000201    0.00005400
     atom    6 type  5   force =     0.00001101    0.00000488    0.00001057
     atom    7 type  5   force =    -0.00000510   -0.00001240    0.00002768
     atom    8 type  5   force =     0.00001621    0.00000737    0.00002237
     atom    9 type  5   force =    -0.00000820    0.00001793    0.00003725
     atom   10 type  5   force =     0.00000607   -0.00002388    0.00002829

     Total force =     0.059871     Total SCF correction =     0.000148

     Computing stress (Cartesian axis) and pressure

     negative rho (up, down):  1.095E-01 0.000E+00
          total   stress  (Ry/bohr**3)                   (kbar)     P=     -188.56
  -0.00129791  -0.00000000   0.00000000         -190.93       -0.00        0.00
   0.00000000  -0.00129791   0.00000000            0.00     -190.93        0.00
   0.00000000   0.00000000  -0.00124965            0.00        0.00     -183.83

     kinetic stress (kbar)  15190.68      0.00     -0.00
                                0.00  15190.68     -0.00
                                0.00     -0.00  15229.60

     local   stress (kbar)  -6795.14      0.12     -0.01
                                0.12  -6794.87     -0.05
                               -0.01     -0.05  -6841.99

     nonloc. stress (kbar)   9208.60      0.00     -0.00
                                0.00   9208.60     -0.00
                                0.00     -0.00   9217.25

     hartree stress (kbar)   6976.25     -0.05      0.03
                               -0.05   6976.18      0.01
                                0.03      0.01   6982.90

     exc-cor stress (kbar)   4640.25     -0.00      0.00
                               -0.00   4640.25      0.00
                                0.00      0.00   4640.31

     corecor stress (kbar)  -9498.88      0.00     -0.00
                                0.00  -9498.88      0.00
                               -0.00      0.00  -9499.12

     ewald   stress (kbar) -19912.79      0.00     -0.00
                                0.00 -19912.79     -0.00
                               -0.00     -0.00 -19912.79

     hubbard stress (kbar)      0.00      0.00      0.00
                                0.00      0.00      0.00
                                0.00      0.00      0.00

     DFT-D   stress (kbar)      0.00      0.00      0.00
                                0.00      0.00      0.00
                                0.00      0.00      0.00

     XDM     stress (kbar)      0.00      0.00      0.00
                                0.00      0.00      0.00
                                0.00      0.00      0.00

     dft-nl  stress (kbar)      0.00      0.00      0.00
                                0.00      0.00      0.00
                                0.00      0.00      0.00

     TS-vdW  stress (kbar)      0.00      0.00      0.00
                                0.00      0.00      0.00
                                0.00      0.00      0.00

[...]

                                0.00      0.00      0.00

     Writing all to output data dir new_calculations/myprefix.save/

     General routines

     Parallel routines

     PAW routines

   This run was terminated on:   4:38:30  21May2023

   JOB DONE.