     Program PWSCF v.7.0 starts on 20May2023 at 13:11:19

     Reading input from espresso_19296.pwi
Warning: card &CELL ignored
Warning: card / ignored

     Current dimensions of program PWSCF are:
     Max number of different atomic species (ntypx) = 10
     Max number of k-points (npk) =  40000
     Max angular momentum in pseudopotentials (lmaxx) =  4
     file O.pbe-n-kjpaw_psl.0.1.UPF: wavefunction(s)  2P renormalized

     gamma-point specific algorithms are used

     Subspace diagonalization in iterative solution of the eigenvalue problem:
     a serial algorithm will be used

     Using Slab Decomposition

     bravais-lattice index     =            0
     lattice parameter (alat)  =      13.4401  a.u.
     unit-cell volume          =    1417.6407 (a.u.)^3
     number of atoms/cell      =           18
     number of atomic types    =            3
     number of electrons       =       197.00
     number of Kohn-Sham states=          119
     kinetic-energy cutoff     =      30.0000  Ry
     charge density cutoff     =     240.0000  Ry
     scf convergence threshold =      1.0E-06
     mixing beta               =       0.7000
     number of iterations used =            8  plain     mixing
     Exchange-correlation=  SLA  PW   PBX  PBC
                           (   1   4   3   4   0   0   0)

     celldm(1)=  13.440144  celldm(2)=   0.000000  celldm(3)=   0.000000
     celldm(4)=   0.000000  celldm(5)=   0.000000  celldm(6)=   0.000000

     crystal axes: (cart. coord. in units of alat)
               a(1) = (   1.000000   0.000000   0.000000 )
               a(2) = (  -0.245498   0.757939   0.000000 )
               a(3) = (  -0.224244   0.275654   0.770407 )

     reciprocal axes: (cart. coord. in units 2 pi/alat)
               b(1) = (  1.000000  0.323903  0.175178 )
               b(2) = (  0.000000  1.319368 -0.472075 )
               b(3) = (  0.000000  0.000000  1.298015 )

     PseudoPot. # 1 for Cu read from file:
     /home/pragov/projects/rrg-bengioy-ad/pragov/crystal_structure_design/SSSP/Cu_pbe_v1.2.uspp.F.UPF
     MD5 check sum: 6e991ff952a84172a2a52a1c1e996048
     Pseudo is Ultrasoft + core correction, Zval = 19.0
     Generated by new atomic code, or converted to UPF format
     Using radial grid of  867 points,  6 beta functions with:
                l(1) =   0
                l(2) =   0
                l(3) =   1
                l(4) =   1
                l(5) =   2
                l(6) =   2
     Q(r) pseudized with  8 coefficients,  rinner =    1.150   1.150   1.150
                                                       1.150   1.150

     PseudoPot. # 2 for O  read from file:
     /home/pragov/projects/rrg-bengioy-ad/pragov/crystal_structure_design/SSSP/O.pbe-n-kjpaw_psl.0.1.UPF
     MD5 check sum: 0234752ac141de4415c5fc33072bef88
     Pseudo is Projector augmented-wave + core cor, Zval =  6.0
     Generated using "atomic" code by A. Dal Corso  v.5.0.99 svn rev. 10869
     Shape of augmentation charge: BESSEL
     Using radial grid of 1095 points,  4 beta functions with:
                l(1) =   0
                l(2) =   0
                l(3) =   1
                l(4) =   1
     Q(r) pseudized with 0 coefficients

     PseudoPot. # 3 for F  read from file:
     /home/pragov/projects/rrg-bengioy-ad/pragov/crystal_structure_design/SSSP/f_pbe_v1.4.uspp.F.UPF
     MD5 check sum: 4c38b6a325caf53ec0e86aed9459de46
     Pseudo is Ultrasoft, Zval =  7.0
     Generated by new atomic code, or converted to UPF format
     Using radial grid of  799 points,  4 beta functions with:
                l(1) =   0
                l(2) =   0
                l(3) =   1
                l(4) =   1
     Q(r) pseudized with  8 coefficients,  rinner =    0.950   0.950   0.950

     atomic species   valence    mass     pseudopotential
        Cu            19.00    63.54600     Cu( 1.00)
        O              6.00    15.99900     O ( 1.00)
        F              7.00    18.99840     F ( 1.00)

     No symmetry found

                                    s                        frac. trans.

      isym =  1     identity

 cryst.   s( 1) = (     1          0          0      )
                  (     0          1          0      )
                  (     0          0          1      )

 cart.    s( 1) = (  1.0000000 -0.0000000 -0.0000000 )
                  (  0.0000000  1.0000000 -0.0000000 )
                  (  0.0000000  0.0000000  1.0000000 )

   Cartesian axes

     site n.     atom                  positions (alat units)
         1           Cu  tau(   1) = (   0.7514706   0.7442616   0.0043166  )
         2           Cu  tau(   2) = (   0.2543324   0.7567858   0.0020477  )
         3           Cu  tau(   3) = (   0.1773867   0.3456847   0.2567905  )
         4           Cu  tau(   4) = (   0.6774328   0.3532623   0.2404787  )
         5           Cu  tau(   5) = (  -0.1464654   0.6862766   0.5164377  )
         6           Cu  tau(   6) = (   0.3611417   0.6962360   0.5345623  )
         7           O   tau(   7) = (   0.6710340   0.4979662   0.0265582  )
         8           F   tau(   8) = (   0.7509400   0.0860023   0.0653829  )
         9           F   tau(   9) = (   0.4279959   0.2573272   0.1876041  )
        10           F   tau(  10) = (  -0.0752208   0.4355389   0.3185533  )
        11           F   tau(  11) = (   0.2562437   0.6053771   0.2264557  )
        12           F   tau(  12) = (   0.6758309   0.1965371   0.4633921  )
        13           F   tau(  13) = (  -0.1459541   0.8440119   0.2960443  )
        14           F   tau(  14) = (   0.2761310   0.4328819   0.5542839  )
        15           F   tau(  15) = (  -0.1471137   0.5251834   0.7337125  )
        16           F   tau(  16) = (   0.6033978   0.6023438   0.4496704  )
        17           F   tau(  17) = (   0.1020776   0.7764707   0.5801781  )
        18           F   tau(  18) = (  -0.2195952   0.9424770   0.7067860  )

   Crystallographic axes

     site n.     atom                  positions (cryst. coord.)
         1           Cu  tau(   1) = (  0.9932950  0.9799170  0.0056030  )
         2           Cu  tau(   2) = (  0.4998160  0.9975120  0.0026580  )
         3           Cu  tau(   3) = (  0.3343390  0.3348610  0.3333180  )
         4           Cu  tau(   4) = (  0.8339820  0.3525590  0.3121450  )
         5           Cu  tau(   5) = (  0.1662900  0.6616540  0.6703440  )
         6           Cu  tau(   6) = (  0.6802980  0.6662380  0.6938700  )
         7           O   tau(   7) = (  0.8369790  0.6444630  0.0344730  )
         8           F   tau(   8) = (  0.7902500  0.0826030  0.0848680  )
         9           F   tau(   9) = (  0.5442090  0.2509460  0.2435130  )
        10           F   tau(  10) = (  0.1216550  0.4242550  0.4134870  )
        11           F   tau(  11) = (  0.4919970  0.6918110  0.2939430  )
        12           F   tau(  12) = (  0.8206660  0.0405490  0.6014900  )
        13           F   tau(  13) = (  0.1792840  0.9738070  0.3842700  )
        14           F   tau(  14) = (  0.5134410  0.3094670  0.7194690  )
        15           F   tau(  15) = (  0.1515250  0.3465430  0.9523700  )
        16           F   tau(  16) = (  0.8772710  0.5824350  0.5836790  )
        17           F   tau(  17) = (  0.4552130  0.7505630  0.7530800  )
        18           F   tau(  18) = (  0.2094890  0.9098180  0.9174190  )

     number of k points=     1  Methfessel-Paxton smearing, width (Ry)=  0.0010
                       cart. coord. in units 2pi/alat
        k(    1) = (   0.0000000   0.0000000   0.0000000), wk =   2.0000000

                       cryst. coord.
        k(    1) = (   0.0000000   0.0000000   0.0000000), wk =   2.0000000

     Check: negative core charge=   -0.000004

     Initial potential from superposition of free atoms

     starting charge     191.0000, renormalised to     197.0000
     Starting wfcs are  126 randomized atomic wfcs
     Checking if some PAW data can be deallocated...

     Self-consistent Calculation

     iteration #  1     ecut=    30.00 Ry     beta= 0.70
     Davidson diagonalization with overlap

     ethr =  1.00E-02,  avg # of iterations =  3.0

     total energy              =   -2996.32068029 Ry
     estimated scf accuracy    <       3.42793672 Ry

[...]

     total energy              =   -2998.31598741 Ry
     estimated scf accuracy    <       0.00004146 Ry

     iteration # 52     ecut=    30.00 Ry     beta= 0.70
     Davidson diagonalization with overlap

     ethr =  2.13E-09,  avg # of iterations =  1.0

     End of self-consistent calculation

          k = 0.0000 0.0000 0.0000 (  1970 PWs)   bands (ev):

  -106.8720-106.7010-106.6767-106.4290-106.1397-106.0987 -64.6023 -64.4122
   -64.3329 -64.1964 -64.1854 -64.0378 -64.0290 -63.9818 -63.9013 -63.8423
   -63.7429 -63.7321 -63.5815 -63.5783 -63.5675 -63.3761 -63.1241 -63.1199
   -17.3848 -16.9825 -16.9648 -16.8696 -16.8472 -16.8344 -16.7483 -16.7107
   -16.6159 -16.5764 -16.2178 -11.7825  -1.3425  -0.6818  -0.6483  -0.5423
    -0.4490  -0.1822   0.0846   0.1586   0.3549   0.4165   0.4605   0.7111
     0.8434   0.8851   0.9287   0.9744   0.9976   1.1056   1.2958   1.4414
     1.4585   1.6923   1.7420   1.9415   2.0703   2.1305   2.1692   2.2610
     2.5230   2.5667   2.6729   2.7363   2.7570   2.9696   3.1382   3.2611
     3.5744   3.6312   3.6594   3.8011   3.8585   3.9198   3.9497   4.0239
     4.0773   4.1017   4.1596   4.2385   4.2558   4.4099   4.4433   4.5635
     4.6259   4.6776   4.7386   4.7897   4.9534   5.0648   5.4099   5.4326
     5.6379   5.6882   5.6947   5.6989   5.9305   6.5257   9.1525  13.1624
    13.2712  13.8491  13.9343  14.4387  14.6532  15.4095  15.5861  15.9334
    16.0616  16.1628  16.5129  16.5893  17.8248  18.0402  18.6178

     occupation numbers
     1.0000   1.0000   1.0000   1.0000   1.0000   1.0000   1.0000   1.0000
     1.0000   1.0000   1.0000   1.0000   1.0000   1.0000   1.0000   1.0000
     1.0000   1.0000   1.0000   1.0000   1.0000   1.0000   1.0000   1.0000
     1.0000   1.0000   1.0000   1.0000   1.0000   1.0000   1.0000   1.0000
     1.0000   1.0000   1.0000   1.0000   1.0000   1.0000   1.0000   1.0000
     1.0000   1.0000   1.0000   1.0000   1.0000   1.0000   1.0000   1.0000
     1.0000   1.0000   1.0000   1.0000   1.0000   1.0000   1.0000   1.0000
     1.0000   1.0000   1.0000   1.0000   1.0000   1.0000   1.0000   1.0000
     1.0000   1.0000   1.0000   1.0000   1.0000   1.0000   1.0000   1.0000
     1.0000   1.0000   1.0000   1.0000   1.0000   1.0000   1.0000   1.0000
     1.0000   1.0000   1.0000   1.0000   1.0000   1.0000   1.0000   1.0000
     1.0000   1.0000   1.0000   1.0000   1.0000   1.0000   1.0000   1.0000
     1.0000   0.8259   0.4578   0.2164  -0.0000  -0.0000  -0.0000  -0.0000
    -0.0000  -0.0000  -0.0000  -0.0000  -0.0000  -0.0000  -0.0000  -0.0000
    -0.0000  -0.0000  -0.0000  -0.0000  -0.0000  -0.0000  -0.0000

     the Fermi energy is     5.6940 ev

!    total energy              =   -2998.31598710 Ry
     estimated scf accuracy    <       0.00000063 Ry
     smearing contrib. (-TS)   =      -0.00061443 Ry
     internal energy E=F+TS    =   -2998.31537268 Ry

     The total energy is F=E-TS. E is the sum of the following terms:
     one-electron contribution =   -2381.02404463 Ry
     hartree contribution      =    1278.62830681 Ry
     xc contribution           =    -342.36871461 Ry
     ewald contribution        =   -1544.02283420 Ry
     one-center paw contrib.   =      -9.52808605 Ry
      -> PAW hartree energy AE =      28.42356446 Ry
      -> PAW hartree energy PS =     -28.32360137 Ry
      -> PAW xc energy AE      =     -16.98905886 Ry
      -> PAW xc energy PS      =       7.36100973 Ry
      -> total E_H with PAW    =    1278.72826990 Ry
      -> total E_XC with PAW   =    -351.99676374 Ry

     convergence has been achieved in  52 iterations

     Forces acting on atoms (cartesian axes, Ry/au):

     atom    1 type  1   force =     0.00495710    0.01419933   -0.00084536
     atom    2 type  1   force =    -0.00526740    0.00335810   -0.00300385
     atom    3 type  1   force =     0.00006243   -0.00117160    0.00271140
     atom    4 type  1   force =    -0.00229680   -0.00249826    0.00085057
     atom    5 type  1   force =    -0.00175869   -0.00115416   -0.00939892
     atom    6 type  1   force =    -0.00647420   -0.00849267   -0.00305388
     atom    7 type  2   force =    -0.00197449    0.00039030   -0.01943483
     atom    8 type  3   force =     0.00677672   -0.01477648   -0.00567036
     atom    9 type  3   force =    -0.00885812    0.00599724   -0.00336267
     atom   10 type  3   force =     0.00478798   -0.00220989   -0.01037195
     atom   11 type  3   force =     0.00085154   -0.00895419    0.01950493
     atom   12 type  3   force =     0.00400259    0.01516758   -0.00158789
     atom   13 type  3   force =     0.00442710    0.01260403   -0.00447851
     atom   14 type  3   force =     0.00256721    0.00381118   -0.00146462
     atom   15 type  3   force =    -0.00410896   -0.02178051    0.01653301
     atom   16 type  3   force =     0.00668135    0.01344601    0.01493850
     atom   17 type  3   force =    -0.00112890   -0.00906673    0.00089518
     atom   18 type  3   force =    -0.00324646    0.00113072    0.00723926
     The non-local contrib.  to forces
     atom    1 type  1   force =     0.03694887    0.07253486    0.03932538
     atom    2 type  1   force =    -0.03305526   -0.03202885   -0.00054383
     atom    3 type  1   force =    -0.02329475   -0.02887569   -0.00901569
     atom    4 type  1   force =     0.02024476    0.01287626    0.04637562
     atom    5 type  1   force =     0.02606727    0.02980325   -0.01361706
     atom    6 type  1   force =    -0.05417635   -0.06609050   -0.07013316
     atom    7 type  2   force =     0.21329603    0.11370838    0.30267668
     atom    8 type  3   force =    -0.04033886   -0.28157234   -0.20748744
     atom    9 type  3   force =     0.06582992    0.27223151    0.17007454
     atom   10 type  3   force =    -0.08879433   -0.23840680   -0.24065662
     atom   11 type  3   force =    -0.18484665   -0.25231069   -0.39585774
     atom   12 type  3   force =    -0.13164130   -0.15352224   -0.37260299
     atom   13 type  3   force =     0.15488243    0.19858849    0.32578855
     atom   14 type  3   force =     0.10044910    0.05793008    0.35737337
     atom   15 type  3   force =    -0.14184760   -0.15893219   -0.31947751
     atom   16 type  3   force =     0.10121973    0.27390601    0.21458946
     atom   17 type  3   force =    -0.10217936   -0.20935299   -0.11756490
     atom   18 type  3   force =     0.00935430    0.24212355    0.21503987
     The ionic contribution  to forces
     atom    1 type  1   force =     1.54876054    2.97241798    0.16370869
     atom    2 type  1   force =    -0.98998217   -0.71632488    0.17709878
     atom    3 type  1   force =     0.12996536   -0.08103136    1.22947879
     atom    4 type  1   force =     0.20123487   -0.55200349    2.64459283
     atom    5 type  1   force =     0.95505870   -0.46439336   -0.09959864
     atom    6 type  1   force =    -1.70997278   -1.36810710   -4.13335512
     atom    7 type  2   force =    -1.21436682   -2.25940303   -0.67228965
     atom    8 type  3   force =     1.88070165    3.01584777    2.59204416
     atom    9 type  3   force =    -2.58690870   -3.28098068   -1.01270144
     atom   10 type  3   force =     2.45325459    2.42095847    2.93784301
     atom   11 type  3   force =     1.64350216    3.43068585    3.99099263
     atom   12 type  3   force =     1.06579488    2.91194752    1.37156356
     atom   13 type  3   force =    -1.16993687   -2.14032364   -2.11106876
     atom   14 type  3   force =    -1.73028908   -2.54695209   -3.94491714
     atom   15 type  3   force =     1.51457439    1.72589767    2.03990022
     atom   16 type  3   force =    -2.18402772   -3.68919488   -3.34993520
     atom   17 type  3   force =     1.58945145    2.74088013    0.74781685
     atom   18 type  3   force =    -1.39681444   -2.11992087   -2.57117357
     The local contribution  to forces
     atom    1 type  1   force =    -1.58061574   -3.03113944   -0.20351567
     atom    2 type  1   force =     1.01745824    0.75152176   -0.17936462
     atom    3 type  1   force =    -0.10647137    0.10879466   -1.21790042
     atom    4 type  1   force =    -0.22390099    0.53664117   -2.69079134
     atom    5 type  1   force =    -0.98242257    0.43388943    0.10398059
     atom    6 type  1   force =     1.75724171    1.42553437    4.20064582
     atom    7 type  2   force =     1.00158777    2.14721039    0.35386851
     atom    8 type  3   force =    -1.83408888   -2.74932493   -2.39037914
     atom    9 type  3   force =     2.51205739    3.01447268    0.83905297
     atom   10 type  3   force =    -2.35940395   -2.18476448   -2.70762608
     atom   11 type  3   force =    -1.45797970   -3.18716579   -3.57638613
     atom   12 type  3   force =    -0.93009088   -2.74287535   -1.00051215
     atom   13 type  3   force =     1.01964860    1.95454099    1.78061543
     atom   14 type  3   force =     1.63220103    2.49211317    3.58654139
     atom   15 type  3   force =    -1.37669435   -1.58888773   -1.70366774
     atom   16 type  3   force =     2.08962486    3.42860585    3.15015349
     atom   17 type  3   force =    -1.48869557   -2.54022725   -0.62907387
     atom   18 type  3   force =     1.38475718    1.87922541    2.36363742
     The core correction contribution to forces
     atom    1 type  1   force =     0.00012335    0.00050489   -0.00015535
     atom    2 type  1   force =     0.00006696    0.00001937    0.00004933
     atom    3 type  1   force =     0.00003234    0.00007066    0.00000945
     atom    4 type  1   force =    -0.00002279   -0.00037427    0.00038793
     atom    5 type  1   force =    -0.00004384   -0.00006705    0.00001644
     atom    6 type  1   force =    -0.00002174    0.00004838   -0.00031172
     atom    7 type  2   force =    -0.00246055   -0.00103098   -0.00353337
     atom    8 type  3   force =     0.00000000    0.00000000    0.00000000
     atom    9 type  3   force =     0.00000000    0.00000000    0.00000000
     atom   10 type  3   force =     0.00000000    0.00000000    0.00000000
     atom   11 type  3   force =     0.00000000    0.00000000    0.00000000
     atom   12 type  3   force =     0.00000000    0.00000000    0.00000000
     atom   13 type  3   force =     0.00000000    0.00000000    0.00000000
     atom   14 type  3   force =     0.00000000    0.00000000    0.00000000
     atom   15 type  3   force =     0.00000000    0.00000000    0.00000000
     atom   16 type  3   force =     0.00000000    0.00000000    0.00000000
     atom   17 type  3   force =     0.00000000    0.00000000    0.00000000
     atom   18 type  3   force =     0.00000000    0.00000000    0.00000000
     The Hubbard contrib.    to forces
     atom    1 type  1   force =     0.00000000    0.00000000    0.00000000
     atom    2 type  1   force =     0.00000000    0.00000000    0.00000000
     atom    3 type  1   force =     0.00000000    0.00000000    0.00000000
     atom    4 type  1   force =     0.00000000    0.00000000    0.00000000
     atom    5 type  1   force =     0.00000000    0.00000000    0.00000000
     atom    6 type  1   force =     0.00000000    0.00000000    0.00000000
     atom    7 type  2   force =     0.00000000    0.00000000    0.00000000
     atom    8 type  3   force =     0.00000000    0.00000000    0.00000000
     atom    9 type  3   force =     0.00000000    0.00000000    0.00000000
     atom   10 type  3   force =     0.00000000    0.00000000    0.00000000
     atom   11 type  3   force =     0.00000000    0.00000000    0.00000000
     atom   12 type  3   force =     0.00000000    0.00000000    0.00000000
     atom   13 type  3   force =     0.00000000    0.00000000    0.00000000
     atom   14 type  3   force =     0.00000000    0.00000000    0.00000000
     atom   15 type  3   force =     0.00000000    0.00000000    0.00000000
     atom   16 type  3   force =     0.00000000    0.00000000    0.00000000
     atom   17 type  3   force =     0.00000000    0.00000000    0.00000000
     atom   18 type  3   force =     0.00000000    0.00000000    0.00000000
     The SCF correction term to forces
     atom    1 type  1   force =    -0.00025884   -0.00011610   -0.00020976
     atom    2 type  1   force =     0.00024590    0.00017355   -0.00024485
     atom    3 type  1   force =    -0.00016807   -0.00012702    0.00013794
     atom    4 type  1   force =     0.00014842    0.00036493    0.00028420
     atom    5 type  1   force =    -0.00041717   -0.00038357   -0.00018159
     atom    6 type  1   force =     0.00045604    0.00012503    0.00009897
     atom    7 type  2   force =    -0.00002984   -0.00009161   -0.00015834
     atom    8 type  3   force =     0.00050390    0.00027588    0.00015072
     atom    9 type  3   force =     0.00016435    0.00027660    0.00020992
     atom   10 type  3   force =    -0.00026724    0.00000578    0.00006639
     atom   11 type  3   force =     0.00017681   -0.00016070    0.00075483
     atom   12 type  3   force =    -0.00005903   -0.00037949   -0.00003765
     atom   13 type  3   force =    -0.00016598   -0.00019895    0.00018492
     atom   14 type  3   force =     0.00020723    0.00072288   -0.00046358
     atom   15 type  3   force =    -0.00014031    0.00014461   -0.00022329
     atom   16 type  3   force =    -0.00013444    0.00013188    0.00012940
     atom   17 type  3   force =     0.00029565   -0.00036377   -0.00028424
     atom   18 type  3   force =    -0.00054242   -0.00029451   -0.00026580

     Total force =     0.061195     Total SCF correction =     0.002080

     Computing stress (Cartesian axis) and pressure

          total   stress  (Ry/bohr**3)                   (kbar)     P=     -515.23
  -0.00358297   0.00004247   0.00000193         -527.07        6.25        0.28
   0.00004247  -0.00332820  -0.00028674            6.25     -489.59      -42.18
   0.00000193  -0.00028674  -0.00359617            0.28      -42.18     -529.01

     kinetic stress (kbar)  31777.60   -242.27    -76.95
                             -242.27  31878.70    129.63
                              -76.95    129.63  32199.31

     local   stress (kbar) -27973.58 -14399.25  -6039.08
                           -14399.25 -34017.45  -1835.84
                            -6039.08  -1835.84 -16269.32

     nonloc. stress (kbar)  14019.35    -81.44    -28.20
                              -81.44  14092.09     49.28
                              -28.20     49.28  14212.05

     hartree stress (kbar)  44825.38   6089.02   2645.65
                             6089.02  47634.96   1136.17
                             2645.65   1136.17  40219.76

     exc-cor stress (kbar) -11037.93      4.49      1.01
                                4.49 -11038.37     -2.14
                                1.01     -2.14 -11043.69

     corecor stress (kbar)   -268.64      0.40      0.23
                                0.40   -268.13     -0.08
                                0.23     -0.08   -268.35

     ewald   stress (kbar) -51869.25   8635.31   3497.61
                             8635.31 -48771.40    480.80
                             3497.61    480.80 -59578.79

     hubbard stress (kbar)      0.00      0.00      0.00
                                0.00      0.00      0.00
                                0.00      0.00      0.00

     DFT-D   stress (kbar)      0.00      0.00      0.00
                                0.00      0.00      0.00
                                0.00      0.00      0.00

     XDM     stress (kbar)      0.00      0.00      0.00
                                0.00      0.00      0.00
                                0.00      0.00      0.00

     dft-nl  stress (kbar)      0.00      0.00      0.00
                                0.00      0.00      0.00
                                0.00      0.00      0.00

     TS-vdW  stress (kbar)      0.00      0.00      0.00
                                0.00      0.00      0.00
                                0.00      0.00      0.00

[...]

                                0.00      0.00      0.00

     Writing all to output data dir new_calculations/myprefix.save/

     General routines

     Parallel routines

     PAW routines

   This run was terminated on:  13:12:32  20May2023

   JOB DONE.