     Program PWSCF v.7.0 starts on 21May2023 at 20: 6:22

     Reading input from espresso_19996.pwi
Warning: card &CELL ignored
Warning: card / ignored

     Current dimensions of program PWSCF are:
     Max number of different atomic species (ntypx) = 10
     Max number of k-points (npk) =  40000
     Max angular momentum in pseudopotentials (lmaxx) =  4
     file Ba.pbe-spn-kjpaw_psl.1.0.0.UPF: wavefunction(s)  5S 6S renormalized
     file Cd.pbe-dn-rrkjus_psl.0.3.1.UPF: wavefunction(s)  4D renormalized
     file O.pbe-n-kjpaw_psl.0.1.UPF: wavefunction(s)  2P renormalized

     gamma-point specific algorithms are used
     Message from routine setup:
     using ibrav=0 with symmetry is DISCOURAGED, use correct ibrav instead

     Subspace diagonalization in iterative solution of the eigenvalue problem:
     a serial algorithm will be used

     Using Slab Decomposition

     bravais-lattice index     =            0
     lattice parameter (alat)  =       9.4772  a.u.
     unit-cell volume          =    2729.3660 (a.u.)^3
     number of atoms/cell      =           13
     number of atomic types    =            4
     number of electrons       =       146.00
     number of Kohn-Sham states=           88
     kinetic-energy cutoff     =      30.0000  Ry
     charge density cutoff     =     240.0000  Ry
     scf convergence threshold =      1.0E-06
     mixing beta               =       0.7000
     number of iterations used =            8  plain     mixing
     Exchange-correlation= SLA  PW   PBX  PBC
                           (   1   4   3   4   0   0   0)

     celldm(1)=   9.477243  celldm(2)=   0.000000  celldm(3)=   0.000000
     celldm(4)=   0.000000  celldm(5)=   0.000000  celldm(6)=   0.000000

     crystal axes: (cart. coord. in units of alat)
               a(1) = (   1.000000   0.000000   0.000000 )
               a(2) = (   0.500000   1.749999   0.000000 )
               a(3) = (   0.500000   0.070620   1.832221 )

     reciprocal axes: (cart. coord. in units 2 pi/alat)
               b(1) = (  1.000000 -0.285714 -0.261880 )
               b(2) = (  0.000000  0.571429 -0.022025 )
               b(3) = (  0.000000  0.000000  0.545786 )

     PseudoPot. # 1 for Ba read from file:
     /home/pragov/projects/rrg-bengioy-ad/pragov/crystal_structure_design/SSSP/Ba.pbe-spn-kjpaw_psl.1.0.0.UPF
     MD5 check sum: c432291d3e53af55f19d5e8866385beb
     Pseudo is Projector augmented-wave + core cor, Zval = 10.0
     Generated using "atomic" code by A. Dal Corso  v.5.1
     Shape of augmentation charge: PSQ
     Using radial grid of 1251 points,  7 beta functions with:
                l(1) =   0
                l(2) =   0
                l(3) =   0
                l(4) =   1
                l(5) =   1
                l(6) =   2
                l(7) =   2
     Q(r) pseudized with 0 coefficients

     PseudoPot. # 2 for Cd read from file:
     /home/pragov/projects/rrg-bengioy-ad/pragov/crystal_structure_design/SSSP/Cd.pbe-dn-rrkjus_psl.0.3.1.UPF
     MD5 check sum: 558e9f355611b531a870a69ef6ace9e2
     Pseudo is Ultrasoft + core correction, Zval = 12.0
     Generated using "atomic" code by A. Dal Corso  v.5.0.99 svn rev. 10869
     Using radial grid of 1239 points,  6 beta functions with:
                l(1) =   0
                l(2) =   0
                l(3) =   1
                l(4) =   1
                l(5) =   2
                l(6) =   2
     Q(r) pseudized with 0 coefficients

     PseudoPot. # 3 for Sb read from file:
     /home/pragov/projects/rrg-bengioy-ad/pragov/crystal_structure_design/SSSP/sb_pbe_v1.4.uspp.F.UPF
     MD5 check sum: 9bc50dfb53373b713f5709b9110fe27f
     Pseudo is Ultrasoft + core correction, Zval = 15.0
     Generated by new atomic code, or converted to UPF format
     Using radial grid of  891 points,  6 beta functions with:
                l(1) =   0
                l(2) =   0
                l(3) =   1
                l(4) =   1
                l(5) =   2
                l(6) =   2
     Q(r) pseudized with  8 coefficients,  rinner =    1.350   1.350   1.350
                                                       1.350   1.350

     PseudoPot. # 4 for O  read from file:
     /home/pragov/projects/rrg-bengioy-ad/pragov/crystal_structure_design/SSSP/O.pbe-n-kjpaw_psl.0.1.UPF
     MD5 check sum: 0234752ac141de4415c5fc33072bef88
     Pseudo is Projector augmented-wave + core cor, Zval =  6.0
     Generated using "atomic" code by A. Dal Corso  v.5.0.99 svn rev. 10869
     Shape of augmentation charge: BESSEL
     Using radial grid of 1095 points,  4 beta functions with:
                l(1) =   0
                l(2) =   0
                l(3) =   1
                l(4) =   1
     Q(r) pseudized with 0 coefficients

     atomic species   valence    mass     pseudopotential
        Ba            10.00   137.32700     Ba( 1.00)
        Cd            12.00   112.41400     Cd( 1.00)
        Sb            15.00   121.76000     Sb( 1.00)
        O              6.00    15.99900     O ( 1.00)

      4 Sym. Ops., with inversion, found

                                    s                        frac. trans.

      isym =  1     identity

 cryst.   s( 1) = (     1          0          0      )
                  (     0          1          0      )
                  (     0          0          1      )

 cart.    s( 1) = (  1.0000000  0.0000000  0.0000000 )
                  (  0.0000000  1.0000000 -0.0000000 )
                  (  0.0000000  0.0000000  1.0000000 )

      isym =  2     180 deg rotation - cart. axis [1,0,0]

[...]

      isym =  3     inversion

[...]

      isym =  4     inv. 180 deg rotation - cart. axis [1,0,0]

 cryst.   s( 4) = (    -1          0          0      )
                  (    -1          1          0      )
                  (    -1          0          1      )

 cart.    s( 4) = ( -1.0000000 -0.0000001 -0.0000001 )
                  (  0.0000000  1.0000000 -0.0000000 )
                  (  0.0000000  0.0000000  1.0000000 )

   Cartesian axes

     site n.     atom                  positions (alat units)
         1           Ba  tau(   1) = (   1.4999994   0.6580088   1.2881980  )
         2           Ba  tau(   2) = (   0.5000004   1.1626102   0.5440231  )
         3           Ba  tau(   3) = (   1.4999993   1.7084510   1.1911672  )
         4           Ba  tau(   4) = (   0.5000005   0.1121680   0.6410538  )
         5           Ba  tau(   5) = (   0.0000000   0.0000000   0.0000000  )
         6           Cd  tau(   6) = (   0.9999994   0.7089449   0.2245442  )
         7           Cd  tau(   7) = (   1.0000004   1.1116741   1.6076769  )
         8           Sb  tau(   8) = (   0.9999994   1.2601342   0.0186154  )
         9           Sb  tau(   9) = (   1.0000004   0.5604848   1.8136057  )
        10           Sb  tau(  10) = (   1.0000004   0.6495218   0.7932656  )
        11           Sb  tau(  11) = (   0.9999994   1.1710972   1.0389555  )
        12           O   tau(  12) = (   1.4999994   1.6768295   0.5732965  )
        13           O   tau(  13) = (   0.5000004   0.1437895   1.2589246  )

   Crystallographic axes

     site n.     atom                  positions (cryst. coord.)
         1           Ba  tau(   1) = (  0.9746430  0.3476330  0.7030800  )
         2           Ba  tau(   2) = (  0.0253570  0.6523670  0.2969200  )
         3           Ba  tau(   3) = (  0.6999270  0.9500230  0.6501220  )
         4           Ba  tau(   4) = (  0.3000730  0.0499770  0.3498780  )
         5           Ba  tau(   5) = (  0.0000000  0.0000000  0.0000000  )
         6           Cd  tau(   6) = (  0.7386400  0.4001660  0.1225530  )
         7           Cd  tau(   7) = (  0.2613600  0.5998340  0.8774470  )
         8           Sb  tau(   8) = (  0.6350860  0.7196670  0.0101600  )
         9           Sb  tau(   9) = (  0.3649140  0.2803330  0.9898400  )
        10           Sb  tau(  10) = (  0.6066820  0.3536840  0.4329530  )
        11           Sb  tau(  11) = (  0.3933180  0.6463160  0.5670470  )
        12           O   tau(  12) = (  0.8707700  0.9455620  0.3128970  )
        13           O   tau(  13) = (  0.1292300  0.0544380  0.6871030  )

     number of k points=     1  Methfessel-Paxton smearing, width (Ry)=  0.0010
                       cart. coord. in units 2pi/alat
        k(    1) = (   0.0000000   0.0000000   0.0000000), wk =   2.0000000

                       cryst. coord.
        k(    1) = (   0.0000000   0.0000000   0.0000000), wk =   2.0000000

     Check: negative core charge=   -0.000004

     Initial potential from superposition of free atoms

     starting charge     141.9052, renormalised to     146.0000
     Starting wfcs are   87 randomized atomic wfcs +    1 random wfcs
     Checking if some PAW data can be deallocated...

     Self-consistent Calculation

     iteration #  1     ecut=    30.00 Ry     beta= 0.70
     Davidson diagonalization with overlap

     ethr =  1.00E-02,  avg # of iterations =  6.0

     negative rho (up, down):  1.486E-03 0.000E+00

     total energy              =   -3247.76514323 Ry
     estimated scf accuracy    <       2.14717536 Ry

[...]

     negative rho (up, down):  9.470E-04 0.000E+00

[...]

     total energy              =   -3248.67800197 Ry
     estimated scf accuracy    <       0.00003796 Ry

     iteration # 28     ecut=    30.00 Ry     beta= 0.70
     Davidson diagonalization with overlap

     ethr =  1.76E-09,  avg # of iterations =  4.0

     End of self-consistent calculation

          k = 0.0000 0.0000 0.0000 (  3781 PWs)   bands (ev):

   -19.2611 -19.1577 -19.1148 -19.0880 -19.0444 -19.0396 -19.0317 -19.0302
   -19.0228 -19.0225 -18.9989 -18.9962 -18.9825 -18.9814 -18.9545 -18.9500
   -18.9486 -18.9148 -18.9054 -18.9054 -18.9027 -18.8666 -18.8622 -18.8619
   -18.8506  -8.2405  -8.1179  -4.7522  -4.6945  -4.5141  -4.4964  -4.4562
    -4.3897  -4.2588  -4.2106  -4.1860  -4.1441  -4.1016  -4.0571  -3.9955
    -3.9783  -3.9340  -0.6104  -0.4357  -0.3361  -0.0522   0.1298   0.1407
     0.1486   0.2158   0.2309   0.2407   0.3536   0.6760   1.1964   1.6767
     5.0451   5.0550   5.6909   6.2350   6.2706   6.4566   6.4768   6.5378
     6.6016   6.8748   7.3786   7.3942   8.2478   8.2982   8.5419   8.7036
     8.9239   9.2515   9.5219   9.9903  10.3382  10.3744  10.4143  10.7807
    11.1065  11.3510  11.3729  11.3783  12.0236  12.0349  12.1099  12.3659

     occupation numbers
     1.0000   1.0000   1.0000   1.0000   1.0000   1.0000   1.0000   1.0000
     1.0000   1.0000   1.0000   1.0000   1.0000   1.0000   1.0000   1.0000
     1.0000   1.0000   1.0000   1.0000   1.0000   1.0000   1.0000   1.0000
     1.0000   1.0000   1.0000   1.0000   1.0000   1.0000   1.0000   1.0000
     1.0000   1.0000   1.0000   1.0000   1.0000   1.0000   1.0000   1.0000
     1.0000   1.0000   1.0000   1.0000   1.0000   1.0000   1.0000   1.0000
     1.0000   1.0000   1.0000   1.0000   1.0000   1.0000   1.0000   1.0000
     1.0000   1.0000   1.0000   1.0000   1.0000   1.0000   1.0000   1.0000
     1.0000   1.0000   1.0000   1.0000   1.0000   1.0000   1.0000   1.0000
     1.0000  -0.0000  -0.0000  -0.0000  -0.0000  -0.0000  -0.0000  -0.0000
    -0.0000  -0.0000  -0.0000  -0.0000  -0.0000  -0.0000  -0.0000  -0.0000

     the Fermi energy is     9.0130 ev

!    total energy              =   -3248.67800254 Ry
     estimated scf accuracy    <       0.00000082 Ry
     smearing contrib. (-TS)   =       0.00000000 Ry
     internal energy E=F+TS    =   -3248.67800254 Ry

     The total energy is F=E-TS. E is the sum of the following terms:
     one-electron contribution =    -538.27769408 Ry
     hartree contribution      =     359.25469584 Ry
     xc contribution           =    -378.48488445 Ry
     ewald contribution        =    -797.35418540 Ry
     one-center paw contrib.   =   -1893.81593445 Ry
      -> PAW hartree energy AE =     199.51085962 Ry
      -> PAW hartree energy PS =    -198.77718004 Ry
      -> PAW xc energy AE      =   -2004.91885003 Ry
      -> PAW xc energy PS      =     110.36923600 Ry
      -> total E_H with PAW    =     359.98837543 Ry
      -> total E_XC with PAW   =   -2273.03449849 Ry

     convergence has been achieved in  28 iterations

     Forces acting on atoms (cartesian axes, Ry/au):

     atom    1 type  1   force =     0.00000000    0.00846741   -0.01167815
     atom    2 type  1   force =    -0.00000000   -0.00846741    0.01167815
     atom    3 type  1   force =     0.00000000   -0.05134329   -0.01767659
     atom    4 type  1   force =    -0.00000000    0.05134329    0.01767659
     atom    5 type  1   force =     0.00000000    0.00000000    0.00000000
     atom    6 type  2   force =    -0.00000000    0.02324013    0.03558269
     atom    7 type  2   force =    -0.00000000   -0.02324013   -0.03558269
     atom    8 type  3   force =     0.00000000    0.01487199    0.04831744
     atom    9 type  3   force =     0.00000000   -0.01487199   -0.04831744
     atom   10 type  3   force =    -0.00000000    0.02129489    0.01579556
     atom   11 type  3   force =    -0.00000000   -0.02129489   -0.01579556
     atom   12 type  4   force =     0.00000000   -0.05375173   -0.02078295
     atom   13 type  4   force =     0.00000000    0.05375173    0.02078295
     The non-local contrib.  to forces
     atom    1 type  1   force =     0.00000000    0.01992607   -0.01419122
     atom    2 type  1   force =     0.00000000   -0.01992607    0.01419122
     atom    3 type  1   force =    -0.00000000    0.09380580    0.06094887
     atom    4 type  1   force =    -0.00000000   -0.09380580   -0.06094887
     atom    5 type  1   force =     0.00000000    0.00000000   -0.00000000
     atom    6 type  2   force =     0.00000000   -0.14619576   -0.19396985
     atom    7 type  2   force =     0.00000000    0.14619576    0.19396985
     atom    8 type  3   force =     0.00000000   -0.14443742   -0.30178488
     atom    9 type  3   force =     0.00000000    0.14443742    0.30178488
     atom   10 type  3   force =     0.00000000    0.14443836   -0.07951200
     atom   11 type  3   force =     0.00000000   -0.14443836    0.07951200
     atom   12 type  4   force =     0.00000000    0.14736785    0.05305368
     atom   13 type  4   force =     0.00000000   -0.14736785   -0.05305368
     The ionic contribution  to forces
     atom    1 type  1   force =     0.00002420   -1.47397465   -2.15644776
     atom    2 type  1   force =    -0.00002420    1.47397465    2.15644776
     atom    3 type  1   force =     0.00003540    0.46415133   -0.23482922
     atom    4 type  1   force =    -0.00003540   -0.46415133    0.23482922
     atom    5 type  1   force =    -0.00000000   -0.00000000    0.00000000
     atom    6 type  2   force =     0.00005437   -3.55177435    2.99776698
     atom    7 type  2   force =    -0.00005437    3.55177435   -2.99776698
     atom    8 type  3   force =     0.00006776   11.25026957    1.38389288
     atom    9 type  3   force =    -0.00006776  -11.25026957   -1.38389288
     atom   10 type  3   force =     0.00001635   -8.29408990    2.72285707
     atom   11 type  3   force =    -0.00001635    8.29408990   -2.72285707
     atom   12 type  4   force =     0.00002119    0.78575866    0.55397211
     atom   13 type  4   force =    -0.00002119   -0.78575866   -0.55397211
     The local contribution  to forces
     atom    1 type  1   force =    -0.00079695    1.46023614    2.15540932
     atom    2 type  1   force =    -0.00047379   -1.46016845   -2.15558282
     atom    3 type  1   force =    -0.00078732   -0.59772301    0.16226167
     atom    4 type  1   force =    -0.00008647    0.59772195   -0.16213163
     atom    5 type  1   force =    -0.00031302   -0.00071407    0.00002023
     atom    6 type  2   force =    -0.00005881    3.71628666   -2.77437986
     atom    7 type  2   force =     0.00005380   -3.71628517    2.77433652
     atom    8 type  3   force =    -0.00006136  -11.08975829   -1.03379575
     atom    9 type  3   force =     0.00006428   11.08976302    1.03374029
     atom   10 type  3   force =    -0.00001968    8.17181446   -2.62721912
     atom   11 type  3   force =     0.00001179   -8.17177271    2.62727593
     atom   12 type  4   force =    -0.00001988   -0.98444388   -0.62694006
     atom   13 type  4   force =     0.00001528    0.98440722    0.62694032
     The core correction contribution to forces
     atom    1 type  1   force =    -0.00001166    0.00227630    0.00311010
     atom    2 type  1   force =    -0.00000780   -0.00227517   -0.00311245
     atom    3 type  1   force =    -0.00001765   -0.01157964   -0.00607302
     atom    4 type  1   force =    -0.00000146    0.01157979    0.00607601
     atom    5 type  1   force =    -0.00000288   -0.00001002   -0.00000024
     atom    6 type  2   force =     0.00000022    0.00455717    0.00662781
     atom    7 type  2   force =    -0.00000035   -0.00455771   -0.00662786
     atom    8 type  3   force =     0.00000035   -0.00040745   -0.00000266
     atom    9 type  3   force =    -0.00000032    0.00040742    0.00000264
     atom   10 type  3   force =    -0.00000010   -0.00068471   -0.00009004
     atom   11 type  3   force =     0.00000005    0.00068420    0.00009047
     atom   12 type  4   force =     0.00000036   -0.00243219   -0.00081083
     atom   13 type  4   force =    -0.00000035    0.00243209    0.00081078
     The Hubbard contrib.    to forces
     atom    1 type  1   force =     0.00000000    0.00000000    0.00000000
     atom    2 type  1   force =     0.00000000    0.00000000    0.00000000
     atom    3 type  1   force =     0.00000000    0.00000000    0.00000000
     atom    4 type  1   force =     0.00000000    0.00000000    0.00000000
     atom    5 type  1   force =     0.00000000    0.00000000    0.00000000
     atom    6 type  2   force =     0.00000000    0.00000000    0.00000000
     atom    7 type  2   force =     0.00000000    0.00000000    0.00000000
     atom    8 type  3   force =     0.00000000    0.00000000    0.00000000
     atom    9 type  3   force =     0.00000000    0.00000000    0.00000000
     atom   10 type  3   force =     0.00000000    0.00000000    0.00000000
     atom   11 type  3   force =     0.00000000    0.00000000    0.00000000
     atom   12 type  4   force =     0.00000000    0.00000000    0.00000000
     atom   13 type  4   force =     0.00000000    0.00000000    0.00000000
     The SCF correction term to forces
     atom    1 type  1   force =     0.00009770    0.00001293    0.00035235
     atom    2 type  1   force =     0.00006706   -0.00006298   -0.00035460
     atom    3 type  1   force =     0.00009321    0.00002900    0.00007249
     atom    4 type  1   force =     0.00001080    0.00002544   -0.00009074
     atom    5 type  1   force =     0.00004218    0.00011363   -0.00000077
     atom    6 type  2   force =     0.00000019    0.00035422   -0.00045832
     atom    7 type  2   force =     0.00000481   -0.00037956    0.00050986
     atom    8 type  3   force =    -0.00000590   -0.00079842    0.00000906
     atom    9 type  3   force =     0.00000293    0.00078572    0.00004886
     atom   10 type  3   force =     0.00000455   -0.00018849   -0.00024032
     atom   11 type  3   force =     0.00000455    0.00013692    0.00018315
     atom   12 type  4   force =     0.00000336   -0.00000286   -0.00005968
     atom   13 type  4   force =     0.00000352    0.00003824    0.00005582

     Total force =     0.151939     Total SCF correction =     0.001568

     Computing stress (Cartesian axis) and pressure

          total   stress  (Ry/bohr**3)                   (kbar)     P=     -117.28
  -0.00048174  -0.00000000  -0.00000000          -70.87       -0.00       -0.00
  -0.00000000  -0.00105963   0.00008767           -0.00     -155.88       12.90
  -0.00000000   0.00008767  -0.00085042           -0.00       12.90     -125.10

     kinetic stress (kbar)  12516.15      0.00      0.00
                                0.00  12349.35     10.01
                                0.00     10.01  12325.44

     local   stress (kbar)  -2991.63      0.01     -0.02
                                0.01  -1825.75   -198.60
                               -0.02   -198.60  -1946.94

     nonloc. stress (kbar)   1424.03      0.00      0.00
                                0.00   1366.43    -14.98
                                0.00    -14.98   1379.07

     hartree stress (kbar)   6748.52     -0.00      0.01
                               -0.00   6230.44     81.53
                                0.01     81.53   6383.84

     exc-cor stress (kbar)   7474.10     -0.00      0.00
                               -0.00   7471.78     -0.17
                                0.00     -0.17   7470.08

     corecor stress (kbar) -11251.50      0.00      0.00
                                0.00 -11249.70      0.44
                                0.00      0.44 -11250.44

     ewald   stress (kbar) -13990.53     -0.01      0.02
                               -0.01 -14498.43    134.68
                                0.02    134.68 -14486.16

     hubbard stress (kbar)      0.00      0.00      0.00
                                0.00      0.00      0.00
                                0.00      0.00      0.00

     DFT-D   stress (kbar)      0.00      0.00      0.00
                                0.00      0.00      0.00
                                0.00      0.00      0.00

     XDM     stress (kbar)      0.00      0.00      0.00
                                0.00      0.00      0.00
                                0.00      0.00      0.00

     dft-nl  stress (kbar)      0.00      0.00      0.00
                                0.00      0.00      0.00
                                0.00      0.00      0.00

     TS-vdW  stress (kbar)      0.00      0.00      0.00
                                0.00      0.00      0.00
                                0.00      0.00      0.00

[...]

                                0.00      0.00      0.00

     Writing all to output data dir new_calculations/myprefix.save/

     General routines

     Parallel routines

     PAW routines

   This run was terminated on:  20: 7:40  21May2023

   JOB DONE.