     Program PWSCF v.7.0 starts on 21May2023 at  5: 2:46

     Reading input from espresso_21591.pwi
Warning: card &CELL ignored
Warning: card / ignored

     Current dimensions of program PWSCF are:
     Max number of different atomic species (ntypx) = 10
     Max number of k-points (npk) =  40000
     Max angular momentum in pseudopotentials (lmaxx) =  4
     file O.pbe-n-kjpaw_psl.0.1.UPF: wavefunction(s)  2P renormalized

     gamma-point specific algorithms are used

     Subspace diagonalization in iterative solution of the eigenvalue problem:
     a serial algorithm will be used

     Using Slab Decomposition

     bravais-lattice index     =            0
     lattice parameter (alat)  =      11.2212  a.u.
     unit-cell volume          =    1000.3672 (a.u.)^3
     number of atoms/cell      =           16
     number of atomic types    =            4
     number of electrons       =       112.00
     number of Kohn-Sham states=           67
     kinetic-energy cutoff     =      30.0000  Ry
     charge density cutoff     =     240.0000  Ry
     scf convergence threshold =      1.0E-06
     mixing beta               =       0.7000
     number of iterations used =            8  plain     mixing
     Exchange-correlation= SLA  PW   PBX  PBC
                           (   1   4   3   4   0   0   0)

     celldm(1)=  11.221197  celldm(2)=   0.000000  celldm(3)=   0.000000
     celldm(4)=   0.000000  celldm(5)=   0.000000  celldm(6)=   0.000000

     crystal axes: (cart. coord. in units of alat)
               a(1) = (   1.000000   0.000000   0.000000 )
               a(2) = (   0.002297   0.999969   0.000000 )
               a(3) = (  -0.494798  -0.493593   0.708036 )

     reciprocal axes: (cart. coord. in units 2 pi/alat)
               b(1) = (  1.000000 -0.002297  0.697230 )
               b(2) = (  0.000000  1.000031  0.697151 )
               b(3) = (  0.000000  0.000000  1.412357 )

     PseudoPot. # 1 for Li read from file:
     /home/pragov/projects/rrg-bengioy-ad/pragov/crystal_structure_design/SSSP/li_pbe_v1.4.uspp.F.UPF
     MD5 check sum: e912e257baa3777c20ea3d68f190483c
     Pseudo is Ultrasoft, Zval =  3.0
     Generated by new atomic code, or converted to UPF format
     Using radial grid of  751 points,  5 beta functions with:
                l(1) =   0
                l(2) =   0
                l(3) =   0
                l(4) =   1
                l(5) =   1
     Q(r) pseudized with 10 coefficients,  rinner =    1.150   1.150   1.150

     PseudoPot. # 2 for Ti read from file:
     /home/pragov/projects/rrg-bengioy-ad/pragov/crystal_structure_design/SSSP/ti_pbe_v1.4.uspp.F.UPF
     MD5 check sum: 88a00a6731bd790ddea75d31a80cb452
     Pseudo is Ultrasoft + core correction, Zval = 12.0
     Generated by new atomic code, or converted to UPF format
     Using radial grid of  851 points,  6 beta functions with:
                l(1) =   0
                l(2) =   0
                l(3) =   1
                l(4) =   1
                l(5) =   2
                l(6) =   2
     Q(r) pseudized with  6 coefficients,  rinner =    1.000   1.000   1.000
                                                       1.000   1.000

     PseudoPot. # 3 for Cr read from file:
     /home/pragov/projects/rrg-bengioy-ad/pragov/crystal_structure_design/SSSP/cr_pbe_v1.5.uspp.F.UPF
     MD5 check sum: 0d52af634a40206e4dee301ad30da4bf
     Pseudo is Ultrasoft + core correction, Zval = 14.0
     Generated by new atomic code, or converted to UPF format
     Using radial grid of  857 points,  6 beta functions with:
                l(1) =   0
                l(2) =   0
                l(3) =   1
                l(4) =   1
                l(5) =   2
                l(6) =   2
     Q(r) pseudized with  8 coefficients,  rinner =    0.950   0.950   0.950
                                                       0.950   0.950

     PseudoPot. # 4 for O  read from file:
     /home/pragov/projects/rrg-bengioy-ad/pragov/crystal_structure_design/SSSP/O.pbe-n-kjpaw_psl.0.1.UPF
     MD5 check sum: 0234752ac141de4415c5fc33072bef88
     Pseudo is Projector augmented-wave + core cor, Zval =  6.0
     Generated using "atomic" code by A. Dal Corso  v.5.0.99 svn rev. 10869
     Shape of augmentation charge: BESSEL
     Using radial grid of 1095 points,  4 beta functions with:
                l(1) =   0
                l(2) =   0
                l(3) =   1
                l(4) =   1
     Q(r) pseudized with 0 coefficients

     atomic species   valence    mass     pseudopotential
        Li             3.00     6.94000     Li( 1.00)
        Ti            12.00    47.86700     Ti( 1.00)
        Cr            14.00    51.99610     Cr( 1.00)
        O              6.00    15.99900     O ( 1.00)

     No symmetry found

                                    s                        frac. trans.

      isym =  1     identity

 cryst.   s( 1) = (     1          0          0      )
                  (     0          1          0      )
                  (     0          0          1      )

 cart.    s( 1) = (  1.0000000  0.0000000 -0.0000000 )
                  (  0.0000000  1.0000000 -0.0000000 )
                  (  0.0000000  0.0000000  1.0000000 )

   Cartesian axes

     site n.     atom                  positions (alat units)
         1           Li  tau(   1) = (   0.7537472   0.2531865   0.3540159  )
         2           Li  tau(   2) = (   0.2537472   0.2531865   0.3540159  )
         3           Li  tau(   3) = (   0.0074969   0.5063745   0.7080340  )
         4           Li  tau(   4) = (   0.0063483   0.0063901   0.7080340  )
         5           Ti  tau(   5) = (   0.7548957   0.7531709   0.3540159  )
         6           Ti  tau(   6) = (   0.5074969   0.5063745   0.7080340  )
         7           Cr  tau(   7) = (  -0.4936177   0.0064131   0.7080297  )
         8           Cr  tau(   8) = (   0.2526059  -0.2467916   0.3540513  )
         9           O   tau(   9) = (   0.2383779   0.7477697   0.0111339  )
        10           O   tau(  10) = (   0.0042887  -0.0087696   0.3465072  )
        11           O   tau(  11) = (   0.0065420   0.5165183   0.3428835  )
        12           O   tau(  12) = (   0.7636826   0.7488206   0.0075293  )
        13           O   tau(  13) = (  -0.2561877  -0.2424481   0.7005033  )
        14           O   tau(  14) = (   0.5009519  -0.0101458   0.3651491  )
        15           O   tau(  15) = (   0.5032056   0.5151426   0.3615246  )
        16           O   tau(  16) = (   0.2691164  -0.2413967   0.6968980  )

   Crystallographic axes

     site n.     atom                  positions (cryst. coord.)
         1           Li  tau(   1) = (  0.9999960  0.4999970  0.4999970  )
         2           Li  tau(   2) = (  0.4999960  0.4999970  0.4999970  )
         3           Li  tau(   3) = (  0.4999960  0.9999970  0.9999970  )
         4           Li  tau(   4) = (  0.4999960  0.4999970  0.9999970  )
         5           Ti  tau(   5) = (  0.9999960  0.9999970  0.4999970  )
         6           Ti  tau(   6) = (  0.9999960  0.9999970  0.9999970  )
         7           Cr  tau(   7) = (  0.0000270  0.5000170  0.9999910  )
         8           Cr  tau(   8) = (  0.5000280  0.0000280  0.5000470  )
         9           O   tau(   9) = (  0.2444230  0.7555550  0.0157250  )
        10           O   tau(  10) = (  0.2459040  0.2327980  0.4893920  )
        11           O   tau(  11) = (  0.2444240  0.7555760  0.4842740  )
        12           O   tau(  12) = (  0.7672120  0.7540930  0.0106340  )
        13           O   tau(  13) = (  0.2327810  0.2459010  0.9893610  )
        14           O   tau(  14) = (  0.7555680  0.2444180  0.5157210  )
        15           O   tau(  15) = (  0.7540880  0.7671960  0.5106020  )
        16           O   tau(  16) = (  0.7555690  0.2444390  0.9842690  )

     number of k points=     1  Methfessel-Paxton smearing, width (Ry)=  0.0010
                       cart. coord. in units 2pi/alat
        k(    1) = (   0.0000000   0.0000000   0.0000000), wk =   2.0000000

                       cryst. coord.
        k(    1) = (   0.0000000   0.0000000   0.0000000), wk =   2.0000000

     Check: negative core charge=   -0.000019

     Initial potential from superposition of free atoms

     starting charge     106.1969, renormalised to     112.0000

     negative rho (up, down):  5.317E-03 0.000E+00
     Starting wfcs are   92 randomized atomic wfcs
     Checking if some PAW data can be deallocated...

     Self-consistent Calculation

     iteration #  1     ecut=    30.00 Ry     beta= 0.70
     Davidson diagonalization with overlap

     ethr =  1.00E-02,  avg # of iterations =  3.0

     negative rho (up, down):  6.979E-03 0.000E+00

     total energy              =    -969.72021903 Ry
     estimated scf accuracy    <      16.01953407 Ry

[...]

     total energy              =    -981.56687632 Ry
     estimated scf accuracy    <       0.00000272 Ry

     iteration # 46     ecut=    30.00 Ry     beta= 0.70
     Davidson diagonalization with overlap

     ethr =  2.43E-09,  avg # of iterations =  2.0

[...]

     End of self-consistent calculation

          k = 0.0000 0.0000 0.0000 (  1369 PWs)   bands (ev):

   -61.6314 -61.6220 -47.3584 -47.3199 -35.0696 -35.0599 -34.7828 -34.7723
   -33.2911 -33.2709 -32.9344 -32.8386 -32.7440 -32.7053 -23.9919 -23.7126
   -23.6465 -23.5532 -23.5358 -23.3859  -9.3584  -8.3921  -8.3448  -8.3029
    -8.1506  -8.0860  -8.0670  -8.0400   3.2918   3.4479   3.6721   3.7474
     4.4108   4.4626   4.5003   5.3640   5.4499   5.7828   5.7902   5.8356
     6.1958   6.2793   6.2961   6.6365   6.6817   6.7569   6.7791   6.8308
     6.8935   7.7448   7.8077   7.8435   9.5929   9.6145  10.4992  10.8235
    10.8429  11.0865  11.1308  11.9169  12.0267  12.1420  12.3942  12.7261
    13.1492  13.1760  13.2473

     occupation numbers
     1.0000   1.0000   1.0000   1.0000   1.0000   1.0000   1.0000   1.0000
     1.0000   1.0000   1.0000   1.0000   1.0000   1.0000   1.0000   1.0000
     1.0000   1.0000   1.0000   1.0000   1.0000   1.0000   1.0000   1.0000
     1.0000   1.0000   1.0000   1.0000   1.0000   1.0000   1.0000   1.0000
     1.0000   1.0000   1.0000   1.0000   1.0000   1.0000   1.0000   1.0000
     1.0000   1.0000   1.0000   1.0000   1.0000   1.0000   1.0000   1.0000
     1.0000   1.0000   1.0000   1.0000   1.0000   1.0000   1.0000   0.9646
     0.0354  -0.0000  -0.0000  -0.0000  -0.0000  -0.0000  -0.0000  -0.0000
    -0.0000  -0.0000  -0.0000

     the Fermi energy is    10.8332 ev

!    total energy              =    -981.56687620 Ry
     estimated scf accuracy    <       0.00000048 Ry
     smearing contrib. (-TS)   =       0.00000635 Ry
     internal energy E=F+TS    =    -981.56688255 Ry

     The total energy is F=E-TS. E is the sum of the following terms:
     one-electron contribution =    -408.10724294 Ry
     hartree contribution      =     253.98461527 Ry
     xc contribution           =    -154.50822915 Ry
     ewald contribution        =    -596.80693166 Ry
     one-center paw contrib.   =     -76.12909407 Ry
      -> PAW hartree energy AE =     239.42539304 Ry
      -> PAW hartree energy PS =    -238.56947093 Ry
      -> PAW xc energy AE      =    -137.66816015 Ry
      -> PAW xc energy PS      =      60.68314396 Ry
      -> total E_H with PAW    =     254.84053738 Ry
      -> total E_XC with PAW   =    -231.49324533 Ry

     convergence has been achieved in  46 iterations

     negative rho (up, down):  4.818E-03 0.000E+00

     Forces acting on atoms (cartesian axes, Ry/au):

     atom    1 type  1   force =     0.00000935    0.00000696   -0.00000427
     atom    2 type  1   force =     0.00000300   -0.00000006    0.00000083
     atom    3 type  1   force =     0.00000622    0.00000168   -0.00000024
     atom    4 type  1   force =     0.00000854    0.00000197    0.00000691
     atom    5 type  2   force =     0.00001309   -0.00000711   -0.00002674
     atom    6 type  2   force =    -0.00006045   -0.00002326   -0.00000852
     atom    7 type  3   force =    -0.00014727   -0.00005857   -0.00001127
     atom    8 type  3   force =    -0.00006160   -0.00006132   -0.00008740
     atom    9 type  4   force =     0.00305107   -0.00430524    0.00104787
     atom   10 type  4   force =    -0.01091681   -0.00605686   -0.01201534
     atom   11 type  4   force =     0.00435396   -0.00303287   -0.00102920
     atom   12 type  4   force =     0.00615833    0.01091629    0.01202300
     atom   13 type  4   force =    -0.00608214   -0.01089534   -0.01200725
     atom   14 type  4   force =    -0.00429731    0.00308526    0.00104701
     atom   15 type  4   force =     0.01091873    0.00606786    0.01204979
     atom   16 type  4   force =    -0.00295671    0.00436059   -0.00098519
     The non-local contrib.  to forces
     atom    1 type  1   force =    -0.00001460   -0.00000518    0.00001060
     atom    2 type  1   force =     0.00001130   -0.00000388   -0.00000275
     atom    3 type  1   force =     0.00000097    0.00000408   -0.00000116
     atom    4 type  1   force =    -0.00000990   -0.00000431    0.00000411
     atom    5 type  2   force =    -0.00000066    0.00001870    0.00000467
     atom    6 type  2   force =     0.00000044   -0.00000113    0.00000969
     atom    7 type  3   force =     0.00001623    0.00002118    0.00000992
     atom    8 type  3   force =     0.00008147    0.00002199    0.00003353
     atom    9 type  4   force =    -0.47450169   -0.00808598    0.34559991
     atom   10 type  4   force =    -0.00952413   -0.47906929   -0.34109008
     atom   11 type  4   force =     0.00923146    0.47434412   -0.34569571
     atom   12 type  4   force =     0.47920387    0.00866005    0.34094595
     atom   13 type  4   force =    -0.47906809   -0.00848792   -0.34095780
     atom   14 type  4   force =    -0.00912656   -0.47426342    0.34585836
     atom   15 type  4   force =     0.00953688    0.47907572    0.34127049
     atom   16 type  4   force =     0.47432485    0.00785756   -0.34593541
     The ionic contribution  to forces
     atom    1 type  1   force =     0.00026995    0.00031201   -0.00045747
     atom    2 type  1   force =    -0.00015177    0.00001275   -0.00006626
     atom    3 type  1   force =    -0.00015409   -0.00020688    0.00015412
     atom    4 type  1   force =     0.00037087    0.00018734    0.00029347
     atom    5 type  2   force =     0.00045882   -0.00092910   -0.00111318
     atom    6 type  2   force =     0.00051476    0.00051199    0.00124562
     atom    7 type  3   force =    -0.00078499   -0.00216442    0.00021484
     atom    8 type  3   force =    -0.00354418    0.00010265   -0.00297427
     atom    9 type  4   force =     9.68851447    0.97564428   -7.63211892
     atom   10 type  4   force =    -0.99983465    9.76247564    6.10136775
     atom   11 type  4   force =    -0.99568189   -9.68411399    7.63422726
     atom   12 type  4   force =    -9.76036619    1.02181774   -6.10300518
     atom   13 type  4   force =     9.75985049   -1.02368809    6.10372346
     atom   14 type  4   force =     0.99526002    9.68414294   -7.63612092
     atom   15 type  4   force =     1.00021117   -9.76260881   -6.10301727
     atom   16 type  4   force =    -9.68493281   -0.97149607    7.63764694
     The local contribution  to forces
     atom    1 type  1   force =    -0.00025523   -0.00028726    0.00043883
     atom    2 type  1   force =     0.00015228    0.00000357    0.00005840
     atom    3 type  1   force =     0.00015168    0.00021685   -0.00015640
     atom    4 type  1   force =    -0.00036034   -0.00019285   -0.00027188
     atom    5 type  2   force =    -0.00050367    0.00082929    0.00117645
     atom    6 type  2   force =    -0.00053988   -0.00043743   -0.00135353
     atom    7 type  3   force =     0.00065537    0.00197549   -0.00022734
     atom    8 type  3   force =     0.00349156   -0.00027563    0.00291045
     atom    9 type  4   force =    -9.21547032   -0.97189618    7.29138792
     atom   10 type  4   force =     0.99876777   -9.29440758   -5.77561448
     atom   11 type  4   force =     0.99129236    9.21155555   -7.29283024
     atom   12 type  4   force =     9.29199985   -1.01944111    5.77732663
     atom   13 type  4   force =    -9.29155106    1.02116238   -5.77803032
     atom   14 type  4   force =    -0.99092230   -9.21163022    7.29459875
     atom   15 type  4   force =    -0.99916358    9.29455778    5.77712127
     atom   16 type  4   force =     9.21217163    0.96802852   -7.29652354
     The core correction contribution to forces
     atom    1 type  1   force =     0.00000000    0.00000000    0.00000000
     atom    2 type  1   force =     0.00000000    0.00000000    0.00000000
     atom    3 type  1   force =     0.00000000    0.00000000    0.00000000
     atom    4 type  1   force =     0.00000000    0.00000000    0.00000000
     atom    5 type  2   force =    -0.00000193   -0.00000165   -0.00000002
     atom    6 type  2   force =    -0.00000017   -0.00000128   -0.00000270
     atom    7 type  3   force =    -0.00000763   -0.00000632   -0.00000213
     atom    8 type  3   force =    -0.00000535   -0.00000372   -0.00000931
     atom    9 type  4   force =     0.00454181    0.00042589   -0.00356046
     atom   10 type  4   force =    -0.00026220    0.00463329    0.00305597
     atom   11 type  4   force =    -0.00043833   -0.00454010    0.00356060
     atom   12 type  4   force =    -0.00463385    0.00026983   -0.00305322
     atom   13 type  4   force =     0.00463213   -0.00027153    0.00305330
     atom   14 type  4   force =     0.00043694    0.00453890   -0.00356227
     atom   15 type  4   force =     0.00026206   -0.00463330   -0.00305803
     atom   16 type  4   force =    -0.00454072   -0.00042437    0.00356301
     The Hubbard contrib.    to forces
     atom    1 type  1   force =     0.00000000    0.00000000    0.00000000
     atom    2 type  1   force =     0.00000000    0.00000000    0.00000000
     atom    3 type  1   force =     0.00000000    0.00000000    0.00000000
     atom    4 type  1   force =     0.00000000    0.00000000    0.00000000
     atom    5 type  2   force =     0.00000000    0.00000000    0.00000000
     atom    6 type  2   force =     0.00000000    0.00000000    0.00000000
     atom    7 type  3   force =     0.00000000    0.00000000    0.00000000
     atom    8 type  3   force =     0.00000000    0.00000000    0.00000000
     atom    9 type  4   force =     0.00000000    0.00000000    0.00000000
     atom   10 type  4   force =     0.00000000    0.00000000    0.00000000
     atom   11 type  4   force =     0.00000000    0.00000000    0.00000000
     atom   12 type  4   force =     0.00000000    0.00000000    0.00000000
     atom   13 type  4   force =     0.00000000    0.00000000    0.00000000
     atom   14 type  4   force =     0.00000000    0.00000000    0.00000000
     atom   15 type  4   force =     0.00000000    0.00000000    0.00000000
     atom   16 type  4   force =     0.00000000    0.00000000    0.00000000
     The SCF correction term to forces
     atom    1 type  1   force =     0.00000798   -0.00001281    0.00000509
     atom    2 type  1   force =    -0.00001005   -0.00001270    0.00001276
     atom    3 type  1   force =     0.00000641   -0.00001257    0.00000451
     atom    4 type  1   force =     0.00000665    0.00001159   -0.00001749
     atom    5 type  2   force =     0.00005928    0.00007546   -0.00009335
     atom    6 type  2   force =    -0.00003685   -0.00009561    0.00009371
     atom    7 type  3   force =    -0.00002749    0.00011531   -0.00000524
     atom    8 type  3   force =    -0.00008634    0.00009320   -0.00004649
     atom    9 type  4   force =    -0.00003445   -0.00039344   -0.00025928
     atom   10 type  4   force =    -0.00006485    0.00031088    0.00026679
     atom   11 type  4   force =    -0.00005089   -0.00027865   -0.00028980
     atom   12 type  4   force =    -0.00004660   -0.00039042   -0.00018988
     atom   13 type  4   force =     0.00005315    0.00038963    0.00020543
     atom   14 type  4   force =     0.00005334    0.00029685    0.00027439
     atom   15 type  4   force =     0.00007096   -0.00032373   -0.00026535
     atom   16 type  4   force =     0.00001910    0.00039475    0.00026512

     Total force =     0.036318     Total SCF correction =     0.001261

     Computing stress (Cartesian axis) and pressure

     negative rho (up, down):  4.818E-03 0.000E+00
          total   stress  (Ry/bohr**3)                   (kbar)     P=     -554.28
  -0.00373081  -0.00011443  -0.00027001         -548.82      -16.83      -39.72
  -0.00011443  -0.00372905  -0.00026993          -16.83     -548.56      -39.71
  -0.00027001  -0.00026993  -0.00384387          -39.72      -39.71     -565.45

     kinetic stress (kbar)  27331.52   -114.45      0.33
                             -114.45  27332.41      0.11
                                0.33      0.11  27216.94

     local   stress (kbar)  -9959.03    103.28  -2878.22
                              103.28  -9957.25  -2875.29
                            -2878.22  -2875.29  -9719.76

     nonloc. stress (kbar)   5908.83    -44.47     55.87
                              -44.47   5909.17     55.70
                               55.87     55.70   5862.33

     hartree stress (kbar)  12471.85     -7.73   1321.53
                               -7.73  12470.68   1319.79
                             1321.53   1319.79  12406.18

     exc-cor stress (kbar)  -4729.43     -1.25      0.53
                               -1.25  -4729.42      0.54
                                0.53      0.54  -4730.76

     corecor stress (kbar)  -2329.31      1.87     -2.05
                                1.87  -2329.32     -2.04
                               -2.05     -2.04  -2327.37

     ewald   stress (kbar) -29243.26     45.92   1462.28
                               45.92 -29244.84   1461.49
                             1462.28   1461.49 -29273.01

     hubbard stress (kbar)      0.00      0.00      0.00
                                0.00      0.00      0.00
                                0.00      0.00      0.00

     DFT-D   stress (kbar)      0.00      0.00      0.00
                                0.00      0.00      0.00
                                0.00      0.00      0.00

     XDM     stress (kbar)      0.00      0.00      0.00
                                0.00      0.00      0.00
                                0.00      0.00      0.00

     dft-nl  stress (kbar)      0.00      0.00      0.00
                                0.00      0.00      0.00
                                0.00      0.00      0.00

     TS-vdW  stress (kbar)      0.00      0.00      0.00
                                0.00      0.00      0.00
                                0.00      0.00      0.00

[...]

                                0.00      0.00      0.00

     Writing all to output data dir new_calculations/myprefix.save/

     General routines

     Parallel routines

     PAW routines

   This run was terminated on:   5: 3:32  21May2023

   JOB DONE.