     Program PWSCF v.7.0 starts on 20May2023 at 21:14:58

     Reading input from espresso_23131.pwi
Warning: card &CELL ignored
Warning: card / ignored

     Current dimensions of program PWSCF are:
     Max number of different atomic species (ntypx) = 10
     Max number of k-points (npk) =  40000
     Max angular momentum in pseudopotentials (lmaxx) =  4

     gamma-point specific algorithms are used
     Message from routine setup:
     using ibrav=0 with symmetry is DISCOURAGED, use correct ibrav instead

     Subspace diagonalization in iterative solution of the eigenvalue problem:
     a serial algorithm will be used

     Using Slab Decomposition

     bravais-lattice index     =            0
     lattice parameter (alat)  =      16.1584  a.u.
     unit-cell volume          =    2983.1804 (a.u.)^3
     number of atoms/cell      =           20
     number of atomic types    =            3
     number of electrons       =       260.00
     number of Kohn-Sham states=          156
     kinetic-energy cutoff     =      30.0000  Ry
     charge density cutoff     =     240.0000  Ry
     scf convergence threshold =      1.0E-06
     mixing beta               =       0.7000
     number of iterations used =            8  plain     mixing
     Exchange-correlation= SLA  PW   PBE  PBE
                           (   1   4   3   4   0   0   0)

     celldm(1)=  16.158393  celldm(2)=   0.000000  celldm(3)=   0.000000
     celldm(4)=   0.000000  celldm(5)=   0.000000  celldm(6)=   0.000000

     crystal axes: (cart. coord. in units of alat)
               a(1) = (   1.000000   0.000000   0.000000 )
               a(2) = (   0.500000   0.866025   0.000000 )
               a(3) = (   0.500000   0.288675   0.816497 )

     reciprocal axes: (cart. coord. in units 2 pi/alat)
               b(1) = (  1.000000 -0.577350 -0.408248 )
               b(2) = (  0.000000  1.154701 -0.408248 )
               b(3) = (  0.000000  0.000000  1.224745 )

     PseudoPot. # 1 for Mn read from file:
     /home/pragov/projects/rrg-bengioy-ad/pragov/crystal_structure_design/SSSP/mn_pbe_v1.5.uspp.F.UPF
     MD5 check sum: 82ef2b46521d7a7d9e736dc3972e4928
     Pseudo is Ultrasoft + core correction, Zval = 15.0
     Generated by new atomic code, or converted to UPF format
     Using radial grid of  859 points,  6 beta functions with:
                l(1) =   0
                l(2) =   0
                l(3) =   1
                l(4) =   1
                l(5) =   2
                l(6) =   2
     Q(r) pseudized with  8 coefficients,  rinner =    0.950   0.950   0.950
                                                       0.950   0.950

     PseudoPot. # 2 for Cu read from file:
     /home/pragov/projects/rrg-bengioy-ad/pragov/crystal_structure_design/SSSP/Cu_pbe_v1.2.uspp.F.UPF
     MD5 check sum: 6e991ff952a84172a2a52a1c1e996048
     Pseudo is Ultrasoft + core correction, Zval = 19.0
     Generated by new atomic code, or converted to UPF format
     Using radial grid of  867 points,  6 beta functions with:
                l(1) =   0
                l(2) =   0
                l(3) =   1
                l(4) =   1
                l(5) =   2
                l(6) =   2
     Q(r) pseudized with  8 coefficients,  rinner =    1.150   1.150   1.150
                                                       1.150   1.150

     PseudoPot. # 3 for Te read from file:
     /home/pragov/projects/rrg-bengioy-ad/pragov/crystal_structure_design/SSSP/Te_pbe_v1.uspp.F.UPF
     MD5 check sum: c319670d6894cc26e93307826a071b75
     Pseudo is Ultrasoft + core correction, Zval =  6.0
     Generated by new atomic code, or converted to UPF format
     Using radial grid of  891 points,  5 beta functions with:
                l(1) =   0
                l(2) =   0
                l(3) =   1
                l(4) =   1
                l(5) =   2
     Q(r) pseudized with  6 coefficients,  rinner =    1.800   1.800   1.800
                                                       1.800   1.800

     atomic species   valence    mass     pseudopotential
        Mn            15.00    54.93804     Mn( 1.00)
        Cu            19.00    63.54600     Cu( 1.00)
        Te             6.00   127.60000     Te( 1.00)

      6 Sym. Ops. (no inversion) found

                                    s                        frac. trans.

      isym =  1     identity

 cryst.   s( 1) = (     1          0          0      )
                  (     0          1          0      )
                  (     0          0          1      )

 cart.    s( 1) = (  1.0000000  0.0000000  0.0000000 )
                  (  0.0000000  1.0000000  0.0000000 )
                  (  0.0000000  0.0000000  1.0000000 )

      isym =  2     120 deg rotation - cryst. axis [0,0,1]

[...]

      isym =  3     120 deg rotation - cryst. axis [0,0,-1]

[...]

      isym =  4     inv. 180 deg rotation - cart. axis [1,0,0]

[...]

      isym =  5     inv. 180 deg rotation - cryst. axis [0,1,0]

[...]

      isym =  6     inv. 180 deg rotation - cryst. axis [1,1,0]

 cryst.   s( 6) = (     1         -1          0      )
                  (     0         -1          0      )
                  (     0         -1          1      )

 cart.    s( 6) = (  0.5000000 -0.8660254 -0.0000000 )
                  ( -0.8660254 -0.5000000 -0.0000000 )
                  (  0.0000000  0.0000000  1.0000000 )

   Cartesian axes

     site n.     atom                  positions (alat units)
         1           Mn  tau(   1) = (   0.7483690   0.1452798   0.1027283  )
         2           Mn  tau(   2) = (   0.5000005   0.5754667   0.1027283  )
         3           Mn  tau(   3) = (   0.5000005   0.2886754   0.5083124  )
         4           Mn  tau(   4) = (   0.2516320   0.1452798   0.1027283  )
         5           Cu  tau(   5) = (   0.7516370   0.4339578   0.6110358  )
         6           Cu  tau(   6) = (   1.2483630   0.7207427   0.2054608  )
         7           Cu  tau(   7) = (   0.7516370   0.7207427   0.2054608  )
         8           Cu  tau(   8) = (   1.2483630   0.4339578   0.6110358  )
         9           Cu  tau(   9) = (   1.0000000   0.2905654   0.2054608  )
        10           Cu  tau(  10) = (   1.0000000   0.8641352   0.6110358  )
        11           Cu  tau(  11) = (   1.5000000   0.8660254   0.6123724  )
        12           Cu  tau(  12) = (   1.0000000   0.5773503   0.4082483  )
        13           Te  tau(  13) = (   1.2548920   1.0075386   0.7124374  )
        14           Te  tau(  14) = (   1.5000000   0.5829991   0.7124374  )
        15           Te  tau(  15) = (   1.5000000   0.8660254   0.3121777  )
        16           Te  tau(  16) = (   1.7451080   1.0075386   0.7124374  )
        17           Te  tau(  17) = (   1.2599850   0.4272484   0.3021103  )
        18           Te  tau(  18) = (   1.0000005   0.8775548   0.3021103  )
        19           Te  tau(  19) = (   1.0000005   0.5773506   0.7266632  )
        20           Te  tau(  20) = (   0.7400160   0.4272484   0.3021103  )

   Crystallographic axes

     site n.     atom                  positions (cryst. coord.)
         1           Mn  tau(   1) = (  0.6225530  0.1258160  0.1258160  )
         2           Mn  tau(   2) = (  0.1258160  0.6225530  0.1258160  )
         3           Mn  tau(   3) = (  0.1258160  0.1258160  0.6225530  )
         4           Mn  tau(   4) = (  0.1258160  0.1258160  0.1258160  )
         5           Cu  tau(   5) = (  0.2516370  0.2516370  0.7483630  )
         6           Cu  tau(   6) = (  0.7483630  0.7483630  0.2516370  )
         7           Cu  tau(   7) = (  0.2516370  0.7483630  0.2516370  )
         8           Cu  tau(   8) = (  0.7483630  0.2516370  0.7483630  )
         9           Cu  tau(   9) = (  0.7483630  0.2516370  0.2516370  )
        10           Cu  tau(  10) = (  0.2516370  0.7483630  0.7483630  )
        11           Cu  tau(  11) = (  0.7500000  0.7500000  0.7500000  )
        12           Cu  tau(  12) = (  0.5000000  0.5000000  0.5000000  )
        13           Te  tau(  13) = (  0.3823380  0.8725540  0.8725540  )
        14           Te  tau(  14) = (  0.8725540  0.3823380  0.8725540  )
        15           Te  tau(  15) = (  0.8725540  0.8725540  0.3823380  )
        16           Te  tau(  16) = (  0.8725540  0.8725540  0.8725540  )
        17           Te  tau(  17) = (  0.8899770  0.3700080  0.3700080  )
        18           Te  tau(  18) = (  0.3700080  0.8899770  0.3700080  )
        19           Te  tau(  19) = (  0.3700080  0.3700080  0.8899770  )
        20           Te  tau(  20) = (  0.3700080  0.3700080  0.3700080  )

     number of k points=     1  Methfessel-Paxton smearing, width (Ry)=  0.0010
                       cart. coord. in units 2pi/alat
        k(    1) = (   0.0000000   0.0000000   0.0000000), wk =   2.0000000

                       cryst. coord.
        k(    1) = (   0.0000000   0.0000000   0.0000000), wk =   2.0000000

     Check: negative core charge=   -0.000007

     Initial potential from superposition of free atoms

     starting charge     249.9979, renormalised to     260.0000
     Starting wfcs are  188 randomized atomic wfcs

     Self-consistent Calculation

     iteration #  1     ecut=    30.00 Ry     beta= 0.70
     Davidson diagonalization with overlap

     ethr =  1.00E-02,  avg # of iterations =  3.0

     total energy              =   -4236.09578256 Ry
     estimated scf accuracy    <      65.39592086 Ry

[...]

     total energy              =   -4285.43371178 Ry
     estimated scf accuracy    <       0.00002525 Ry

     iteration # 67     ecut=    30.00 Ry     beta= 0.70
     Davidson diagonalization with overlap

     ethr =  7.94E-10,  avg # of iterations =  1.0

     End of self-consistent calculation

          k = 0.0000 0.0000 0.0000 (  4182 PWs)   bands (ev):

  -103.8887-103.8381-103.8379-103.8378-103.8366-103.8363-103.8362-103.6838
   -69.3215 -69.3214 -69.3213 -69.3212 -61.2757 -61.2757 -61.2757 -61.2427
   -61.2426 -61.2424 -61.2409 -61.2407 -61.2407 -61.2406 -61.2359 -61.2357
   -61.2341 -61.2339 -61.2338 -61.1781 -61.1779 -61.1778 -61.1762 -61.1761
   -61.1760 -61.0761 -61.0761 -61.0761 -38.1426 -38.1426 -38.1425 -38.1395
   -38.1395 -38.1383 -38.1382 -38.1382 -38.0025 -37.9972 -37.9971 -37.9971
    -3.5713  -2.5808  -2.5792  -2.5792  -2.5791  -2.2883  -2.2883  -2.2883
     3.0392   3.0393   3.0393   3.0818   3.2841   3.2841   3.3121   5.0534
     5.0534   5.0535   5.1167   5.1168   5.1320   5.1321   5.1321   5.1453
     5.1453   5.1454   5.4385   5.4385   5.4386   5.4415   5.4416   5.4416
     5.6846   5.6847   5.9140   5.9141   5.9142   6.0029   6.0029   6.0029
     6.0149   6.0150   6.0196   6.0197   6.0197   6.0365   6.1469   6.1470
     6.1470   6.1519   6.1898   6.2056   6.2056   6.3630   6.3631   6.5280
     6.5281   6.5281   6.7206   6.7206   6.7206   7.4639   7.4639   7.5385
     7.5385   7.5385   7.6536   7.6537   7.6537   8.6950   8.6950   8.7284
     8.7303   8.7303   8.7303   9.1656   9.1656   9.1657   9.2866   9.2866
     9.2866   9.4110   9.4110   9.4110  10.0364  10.1732  10.1732  10.1751
    10.1751  10.1752  10.2406  10.2406  10.2407  10.5435  10.5435  10.5435
    10.5849  10.7656  10.7656  10.7656  12.0139  12.3384  12.3384  13.2730
    13.2730  13.2731  13.4216  13.4216

     occupation numbers
     1.0000   1.0000   1.0000   1.0000   1.0000   1.0000   1.0000   1.0000
     1.0000   1.0000   1.0000   1.0000   1.0000   1.0000   1.0000   1.0000
     1.0000   1.0000   1.0000   1.0000   1.0000   1.0000   1.0000   1.0000
     1.0000   1.0000   1.0000   1.0000   1.0000   1.0000   1.0000   1.0000
     1.0000   1.0000   1.0000   1.0000   1.0000   1.0000   1.0000   1.0000
     1.0000   1.0000   1.0000   1.0000   1.0000   1.0000   1.0000   1.0000
     1.0000   1.0000   1.0000   1.0000   1.0000   1.0000   1.0000   1.0000
     1.0000   1.0000   1.0000   1.0000   1.0000   1.0000   1.0000   1.0000
     1.0000   1.0000   1.0000   1.0000   1.0000   1.0000   1.0000   1.0000
     1.0000   1.0000   1.0000   1.0000   1.0000   1.0000   1.0000   1.0000
     1.0000   1.0000   1.0000   1.0000   1.0000   1.0000   1.0000   1.0000
     1.0000   1.0000   1.0000   1.0000   1.0000   1.0000   1.0000   1.0000
     1.0000   1.0000   1.0000   1.0000   1.0000   1.0000   1.0000   1.0000
     1.0000   1.0000   1.0000   1.0000   1.0000   1.0000   1.0000   1.0000
     1.0000   1.0000   1.0000   1.0000   1.0000   1.0000   1.0000   1.0000
     1.0000   1.0000   1.0000   1.0000   1.0000   1.0000   1.0000   1.0000
     1.0000   0.3343   0.3330   0.3327  -0.0000  -0.0000  -0.0000  -0.0000
    -0.0000  -0.0000  -0.0000  -0.0000  -0.0000  -0.0000  -0.0000  -0.0000
    -0.0000  -0.0000  -0.0000  -0.0000  -0.0000  -0.0000  -0.0000  -0.0000
    -0.0000  -0.0000  -0.0000  -0.0000

     the Fermi energy is     9.4083 ev

!    total energy              =   -4285.43371237 Ry
     estimated scf accuracy    <       0.00000038 Ry
     smearing contrib. (-TS)   =      -0.00074672 Ry
     internal energy E=F+TS    =   -4285.43296565 Ry

     The total energy is F=E-TS. E is the sum of the following terms:
     one-electron contribution =   -3860.75627296 Ry
     hartree contribution      =    2024.53517181 Ry
     xc contribution           =    -531.83466262 Ry
     ewald contribution        =   -1917.37720188 Ry

     convergence has been achieved in  67 iterations

     Forces acting on atoms (cartesian axes, Ry/au):

     atom    1 type  1   force =     0.01112237   -0.00642150   -0.00456030
     atom    2 type  1   force =     0.00000000    0.01284301   -0.00456030
     atom    3 type  1   force =     0.00000000    0.00000000    0.01360226
     atom    4 type  1   force =    -0.01112237   -0.00642150   -0.00456030
     atom    5 type  2   force =    -0.00502760   -0.00290269    0.00452107
     atom    6 type  2   force =     0.00534602    0.00308652   -0.00442911
     atom    7 type  2   force =    -0.00534602    0.00308652   -0.00442911
     atom    8 type  2   force =     0.00502760   -0.00290269    0.00452107
     atom    9 type  2   force =     0.00000000   -0.00617305   -0.00442911
     atom   10 type  2   force =     0.00000000    0.00580537    0.00452107
     atom   11 type  2   force =     0.00000000    0.00000000    0.00003390
     atom   12 type  2   force =    -0.00000000   -0.00000000   -0.00007049
     atom   13 type  3   force =    -0.04893043    0.02825000    0.01993898
     atom   14 type  3   force =     0.00000000   -0.05650000    0.01993898
     atom   15 type  3   force =     0.00000000    0.00000000   -0.05992596
     atom   16 type  3   force =     0.04893043    0.02825000    0.01993898
     atom   17 type  3   force =     0.07146281   -0.04125907   -0.02917849
     atom   18 type  3   force =     0.00000000    0.08251815   -0.02917849
     atom   19 type  3   force =    -0.00000000   -0.00000000    0.08748383
     atom   20 type  3   force =    -0.07146281   -0.04125907   -0.02917849
     The non-local contrib.  to forces
     atom    1 type  1   force =    -0.03128000    0.01805952    0.01276349
     atom    2 type  1   force =     0.00000000   -0.03611904    0.01276349
     atom    3 type  1   force =    -0.00000000   -0.00000000   -0.03828213
     atom    4 type  1   force =     0.03128000    0.01805952    0.01276349
     atom    5 type  2   force =     0.27449594    0.15848030   -0.22364325
     atom    6 type  2   force =    -0.27414027   -0.15827496    0.22379410
     atom    7 type  2   force =     0.27414027   -0.15827496    0.22379410
     atom    8 type  2   force =    -0.27449594    0.15848030   -0.22364325
     atom    9 type  2   force =     0.00000000    0.31654992    0.22379410
     atom   10 type  2   force =     0.00000000   -0.31696061   -0.22364325
     atom   11 type  2   force =     0.00000000    0.00000000    0.00005616
     atom   12 type  2   force =     0.00000000    0.00000000   -0.00005938
     atom   13 type  3   force =     0.17534801   -0.10123722   -0.07160104
     atom   14 type  3   force =     0.00000000    0.20247444   -0.07160104
     atom   15 type  3   force =     0.00000000    0.00000000    0.21477640
     atom   16 type  3   force =    -0.17534801   -0.10123722   -0.07160104
     atom   17 type  3   force =     0.11564512   -0.06676774   -0.04720460
     atom   18 type  3   force =     0.00000000    0.13353548   -0.04720460
     atom   19 type  3   force =     0.00000000    0.00000000    0.14162780
     atom   20 type  3   force =    -0.11564512   -0.06676774   -0.04720460
     The ionic contribution  to forces
     atom    1 type  1   force =   -12.80339350    7.39192353    5.22687925
     atom    2 type  1   force =    -0.00010319  -14.78402579    5.22687925
     atom    3 type  1   force =    -0.00010319   -0.00005958  -15.68080627
     atom    4 type  1   force =    12.80336030    7.39202351    5.22694995
     atom    5 type  2   force =     3.84111172    2.21766689   -3.13605874
     atom    6 type  2   force =    -3.84104164   -2.21762643    3.13609595
     atom    7 type  2   force =     3.84111172   -2.21748224    3.13618930
     atom    8 type  2   force =    -3.84104164    2.21753081   -3.13616356
     atom    9 type  2   force =     0.00015991    4.43524145    3.13618930
     atom   10 type  2   force =    -0.00008280   -4.43520505   -3.13616356
     atom   11 type  2   force =     0.00003621    0.00002091    0.00001478
     atom   12 type  2   force =     0.00003621    0.00002091    0.00001478
     atom   13 type  3   force =     4.39996298   -2.54030357   -1.79626588
     atom   14 type  3   force =     0.00001406    5.08063151   -1.79626588
     atom   15 type  3   force =     0.00001406    0.00000812    5.38882061
     atom   16 type  3   force =    -4.39994537   -2.54030964   -1.79627018
     atom   17 type  3   force =     5.79113597   -3.34354428   -2.36424284
     atom   18 type  3   force =    -0.00002630    6.68704301   -2.36424284
     atom   19 type  3   force =    -0.00002630   -0.00001519    7.09268556
     atom   20 type  3   force =    -5.79117921   -3.34353887   -2.36423901
     The local contribution  to forces
     atom    1 type  1   force =    12.84318191   -7.41493106   -5.24310866
     atom    2 type  1   force =     0.00019805   14.83007671   -5.24316881
     atom    3 type  1   force =     0.00011363   -0.00002294   15.72958281
     atom    4 type  1   force =   -12.84314890   -7.41512482   -5.24315341
     atom    5 type  2   force =    -4.12068833   -2.37922170    3.36340659
     atom    6 type  2   force =     4.12010437    2.37873771   -3.36392988
     atom    7 type  2   force =    -4.12016925    2.37848811   -3.36396739
     atom    8 type  2   force =     4.12061557   -2.37909558    3.36364828
     atom    9 type  2   force =    -0.00024347   -4.75737636   -3.36377342
     atom   10 type  2   force =     0.00008670    4.75822286    3.36370629
     atom   11 type  2   force =    -0.00003137    0.00003676   -0.00011785
     atom   12 type  2   force =    -0.00012317    0.00013820    0.00008191
     atom   13 type  3   force =    -4.64664653    2.68271307    1.89681567
     atom   14 type  3   force =    -0.00002480   -5.36546178    1.89679442
     atom   15 type  3   force =    -0.00000032   -0.00001692   -5.69075425
     atom   16 type  3   force =     4.64663218    2.68273631    1.89680145
     atom   17 type  3   force =    -5.85166416    3.37852091    2.38917203
     atom   18 type  3   force =     0.00000902   -6.75700468    2.38917316
     atom   19 type  3   force =     0.00004347    0.00002950   -7.16705598
     atom   20 type  3   force =     5.85171009    3.37853740    2.38914452
     The core correction contribution to forces
     atom    1 type  1   force =     0.00250732   -0.00144507   -0.00102178
     atom    2 type  1   force =    -0.00000032    0.00288798   -0.00101990
     atom    3 type  1   force =     0.00000023    0.00000100    0.00306380
     atom    4 type  1   force =    -0.00250673   -0.00144451   -0.00102223
     atom    5 type  2   force =    -0.00033526   -0.00019365    0.00027373
     atom    6 type  2   force =     0.00033523    0.00019357   -0.00027376
     atom    7 type  2   force =    -0.00033525    0.00019357   -0.00027375
     atom    8 type  2   force =     0.00033527   -0.00019362    0.00027374
     atom    9 type  2   force =    -0.00000002   -0.00038718   -0.00027373
     atom   10 type  2   force =     0.00000003    0.00038717    0.00027370
     atom   11 type  2   force =    -0.00000001   -0.00000002   -0.00000002
     atom   12 type  2   force =    -0.00000002    0.00000004    0.00000003
     atom   13 type  3   force =     0.02236341   -0.01291495   -0.00912825
     atom   14 type  3   force =    -0.00000043    0.02582815   -0.00913476
     atom   15 type  3   force =     0.00000180   -0.00000508    0.02739335
     atom   16 type  3   force =    -0.02236385   -0.01291457   -0.00913092
     atom   17 type  3   force =     0.01647577   -0.00951283   -0.00672639
     atom   18 type  3   force =    -0.00000088    0.01902358   -0.00672656
     atom   19 type  3   force =     0.00000030    0.00000004    0.02017862
     atom   20 type  3   force =    -0.01647519   -0.00951158   -0.00672700
     The Hubbard contrib.    to forces
     atom    1 type  1   force =     0.00000000    0.00000000    0.00000000
     atom    2 type  1   force =     0.00000000    0.00000000    0.00000000
     atom    3 type  1   force =     0.00000000    0.00000000    0.00000000
     atom    4 type  1   force =     0.00000000    0.00000000    0.00000000
     atom    5 type  2   force =     0.00000000    0.00000000    0.00000000
     atom    6 type  2   force =     0.00000000    0.00000000    0.00000000
     atom    7 type  2   force =     0.00000000    0.00000000    0.00000000
     atom    8 type  2   force =     0.00000000    0.00000000    0.00000000
     atom    9 type  2   force =     0.00000000    0.00000000    0.00000000
     atom   10 type  2   force =     0.00000000    0.00000000    0.00000000
     atom   11 type  2   force =     0.00000000    0.00000000    0.00000000
     atom   12 type  2   force =     0.00000000    0.00000000    0.00000000
     atom   13 type  3   force =     0.00000000    0.00000000    0.00000000
     atom   14 type  3   force =     0.00000000    0.00000000    0.00000000
     atom   15 type  3   force =     0.00000000    0.00000000    0.00000000
     atom   16 type  3   force =     0.00000000    0.00000000    0.00000000
     atom   17 type  3   force =     0.00000000    0.00000000    0.00000000
     atom   18 type  3   force =     0.00000000    0.00000000    0.00000000
     atom   19 type  3   force =     0.00000000    0.00000000    0.00000000
     atom   20 type  3   force =     0.00000000    0.00000000    0.00000000
     The SCF correction term to forces
     atom    1 type  1   force =     0.00014869   -0.00002397   -0.00005122
     atom    2 type  1   force =    -0.00011711   -0.00002309    0.00002360
     atom    3 type  1   force =    -0.00000409    0.00009840    0.00006474
     atom    4 type  1   force =    -0.00014204    0.00010133   -0.00009534
     atom    5 type  2   force =     0.00038717    0.00036807    0.00055484
     atom    6 type  2   force =     0.00010081    0.00004760   -0.00009690
     atom    7 type  2   force =    -0.00010743    0.00014267   -0.00015112
     atom    8 type  2   force =    -0.00038780    0.00037833    0.00041999
     atom    9 type  2   force =     0.00007591   -0.00019220   -0.00034217
     atom   10 type  2   force =    -0.00000695   -0.00063540    0.00038372
     atom   11 type  2   force =    -0.00000611   -0.00006662    0.00010151
     atom   12 type  2   force =     0.00009673   -0.00016326   -0.00008715
     atom   13 type  3   force =     0.00005979    0.00000381    0.00011019
     atom   14 type  3   force =     0.00001622    0.00001056    0.00019473
     atom   15 type  3   force =    -0.00003537    0.00005168   -0.00014138
     atom   16 type  3   force =    -0.00005722   -0.00001691    0.00016154
     atom   17 type  3   force =    -0.00013175    0.00005134   -0.00015998
     atom   18 type  3   force =     0.00003035   -0.00008072   -0.00015636
     atom   19 type  3   force =    -0.00001950   -0.00001685    0.00006852
     atom   20 type  3   force =     0.00012481    0.00001221   -0.00012836

     Total force =     0.214648     Total SCF correction =     0.001492

     Computing stress (Cartesian axis) and pressure

          total   stress  (Ry/bohr**3)                   (kbar)     P=     -317.56
  -0.00215877   0.00000000   0.00000000         -317.57        0.00        0.00
   0.00000000  -0.00215877  -0.00000000            0.00     -317.57       -0.00
   0.00000000  -0.00000000  -0.00215871            0.00       -0.00     -317.56

     kinetic stress (kbar)  17831.67     -0.00     -0.00
                                0.00  17831.67      0.00
                                0.00      0.00  17831.71

     local   stress (kbar) -20589.24     -0.09     -0.06
                               -0.09 -20589.56      0.14
                               -0.06      0.14 -20589.39

     nonloc. stress (kbar)   7979.41     -0.00     -0.00
                               -0.00   7979.41      0.00
                               -0.00      0.00   7979.43

     hartree stress (kbar)  33277.57      0.04      0.04
                                0.04  33277.70     -0.06
                                0.04     -0.06  33277.59

     exc-cor stress (kbar)  -2129.22      0.00      0.00
                                0.00  -2129.22     -0.00
                                0.00     -0.00  -2129.22

     corecor stress (kbar)  -5171.41      0.00     -0.00
                                0.00  -5171.42      0.00
                               -0.00      0.00  -5171.41

     ewald   stress (kbar) -31516.22      0.03      0.02
                                0.03 -31516.25      0.01
                                0.02      0.01 -31516.26

     hubbard stress (kbar)      0.00      0.00      0.00
                                0.00      0.00      0.00
                                0.00      0.00      0.00

     DFT-D   stress (kbar)      0.00      0.00      0.00
                                0.00      0.00      0.00
                                0.00      0.00      0.00

     XDM     stress (kbar)      0.00      0.00      0.00
                                0.00      0.00      0.00
                                0.00      0.00      0.00

     dft-nl  stress (kbar)      0.00      0.00      0.00
                                0.00      0.00      0.00
                                0.00      0.00      0.00

     TS-vdW  stress (kbar)      0.00      0.00      0.00
                                0.00      0.00      0.00
                                0.00      0.00      0.00

[...]

                                0.00      0.00      0.00

     Writing all to output data dir new_calculations/myprefix.save/

     General routines

     Parallel routines

   This run was terminated on:  21:20: 4  20May2023

   JOB DONE.