     Program PWSCF v.7.0 starts on 21May2023 at  0:15:46

     Reading input from espresso_23227.pwi
Warning: card &CELL ignored
Warning: card / ignored

     Current dimensions of program PWSCF are:
     Max number of different atomic species (ntypx) = 10
     Max number of k-points (npk) =  40000
     Max angular momentum in pseudopotentials (lmaxx) =  4
     file Cd.pbe-dn-rrkjus_psl.0.3.1.UPF: wavefunction(s)  4D renormalized
     file O.pbe-n-kjpaw_psl.0.1.UPF: wavefunction(s)  2P renormalized

     gamma-point specific algorithms are used
     Message from routine setup:
     using ibrav=0 with symmetry is DISCOURAGED, use correct ibrav instead

     Subspace diagonalization in iterative solution of the eigenvalue problem:
     a serial algorithm will be used

     Using Slab Decomposition

     bravais-lattice index     =            0
     lattice parameter (alat)  =      11.7994  a.u.
     unit-cell volume          =    1062.5276 (a.u.)^3
     number of atoms/cell      =           14
     number of atomic types    =            3
     number of electrons       =       148.00
     number of Kohn-Sham states=           89
     kinetic-energy cutoff     =      30.0000  Ry
     charge density cutoff     =     240.0000  Ry
     scf convergence threshold =      1.0E-06
     mixing beta               =       0.7000
     number of iterations used =            8  plain     mixing
     Exchange-correlation= SLA  PW   PBX  PBC
                           (   1   4   3   4   0   0   0)

     celldm(1)=  11.799440  celldm(2)=   0.000000  celldm(3)=   0.000000
     celldm(4)=   0.000000  celldm(5)=   0.000000  celldm(6)=   0.000000

     crystal axes: (cart. coord. in units of alat)
               a(1) = (   1.000000   0.000000   0.000000 )
               a(2) = (   0.145307   0.989387   0.000000 )
               a(3) = (  -0.572654  -0.494693   0.653717 )

     reciprocal axes: (cart. coord. in units 2 pi/alat)
               b(1) = (  1.000000 -0.146866  0.764857 )
               b(2) = (  0.000000  1.010727  0.764857 )
               b(3) = (  0.000000  0.000000  1.529713 )

     PseudoPot. # 1 for Cd read from file:
     /home/pragov/projects/rrg-bengioy-ad/pragov/crystal_structure_design/SSSP/Cd.pbe-dn-rrkjus_psl.0.3.1.UPF
     MD5 check sum: 558e9f355611b531a870a69ef6ace9e2
     Pseudo is Ultrasoft + core correction, Zval = 12.0
     Generated using "atomic" code by A. Dal Corso  v.5.0.99 svn rev. 10869
     Using radial grid of 1239 points,  6 beta functions with:
                l(1) =   0
                l(2) =   0
                l(3) =   1
                l(4) =   1
                l(5) =   2
                l(6) =   2
     Q(r) pseudized with 0 coefficients

     PseudoPot. # 2 for Cu read from file:
     /home/pragov/projects/rrg-bengioy-ad/pragov/crystal_structure_design/SSSP/Cu_pbe_v1.2.uspp.F.UPF
     MD5 check sum: 6e991ff952a84172a2a52a1c1e996048
     Pseudo is Ultrasoft + core correction, Zval = 19.0
     Generated by new atomic code, or converted to UPF format
     Using radial grid of  867 points,  6 beta functions with:
                l(1) =   0
                l(2) =   0
                l(3) =   1
                l(4) =   1
                l(5) =   2
                l(6) =   2
     Q(r) pseudized with  8 coefficients,  rinner =    1.150   1.150   1.150
                                                       1.150   1.150

     PseudoPot. # 3 for O  read from file:
     /home/pragov/projects/rrg-bengioy-ad/pragov/crystal_structure_design/SSSP/O.pbe-n-kjpaw_psl.0.1.UPF
     MD5 check sum: 0234752ac141de4415c5fc33072bef88
     Pseudo is Projector augmented-wave + core cor, Zval =  6.0
     Generated using "atomic" code by A. Dal Corso  v.5.0.99 svn rev. 10869
     Shape of augmentation charge: BESSEL
     Using radial grid of 1095 points,  4 beta functions with:
                l(1) =   0
                l(2) =   0
                l(3) =   1
                l(4) =   1
     Q(r) pseudized with 0 coefficients

     atomic species   valence    mass     pseudopotential
        Cd            12.00   112.41400     Cd( 1.00)
        Cu            19.00    63.54600     Cu( 1.00)
        O              6.00    15.99900     O ( 1.00)

      2 Sym. Ops., with inversion, found ( 1 have fractional translation)

                                    s                        frac. trans.

      isym =  1     identity

 cryst.   s( 1) = (     1          0          0      )
                  (     0          1          0      )
                  (     0          0          1      )

 cart.    s( 1) = (  1.0000000  0.0000000 -0.0000000 )
                  (  0.0000000  1.0000000  0.0000000 )
                  (  0.0000000  0.0000000  1.0000000 )

      isym =  2     inversion

 cryst.   s( 2) = (    -1          0          0      )    f =(  0.2500000 )
                  (     0         -1          0      )       ( -0.2500000 )
                  (     0          0         -1      )       (  0.5000000 )

 cart.    s( 2) = ( -1.0000000 -0.0000000  0.0000000 )    f =( -0.0726536 )
                  (  0.0000000 -1.0000000 -0.0000000 )       ( -0.4946933 )
                  (  0.0000000  0.0000000 -1.0000000 )       (  0.3268587 )

   Cartesian axes

     site n.     atom                  positions (alat units)
         1           Cd  tau(   1) = (   0.5000000   0.0000000   0.3268587  )
         2           Cd  tau(   2) = (   0.0000000   0.0000000   0.0000000  )
         3           Cu  tau(   3) = (   0.3226536   0.4946933   0.1634293  )
         4           Cu  tau(   4) = (   0.0363268   0.2473466   0.4902880  )
         5           Cu  tau(   5) = (   0.8226536   0.4946933   0.1634293  )
         6           Cu  tau(   6) = (  -0.0363268  -0.2473466   0.4902880  )
         7           O   tau(   7) = (  -0.2382641   0.1575682   0.5661539  )
         8           O   tau(   8) = (   0.6939291   0.2360632   0.0875635  )
         9           O   tau(   9) = (  -0.0430829   0.5104255   0.6018541  )
        10           O   tau(  10) = (   0.5739057   0.6114874   0.2749954  )
        11           O   tau(  11) = (   0.0714015   0.3778992   0.0518633  )
        12           O   tau(  12) = (   0.1157365  -0.0157322   0.3787220  )
        13           O   tau(  13) = (  -0.0486220   0.7533234   0.2392952  )
        14           O   tau(  14) = (   0.3109177   0.3371251   0.4144222  )

   Crystallographic axes

     site n.     atom                  positions (cryst. coord.)
         1           Cd  tau(   1) = (  0.7500000  0.2500000  0.5000000  )
         2           Cd  tau(   2) = (  0.0000000  0.0000000  0.0000000  )
         3           Cu  tau(   3) = (  0.3750000  0.6250000  0.2500000  )
         4           Cu  tau(   4) = (  0.3750000  0.6250000  0.7500000  )
         5           Cu  tau(   5) = (  0.8750000  0.6250000  0.2500000  )
         6           Cu  tau(   6) = (  0.3750000  0.1250000  0.7500000  )
         7           O   tau(   7) = (  0.1716210  0.5922850  0.8660530  )
         8           O   tau(   8) = (  0.7262330  0.3055690  0.1339470  )
         9           O   tau(   9) = (  0.3422850  0.9762330  0.9206640  )
        10           O   tau(  10) = (  0.6944310  0.8283790  0.4206640  )
        11           O   tau(  11) = (  0.0555690  0.4216210  0.0793360  )
        12           O   tau(  12) = (  0.4077150  0.2737670  0.5793360  )
        13           O   tau(  13) = (  0.0237670  0.9444310  0.3660530  )
        14           O   tau(  14) = (  0.5783790  0.6577150  0.6339470  )

     number of k points=     1  Methfessel-Paxton smearing, width (Ry)=  0.0010
                       cart. coord. in units 2pi/alat
        k(    1) = (   0.0000000   0.0000000   0.0000000), wk =   2.0000000

                       cryst. coord.
        k(    1) = (   0.0000000   0.0000000   0.0000000), wk =   2.0000000

     Check: negative core charge=   -0.000012

     Initial potential from superposition of free atoms

     starting charge     143.9902, renormalised to     148.0000
     Starting wfcs are  102 randomized atomic wfcs
     Checking if some PAW data can be deallocated...

     Self-consistent Calculation

     iteration #  1     ecut=    30.00 Ry     beta= 0.70
     Davidson diagonalization with overlap

     ethr =  1.00E-02,  avg # of iterations =  3.0

     total energy              =   -2189.19976544 Ry
     estimated scf accuracy    <       3.95377670 Ry

[...]

     total energy              =   -2191.58532918 Ry
     estimated scf accuracy    <       0.00000228 Ry

     iteration # 15     ecut=    30.00 Ry     beta= 0.70
     Davidson diagonalization with overlap

     ethr =  1.54E-09,  avg # of iterations =  1.0

     End of self-consistent calculation

          k = 0.0000 0.0000 0.0000 (  1488 PWs)   bands (ev):

  -104.2446-104.2335-104.2221-104.2203 -61.8212 -61.8206 -61.8189 -61.8173
   -61.7459 -61.7437 -61.7396 -61.7380 -61.0938 -61.0841 -61.0812 -61.0748
    -9.7004  -8.5840  -8.5746  -8.4400  -8.3308  -8.3255  -8.1837  -8.0273
     1.8241   2.3146   2.3266   2.3542   2.3751   2.4680   2.5074   2.6269
     2.6425   2.6851   3.0434   3.1512   3.3004   3.3095   3.5463   3.8577
     3.8787   3.9432   4.2713   4.9001   5.1574   5.4261   5.4386   5.7136
     5.7248   6.0137   6.0155   6.0962   6.1549   6.2671   6.2854   6.2904
     6.3266   6.4203   6.6304   6.6354   6.7879   6.8976   7.0649   7.0714
     7.5588   7.5619   7.7146   7.7270   7.9418   8.1289   8.5318   8.5391
     8.6416   8.9860   9.3390  10.3171  10.3246  10.9618  11.4565  14.8412
    15.3655  15.7648  16.7855  17.9102  17.9136  17.9629  18.7863  18.7918
    19.1713

     occupation numbers
     1.0000   1.0000   1.0000   1.0000   1.0000   1.0000   1.0000   1.0000
     1.0000   1.0000   1.0000   1.0000   1.0000   1.0000   1.0000   1.0000
     1.0000   1.0000   1.0000   1.0000   1.0000   1.0000   1.0000   1.0000
     1.0000   1.0000   1.0000   1.0000   1.0000   1.0000   1.0000   1.0000
     1.0000   1.0000   1.0000   1.0000   1.0000   1.0000   1.0000   1.0000
     1.0000   1.0000   1.0000   1.0000   1.0000   1.0000   1.0000   1.0000
     1.0000   1.0000   1.0000   1.0000   1.0000   1.0000   1.0000   1.0000
     1.0000   1.0000   1.0000   1.0000   1.0000   1.0000   1.0000   1.0000
     1.0000   1.0000   1.0000   1.0000   1.0000   1.0000   1.0000   1.0000
     1.0000   1.0000  -0.0000  -0.0000  -0.0000  -0.0000  -0.0000  -0.0000
    -0.0000  -0.0000  -0.0000  -0.0000  -0.0000  -0.0000  -0.0000  -0.0000
    -0.0000

     the Fermi energy is     9.1610 ev

!    total energy              =   -2191.58532935 Ry
     estimated scf accuracy    <       0.00000014 Ry
     smearing contrib. (-TS)   =       0.00000000 Ry
     internal energy E=F+TS    =   -2191.58532935 Ry

     The total energy is F=E-TS. E is the sum of the following terms:
     one-electron contribution =   -1534.02275225 Ry
     hartree contribution      =     857.70298541 Ry
     xc contribution           =    -299.45593814 Ry
     ewald contribution        =   -1139.57561541 Ry
     one-center paw contrib.   =     -76.23400897 Ry
      -> PAW hartree energy AE =     229.08589994 Ry
      -> PAW hartree energy PS =    -228.30546108 Ry
      -> PAW xc energy AE      =    -136.13305417 Ry
      -> PAW xc energy PS      =      59.11860635 Ry
      -> total E_H with PAW    =     858.48342426 Ry
      -> total E_XC with PAW   =    -376.47038597 Ry

     convergence has been achieved in  15 iterations

     Forces acting on atoms (cartesian axes, Ry/au):

     atom    1 type  1   force =     0.00001723   -0.00007443    0.00086645
     atom    2 type  1   force =    -0.00001723    0.00007443   -0.00086645
     atom    3 type  2   force =     0.00000000    0.00000000    0.00000000
     atom    4 type  2   force =     0.00000000    0.00000000    0.00000000
     atom    5 type  2   force =     0.00000000    0.00000000    0.00000000
     atom    6 type  2   force =     0.00000000    0.00000000    0.00000000
     atom    7 type  3   force =     0.00915992    0.00953100   -0.01100401
     atom    8 type  3   force =     0.00948781    0.00854857    0.00806043
     atom    9 type  3   force =     0.00566385    0.01205491    0.00710667
     atom   10 type  3   force =    -0.01332633   -0.00098592    0.00401356
     atom   11 type  3   force =     0.01332633    0.00098592   -0.00401356
     atom   12 type  3   force =    -0.00566385   -0.01205491   -0.00710667
     atom   13 type  3   force =    -0.00948781   -0.00854857   -0.00806043
     atom   14 type  3   force =    -0.00915992   -0.00953100    0.01100401
     The non-local contrib.  to forces
     atom    1 type  1   force =     0.00049281    0.00039139    0.00170073
     atom    2 type  1   force =    -0.00049281   -0.00039139   -0.00170073
     atom    3 type  2   force =     0.00000000    0.00000000    0.00000000
     atom    4 type  2   force =     0.00000000    0.00000000    0.00000000
     atom    5 type  2   force =     0.00000000    0.00000000    0.00000000
     atom    6 type  2   force =     0.00000000    0.00000000    0.00000000
     atom    7 type  3   force =     0.60772140   -0.17168151    0.40284579
     atom    8 type  3   force =    -0.08559160    0.62714880   -0.40233129
     atom    9 type  3   force =     0.52580907   -0.08055179   -0.53121606
     atom   10 type  3   force =     0.00396201   -0.52837440   -0.53447672
     atom   11 type  3   force =    -0.00396201    0.52837440    0.53447672
     atom   12 type  3   force =    -0.52580907    0.08055179    0.53121606
     atom   13 type  3   force =     0.08559160   -0.62714880    0.40233129
     atom   14 type  3   force =    -0.60772140    0.17168151   -0.40284579
     The ionic contribution  to forces
     atom    1 type  1   force =     0.00001231    0.00003881   -0.00004015
     atom    2 type  1   force =    -0.00001231   -0.00003881    0.00004015
     atom    3 type  2   force =    -0.00000000   -0.00000000    0.00000000
     atom    4 type  2   force =    -0.00000000   -0.00000000    0.00000000
     atom    5 type  2   force =    -0.00000000    0.00000000   -0.00000000
     atom    6 type  2   force =     0.00000000    0.00000000    0.00000000
     atom    7 type  3   force =   -11.50077262    4.53902941   -7.21621518
     atom    8 type  3   force =     2.81959842  -12.03842021    7.21607947
     atom    9 type  3   force =    -9.05791971    1.71095673   10.95311275
     atom   10 type  3   force =    -0.37663284    9.21041716   10.95309705
     atom   11 type  3   force =     0.37663284   -9.21041716  -10.95309705
     atom   12 type  3   force =     9.05791971   -1.71095673  -10.95311274
     atom   13 type  3   force =    -2.81959842   12.03842021   -7.21607947
     atom   14 type  3   force =    11.50077262   -4.53902941    7.21621517
     The local contribution  to forces
     atom    1 type  1   force =    -0.00041741   -0.00042020   -0.00091061
     atom    2 type  1   force =     0.00016982    0.00037071    0.00064531
     atom    3 type  2   force =    -0.00007892   -0.00062113    0.00531522
     atom    4 type  2   force =     0.00139165   -0.00287603   -0.00829279
     atom    5 type  2   force =    -0.00014291   -0.00722628    0.00511621
     atom    6 type  2   force =     0.00114698   -0.00107080   -0.00555108
     atom    7 type  3   force =    10.90799974   -4.35675519    6.80181943
     atom    8 type  3   force =    -2.72678813   11.42514673   -6.80704083
     atom    9 type  3   force =     8.54224154   -1.62235222  -10.41667850
     atom   10 type  3   force =     0.35978774   -8.69115769  -10.42497757
     atom   11 type  3   force =    -0.35902508    8.68692320   10.41657715
     atom   12 type  3   force =    -8.54500120    1.61552401   10.42521100
     atom   13 type  3   force =     2.72389945  -11.42874624    6.81304957
     atom   14 type  3   force =   -10.90983389    4.36281655   -6.81182762
     The core correction contribution to forces
     atom    1 type  1   force =    -0.00006390   -0.00006354   -0.00000055
     atom    2 type  1   force =     0.00008105    0.00007940   -0.00006675
     atom    3 type  2   force =    -0.00000335    0.00001084   -0.00001984
     atom    4 type  2   force =     0.00000819    0.00001703   -0.00000631
     atom    5 type  2   force =     0.00000777    0.00001979   -0.00001574
     atom    6 type  2   force =    -0.00000060    0.00000616   -0.00000986
     atom    7 type  3   force =    -0.00680402    0.00202893   -0.00466354
     atom    8 type  3   force =     0.00077231   -0.00704054    0.00445338
     atom    9 type  3   force =    -0.00590455    0.00058654    0.00628126
     atom   10 type  3   force =     0.00010699    0.00586423    0.00597963
     atom   11 type  3   force =    -0.00001983   -0.00595313   -0.00626821
     atom   12 type  3   force =     0.00573461   -0.00078933   -0.00598174
     atom   13 type  3   force =    -0.00093832    0.00695189   -0.00437862
     atom   14 type  3   force =     0.00680039   -0.00180555    0.00429781
     The Hubbard contrib.    to forces
     atom    1 type  1   force =     0.00000000    0.00000000    0.00000000
     atom    2 type  1   force =     0.00000000    0.00000000    0.00000000
     atom    3 type  2   force =     0.00000000    0.00000000    0.00000000
     atom    4 type  2   force =     0.00000000    0.00000000    0.00000000
     atom    5 type  2   force =     0.00000000    0.00000000    0.00000000
     atom    6 type  2   force =     0.00000000    0.00000000    0.00000000
     atom    7 type  3   force =     0.00000000    0.00000000    0.00000000
     atom    8 type  3   force =     0.00000000    0.00000000    0.00000000
     atom    9 type  3   force =     0.00000000    0.00000000    0.00000000
     atom   10 type  3   force =     0.00000000    0.00000000    0.00000000
     atom   11 type  3   force =     0.00000000    0.00000000    0.00000000
     atom   12 type  3   force =     0.00000000    0.00000000    0.00000000
     atom   13 type  3   force =     0.00000000    0.00000000    0.00000000
     atom   14 type  3   force =     0.00000000    0.00000000    0.00000000
     The SCF correction term to forces
     atom    1 type  1   force =    -0.00016841   -0.00009108   -0.00011239
     atom    2 type  1   force =     0.00007516   -0.00001567   -0.00001383
     atom    3 type  2   force =     0.00075050    0.00035242    0.00027100
     atom    4 type  2   force =    -0.00000234   -0.00047081    0.00005717
     atom    5 type  2   force =    -0.00080530    0.00012035    0.00011985
     atom    6 type  2   force =     0.00038073    0.00039253    0.00001897
     atom    7 type  3   force =     0.00016736    0.00006072    0.00002558
     atom    8 type  3   force =    -0.00006870   -0.00008082   -0.00004708
     atom    9 type  3   force =    -0.00002992   -0.00012713    0.00005243
     atom   10 type  3   force =    -0.00014942    0.00008965    0.00001820
     atom   11 type  3   force =     0.00010121   -0.00011653   -0.00007515
     atom   12 type  3   force =     0.00002468    0.00007255    0.00000597
     atom   13 type  3   force =    -0.00000763    0.00017977    0.00007003
     atom   14 type  3   force =    -0.00002571   -0.00004273   -0.00001946

     Total force =     0.043525     Total SCF correction =     0.001480

     Computing stress (Cartesian axis) and pressure

          total   stress  (Ry/bohr**3)                   (kbar)     P=     -821.04
  -0.00541352  -0.00004613  -0.00002268         -796.36       -6.79       -3.34
  -0.00004613  -0.00565720   0.00002224           -6.79     -832.20        3.27
  -0.00002268   0.00002224  -0.00567325           -3.34        3.27     -834.56

     kinetic stress (kbar)  35102.67   -217.49      0.99
                             -217.49  35178.14      1.98
                                0.99      1.98  35368.27

     local   stress (kbar) -28751.87 -10965.11      0.87
                           -10965.11 -25529.78     -1.44
                                0.87     -1.44 -16048.70

     nonloc. stress (kbar)  11595.97   -115.14     -5.49
                             -115.14  11578.33      2.01
                               -5.49      2.01  11660.27

     hartree stress (kbar)  41750.92   4482.29      0.27
                             4482.29  40435.12      0.61
                                0.27      0.61  36561.43

     exc-cor stress (kbar)  -3396.13      7.43      0.00
                                7.43  -3398.18     -0.01
                                0.00     -0.01  -3404.59

     corecor stress (kbar)  -7797.41      0.02     -0.03
                                0.02  -7797.60      0.06
                               -0.03      0.06  -7797.75

     ewald   stress (kbar) -49300.51   6801.22      0.05
                             6801.22 -51298.22      0.05
                                0.05      0.05 -57173.50

     hubbard stress (kbar)      0.00      0.00      0.00
                                0.00      0.00      0.00
                                0.00      0.00      0.00

     DFT-D   stress (kbar)      0.00      0.00      0.00
                                0.00      0.00      0.00
                                0.00      0.00      0.00

     XDM     stress (kbar)      0.00      0.00      0.00
                                0.00      0.00      0.00
                                0.00      0.00      0.00

     dft-nl  stress (kbar)      0.00      0.00      0.00
                                0.00      0.00      0.00
                                0.00      0.00      0.00

     TS-vdW  stress (kbar)      0.00      0.00      0.00
                                0.00      0.00      0.00
                                0.00      0.00      0.00

[...]

                                0.00      0.00      0.00

     Writing all to output data dir new_calculations/myprefix.save/

     General routines

     Parallel routines

     PAW routines

   This run was terminated on:   0:16:39  21May2023

   JOB DONE.