     Program PWSCF v.7.0 starts on 20May2023 at 20:52: 7

     Reading input from espresso_22228.pwi
Warning: card &CELL ignored
Warning: card / ignored

     Current dimensions of program PWSCF are:
     Max number of different atomic species (ntypx) = 10
     Max number of k-points (npk) =  40000
     Max angular momentum in pseudopotentials (lmaxx) =  4
     file In.pbe-dn-rrkjus_psl.0.2.2.UPF: wavefunction(s)  5S renormalized

     gamma-point specific algorithms are used
     Message from routine setup:
     using ibrav=0 with symmetry is DISCOURAGED, use correct ibrav instead

     Subspace diagonalization in iterative solution of the eigenvalue problem:
     a serial algorithm will be used

     Using Slab Decomposition

     bravais-lattice index     =            0
     lattice parameter (alat)  =      10.5591  a.u.
     unit-cell volume          =    1229.3187 (a.u.)^3
     number of atoms/cell      =            8
     number of atomic types    =            3
     number of electrons       =       118.00
     number of Kohn-Sham states=           71
     kinetic-energy cutoff     =      30.0000  Ry
     charge density cutoff     =     240.0000  Ry
     scf convergence threshold =      1.0E-06
     mixing beta               =       0.7000
     number of iterations used =            8  plain     mixing
     Exchange-correlation= PBE
                           (   1   4   3   4   0   0   0)

     celldm(1)=  10.559087  celldm(2)=   0.000000  celldm(3)=   0.000000
     celldm(4)=   0.000000  celldm(5)=   0.000000  celldm(6)=   0.000000

     crystal axes: (cart. coord. in units of alat)
               a(1) = (   1.000000   0.000000   0.000000 )
               a(2) = (  -0.683890   0.729585   0.000000 )
               a(3) = (   0.000000   0.000000   1.431229 )

     reciprocal axes: (cart. coord. in units 2 pi/alat)
               b(1) = (  1.000000  0.937368  0.000000 )
               b(2) = (  0.000000  1.370641  0.000000 )
               b(3) = (  0.000000  0.000000  0.698700 )

     PseudoPot. # 1 for Sm read from file:
     /home/pragov/projects/rrg-bengioy-ad/pragov/crystal_structure_design/SSSP/Sm.GGA-PBE-paw-v1.0.UPF
     MD5 check sum: 886f70968969f895acf876f5617e0641
     Pseudo is Projector augmented-wave + core cor, Zval = 16.0
     Generated using ATOMPAW code
     Shape of augmentation charge: BESSEL
     Using radial grid of 1107 points,  8 beta functions with:
                l(1) =   0
                l(2) =   0
                l(3) =   1
                l(4) =   1
                l(5) =   2
                l(6) =   2
                l(7) =   3
                l(8) =   3
     Q(r) pseudized with 0 coefficients

     PseudoPot. # 2 for In read from file:
     /home/pragov/projects/rrg-bengioy-ad/pragov/crystal_structure_design/SSSP/In.pbe-dn-rrkjus_psl.0.2.2.UPF
     MD5 check sum: 25e7c42c3b55b68f4bf926be2e7201a4
     Pseudo is Ultrasoft + core correction, Zval = 13.0
     Generated using "atomic" code by A. Dal Corso  v.5.0.99 svn rev. 10869
     Using radial grid of 1241 points,  6 beta functions with:
                l(1) =   0
                l(2) =   0
                l(3) =   1
                l(4) =   1
                l(5) =   2
                l(6) =   2
     Q(r) pseudized with 0 coefficients

     PseudoPot. # 3 for Rh read from file:
     /home/pragov/projects/rrg-bengioy-ad/pragov/crystal_structure_design/SSSP/Rh_ONCV_PBE-1.0.oncvpsp.upf
     MD5 check sum: ba07c69523b14cacd10683cd4c4284c1
     Pseudo is Norm-conserving, Zval = 17.0
     Generated using ONCVPSP code by D. R. Hamann
     Using radial grid of 1442 points,  6 beta functions with:
                l(1) =   0
                l(2) =   0
                l(3) =   1
                l(4) =   1
                l(5) =   2
                l(6) =   2

     atomic species   valence    mass     pseudopotential
        Sm            16.00   150.36000     Sm( 1.00)
        In            13.00   114.81800     In( 1.00)
        Rh            17.00   102.90550     Rh( 1.00)

      4 Sym. Ops., with inversion, found ( 2 have fractional translation)

                                    s                        frac. trans.

      isym =  1     identity

 cryst.   s( 1) = (     1          0          0      )
                  (     0          1          0      )
                  (     0          0          1      )

 cart.    s( 1) = (  1.0000000  0.0000000  0.0000000 )
                  (  0.0000000  1.0000000  0.0000000 )
                  (  0.0000000  0.0000000  1.0000000 )

      isym =  2     180 deg rotation - cart. axis [0,0,1]

 cryst.   s( 2) = (    -1          0          0      )    f =(  0.0000000 )
                  (     0         -1          0      )       (  0.0000000 )
                  (     0          0          1      )       (  0.5000000 )

 cart.    s( 2) = ( -1.0000000 -0.0000000  0.0000000 )    f =(  0.0000000 )
                  (  0.0000000 -1.0000000  0.0000000 )       (  0.0000000 )
                  (  0.0000000  0.0000000  1.0000000 )       (  0.7156146 )

      isym =  3     inversion

 cryst.   s( 3) = (    -1          0          0      )
                  (     0         -1          0      )
                  (     0          0         -1      )

 cart.    s( 3) = ( -1.0000000 -0.0000000  0.0000000 )
                  (  0.0000000 -1.0000000  0.0000000 )
                  (  0.0000000  0.0000000 -1.0000000 )

      isym =  4     inv. 180 deg rotation - cart. axis [0,0,1]

 cryst.   s( 4) = (     1          0          0      )    f =(  0.0000000 )
                  (     0          1          0      )       (  0.0000000 )
                  (     0          0         -1      )       ( -0.5000000 )

 cart.    s( 4) = (  1.0000000  0.0000000  0.0000000 )    f =(  0.0000000 )
                  (  0.0000000  1.0000000  0.0000000 )       (  0.0000000 )
                  (  0.0000000  0.0000000 -1.0000000 )       ( -0.7156146 )

   Cartesian axes

     site n.     atom                  positions (alat units)
         1           Sm  tau(   1) = (  -0.5707643   0.6805712   0.3578073  )
         2           Sm  tau(   2) = (   0.8868746   0.0490143   1.0734219  )
         3           In  tau(   3) = (   0.4020878   0.2590597   0.7882781  )
         4           In  tau(   4) = (  -0.0859775   0.4705257   0.6429511  )
         5           In  tau(   5) = (   0.4020878   0.2590597   1.3585657  )
         6           In  tau(   6) = (  -0.0859775   0.4705257   0.0726635  )
         7           Rh  tau(   7) = (  -0.3216143   0.5726210   1.0734219  )
         8           Rh  tau(   8) = (   0.6377246   0.1569645   0.3578073  )

   Crystallographic axes

     site n.     atom                  positions (cryst. coord.)
         1           Sm  tau(   1) = (  0.0671810  0.9328190  0.2500000  )
         2           Sm  tau(   2) = (  0.9328190  0.0671810  0.7500000  )
         3           In  tau(   3) = (  0.6449220  0.3550780  0.5507700  )
         4           In  tau(   4) = (  0.3550780  0.6449220  0.4492300  )
         5           In  tau(   5) = (  0.6449220  0.3550780  0.9492300  )
         6           In  tau(   6) = (  0.3550780  0.6449220  0.0507700  )
         7           Rh  tau(   7) = (  0.2151420  0.7848580  0.7500000  )
         8           Rh  tau(   8) = (  0.7848580  0.2151420  0.2500000  )

     number of k points=     1  Methfessel-Paxton smearing, width (Ry)=  0.0010
                       cart. coord. in units 2pi/alat
        k(    1) = (   0.0000000   0.0000000   0.0000000), wk =   2.0000000

                       cryst. coord.
        k(    1) = (   0.0000000   0.0000000   0.0000000), wk =   2.0000000

     Initial potential from superposition of free atoms

     starting charge     117.9731, renormalised to     118.0000
     Starting wfcs are  120 randomized atomic wfcs
     Checking if some PAW data can be deallocated...

     Self-consistent Calculation

     iteration #  1     ecut=    30.00 Ry     beta= 0.70
     Davidson diagonalization with overlap

     ethr =  1.00E-02,  avg # of iterations =  2.0

     total energy              =   -2204.01831080 Ry
     estimated scf accuracy    <      15.45396020 Ry

[...]

     total energy              =   -2221.13867718 Ry
     estimated scf accuracy    <       0.00000732 Ry

     iteration # 80     ecut=    30.00 Ry     beta= 0.70
     Davidson diagonalization with overlap

     ethr =  4.12E-09,  avg # of iterations =  1.0

     End of self-consistent calculation

          k = 0.0000 0.0000 0.0000 (  1695 PWs)   bands (ev):

   -64.2827 -64.2824 -32.2970 -32.2967 -32.1504 -32.1501 -32.0253 -32.0249
   -25.6551 -25.6499  -5.5874  -5.4519  -5.4131  -5.4109  -5.4009  -5.3879
    -0.6447  -0.6401  -0.6041  -0.5851  -0.5781  -0.5567  -0.5437  -0.5422
    -0.5281  -0.5091  -0.4530  -0.4169  -0.4082  -0.3919  -0.3816  -0.3757
    -0.3308  -0.3204  -0.2976  -0.2974   5.1100   7.3046   8.0128  10.3925
    10.6393  10.8152  10.9032  11.0042  11.1948  11.6968  11.7150  11.9082
    11.9261  12.5281  12.7314  12.9984  13.1771  13.9457  14.0158  14.0199
    14.0519  14.0601  14.2137  14.2289  14.2428  14.2766  14.2778  14.2975
    14.4033  14.4504  14.4680  14.4770  14.7240  14.7925  14.9664

     occupation numbers
     1.0000   1.0000   1.0000   1.0000   1.0000   1.0000   1.0000   1.0000
     1.0000   1.0000   1.0000   1.0000   1.0000   1.0000   1.0000   1.0000
     1.0000   1.0000   1.0000   1.0000   1.0000   1.0000   1.0000   1.0000
     1.0000   1.0000   1.0000   1.0000   1.0000   1.0000   1.0000   1.0000
     1.0000   1.0000   1.0000   1.0000   1.0000   1.0000   1.0000   1.0000
     1.0000   1.0000   1.0000   1.0000   1.0000   1.0000   1.0000   1.0000
     1.0000   1.0000   1.0000   1.0000   1.0000   1.0000   1.0000   1.0000
     1.0000   1.0000   0.9143   0.1109  -0.0251  -0.0000  -0.0000  -0.0000
    -0.0000  -0.0000  -0.0000  -0.0000  -0.0000  -0.0000  -0.0000

     the Fermi energy is    14.2217 ev

!    total energy              =   -2221.13867640 Ry
     estimated scf accuracy    <       0.00000070 Ry
     smearing contrib. (-TS)   =      -0.00005572 Ry
     internal energy E=F+TS    =   -2221.13862068 Ry

     The total energy is F=E-TS. E is the sum of the following terms:
     one-electron contribution =    -442.27113963 Ry
     hartree contribution      =     318.24497305 Ry
     xc contribution           =    -271.17235485 Ry
     ewald contribution        =    -926.60749223 Ry
     one-center paw contrib.   =    -899.33260702 Ry
      -> PAW hartree energy AE =     259.94207475 Ry
      -> PAW hartree energy PS =    -253.91234139 Ry
      -> PAW xc energy AE      =    -939.43203159 Ry
      -> PAW xc energy PS      =      34.06969122 Ry
      -> total E_H with PAW    =     324.27470641 Ry
      -> total E_XC with PAW   =   -1176.53469522 Ry

     convergence has been achieved in  80 iterations

     Forces acting on atoms (cartesian axes, Ry/au):

     atom    1 type  1   force =     0.01053006   -0.00462051    0.00000000
     atom    2 type  1   force =    -0.01053006    0.00462051    0.00000000
     atom    3 type  2   force =    -0.00366134    0.00157608   -0.00762672
     atom    4 type  2   force =     0.00366134   -0.00157608    0.00762672
     atom    5 type  2   force =    -0.00366134    0.00157608    0.00762672
     atom    6 type  2   force =     0.00366134   -0.00157608   -0.00762672
     atom    7 type  3   force =     0.01538755   -0.00666323    0.00000000
     atom    8 type  3   force =    -0.01538755    0.00666323    0.00000000
     The non-local contrib.  to forces
     atom    1 type  1   force =    -0.03785798    0.01646553    0.00000000
     atom    2 type  1   force =     0.03785798   -0.01646553    0.00000000
     atom    3 type  2   force =     0.04070101   -0.01763324    0.05157554
     atom    4 type  2   force =    -0.04070101    0.01763324   -0.05157554
     atom    5 type  2   force =     0.04070101   -0.01763324   -0.05157554
     atom    6 type  2   force =    -0.04070101    0.01763324    0.05157554
     atom    7 type  3   force =    -0.12092384    0.05237154    0.00000000
     atom    8 type  3   force =     0.12092384   -0.05237154    0.00000000
     The ionic contribution  to forces
     atom    1 type  1   force =    -2.66470935    1.15454899   -0.00000000
     atom    2 type  1   force =     2.66470935   -1.15454899   -0.00000000
     atom    3 type  2   force =    -6.91312435    2.99527628   -1.66210063
     atom    4 type  2   force =     6.91312435   -2.99527628    1.66210063
     atom    5 type  2   force =    -6.91312435    2.99527628    1.66210063
     atom    6 type  2   force =     6.91312435   -2.99527628   -1.66210063
     atom    7 type  3   force =    -0.43659437    0.18916494   -0.00000000
     atom    8 type  3   force =     0.43659437   -0.18916494    0.00000000
     The local contribution  to forces
     atom    1 type  1   force =     2.71287647   -1.17548760    0.00032344
     atom    2 type  1   force =    -2.71281311    1.17536025   -0.00029875
     atom    3 type  2   force =     6.86096442   -2.97269808    1.60249078
     atom    4 type  2   force =    -6.86098911    2.97265963   -1.60336154
     atom    5 type  2   force =     6.86099882   -2.97267479   -1.60263237
     atom    6 type  2   force =    -6.86100888    2.97268570    1.60346702
     atom    7 type  3   force =     0.57260350   -0.24804158   -0.00028228
     atom    8 type  3   force =    -0.57271246    0.24820676    0.00030449
     The core correction contribution to forces
     atom    1 type  1   force =    -0.00000129    0.00000055    0.00000001
     atom    2 type  1   force =     0.00000129   -0.00000056   -0.00000001
     atom    3 type  2   force =     0.00773136   -0.00335013   -0.00011197
     atom    4 type  2   force =    -0.00773050    0.00334996    0.00010868
     atom    5 type  2   force =     0.00773281   -0.00335021    0.00011217
     atom    6 type  2   force =    -0.00773213    0.00335025   -0.00010956
     atom    7 type  3   force =     0.00000000    0.00000000    0.00000000
     atom    8 type  3   force =     0.00000000    0.00000000    0.00000000
     The Hubbard contrib.    to forces
     atom    1 type  1   force =     0.00000000    0.00000000    0.00000000
     atom    2 type  1   force =     0.00000000    0.00000000    0.00000000
     atom    3 type  2   force =     0.00000000    0.00000000    0.00000000
     atom    4 type  2   force =     0.00000000    0.00000000    0.00000000
     atom    5 type  2   force =     0.00000000    0.00000000    0.00000000
     atom    6 type  2   force =     0.00000000    0.00000000    0.00000000
     atom    7 type  3   force =     0.00000000    0.00000000    0.00000000
     atom    8 type  3   force =     0.00000000    0.00000000    0.00000000
     The SCF correction term to forces
     atom    1 type  1   force =     0.00021677   -0.00016596   -0.00030853
     atom    2 type  1   force =    -0.00029099    0.00025737    0.00030256
     atom    3 type  2   force =     0.00006085   -0.00001423    0.00052847
     atom    4 type  2   force =    -0.00003510    0.00005865    0.00033814
     atom    5 type  2   force =     0.00003184   -0.00004528   -0.00037061
     atom    6 type  2   force =    -0.00003215    0.00003093   -0.00047680
     atom    7 type  3   force =     0.00030364   -0.00015162    0.00033024
     atom    8 type  3   force =    -0.00019192   -0.00000053   -0.00035126

     Total force =     0.033512     Total SCF correction =     0.001252

     Computing stress (Cartesian axis) and pressure

          total   stress  (Ry/bohr**3)                   (kbar)     P=       -9.88
   0.00069934  -0.00057322   0.00000000          102.88      -84.32        0.00
  -0.00057322  -0.00037435   0.00000000          -84.32      -55.07        0.00
   0.00000000   0.00000000  -0.00052642            0.00        0.00      -77.44

     kinetic stress (kbar)  23649.99   -153.41      0.00
                             -153.41  23362.45      0.00
                                0.00      0.00  23126.86

     local   stress (kbar)   2713.68  -2479.90      0.09
                            -2479.90  -1935.92      0.14
                                0.09      0.14    312.40

     nonloc. stress (kbar)   7206.39    -25.24      0.00
                              -25.24   7159.47      0.00
                                0.00      0.00   7196.69

     hartree stress (kbar)  11489.44   1201.76     -0.03
                             1201.76  13742.56     -0.05
                               -0.03     -0.05  12850.44

     exc-cor stress (kbar)   7333.44     -1.39     -0.00
                               -1.39   7330.84     -0.00
                               -0.00     -0.00   7327.99

     corecor stress (kbar) -14006.97      1.97      0.00
                                1.97 -14003.28      0.00
                                0.00      0.00 -14004.64

     ewald   stress (kbar) -38283.10   1371.88     -0.00
                             1371.88 -35711.19      0.00
                               -0.00      0.00 -36887.18

     hubbard stress (kbar)      0.00      0.00      0.00
                                0.00      0.00      0.00
                                0.00      0.00      0.00

     DFT-D   stress (kbar)      0.00      0.00      0.00
                                0.00      0.00      0.00
                                0.00      0.00      0.00

     XDM     stress (kbar)      0.00      0.00      0.00
                                0.00      0.00      0.00
                                0.00      0.00      0.00

     dft-nl  stress (kbar)      0.00      0.00      0.00
                                0.00      0.00      0.00
                                0.00      0.00      0.00

     TS-vdW  stress (kbar)      0.00      0.00      0.00
                                0.00      0.00      0.00
                                0.00      0.00      0.00

[...]

                                0.00      0.00      0.00

     Writing all to output data dir new_calculations/myprefix.save/

     General routines

     Parallel routines

     PAW routines

   This run was terminated on:  20:54: 9  20May2023

   JOB DONE.