     Program PWSCF v.7.0 starts on 20May2023 at  6: 6:37

     Reading input from espresso_1183.pwi
Warning: card &CELL ignored
Warning: card / ignored

     Current dimensions of program PWSCF are:
     Max number of different atomic species (ntypx) = 10
     Max number of k-points (npk) =  40000
     Max angular momentum in pseudopotentials (lmaxx) =  4
     file Ba.pbe-spn-kjpaw_psl.1.0.0.UPF: wavefunction(s)  5S 6S renormalized

     gamma-point specific algorithms are used
     Message from routine setup:
     using ibrav=0 with symmetry is DISCOURAGED, use correct ibrav instead

     Subspace diagonalization in iterative solution of the eigenvalue problem:
     a serial algorithm will be used

     Using Slab Decomposition

     bravais-lattice index     =            0
     lattice parameter (alat)  =      16.1423  a.u.
     unit-cell volume          =    1947.2977 (a.u.)^3
     number of atoms/cell      =           18
     number of atomic types    =            3
     number of electrons       =       162.00
     number of Kohn-Sham states=           97
     kinetic-energy cutoff     =      30.0000  Ry
     charge density cutoff     =     240.0000  Ry
     scf convergence threshold =      1.0E-06
     mixing beta               =       0.7000
     number of iterations used =            8  plain     mixing
     Exchange-correlation=  SLA  PW   PBX  PBC
                           (   1   4   3   4   0   0   0)

     celldm(1)=  16.142329  celldm(2)=   0.000000  celldm(3)=   0.000000
     celldm(4)=   0.000000  celldm(5)=   0.000000  celldm(6)=   0.000000

     crystal axes: (cart. coord. in units of alat)
               a(1) = (   1.000000   0.000000   0.000000 )
               a(2) = (  -0.758527   0.651641   0.000000 )
               a(3) = (   0.000000   0.000000   0.710436 )

     reciprocal axes: (cart. coord. in units 2 pi/alat)
               b(1) = (  1.000000  1.164026  0.000000 )
               b(2) = (  0.000000  1.534586  0.000000 )
               b(3) = (  0.000000  0.000000  1.407586 )

     PseudoPot. # 1 for Ba read from file:
     /home/pragov/projects/rrg-bengioy-ad/pragov/crystal_structure_design/SSSP/Ba.pbe-spn-kjpaw_psl.1.0.0.UPF
     MD5 check sum: c432291d3e53af55f19d5e8866385beb
     Pseudo is Projector augmented-wave + core cor, Zval = 10.0
     Generated using "atomic" code by A. Dal Corso  v.5.1
     Shape of augmentation charge: PSQ
     Using radial grid of 1251 points,  7 beta functions with:
                l(1) =   0
                l(2) =   0
                l(3) =   0
                l(4) =   1
                l(5) =   1
                l(6) =   2
                l(7) =   2
     Q(r) pseudized with 0 coefficients

     PseudoPot. # 2 for Cu read from file:
     /home/pragov/projects/rrg-bengioy-ad/pragov/crystal_structure_design/SSSP/Cu_pbe_v1.2.uspp.F.UPF
     MD5 check sum: 6e991ff952a84172a2a52a1c1e996048
     Pseudo is Ultrasoft + core correction, Zval = 19.0
     Generated by new atomic code, or converted to UPF format
     Using radial grid of  867 points,  6 beta functions with:
                l(1) =   0
                l(2) =   0
                l(3) =   1
                l(4) =   1
                l(5) =   2
                l(6) =   2
     Q(r) pseudized with  8 coefficients,  rinner =    1.150   1.150   1.150
                                                       1.150   1.150

     PseudoPot. # 3 for F  read from file:
     /home/pragov/projects/rrg-bengioy-ad/pragov/crystal_structure_design/SSSP/f_pbe_v1.4.uspp.F.UPF
     MD5 check sum: 4c38b6a325caf53ec0e86aed9459de46
     Pseudo is Ultrasoft, Zval =  7.0
     Generated by new atomic code, or converted to UPF format
     Using radial grid of  799 points,  4 beta functions with:
                l(1) =   0
                l(2) =   0
                l(3) =   1
                l(4) =   1
     Q(r) pseudized with  8 coefficients,  rinner =    0.950   0.950   0.950

     atomic species   valence    mass     pseudopotential
        Ba            10.00   137.32700     Ba( 1.00)
        Cu            19.00    63.54600     Cu( 1.00)
        F              7.00    18.99840     F ( 1.00)

      4 Sym. Ops., with inversion, found ( 2 have fractional translation)

                                    s                        frac. trans.

      isym =  1     identity

 cryst.   s( 1) = (     1          0          0      )
                  (     0          1          0      )
                  (     0          0          1      )

 cart.    s( 1) = (  1.0000000 -0.0000000  0.0000000 )
                  (  0.0000000  1.0000000  0.0000000 )
                  (  0.0000000  0.0000000  1.0000000 )

      isym =  2     180 deg rotation - cart. axis [0,0,1]

 cryst.   s( 2) = (    -1          0          0      )    f =( -0.5000000 )
                  (     0         -1          0      )       ( -0.5000000 )
                  (     0          0          1      )       (  0.5000000 )

 cart.    s( 2) = ( -1.0000000  0.0000000  0.0000000 )    f =( -0.1207364 )
                  (  0.0000000 -1.0000000  0.0000000 )       ( -0.3258207 )
                  (  0.0000000  0.0000000  1.0000000 )       (  0.3552181 )

      isym =  3     inversion

 cryst.   s( 3) = (    -1          0          0      )
                  (     0         -1          0      )
                  (     0          0         -1      )

 cart.    s( 3) = ( -1.0000000  0.0000000  0.0000000 )
                  (  0.0000000 -1.0000000  0.0000000 )
                  (  0.0000000  0.0000000 -1.0000000 )

      isym =  4     inv. 180 deg rotation - cart. axis [0,0,1]

 cryst.   s( 4) = (     1          0          0      )    f =( -0.5000000 )
                  (     0          1          0      )       ( -0.5000000 )
                  (     0          0         -1      )       (  0.5000000 )

 cart.    s( 4) = (  1.0000000 -0.0000000  0.0000000 )    f =( -0.1207364 )
                  (  0.0000000  1.0000000  0.0000000 )       ( -0.3258207 )
                  (  0.0000000  0.0000000 -1.0000000 )       (  0.3552181 )

   Cartesian axes

     site n.     atom                  positions (alat units)
         1           Ba  tau(   1) = (  -0.1449947   0.4242902   0.3552181  )
         2           Ba  tau(   2) = (  -0.4927962   0.5531718   0.0000000  )
         3           Ba  tau(   3) = (   0.3864674   0.2273512   0.3552181  )
         4           Ba  tau(   4) = (   0.7342690   0.0984695   0.0000000  )
         5           Cu  tau(   5) = (   0.0000000   0.0000000   0.3552181  )
         6           Cu  tau(   6) = (   0.1207364   0.3258207   0.0000000  )
         7           F   tau(   7) = (  -0.5499465   0.5743495   0.3552181  )
         8           F   tau(   8) = (  -0.0878443   0.4031125   0.0000000  )
         9           F   tau(   9) = (   0.7914193   0.0772918   0.3552181  )
        10           F   tau(  10) = (   0.3293171   0.2485288   0.0000000  )
        11           F   tau(  11) = (   0.0697627   0.1882624   0.4668774  )
        12           F   tau(  12) = (   0.0509737   0.1375582   0.1116593  )
        13           F   tau(  13) = (  -0.3787290   0.3272634   0.1776091  )
        14           F   tau(  14) = (  -0.2590618   0.6501986   0.5328272  )
        15           F   tau(  15) = (   0.6202018   0.3243779   0.5328272  )
        16           F   tau(  16) = (   0.5005346   0.0014427   0.1776091  )
        17           F   tau(  17) = (   0.1717101   0.4633789   0.2435589  )
        18           F   tau(  18) = (   0.1904991   0.5140831   0.5987770  )

   Crystallographic axes

     site n.     atom                  positions (cryst. coord.)
         1           Ba  tau(   1) = (  0.3488900  0.6511100  0.5000000  )
         2           Ba  tau(   2) = (  0.1511100  0.8488900  0.0000000  )
         3           Ba  tau(   3) = (  0.6511100  0.3488900  0.5000000  )
         4           Ba  tau(   4) = (  0.8488900  0.1511100  0.0000000  )
         5           Cu  tau(   5) = (  0.0000000  0.0000000  0.5000000  )
         6           Cu  tau(   6) = (  0.5000000  0.5000000  0.0000000  )
         7           F   tau(   7) = (  0.1186110  0.8813890  0.5000000  )
         8           F   tau(   8) = (  0.3813890  0.6186110  0.0000000  )
         9           F   tau(   9) = (  0.8813890  0.1186110  0.5000000  )
        10           F   tau(  10) = (  0.6186110  0.3813890  0.0000000  )
        11           F   tau(  11) = (  0.2889050  0.2889050  0.6571700  )
        12           F   tau(  12) = (  0.2110950  0.2110950  0.1571700  )
        13           F   tau(  13) = (  0.0022140  0.5022140  0.2500000  )
        14           F   tau(  14) = (  0.4977860  0.9977860  0.7500000  )
        15           F   tau(  15) = (  0.9977860  0.4977860  0.7500000  )
        16           F   tau(  16) = (  0.5022140  0.0022140  0.2500000  )
        17           F   tau(  17) = (  0.7110950  0.7110950  0.3428300  )
        18           F   tau(  18) = (  0.7889050  0.7889050  0.8428300  )

     number of k points=     1  Methfessel-Paxton smearing, width (Ry)=  0.0010
                       cart. coord. in units 2pi/alat
        k(    1) = (   0.0000000   0.0000000   0.0000000), wk =   2.0000000

                       cryst. coord.
        k(    1) = (   0.0000000   0.0000000   0.0000000), wk =   2.0000000

     Initial potential from superposition of free atoms

     starting charge     159.9320, renormalised to     162.0000
     Starting wfcs are   94 randomized atomic wfcs +    3 random wfcs
     Checking if some PAW data can be deallocated...

     Self-consistent Calculation

     iteration #  1     ecut=    30.00 Ry     beta= 0.70
     Davidson diagonalization with overlap

     ethr =  1.00E-02,  avg # of iterations =  9.0

     negative rho (up, down):  1.500E-02 0.000E+00

     total energy              =   -3134.24275814 Ry
     estimated scf accuracy    <       4.47311630 Ry

[...]

     negative rho (up, down):  1.907E-04 0.000E+00

[...]

     total energy              =   -3137.38023552 Ry
     estimated scf accuracy    <       0.00000235 Ry

     iteration # 31     ecut=    30.00 Ry     beta= 0.70
     Davidson diagonalization with overlap

     ethr =  1.45E-09,  avg # of iterations =  2.0

     End of self-consistent calculation

          k = 0.0000 0.0000 0.0000 (  2685 PWs)   bands (ev):

  -105.3607-105.3596 -63.0265 -63.0250 -62.7983 -62.7973 -62.3751 -62.3733
   -19.3269 -19.1565 -19.1190 -19.1064 -15.8414 -15.6176 -15.5469 -15.5169
   -15.4351 -15.4177 -15.4078 -15.3892 -15.1433 -15.1153 -15.0275 -14.9294
    -4.6786  -4.6216  -4.4564  -4.4264  -4.4124  -4.4044  -4.3615  -4.3224
    -4.2878  -4.2185  -4.2019  -4.0832   0.7273   1.5067   1.6633   1.7223
     1.8684   1.9815   2.0713   2.1101   2.1203   2.1442   2.2454   2.8704
     2.8783   2.8833   3.0220   3.0698   3.0700   3.1014   3.2183   3.2354
     3.2963   3.3445   3.4456   3.4531   3.4773   3.5181   3.5742   3.6338
     3.7712   3.8207   3.8598   3.9196   3.9778   4.0108   4.0836   4.1914
     5.1324   5.1925   5.3024   5.3059   5.4137   5.4179   5.6235   5.8140
     6.8621   6.8699  10.5437  11.6680  12.2420  12.3332  12.3349  12.4042
    12.4300  12.5159  13.0919  13.3031  13.6575  13.9171  14.1283  14.3514
    14.4536

     occupation numbers
     1.0000   1.0000   1.0000   1.0000   1.0000   1.0000   1.0000   1.0000
     1.0000   1.0000   1.0000   1.0000   1.0000   1.0000   1.0000   1.0000
     1.0000   1.0000   1.0000   1.0000   1.0000   1.0000   1.0000   1.0000
     1.0000   1.0000   1.0000   1.0000   1.0000   1.0000   1.0000   1.0000
     1.0000   1.0000   1.0000   1.0000   1.0000   1.0000   1.0000   1.0000
     1.0000   1.0000   1.0000   1.0000   1.0000   1.0000   1.0000   1.0000
     1.0000   1.0000   1.0000   1.0000   1.0000   1.0000   1.0000   1.0000
     1.0000   1.0000   1.0000   1.0000   1.0000   1.0000   1.0000   1.0000
     1.0000   1.0000   1.0000   1.0000   1.0000   1.0000   1.0000   1.0000
     1.0000   1.0000   1.0000   1.0000   1.0000   1.0000   1.0000   1.0000
     0.7327   0.2673  -0.0000  -0.0000  -0.0000  -0.0000  -0.0000  -0.0000
    -0.0000  -0.0000  -0.0000  -0.0000  -0.0000  -0.0000  -0.0000  -0.0000
    -0.0000

     the Fermi energy is     6.8660 ev

!    total energy              =   -3137.38023529 Ry
     estimated scf accuracy    <       0.00000085 Ry
     smearing contrib. (-TS)   =      -0.00043336 Ry
     internal energy E=F+TS    =   -3137.37980192 Ry

     The total energy is F=E-TS. E is the sum of the following terms:
     one-electron contribution =   -1206.65563767 Ry
     hartree contribution      =     697.04652328 Ry
     xc contribution           =    -271.52658201 Ry
     ewald contribution        =    -856.41619517 Ry
     one-center paw contrib.   =   -1499.82791035 Ry
      -> PAW hartree energy AE =     114.52761450 Ry
      -> PAW hartree energy PS =    -114.06648255 Ry
      -> PAW xc energy AE      =   -1576.88861178 Ry
      -> PAW xc energy PS      =      76.59956948 Ry
      -> total E_H with PAW    =     697.50765523 Ry
      -> total E_XC with PAW   =   -1771.81562431 Ry

     convergence has been achieved in  31 iterations

     Forces acting on atoms (cartesian axes, Ry/au):

     atom    1 type  1   force =    -0.01723887    0.00639204   -0.00000656
     atom    2 type  1   force =     0.01723887   -0.00639204   -0.00000656
     atom    3 type  1   force =     0.01723887   -0.00639204    0.00000656
     atom    4 type  1   force =    -0.01723887    0.00639204    0.00000656
     atom    5 type  2   force =     0.00000000    0.00000000    0.00000000
     atom    6 type  2   force =     0.00000000    0.00000000    0.00000000
     atom    7 type  3   force =    -0.01752051    0.00649246   -0.00000009
     atom    8 type  3   force =     0.01752051   -0.00649246   -0.00000009
     atom    9 type  3   force =     0.01752051   -0.00649246    0.00000009
     atom   10 type  3   force =    -0.01752051    0.00649246    0.00000009
     atom   11 type  3   force =     0.00532789    0.01437798    0.00606182
     atom   12 type  3   force =    -0.00532789   -0.01437798    0.00606182
     atom   13 type  3   force =    -0.00000257   -0.00000628   -0.00000005
     atom   14 type  3   force =     0.00000257    0.00000628   -0.00000005
     atom   15 type  3   force =     0.00000257    0.00000628    0.00000005
     atom   16 type  3   force =    -0.00000257   -0.00000628    0.00000005
     atom   17 type  3   force =    -0.00532789   -0.01437798   -0.00606182
     atom   18 type  3   force =     0.00532789    0.01437798   -0.00606182
     The non-local contrib.  to forces
     atom    1 type  1   force =     0.05368349   -0.01990225   -0.00001736
     atom    2 type  1   force =    -0.05368349    0.01990225   -0.00001736
     atom    3 type  1   force =    -0.05368349    0.01990225    0.00001736
     atom    4 type  1   force =     0.05368349   -0.01990225    0.00001736
     atom    5 type  2   force =     0.00000000    0.00000000    0.00000000
     atom    6 type  2   force =     0.00000000    0.00000000    0.00000000
     atom    7 type  3   force =    -0.68853953    0.25514531   -0.00000036
     atom    8 type  3   force =     0.68853953   -0.25514531   -0.00000036
     atom    9 type  3   force =     0.68853953   -0.25514531    0.00000036
     atom   10 type  3   force =    -0.68853953    0.25514531    0.00000036
     atom   11 type  3   force =    -0.11898086   -0.32108172   -0.24080568
     atom   12 type  3   force =     0.11898086    0.32108172   -0.24080568
     atom   13 type  3   force =     0.00277549    0.00749060    0.00000028
     atom   14 type  3   force =    -0.00277549   -0.00749060    0.00000028
     atom   15 type  3   force =    -0.00277549   -0.00749060   -0.00000028
     atom   16 type  3   force =     0.00277549    0.00749060   -0.00000028
     atom   17 type  3   force =     0.11898086    0.32108172    0.24080568
     atom   18 type  3   force =    -0.11898086   -0.32108172    0.24080568
     The ionic contribution  to forces
     atom    1 type  1   force =    -5.96972231    2.21214547   -0.00000000
     atom    2 type  1   force =     5.96972231   -2.21214547   -0.00000000
     atom    3 type  1   force =     5.96972231   -2.21214547    0.00000000
     atom    4 type  1   force =    -5.96972231    2.21214547    0.00000000
     atom    5 type  2   force =    -0.00000000   -0.00000000    0.00000000
     atom    6 type  2   force =     0.00000000    0.00000000   -0.00000000
     atom    7 type  3   force =    18.67973305   -6.92197806    0.00000000
     atom    8 type  3   force =   -18.67973304    6.92197806    0.00000000
     atom    9 type  3   force =   -18.67973305    6.92197806   -0.00000000
     atom   10 type  3   force =    18.67973304   -6.92197806    0.00000000
     atom   11 type  3   force =     2.94207330    7.93951431    1.59887386
     atom   12 type  3   force =    -2.94207330   -7.93951431    1.59887386
     atom   13 type  3   force =    -0.01093537   -0.02951033   -0.00000000
     atom   14 type  3   force =     0.01093537    0.02951033    0.00000000
     atom   15 type  3   force =     0.01093537    0.02951033    0.00000000
     atom   16 type  3   force =    -0.01093537   -0.02951033   -0.00000000
     atom   17 type  3   force =    -2.94207330   -7.93951431   -1.59887386
     atom   18 type  3   force =     2.94207330    7.93951430   -1.59887386
     The local contribution  to forces
     atom    1 type  1   force =     5.90185608   -2.18652849    0.00045386
     atom    2 type  1   force =    -5.90082000    2.18669153   -0.00043303
     atom    3 type  1   force =    -5.90054370    2.18725167   -0.00024879
     atom    4 type  1   force =     5.90160539   -2.18650753    0.00020996
     atom    5 type  2   force =    -0.00000457   -0.00000075    0.00000426
     atom    6 type  2   force =    -0.00000224    0.00000174   -0.00000631
     atom    7 type  3   force =   -18.00875449    6.67333638    0.00000392
     atom    8 type  3   force =    18.00854944   -6.67326498   -0.00000537
     atom    9 type  3   force =    18.00875087   -6.67334043    0.00000001
     atom   10 type  3   force =   -18.00854935    6.67326443   -0.00000115
     atom   11 type  3   force =    -2.81780343   -7.60414306   -1.35208700
     atom   12 type  3   force =     2.81770820    7.60390988   -1.35191220
     atom   13 type  3   force =     0.00815304    0.02200560    0.00000645
     atom   14 type  3   force =    -0.00815740   -0.02201624   -0.00000854
     atom   15 type  3   force =    -0.00815910   -0.02201314   -0.00000745
     atom   16 type  3   force =     0.00816070    0.02201942    0.00000750
     atom   17 type  3   force =     2.81779672    7.60414608    1.35209005
     atom   18 type  3   force =    -2.81771129   -7.60390963    1.35190995
     The core correction contribution to forces
     atom    1 type  1   force =    -0.00241217    0.00090182    0.00000587
     atom    2 type  1   force =     0.00242762   -0.00089918   -0.00000507
     atom    3 type  1   force =     0.00243402   -0.00088900   -0.00000461
     atom    4 type  1   force =    -0.00241441    0.00090173    0.00000297
     atom    5 type  2   force =    -0.00000001   -0.00000000   -0.00000000
     atom    6 type  2   force =    -0.00000000    0.00000000    0.00000000
     atom    7 type  3   force =     0.00000000    0.00000000    0.00000000
     atom    8 type  3   force =     0.00000000    0.00000000    0.00000000
     atom    9 type  3   force =     0.00000000    0.00000000    0.00000000
     atom   10 type  3   force =     0.00000000    0.00000000    0.00000000
     atom   11 type  3   force =     0.00000000    0.00000000    0.00000000
     atom   12 type  3   force =     0.00000000    0.00000000    0.00000000
     atom   13 type  3   force =     0.00000000    0.00000000    0.00000000
     atom   14 type  3   force =     0.00000000    0.00000000    0.00000000
     atom   15 type  3   force =     0.00000000    0.00000000    0.00000000
     atom   16 type  3   force =     0.00000000    0.00000000    0.00000000
     atom   17 type  3   force =     0.00000000    0.00000000    0.00000000
     atom   18 type  3   force =     0.00000000    0.00000000    0.00000000
     The Hubbard contrib.    to forces
     atom    1 type  1   force =     0.00000000    0.00000000    0.00000000
     atom    2 type  1   force =     0.00000000    0.00000000    0.00000000
     atom    3 type  1   force =     0.00000000    0.00000000    0.00000000
     atom    4 type  1   force =     0.00000000    0.00000000    0.00000000
     atom    5 type  2   force =     0.00000000    0.00000000    0.00000000
     atom    6 type  2   force =     0.00000000    0.00000000    0.00000000
     atom    7 type  3   force =     0.00000000    0.00000000    0.00000000
     atom    8 type  3   force =     0.00000000    0.00000000    0.00000000
     atom    9 type  3   force =     0.00000000    0.00000000    0.00000000
     atom   10 type  3   force =     0.00000000    0.00000000    0.00000000
     atom   11 type  3   force =     0.00000000    0.00000000    0.00000000
     atom   12 type  3   force =     0.00000000    0.00000000    0.00000000
     atom   13 type  3   force =     0.00000000    0.00000000    0.00000000
     atom   14 type  3   force =     0.00000000    0.00000000    0.00000000
     atom   15 type  3   force =     0.00000000    0.00000000    0.00000000
     atom   16 type  3   force =     0.00000000    0.00000000    0.00000000
     atom   17 type  3   force =     0.00000000    0.00000000    0.00000000
     atom   18 type  3   force =     0.00000000    0.00000000    0.00000000
     The SCF correction term to forces
     atom    1 type  1   force =    -0.00006632   -0.00003667   -0.00007349
     atom    2 type  1   force =    -0.00005627    0.00000855    0.00006501
     atom    3 type  1   force =    -0.00012254   -0.00006235    0.00003627
     atom    4 type  1   force =    -0.00004964   -0.00003437   -0.00002586
     atom    5 type  2   force =     0.00000595    0.00000352   -0.00000244
     atom    6 type  2   force =     0.00000185   -0.00000495    0.00000632
     atom    7 type  3   force =     0.00003770   -0.00000696   -0.00000414
     atom    8 type  3   force =     0.00016059   -0.00005935    0.00000591
     atom    9 type  3   force =    -0.00003306    0.00001576   -0.00000011
     atom   10 type  3   force =    -0.00016211    0.00005798    0.00000051
     atom   11 type  3   force =     0.00004208    0.00009172    0.00007549
     atom   12 type  3   force =     0.00005859    0.00014857   -0.00008905
     atom   13 type  3   force =     0.00000393    0.00000798   -0.00000750
     atom   14 type  3   force =    -0.00000287    0.00000320    0.00000847
     atom   15 type  3   force =     0.00000344   -0.00000022    0.00000810
     atom   16 type  3   force =    -0.00000436   -0.00000560   -0.00000797
     atom   17 type  3   force =    -0.00003325   -0.00009545   -0.00007897
     atom   18 type  3   force =    -0.00005528   -0.00014836    0.00009166

     Total force =     0.061936     Total SCF correction =     0.000452

     Computing stress (Cartesian axis) and pressure

          total   stress  (Ry/bohr**3)                   (kbar)     P=     -182.57
  -0.00137372   0.00010014   0.00000000         -202.08       14.73        0.00
   0.00010014  -0.00114059   0.00000000           14.73     -167.79        0.00
   0.00000000   0.00000000  -0.00120891            0.00        0.00     -177.84

     kinetic stress (kbar)  18447.82     67.93      0.00
                               67.93  18605.95      0.00
                                0.00      0.00  18743.01

     local   stress (kbar) -11490.64  -3595.34      0.01
                            -3595.34 -19860.78      0.03
                                0.01      0.03 -14228.16

     nonloc. stress (kbar)   6066.66     25.32      0.00
                               25.32   6125.61      0.00
                                0.00      0.00   6179.38

     hartree stress (kbar)  15207.63   1953.21     -0.01
                             1953.21  19754.80     -0.03
                               -0.01     -0.03  17694.69

     exc-cor stress (kbar)  -1740.10     -0.80      0.00
                               -0.80  -1741.96      0.00
                                0.00      0.00  -1745.80

     corecor stress (kbar)  -3955.86     -0.35     -0.00
                               -0.35  -3956.67      0.00
                               -0.00      0.00  -3956.88

     ewald   stress (kbar) -22737.59   1564.77      0.00
                             1564.77 -19094.73      0.00
                                0.00      0.00 -22864.09

     hubbard stress (kbar)      0.00      0.00      0.00
                                0.00      0.00      0.00
                                0.00      0.00      0.00

     DFT-D   stress (kbar)      0.00      0.00      0.00
                                0.00      0.00      0.00
                                0.00      0.00      0.00

     XDM     stress (kbar)      0.00      0.00      0.00
                                0.00      0.00      0.00
                                0.00      0.00      0.00

     dft-nl  stress (kbar)      0.00      0.00      0.00
                                0.00      0.00      0.00
                                0.00      0.00      0.00

     TS-vdW  stress (kbar)      0.00      0.00      0.00
                                0.00      0.00      0.00
                                0.00      0.00      0.00

[...]

                                0.00      0.00      0.00

     Writing all to output data dir new_calculations/myprefix.save/

     General routines

     Parallel routines

     PAW routines

   This run was terminated on:   6: 7:49  20May2023

   JOB DONE.