     Program PWSCF v.7.0 starts on 20May2023 at 12:26:21

     Reading input from espresso_7367.pwi
Warning: card &CELL ignored
Warning: card / ignored

     Current dimensions of program PWSCF are:
     Max number of different atomic species (ntypx) = 10
     Max number of k-points (npk) =  40000
     Max angular momentum in pseudopotentials (lmaxx) =  4
     file Al.pbe-n-kjpaw_psl.1.0.0.UPF: wavefunction(s)  3S 3P renormalized

     gamma-point specific algorithms are used
     Message from routine setup:
     using ibrav=0 with symmetry is DISCOURAGED, use correct ibrav instead

     Subspace diagonalization in iterative solution of the eigenvalue problem:
     a serial algorithm will be used

     Using Slab Decomposition

     bravais-lattice index     =            0
     lattice parameter (alat)  =       9.6744  a.u.
     unit-cell volume          =     972.5561 (a.u.)^3
     number of atoms/cell      =           12
     number of atomic types    =            2
     number of electrons       =        72.00
     number of Kohn-Sham states=           43
     kinetic-energy cutoff     =      30.0000  Ry
     charge density cutoff     =     240.0000  Ry
     scf convergence threshold =      1.0E-06
     mixing beta               =       0.7000
     number of iterations used =            8  plain     mixing
     Exchange-correlation=  SLA  PW   PBX  PBC
                           (   1   4   3   4   0   0   0)

     celldm(1)=   9.674366  celldm(2)=   0.000000  celldm(3)=   0.000000
     celldm(4)=   0.000000  celldm(5)=   0.000000  celldm(6)=   0.000000

     crystal axes: (cart. coord. in units of alat)
               a(1) = (   1.000000   0.000000   0.000000 )
               a(2) = (  -0.500000   0.866025   0.000000 )
               a(3) = (   0.000000   0.000000   1.240271 )

     reciprocal axes: (cart. coord. in units 2 pi/alat)
               b(1) = (  1.000000  0.577350  0.000000 )
               b(2) = (  0.000000  1.154701  0.000000 )
               b(3) = (  0.000000  0.000000  0.806276 )

     PseudoPot. # 1 for Al read from file:
     /home/pragov/projects/rrg-bengioy-ad/pragov/crystal_structure_design/SSSP/Al.pbe-n-kjpaw_psl.1.0.0.UPF
     MD5 check sum: cfc449ca30b5f3223ec38ddd88ac046d
     Pseudo is Projector augmented-wave + core cor, Zval =  3.0
     Generated using "atomic" code by A. Dal Corso  v.5.1
     Shape of augmentation charge: PSQ
     Using radial grid of 1135 points,  6 beta functions with:
                l(1) =   0
                l(2) =   0
                l(3) =   1
                l(4) =   1
                l(5) =   2
                l(6) =   2
     Q(r) pseudized with 0 coefficients

     PseudoPot. # 2 for F  read from file:
     /home/pragov/projects/rrg-bengioy-ad/pragov/crystal_structure_design/SSSP/f_pbe_v1.4.uspp.F.UPF
     MD5 check sum: 4c38b6a325caf53ec0e86aed9459de46
     Pseudo is Ultrasoft, Zval =  7.0
     Generated by new atomic code, or converted to UPF format
     Using radial grid of  799 points,  4 beta functions with:
                l(1) =   0
                l(2) =   0
                l(3) =   1
                l(4) =   1
     Q(r) pseudized with  8 coefficients,  rinner =    0.950   0.950   0.950

     atomic species   valence    mass     pseudopotential
        Al             3.00    26.98154     Al( 1.00)
        F              7.00    18.99840     F ( 1.00)

      6 Sym. Ops. (no inversion) found

                                    s                        frac. trans.

      isym =  1     identity

 cryst.   s( 1) = (     1          0          0      )
                  (     0          1          0      )
                  (     0          0          1      )

 cart.    s( 1) = (  1.0000000 -0.0000000  0.0000000 )
                  (  0.0000000  1.0000000  0.0000000 )
                  (  0.0000000  0.0000000  1.0000000 )

      isym =  2     180 deg rotation - cart. axis [1,0,0]

[...]

      isym =  3     120 deg rotation - cryst. axis [0,0,1]

[...]

      isym =  6     180 deg rotation - cryst. axis [1,1,0]

 cryst.   s( 6) = (     0          1          0      )
                  (     1          0          0      )
                  (     0          0         -1      )

 cart.    s( 6) = ( -0.5000000  0.8660254  0.0000000 )
                  (  0.8660254  0.5000000  0.0000000 )
                  (  0.0000000  0.0000000 -1.0000000 )

   Cartesian axes

     site n.     atom                  positions (alat units)
         1           Al  tau(   1) = (   0.0000000   0.0000000   0.0000000  )
         2           Al  tau(   2) = (   0.5000005   0.2886749   0.4136229  )
         3           Al  tau(   3) = (  -0.0000005   0.5773506   0.8266479  )
         4           F   tau(   4) = (  -0.2382415   0.4126464   0.6201354  )
         5           F   tau(   5) = (   0.4764830   0.0000000   0.6201354  )
         6           F   tau(   6) = (   0.2617585   0.4533790   0.6201354  )
         7           F   tau(   7) = (   0.0080580   0.2887987   1.0335722  )
         8           F   tau(   8) = (  -0.2539220   0.7146476   1.0335722  )
         9           F   tau(   9) = (   0.2458640   0.7286045   1.0335722  )
        10           F   tau(  10) = (   0.7458640   0.1374209   0.2066986  )
        11           F   tau(  11) = (   0.2460780   0.1513778   0.2066986  )
        12           F   tau(  12) = (   0.5080580   0.5772267   0.2066986  )

   Crystallographic axes

     site n.     atom                  positions (cryst. coord.)
         1           Al  tau(   1) = (  0.0000000  0.0000000  0.0000000  )
         2           Al  tau(   2) = (  0.6666670  0.3333330  0.3334940  )
         3           Al  tau(   3) = (  0.3333330  0.6666670  0.6665060  )
         4           F   tau(   4) = (  0.0000000  0.4764830  0.5000000  )
         5           F   tau(   5) = (  0.4764830  0.0000000  0.5000000  )
         6           F   tau(   6) = (  0.5235170  0.5235170  0.5000000  )
         7           F   tau(   7) = (  0.1747960  0.3334760  0.8333440  )
         8           F   tau(   8) = (  0.1586800  0.8252040  0.8333440  )
         9           F   tau(   9) = (  0.6665240  0.8413200  0.8333440  )
        10           F   tau(  10) = (  0.8252040  0.1586800  0.1666560  )
        11           F   tau(  11) = (  0.3334760  0.1747960  0.1666560  )
        12           F   tau(  12) = (  0.8413200  0.6665240  0.1666560  )

     number of k points=     1  Methfessel-Paxton smearing, width (Ry)=  0.0010
                       cart. coord. in units 2pi/alat
        k(    1) = (   0.0000000   0.0000000   0.0000000), wk =   2.0000000

                       cryst. coord.
        k(    1) = (   0.0000000   0.0000000   0.0000000), wk =   2.0000000

     Initial potential from superposition of free atoms

     starting charge      71.9931, renormalised to      72.0000
     Starting wfcs are   48 randomized atomic wfcs
     Checking if some PAW data can be deallocated...

     Self-consistent Calculation

     iteration #  1     ecut=    30.00 Ry     beta= 0.70
     Davidson diagonalization with overlap

     ethr =  1.00E-02,  avg # of iterations =  2.0

     total energy              =    -556.85827881 Ry
     estimated scf accuracy    <       1.40602533 Ry

[...]

     total energy              =    -557.42504041 Ry
     estimated scf accuracy    <       0.00000555 Ry

     iteration #  7     ecut=    30.00 Ry     beta= 0.70
     Davidson diagonalization with overlap

     ethr =  7.71E-09,  avg # of iterations =  4.0

     End of self-consistent calculation

          k = 0.0000 0.0000 0.0000 (  1358 PWs)   bands (ev):

   -21.3829 -20.6176 -20.6170 -20.2180 -20.2179 -20.1944 -20.1943 -19.9028
   -19.9026  -6.0641  -6.0419  -4.2672  -4.2378  -4.2377  -2.6720  -2.6719
    -2.6264  -2.6264  -2.3975  -2.3930  -2.1152  -2.1152  -2.0592  -2.0592
    -0.5174  -0.5174  -0.4907  -0.4643  -0.4116  -0.4115   0.0302   0.0304
     0.0518   0.0519   0.1276   0.1800   7.6651  11.7662  11.7845  11.9529
    13.3737  13.4060  14.6588

     occupation numbers
     1.0000   1.0000   1.0000   1.0000   1.0000   1.0000   1.0000   1.0000
     1.0000   1.0000   1.0000   1.0000   1.0000   1.0000   1.0000   1.0000
     1.0000   1.0000   1.0000   1.0000   1.0000   1.0000   1.0000   1.0000
     1.0000   1.0000   1.0000   1.0000   1.0000   1.0000   1.0000   1.0000
     1.0000   1.0000   1.0000   1.0000  -0.0000  -0.0000  -0.0000  -0.0000
    -0.0000  -0.0000  -0.0000

     the Fermi energy is     5.7164 ev

!    total energy              =    -557.42504203 Ry
     estimated scf accuracy    <       0.00000041 Ry
     smearing contrib. (-TS)   =       0.00000000 Ry
     internal energy E=F+TS    =    -557.42504203 Ry

     The total energy is F=E-TS. E is the sum of the following terms:
     one-electron contribution =    -257.06675807 Ry
     hartree contribution      =     170.39068783 Ry
     xc contribution           =     -93.23261299 Ry
     ewald contribution        =    -273.63960414 Ry
     one-center paw contrib.   =    -103.87675466 Ry
      -> PAW hartree energy AE =       6.17929582 Ry
      -> PAW hartree energy PS =      -6.17275309 Ry
      -> PAW xc energy AE      =    -110.49364313 Ry
      -> PAW xc energy PS      =       6.61034574 Ry
      -> total E_H with PAW    =     170.39723056 Ry
      -> total E_XC with PAW   =    -197.11591038 Ry

     convergence has been achieved in   7 iterations

     Forces acting on atoms (cartesian axes, Ry/au):

     atom    1 type  1   force =     0.00000000    0.00000000    0.00000000
     atom    2 type  1   force =     0.00000000    0.00000000   -0.00004343
     atom    3 type  1   force =    -0.00000000   -0.00000000    0.00004343
     atom    4 type  2   force =     0.00247380   -0.00428475    0.00000000
     atom    5 type  2   force =    -0.00494760    0.00000000    0.00000000
     atom    6 type  2   force =     0.00247380    0.00428475    0.00000000
     atom    7 type  2   force =     0.00367087   -0.00010615   -0.00012072
     atom    8 type  2   force =    -0.00192737   -0.00312599   -0.00012072
     atom    9 type  2   force =    -0.00174350    0.00323215   -0.00012072
     atom   10 type  2   force =    -0.00174350   -0.00323215    0.00012072
     atom   11 type  2   force =    -0.00192737    0.00312599    0.00012072
     atom   12 type  2   force =     0.00367087    0.00010615    0.00012072
     The non-local contrib.  to forces
     atom    1 type  1   force =     0.00000000    0.00000000    0.00000000
     atom    2 type  1   force =     0.00000000    0.00000000    0.00114809
     atom    3 type  1   force =     0.00000000    0.00000000   -0.00114809
     atom    4 type  2   force =    -0.10557729    0.18286524    0.00000000
     atom    5 type  2   force =     0.21115459   -0.00000001   -0.00000000
     atom    6 type  2   force =    -0.10557729   -0.18286523   -0.00000000
     atom    7 type  2   force =    -0.06647521   -0.00033334   -0.00245259
     atom    8 type  2   force =     0.03294893    0.05773589   -0.00245259
     atom    9 type  2   force =     0.03352628   -0.05740255   -0.00245259
     atom   10 type  2   force =     0.03352628    0.05740255    0.00245259
     atom   11 type  2   force =     0.03294893   -0.05773589    0.00245259
     atom   12 type  2   force =    -0.06647521    0.00033334    0.00245259
     The ionic contribution  to forces
     atom    1 type  1   force =     0.00000001    0.00000002   -0.00000000
     atom    2 type  1   force =    -0.00000859    0.00000493    0.03440074
     atom    3 type  1   force =     0.00000857   -0.00000498   -0.03440074
     atom    4 type  2   force =     0.30920662   -0.53555817    0.00000110
     atom    5 type  2   force =    -0.61841029    0.00000172   -0.00000110
     atom    6 type  2   force =     0.30920370    0.53555650    0.00000000
     atom    7 type  2   force =     0.25635752    0.01335872    0.00603181
     atom    8 type  2   force =    -0.11661743   -0.22868242    0.00604355
     atom    9 type  2   force =    -0.13974273    0.21532521    0.00603215
     atom   10 type  2   force =    -0.13973609   -0.21533486   -0.00604355
     atom   11 type  2   force =    -0.11660976    0.22869149   -0.00603181
     atom   12 type  2   force =     0.25634847   -0.01335816   -0.00603215
     The local contribution  to forces
     atom    1 type  1   force =    -0.00000752    0.00000233   -0.00001557
     atom    2 type  1   force =     0.00000874   -0.00000864   -0.03533287
     atom    3 type  1   force =    -0.00000474    0.00000247    0.03535080
     atom    4 type  2   force =    -0.20135018    0.34848256   -0.00008434
     atom    5 type  2   force =     0.40242240    0.00010567   -0.00009690
     atom    6 type  2   force =    -0.20116157   -0.34858576   -0.00006417
     atom    7 type  2   force =    -0.18625243   -0.01311851   -0.00364712
     atom    8 type  2   force =     0.08173557    0.16784355   -0.00368328
     atom    9 type  2   force =     0.10446650   -0.15468510   -0.00365934
     atom   10 type  2   force =     0.10438671    0.15478751    0.00373494
     atom   11 type  2   force =     0.08188643   -0.16780278    0.00370437
     atom   12 type  2   force =    -0.18623648    0.01305854    0.00371733
     The core correction contribution to forces
     atom    1 type  1   force =     0.00000067    0.00000014    0.00000074
     atom    2 type  1   force =     0.00000116   -0.00000033   -0.00027383
     atom    3 type  1   force =    -0.00000109   -0.00000028    0.00027359
     atom    4 type  2   force =     0.00000000    0.00000000    0.00000000
     atom    5 type  2   force =     0.00000000    0.00000000    0.00000000
     atom    6 type  2   force =     0.00000000    0.00000000    0.00000000
     atom    7 type  2   force =     0.00000000    0.00000000    0.00000000
     atom    8 type  2   force =     0.00000000    0.00000000    0.00000000
     atom    9 type  2   force =     0.00000000    0.00000000    0.00000000
     atom   10 type  2   force =     0.00000000    0.00000000    0.00000000
     atom   11 type  2   force =     0.00000000    0.00000000    0.00000000
     atom   12 type  2   force =     0.00000000    0.00000000    0.00000000
     The Hubbard contrib.    to forces
     atom    1 type  1   force =     0.00000000    0.00000000    0.00000000
     atom    2 type  1   force =     0.00000000    0.00000000    0.00000000
     atom    3 type  1   force =     0.00000000    0.00000000    0.00000000
     atom    4 type  2   force =     0.00000000    0.00000000    0.00000000
     atom    5 type  2   force =     0.00000000    0.00000000    0.00000000
     atom    6 type  2   force =     0.00000000    0.00000000    0.00000000
     atom    7 type  2   force =     0.00000000    0.00000000    0.00000000
     atom    8 type  2   force =     0.00000000    0.00000000    0.00000000
     atom    9 type  2   force =     0.00000000    0.00000000    0.00000000
     atom   10 type  2   force =     0.00000000    0.00000000    0.00000000
     atom   11 type  2   force =     0.00000000    0.00000000    0.00000000
     atom   12 type  2   force =     0.00000000    0.00000000    0.00000000
     The SCF correction term to forces
     atom    1 type  1   force =     0.00001388   -0.00000399    0.00001873
     atom    2 type  1   force =     0.00000051    0.00000422    0.00001469
     atom    3 type  1   force =    -0.00001040    0.00000235   -0.00003188
     atom    4 type  2   force =     0.00027003   -0.00003989    0.00012225
     atom    5 type  2   force =    -0.00009652   -0.00016921    0.00015317
     atom    6 type  2   force =    -0.00003483    0.00021601    0.00012021
     atom    7 type  2   force =     0.00007135    0.00001154   -0.00008124
     atom    8 type  2   force =     0.00004375   -0.00004211   -0.00002055
     atom    9 type  2   force =    -0.00001864   -0.00005392   -0.00006942
     atom   10 type  2   force =     0.00011579   -0.00011085   -0.00006146
     atom   11 type  2   force =    -0.00020756   -0.00004618   -0.00001777
     atom   12 type  2   force =     0.00002296    0.00008552   -0.00001457

     Total force =     0.012428     Total SCF correction =     0.000568

     Computing stress (Cartesian axis) and pressure

          total   stress  (Ry/bohr**3)                   (kbar)     P=     -111.29
  -0.00059700   0.00000000   0.00000000          -87.82        0.00        0.00
   0.00000000  -0.00059700   0.00000000            0.00      -87.82        0.00
   0.00000000   0.00000000  -0.00107556            0.00        0.00     -158.22

     kinetic stress (kbar)  17059.64     -0.00      0.00
                               -0.00  17059.64      0.00
                                0.00      0.00  16897.77

     local   stress (kbar)  -9000.49      0.01      0.02
                                0.01  -9000.49     -0.01
                                0.02     -0.01  -9018.66

     nonloc. stress (kbar)   1474.25     -0.00      0.00
                               -0.00   1474.25      0.00
                                0.00      0.00   1455.33

     hartree stress (kbar)   8587.36     -0.01     -0.01
                               -0.01   8587.35      0.00
                               -0.01      0.00   8597.93

     exc-cor stress (kbar)  -3935.21      0.00      0.00
                                0.00  -3935.21      0.00
                                0.00      0.00  -3933.37

     corecor stress (kbar)   -438.62     -0.00     -0.00
                               -0.00   -438.62      0.00
                               -0.00      0.00   -437.04

     ewald   stress (kbar) -13834.75     -0.00     -0.00
                               -0.00 -13834.75      0.00
                               -0.00      0.00 -13720.18

     hubbard stress (kbar)      0.00      0.00      0.00
                                0.00      0.00      0.00
                                0.00      0.00      0.00

     DFT-D   stress (kbar)      0.00      0.00      0.00
                                0.00      0.00      0.00
                                0.00      0.00      0.00

     XDM     stress (kbar)      0.00      0.00      0.00
                                0.00      0.00      0.00
                                0.00      0.00      0.00

     dft-nl  stress (kbar)      0.00      0.00      0.00
                                0.00      0.00      0.00
                                0.00      0.00      0.00

     TS-vdW  stress (kbar)      0.00      0.00      0.00
                                0.00      0.00      0.00
                                0.00      0.00      0.00

[...]

                                0.00      0.00      0.00

     Writing all to output data dir new_calculations/myprefix.save/

     General routines

     Parallel routines

     PAW routines

   This run was terminated on:  12:26:32  20May2023

   JOB DONE.