     Program PWSCF v.7.0 starts on 21May2023 at  2:20:12

     Reading input from espresso_12710.pwi
Warning: card &CELL ignored
Warning: card / ignored

     Current dimensions of program PWSCF are:
     Max number of different atomic species (ntypx) = 10
     Max number of k-points (npk) =  40000
     Max angular momentum in pseudopotentials (lmaxx) =  4
     file In.pbe-dn-rrkjus_psl.0.2.2.UPF: wavefunction(s)  5S renormalized

     gamma-point specific algorithms are used

     Subspace diagonalization in iterative solution of the eigenvalue problem:
     a serial algorithm will be used

     Using Slab Decomposition

     bravais-lattice index     =            0
     lattice parameter (alat)  =      10.8387  a.u.
     unit-cell volume          =    1272.8928 (a.u.)^3
     number of atoms/cell      =            5
     number of atomic types    =            3
     number of electrons       =        43.00
     number of Kohn-Sham states=           26
     kinetic-energy cutoff     =      30.0000  Ry
     charge density cutoff     =     240.0000  Ry
     scf convergence threshold =      1.0E-06
     mixing beta               =       0.7000
     number of iterations used =            8  plain     mixing
     Exchange-correlation=  SLA  PW   PBX  PBC
                           (   1   4   3   4   0   0   0)

     celldm(1)=  10.838746  celldm(2)=   0.000000  celldm(3)=   0.000000
     celldm(4)=   0.000000  celldm(5)=   0.000000  celldm(6)=   0.000000

     crystal axes: (cart. coord. in units of alat)
               a(1) = (   1.000000   0.000000   0.000000 )
               a(2) = (  -0.001261   0.999999   0.000000 )
               a(3) = (   0.001298   0.001300   0.999666 )

     reciprocal axes: (cart. coord. in units 2 pi/alat)
               b(1) = (  1.000000  0.001261 -0.001300 )
               b(2) = (  0.000000  1.000001 -0.001300 )
               b(3) = (  0.000000  0.000000  1.000334 )

     PseudoPot. # 1 for Rb read from file:
     /home/pragov/projects/rrg-bengioy-ad/pragov/crystal_structure_design/SSSP/Rb_ONCV_PBE-1.0.oncvpsp.upf
     MD5 check sum: 55a5172d6bfbce6759a58e35d43f6aa9
     Pseudo is Norm-conserving, Zval =  9.0
     Generated using ONCVPSP code by D. R. Hamann
     Using radial grid of 2308 points,  6 beta functions with:
                l(1) =   0
                l(2) =   0
                l(3) =   1
                l(4) =   1
                l(5) =   2
                l(6) =   2

     PseudoPot. # 2 for In read from file:
     /home/pragov/projects/rrg-bengioy-ad/pragov/crystal_structure_design/SSSP/In.pbe-dn-rrkjus_psl.0.2.2.UPF
     MD5 check sum: 25e7c42c3b55b68f4bf926be2e7201a4
     Pseudo is Ultrasoft + core correction, Zval = 13.0
     Generated using "atomic" code by A. Dal Corso  v.5.0.99 svn rev. 10869
     Using radial grid of 1241 points,  6 beta functions with:
                l(1) =   0
                l(2) =   0
                l(3) =   1
                l(4) =   1
                l(5) =   2
                l(6) =   2
     Q(r) pseudized with 0 coefficients

     PseudoPot. # 3 for Br read from file:
     /home/pragov/projects/rrg-bengioy-ad/pragov/crystal_structure_design/SSSP/br_pbe_v1.4.uspp.F.UPF
     MD5 check sum: d3ffb7b29f6225aa16fe06858fb2a80b
     Pseudo is Ultrasoft + core correction, Zval =  7.0
     Generated by new atomic code, or converted to UPF format
     Using radial grid of  879 points,  6 beta functions with:
                l(1) =   0
                l(2) =   0
                l(3) =   1
                l(4) =   1
                l(5) =   2
                l(6) =   2
     Q(r) pseudized with  8 coefficients,  rinner =    1.100   1.100   1.100
                                                       1.100   1.100

     atomic species   valence    mass     pseudopotential
        Rb             9.00    85.46780     Rb( 1.00)
        In            13.00   114.81800     In( 1.00)
        Br             7.00    79.90400     Br( 1.00)

     No symmetry found

                                    s                        frac. trans.

      isym =  1     identity

 cryst.   s( 1) = (     1          0          0      )
                  (     0          1          0      )
                  (     0          0          1      )

 cart.    s( 1) = (  1.0000000  0.0000000  0.0000000 )
                  (  0.0000000  1.0000000 -0.0000000 )
                  (  0.0000000  0.0000000  1.0000000 )

   Cartesian axes

     site n.     atom                  positions (alat units)
         1           Rb  tau(   1) = (   0.9978795   0.9991391   0.0014195  )
         2           In  tau(   2) = (   0.4956538   0.4962794   0.5167346  )
         3           Br  tau(   3) = (   0.9994638   0.4962724   0.5144253  )
         4           Br  tau(   4) = (   0.5051811   0.5058187   0.0154848  )
         5           Br  tau(   5) = (   0.4950113   1.0000890   0.5144253  )

   Crystallographic axes

     site n.     atom                  positions (cryst. coord.)
         1           Rb  tau(   1) = (  0.9991380  0.9991380  0.0014200  )
         2           In  tau(   2) = (  0.4956080  0.4956080  0.5169070  )
         3           Br  tau(   3) = (  0.9994210  0.4956040  0.5145970  )
         4           Br  tau(   4) = (  0.5057990  0.5057990  0.0154900  )
         5           Br  tau(   5) = (  0.4956040  0.9994210  0.5145970  )

     number of k points=     1  Methfessel-Paxton smearing, width (Ry)=  0.0010
                       cart. coord. in units 2pi/alat
        k(    1) = (   0.0000000   0.0000000   0.0000000), wk =   2.0000000

                       cryst. coord.
        k(    1) = (   0.0000000   0.0000000   0.0000000), wk =   2.0000000

     Check: negative core charge=   -0.000001

     Initial potential from superposition of free atoms

     starting charge      42.9715, renormalised to      43.0000
     Starting wfcs are   26 randomized atomic wfcs

     Self-consistent Calculation

     iteration #  1     ecut=    30.00 Ry     beta= 0.70
     Davidson diagonalization with overlap

     ethr =  1.00E-02,  avg # of iterations =  2.0

     Threshold (ethr) on eigenvalues was too large:
     Diagonalizing with lowered threshold

     Davidson diagonalization with overlap

[...]

     total energy              =    -334.62147589 Ry
     estimated scf accuracy    <       0.19141019 Ry

[...]

     ethr =  4.78E-05,  avg # of iterations =  1.0
     Minimization algorithm failed to find Fermi energy: reverting to bisection
     Possible cause: smearing is larger than the electronic band-gap.

[...]

     ethr =  2.98E-06,  avg # of iterations =  1.0
     Minimization algorithm failed to find Fermi energy: reverting to bisection
     Possible cause: smearing is larger than the electronic band-gap.

[...]

     total energy              =    -334.72066858 Ry
     estimated scf accuracy    <       0.00001195 Ry

     iteration # 76     ecut=    30.00 Ry     beta= 0.70
     Davidson diagonalization with overlap

     ethr =  3.88E-09,  avg # of iterations =  1.0

     End of self-consistent calculation

          k = 0.0000 0.0000 0.0000 (  1788 PWs)   bands (ev):

   -23.9963 -11.3384 -11.1127 -11.1063  -9.3482  -9.3482  -9.3479  -9.1008
    -9.1008  -8.0443  -8.0441  -8.0432  -0.5223  -0.5213  -0.5130   1.2100
     1.2170   1.2206   1.4215   1.4225   1.4227   1.4231   6.0100   7.7921
     7.7967   8.7060

     occupation numbers
     1.0000   1.0000   1.0000   1.0000   1.0000   1.0000   1.0000   1.0000
     1.0000   1.0000   1.0000   1.0000   1.0000   1.0000   1.0000   1.0000
     1.0000   1.0000   0.9126   0.8720   0.8656   0.8499  -0.0000  -0.0000
    -0.0000  -0.0000

     the Fermi energy is     1.4294 ev

!    total energy              =    -334.72066877 Ry
     estimated scf accuracy    <       0.00000013 Ry
     smearing contrib. (-TS)   =      -0.00041555 Ry
     internal energy E=F+TS    =    -334.72025321 Ry

     The total energy is F=E-TS. E is the sum of the following terms:
     one-electron contribution =    -118.70068621 Ry
     hartree contribution      =      79.77028448 Ry
     xc contribution           =    -133.60450574 Ry
     ewald contribution        =    -162.18534574 Ry

     convergence has been achieved in  76 iterations

     Forces acting on atoms (cartesian axes, Ry/au):

     atom    1 type  1   force =    -0.00034983   -0.00030295   -0.00233604
     atom    2 type  2   force =     0.00566844    0.00544679   -0.00381731
     atom    3 type  3   force =     0.00181782   -0.00473206    0.00134849
     atom    4 type  3   force =    -0.00227916   -0.00214590    0.00345247
     atom    5 type  3   force =    -0.00485728    0.00173412    0.00135239
     The non-local contrib.  to forces
     atom    1 type  1   force =     0.00065010    0.00064886    0.00402794
     atom    2 type  2   force =     0.00079690    0.00033921    0.00756636
     atom    3 type  3   force =    -0.00405769   -0.01056554   -0.00182661
     atom    4 type  3   force =    -0.00234233   -0.00208264   -0.00217613
     atom    5 type  3   force =    -0.01078717   -0.00397083   -0.00182833
     The ionic contribution  to forces
     atom    1 type  1   force =    -0.00265177   -0.00265512    0.30254390
     atom    2 type  2   force =     0.06082502    0.06090179   -0.12484836
     atom    3 type  3   force =    -0.18291090    0.02160310   -0.15299422
     atom    4 type  3   force =     0.10290384    0.10303373    0.12829290
     atom    5 type  3   force =     0.02183381   -0.18288350   -0.15299422
     The local contribution  to forces
     atom    1 type  1   force =     0.00172384    0.00165264   -0.30887654
     atom    2 type  2   force =    -0.05626953   -0.05549572    0.11343517
     atom    3 type  3   force =     0.19097381   -0.01254880    0.15707872
     atom    4 type  3   force =    -0.10236632   -0.10251460   -0.12228497
     atom    5 type  3   force =    -0.01278057    0.19050685    0.15708718
     The core correction contribution to forces
     atom    1 type  1   force =     0.00000000    0.00000000    0.00000000
     atom    2 type  2   force =     0.00000639    0.00002102   -0.00004152
     atom    3 type  3   force =    -0.00205802   -0.00314294   -0.00090720
     atom    4 type  3   force =    -0.00058270   -0.00052177   -0.00032714
     atom    5 type  3   force =    -0.00319328   -0.00202484   -0.00090789
     The Hubbard contrib.    to forces
     atom    1 type  1   force =     0.00000000    0.00000000    0.00000000
     atom    2 type  2   force =     0.00000000    0.00000000    0.00000000
     atom    3 type  3   force =     0.00000000    0.00000000    0.00000000
     atom    4 type  3   force =     0.00000000    0.00000000    0.00000000
     atom    5 type  3   force =     0.00000000    0.00000000    0.00000000
     The SCF correction term to forces
     atom    1 type  1   force =    -0.00004692    0.00002484   -0.00000310
     atom    2 type  2   force =     0.00033473   -0.00034533    0.00009927
     atom    3 type  3   force =    -0.00010431   -0.00010369    0.00002604
     atom    4 type  3   force =     0.00013343   -0.00008644   -0.00002395
     atom    5 type  3   force =     0.00009500    0.00008062    0.00002388

     Total force =     0.012637     Total SCF correction =     0.000555

     Computing stress (Cartesian axis) and pressure

          total   stress  (Ry/bohr**3)                   (kbar)     P=       17.94
   0.00012054  -0.00000345   0.00000244           17.73       -0.51        0.36
  -0.00000345   0.00012079   0.00000225           -0.51       17.77        0.33
   0.00000244   0.00000225   0.00012460            0.36        0.33       18.33

     kinetic stress (kbar)   5300.50     -0.66      1.33
                               -0.66   5300.40      1.52
                                1.33      1.52   5300.82

     local   stress (kbar)    643.11     -1.58      0.00
                               -1.58    643.13     -0.16
                                0.00     -0.16    673.45

     nonloc. stress (kbar)   -724.83      0.12     -0.38
                                0.12   -724.78     -0.47
                               -0.38     -0.47   -724.85

     hartree stress (kbar)   3077.03      0.72     -0.23
                                0.72   3077.08     -0.19
                               -0.23     -0.19   3064.74

     exc-cor stress (kbar)   8469.81     -0.00      0.03
                               -0.00   8469.80      0.04
                                0.03      0.04   8469.78

     corecor stress (kbar) -10506.02      0.03     -0.10
                                0.03 -10506.00     -0.12
                               -0.10     -0.12 -10506.00

     ewald   stress (kbar)  -6241.87      0.87     -0.28
                                0.87  -6241.87     -0.28
                               -0.28     -0.28  -6259.63

     hubbard stress (kbar)      0.00      0.00      0.00
                                0.00      0.00      0.00
                                0.00      0.00      0.00

     DFT-D   stress (kbar)      0.00      0.00      0.00
                                0.00      0.00      0.00
                                0.00      0.00      0.00

     XDM     stress (kbar)      0.00      0.00      0.00
                                0.00      0.00      0.00
                                0.00      0.00      0.00

     dft-nl  stress (kbar)      0.00      0.00      0.00
                                0.00      0.00      0.00
                                0.00      0.00      0.00

     TS-vdW  stress (kbar)      0.00      0.00      0.00
                                0.00      0.00      0.00
                                0.00      0.00      0.00

[...]

                                0.00      0.00      0.00

     Writing all to output data dir new_calculations/myprefix.save/

     General routines

     Parallel routines

   This run was terminated on:   2:21:12  21May2023

   JOB DONE.