     Program PWSCF v.7.0 starts on 20May2023 at 17: 9:19

     Reading input from espresso_20101.pwi
Warning: card &CELL ignored
Warning: card / ignored

     Current dimensions of program PWSCF are:
     Max number of different atomic species (ntypx) = 10
     Max number of k-points (npk) =  40000
     Max angular momentum in pseudopotentials (lmaxx) =  4

     gamma-point specific algorithms are used
     Message from routine setup:
     using ibrav=0 with symmetry is DISCOURAGED, use correct ibrav instead

     Subspace diagonalization in iterative solution of the eigenvalue problem:
     a serial algorithm will be used

     Using Slab Decomposition

     bravais-lattice index     =            0
     lattice parameter (alat)  =      16.1746  a.u.
     unit-cell volume          =     759.3138 (a.u.)^3
     number of atoms/cell      =            6
     number of atomic types    =            3
     number of electrons       =        76.00
     number of Kohn-Sham states=           46
     kinetic-energy cutoff     =      30.0000  Ry
     charge density cutoff     =     240.0000  Ry
     scf convergence threshold =      1.0E-06
     mixing beta               =       0.7000
     number of iterations used =            8  plain     mixing
     Exchange-correlation=  SLA  PW   PBX  PBC
                           (   1   4   3   4   0   0   0)

     celldm(1)=  16.174623  celldm(2)=   0.000000  celldm(3)=   0.000000
     celldm(4)=   0.000000  celldm(5)=   0.000000  celldm(6)=   0.000000

     crystal axes: (cart. coord. in units of alat)
               a(1) = (   1.000000   0.000000   0.000000 )
               a(2) = (   0.892475   0.451097   0.000000 )
               a(3) = (   0.892475   0.212734   0.397785 )

     reciprocal axes: (cart. coord. in units 2 pi/alat)
               b(1) = (  1.000000 -1.978453 -1.185543 )
               b(2) = (  0.000000  2.216817 -1.185543 )
               b(3) = (  0.000000  0.000000  2.513919 )

     PseudoPot. # 1 for Lu read from file:
     /home/pragov/projects/rrg-bengioy-ad/pragov/crystal_structure_design/SSSP/Lu.GGA-PBE-paw-v1.0.UPF
     MD5 check sum: 9ceca61ee0c17e9380a83635bfffa61d
     Pseudo is Projector augmented-wave + core cor, Zval = 25.0
     Generated using ATOMPAW code
     Shape of augmentation charge: BESSEL
     Using radial grid of 1118 points,  8 beta functions with:
                l(1) =   0
                l(2) =   0
                l(3) =   1
                l(4) =   1
                l(5) =   2
                l(6) =   2
                l(7) =   3
                l(8) =   3
     Q(r) pseudized with 0 coefficients

     PseudoPot. # 2 for S  read from file:
     /home/pragov/projects/rrg-bengioy-ad/pragov/crystal_structure_design/SSSP/s_pbe_v1.4.uspp.F.UPF
     MD5 check sum: 88d86576ff6df21479756cfb9bdac1df
     Pseudo is Ultrasoft + core correction, Zval =  6.0
     Generated by new atomic code, or converted to UPF format
     Using radial grid of  907 points,  6 beta functions with:
                l(1) =   0
                l(2) =   0
                l(3) =   1
                l(4) =   1
                l(5) =   2
                l(6) =   2
     Q(r) pseudized with  8 coefficients,  rinner =    1.300   1.300   1.300
                                                       1.300   1.300

     PseudoPot. # 3 for F  read from file:
     /home/pragov/projects/rrg-bengioy-ad/pragov/crystal_structure_design/SSSP/f_pbe_v1.4.uspp.F.UPF
     MD5 check sum: 4c38b6a325caf53ec0e86aed9459de46
     Pseudo is Ultrasoft, Zval =  7.0
     Generated by new atomic code, or converted to UPF format
     Using radial grid of  799 points,  4 beta functions with:
                l(1) =   0
                l(2) =   0
                l(3) =   1
                l(4) =   1
     Q(r) pseudized with  8 coefficients,  rinner =    0.950   0.950   0.950

     atomic species   valence    mass     pseudopotential
        Lu            25.00   174.96680     Lu( 1.00)
        S              6.00    32.06000     S ( 1.00)
        F              7.00    18.99840     F ( 1.00)

      2 Sym. Ops., with inversion, found

                                    s                        frac. trans.

      isym =  1     identity

 cryst.   s( 1) = (     1          0          0      )
                  (     0          1          0      )
                  (     0          0          1      )

 cart.    s( 1) = (  1.0000000  0.0000000  0.0000000 )
                  (  0.0000000  1.0000000 -0.0000000 )
                  (  0.0000000  0.0000000  1.0000000 )

      isym =  2     inversion

 cryst.   s( 2) = (    -1          0          0      )
                  (     0         -1          0      )
                  (     0          0         -1      )

 cart.    s( 2) = ( -1.0000000 -0.0000000 -0.0000000 )
                  (  0.0000000 -1.0000000  0.0000000 )
                  (  0.0000000  0.0000000 -1.0000000 )

   Cartesian axes

     site n.     atom                  positions (alat units)
         1           Lu  tau(   1) = (   0.0000000   0.0000000   0.0000000  )
         2           Lu  tau(   2) = (   1.3924748   0.3319154   0.1988926  )
         3           S   tau(   3) = (   1.0883277   0.2594178   0.1554501  )
         4           S   tau(   4) = (   1.6966220   0.4044130   0.2423351  )
         5           F   tau(   5) = (   0.4661031   0.1111020   0.0665753  )
         6           F   tau(   6) = (   2.3188466   0.5527287   0.3312099  )

   Crystallographic axes

     site n.     atom                  positions (cryst. coord.)
         1           Lu  tau(   1) = (  0.0000000  0.0000000  0.0000000  )
         2           Lu  tau(   2) = (  0.5000000  0.5000000  0.5000000  )
         3           S   tau(   3) = (  0.3907890  0.3907890  0.3907890  )
         4           S   tau(   4) = (  0.6092110  0.6092110  0.6092110  )
         5           F   tau(   5) = (  0.1673650  0.1673650  0.1673650  )
         6           F   tau(   6) = (  0.8326350  0.8326350  0.8326350  )

     number of k points=     1  Methfessel-Paxton smearing, width (Ry)=  0.0010
                       cart. coord. in units 2pi/alat
        k(    1) = (   0.0000000   0.0000000   0.0000000), wk =   2.0000000

                       cryst. coord.
        k(    1) = (   0.0000000   0.0000000   0.0000000), wk =   2.0000000

     Initial potential from superposition of free atoms

     starting charge      75.9924, renormalised to      76.0000
     Starting wfcs are   80 randomized atomic wfcs
     Checking if some PAW data can be deallocated...

     Self-consistent Calculation

     iteration #  1     ecut=    30.00 Ry     beta= 0.70
     Davidson diagonalization with overlap

     ethr =  1.00E-02,  avg # of iterations =  2.0

     total energy              =   -2305.92322516 Ry
     estimated scf accuracy    <       0.88870406 Ry

[...]

     total energy              =   -2306.28573460 Ry
     estimated scf accuracy    <       0.00000128 Ry

     iteration #  9     ecut=    30.00 Ry     beta= 0.70
     Davidson diagonalization with overlap

     ethr =  1.68E-09,  avg # of iterations =  3.0

     End of self-consistent calculation

          k = 0.0000 0.0000 0.0000 (  1067 PWs)   bands (ev):

   -46.3372 -45.8670 -17.1316 -16.9120 -16.9120 -16.8025 -16.3618 -16.3617
   -14.7492 -13.2134  -2.1679  -1.1552   2.3689   2.3690   4.0417   5.1141
     5.1141   5.2828   5.2828   5.3306   5.3915   5.4276   5.6179   5.6235
     5.6236   5.6333   5.6464   5.6465   5.7048   5.7438   5.7902   6.0905
     6.0906   7.7803   7.7804   9.1804   9.6430   9.6430  12.7499  13.0704
    13.0704  13.7040  13.7040  13.7770  15.4369  16.0984

     occupation numbers
     1.0000   1.0000   1.0000   1.0000   1.0000   1.0000   1.0000   1.0000
     1.0000   1.0000   1.0000   1.0000   1.0000   1.0000   1.0000   1.0000
     1.0000   1.0000   1.0000   1.0000   1.0000   1.0000   1.0000   1.0000
     1.0000   1.0000   1.0000   1.0000   1.0000   1.0000   1.0000   1.0000
     1.0000   1.0000   1.0000   1.0000   1.0000   1.0000  -0.0000  -0.0000
    -0.0000  -0.0000  -0.0000  -0.0000  -0.0000  -0.0000

     the Fermi energy is    12.3152 ev

!    total energy              =   -2306.28573473 Ry
     estimated scf accuracy    <       0.00000028 Ry
     smearing contrib. (-TS)   =       0.00000000 Ry
     internal energy E=F+TS    =   -2306.28573473 Ry

     The total energy is F=E-TS. E is the sum of the following terms:
     one-electron contribution =   -1052.76360960 Ry
     hartree contribution      =     486.22001029 Ry
     xc contribution           =    -118.99991011 Ry
     ewald contribution        =    -639.44855902 Ry
     one-center paw contrib.   =    -981.29366629 Ry
      -> PAW hartree energy AE =     979.22908310 Ry
      -> PAW hartree energy PS =    -841.77936402 Ry
      -> PAW xc energy AE      =   -1198.63606337 Ry
      -> PAW xc energy PS      =      79.89267800 Ry
      -> total E_H with PAW    =     623.66972937 Ry
      -> total E_XC with PAW   =   -1237.74329548 Ry

     convergence has been achieved in   9 iterations

     Forces acting on atoms (cartesian axes, Ry/au):

     atom    1 type  1   force =     0.00000000    0.00000000    0.00000000
     atom    2 type  1   force =     0.00000000    0.00000000    0.00000000
     atom    3 type  2   force =    -0.08304467   -0.01979076   -0.01184703
     atom    4 type  2   force =     0.08304467    0.01979076    0.01184703
     atom    5 type  3   force =     0.00203701    0.00048574    0.00029233
     atom    6 type  3   force =    -0.00203701   -0.00048574   -0.00029233
     The non-local contrib.  to forces
     atom    1 type  1   force =     0.00000000    0.00000000    0.00000000
     atom    2 type  1   force =     0.00000000    0.00000000    0.00000000
     atom    3 type  2   force =     0.14957151    0.03565668    0.02134354
     atom    4 type  2   force =    -0.14957151   -0.03565668   -0.02134354
     atom    5 type  3   force =    -0.03164290   -0.00754059   -0.00451980
     atom    6 type  3   force =     0.03164290    0.00754059    0.00451980
     The ionic contribution  to forces
     atom    1 type  1   force =    -0.00000000   -0.00000000    0.00000000
     atom    2 type  1   force =     0.00000000   -0.00000000   -0.00000000
     atom    3 type  2   force =    -0.81025914   -0.19313633   -0.11573407
     atom    4 type  2   force =     0.81025914    0.19313633    0.11573406
     atom    5 type  3   force =     0.60397676    0.14396611    0.08627200
     atom    6 type  3   force =    -0.60397676   -0.14396611   -0.08627200
     The local contribution  to forces
     atom    1 type  1   force =     0.00202560    0.00032081    0.00035598
     atom    2 type  1   force =    -0.00280095   -0.00075654   -0.00027474
     atom    3 type  2   force =     0.58658271    0.13981070    0.08386013
     atom    4 type  2   force =    -0.58587597   -0.13966278   -0.08375361
     atom    5 type  3   force =    -0.57068690   -0.13602207   -0.08152129
     atom    6 type  3   force =     0.56992960    0.13584934    0.08140213
     The core correction contribution to forces
     atom    1 type  1   force =     0.00000001    0.00000000    0.00000000
     atom    2 type  1   force =    -0.00000002   -0.00000000   -0.00000000
     atom    3 type  2   force =    -0.00868541   -0.00207100   -0.00123873
     atom    4 type  2   force =     0.00869376    0.00207190    0.00124076
     atom    5 type  3   force =     0.00000000    0.00000000    0.00000000
     atom    6 type  3   force =     0.00000000    0.00000000    0.00000000
     The Hubbard contrib.    to forces
     atom    1 type  1   force =     0.00000000    0.00000000    0.00000000
     atom    2 type  1   force =     0.00000000    0.00000000    0.00000000
     atom    3 type  2   force =     0.00000000    0.00000000    0.00000000
     atom    4 type  2   force =     0.00000000    0.00000000    0.00000000
     atom    5 type  3   force =     0.00000000    0.00000000    0.00000000
     atom    6 type  3   force =     0.00000000    0.00000000    0.00000000
     The SCF correction term to forces
     atom    1 type  1   force =    -0.00243917   -0.00034303   -0.00048578
     atom    2 type  1   force =     0.00317493    0.00085164    0.00026029
     atom    3 type  2   force =    -0.00015511   -0.00003461   -0.00006122
     atom    4 type  2   force =    -0.00036153   -0.00008181   -0.00001395
     atom    5 type  3   force =     0.00053532    0.00011031    0.00008905
     atom    6 type  3   force =     0.00051251    0.00011847    0.00008537

     Total force =     0.121926     Total SCF correction =     0.004235

     Computing stress (Cartesian axis) and pressure

          total   stress  (Ry/bohr**3)                   (kbar)     P=       35.97
  -0.00041850  -0.00024659  -0.00014770          -61.56      -36.28      -21.73
  -0.00024659   0.00055724  -0.00003523          -36.28       81.97       -5.18
  -0.00014770  -0.00003523   0.00059487          -21.73       -5.18       87.51

     kinetic stress (kbar)  13258.61    -67.34    -40.36
                              -67.34  13525.09     -9.62
                              -40.36     -9.62  13535.38

     local   stress (kbar)  37385.66  17803.64  10668.45
                            17803.64 -33061.67   2542.97
                            10668.45   2542.97 -35781.66

     nonloc. stress (kbar)  13819.72    -40.91    -24.51
                              -40.91  13981.59     -5.85
                              -24.51     -5.85  13987.84

     hartree stress (kbar)   9685.95  -8075.24  -4838.92
                            -8075.24  41638.89  -1153.42
                            -4838.92  -1153.42  42872.62

     exc-cor stress (kbar)  -5445.23     -2.61     -1.57
                               -2.61  -5434.89     -0.37
                               -1.57     -0.37  -5434.49

     corecor stress (kbar)  -1511.05      1.15      0.69
                                1.15  -1515.59      0.16
                                0.69      0.16  -1515.77

     ewald   stress (kbar) -67255.21  -9654.96  -5785.51
                            -9654.96 -29051.45  -1379.06
                            -5785.51  -1379.06 -27576.42

     hubbard stress (kbar)      0.00      0.00      0.00
                                0.00      0.00      0.00
                                0.00      0.00      0.00

     DFT-D   stress (kbar)      0.00      0.00      0.00
                                0.00      0.00      0.00
                                0.00      0.00      0.00

     XDM     stress (kbar)      0.00      0.00      0.00
                                0.00      0.00      0.00
                                0.00      0.00      0.00

     dft-nl  stress (kbar)      0.00      0.00      0.00
                                0.00      0.00      0.00
                                0.00      0.00      0.00

     TS-vdW  stress (kbar)      0.00      0.00      0.00
                                0.00      0.00      0.00
                                0.00      0.00      0.00

[...]

                                0.00      0.00      0.00

     Writing all to output data dir new_calculations/myprefix.save/

     General routines

     Parallel routines

     PAW routines

   This run was terminated on:  17: 9:47  20May2023

   JOB DONE.