     Program PWSCF v.7.0 starts on 20May2023 at  8:27:35

     Reading input from espresso_15120.pwi
Warning: card &CELL ignored
Warning: card / ignored

     Current dimensions of program PWSCF are:
     Max number of different atomic species (ntypx) = 10
     Max number of k-points (npk) =  40000
     Max angular momentum in pseudopotentials (lmaxx) =  4

     gamma-point specific algorithms are used
     Message from routine setup:
     using ibrav=0 with symmetry is DISCOURAGED, use correct ibrav instead

     Subspace diagonalization in iterative solution of the eigenvalue problem:
     a serial algorithm will be used

     Using Slab Decomposition

     bravais-lattice index     =            0
     lattice parameter (alat)  =      16.1525  a.u.
     unit-cell volume          =    2979.9059 (a.u.)^3
     number of atoms/cell      =           10
     number of atomic types    =            3
     number of electrons       =        82.00
     number of Kohn-Sham states=           49
     kinetic-energy cutoff     =      30.0000  Ry
     charge density cutoff     =     240.0000  Ry
     scf convergence threshold =      1.0E-06
     mixing beta               =       0.7000
     number of iterations used =            8  plain     mixing
     Exchange-correlation=  SLA  PW   PBX  PBC
                           (   1   4   3   4   0   0   0)

     celldm(1)=  16.152479  celldm(2)=   0.000000  celldm(3)=   0.000000
     celldm(4)=   0.000000  celldm(5)=   0.000000  celldm(6)=   0.000000

     crystal axes: (cart. coord. in units of alat)
               a(1) = (   1.000000   0.000000   0.000000 )
               a(2) = (   0.500000   0.866025   0.000000 )
               a(3) = (   0.500000   0.288675   0.816497 )

     reciprocal axes: (cart. coord. in units 2 pi/alat)
               b(1) = (  1.000000 -0.577350 -0.408248 )
               b(2) = (  0.000000  1.154701 -0.408248 )
               b(3) = (  0.000000  0.000000  1.224745 )

     PseudoPot. # 1 for Cs read from file:
     /home/pragov/projects/rrg-bengioy-ad/pragov/crystal_structure_design/SSSP/Cs_pbe_v1.uspp.F.UPF
     MD5 check sum: 3476d69cb178dfad3ffaa59df4e07ca4
     Pseudo is Ultrasoft + core correction, Zval =  9.0
     Generated by new atomic code, or converted to UPF format
     Using radial grid of  905 points,  6 beta functions with:
                l(1) =   0
                l(2) =   0
                l(3) =   1
                l(4) =   1
                l(5) =   2
                l(6) =   2
     Q(r) pseudized with  6 coefficients,  rinner =    1.500   1.500   1.500
                                                       1.500   1.500

     PseudoPot. # 2 for Pr read from file:
     /home/pragov/projects/rrg-bengioy-ad/pragov/crystal_structure_design/SSSP/Pr.GGA-PBE-paw-v1.0.UPF
     MD5 check sum: b5e1e58e76df433569641143f671cc27
     Pseudo is Projector augmented-wave + core cor, Zval = 13.0
     Generated using ATOMPAW code
     Shape of augmentation charge: BESSEL
     Using radial grid of 1103 points,  8 beta functions with:
                l(1) =   0
                l(2) =   0
                l(3) =   1
                l(4) =   1
                l(5) =   2
                l(6) =   2
                l(7) =   3
                l(8) =   3
     Q(r) pseudized with 0 coefficients

     PseudoPot. # 3 for Cl read from file:
     /home/pragov/projects/rrg-bengioy-ad/pragov/crystal_structure_design/SSSP/cl_pbe_v1.4.uspp.F.UPF
     MD5 check sum: fc6f6913ecf08c9257cb748ef0700058
     Pseudo is Ultrasoft + core correction, Zval =  7.0
     Generated by new atomic code, or converted to UPF format
     Using radial grid of  909 points,  6 beta functions with:
                l(1) =   0
                l(2) =   0
                l(3) =   1
                l(4) =   1
                l(5) =   2
                l(6) =   2
     Q(r) pseudized with  8 coefficients,  rinner =    1.300   1.300   1.300
                                                       1.300   1.300

     atomic species   valence    mass     pseudopotential
        Cs             9.00   132.90545     Cs( 1.00)
        Pr            13.00   140.90766     Pr( 1.00)
        Cl             7.00    35.45000     Cl( 1.00)

     12 Sym. Ops., with inversion, found

                                    s                        frac. trans.

      isym =  1     identity

 cryst.   s( 1) = (     1          0          0      )
                  (     0          1          0      )
                  (     0          0          1      )

 cart.    s( 1) = (  1.0000000  0.0000000  0.0000000 )
                  (  0.0000000  1.0000000 -0.0000000 )
                  (  0.0000000  0.0000000  1.0000000 )

      isym =  2     180 deg rotation - cart. axis [1,0,0]

[...]

      isym =  3     120 deg rotation - cryst. axis [0,0,1]

[...]

      isym =  6     180 deg rotation - cryst. axis [1,1,0]

[...]

      isym =  7     inversion

[...]

      isym =  8     inv. 180 deg rotation - cart. axis [1,0,0]

[...]

      isym =  9     inv. 120 deg rotation - cryst. axis [0,0,1]

 cryst.   s( 9) = (     1         -1          0      )
                  (     1          0          0      )
                  (     1          0         -1      )

 cart.    s( 9) = (  0.5000000  0.8660254 -0.0000000 )
                  ( -0.8660254  0.5000000 -0.0000000 )
                  (  0.0000000  0.0000000 -1.0000000 )

[...]

 cryst.   s(10) = (     0          1          0      )
                  (    -1          1          0      )
                  (     0          1         -1      )

 cart.    s(10) = (  0.5000000 -0.8660254  0.0000000 )
                  (  0.8660254  0.5000000 -0.0000000 )
                  (  0.0000000  0.0000000 -1.0000000 )

[...]

      isym = 12     inv. 180 deg rotation - cryst. axis [1,1,0]

 cryst.   s(12) = (     1         -1          0      )
                  (     0         -1          0      )
                  (     0         -1          1      )

 cart.    s(12) = (  0.5000000 -0.8660254  0.0000000 )
                  ( -0.8660254 -0.5000000  0.0000000 )
                  (  0.0000000  0.0000000  1.0000000 )

   Cartesian axes

     site n.     atom                  positions (alat units)
         1           Cs  tau(   1) = (   1.0000000   0.5773503   0.4082483  )
         2           Cs  tau(   2) = (   0.5000000   0.2886751   0.2041241  )
         3           Cs  tau(   3) = (   1.5000000   0.8660254   0.6123724  )
         4           Pr  tau(   4) = (   0.0000000   0.0000000   0.0000000  )
         5           Cl  tau(   5) = (   1.0000000   0.2635061   0.1863270  )
         6           Cl  tau(   6) = (   1.0000000   0.8911944   0.6301696  )
         7           Cl  tau(   7) = (   0.7282030   0.7342723   0.1863270  )
         8           Cl  tau(   8) = (   1.2717970   0.4204282   0.6301696  )
         9           Cl  tau(   9) = (   0.7282030   0.4204282   0.6301696  )
        10           Cl  tau(  10) = (   1.2717970   0.7342723   0.1863270  )

   Crystallographic axes

     site n.     atom                  positions (cryst. coord.)
         1           Cs  tau(   1) = (  0.5000000  0.5000000  0.5000000  )
         2           Cs  tau(   2) = (  0.2500000  0.2500000  0.2500000  )
         3           Cs  tau(   3) = (  0.7500000  0.7500000  0.7500000  )
         4           Pr  tau(   4) = (  0.0000000  0.0000000  0.0000000  )
         5           Cl  tau(   5) = (  0.7717970  0.2282030  0.2282030  )
         6           Cl  tau(   6) = (  0.2282030  0.7717970  0.7717970  )
         7           Cl  tau(   7) = (  0.2282030  0.7717970  0.2282030  )
         8           Cl  tau(   8) = (  0.7717970  0.2282030  0.7717970  )
         9           Cl  tau(   9) = (  0.2282030  0.2282030  0.7717970  )
        10           Cl  tau(  10) = (  0.7717970  0.7717970  0.2282030  )

     number of k points=     1  Methfessel-Paxton smearing, width (Ry)=  0.0010
                       cart. coord. in units 2pi/alat
        k(    1) = (   0.0000000   0.0000000   0.0000000), wk =   2.0000000

                       cryst. coord.
        k(    1) = (   0.0000000   0.0000000   0.0000000), wk =   2.0000000

     Initial potential from superposition of free atoms

     starting charge      81.8744, renormalised to      82.0000

     negative rho (up, down):  8.957E-02 0.000E+00
     Starting wfcs are   95 randomized atomic wfcs
     Checking if some PAW data can be deallocated...

     Self-consistent Calculation

     iteration #  1     ecut=    30.00 Ry     beta= 0.70
     Davidson diagonalization with overlap

     ethr =  1.00E-02,  avg # of iterations =  2.0

     Threshold (ethr) on eigenvalues was too large:
     Diagonalizing with lowered threshold

     Davidson diagonalization with overlap

[...]

     negative rho (up, down):  9.294E-02 0.000E+00

     total energy              =    -898.52247143 Ry
     estimated scf accuracy    <       0.45290969 Ry

[...]

     total energy              =    -898.67826731 Ry
     estimated scf accuracy    <       0.00000158 Ry

     iteration # 93     ecut=    30.00 Ry     beta= 0.70
     Davidson diagonalization with overlap

     ethr =  1.93E-09,  avg # of iterations =  1.0

[...]

     End of self-consistent calculation

          k = 0.0000 0.0000 0.0000 (  4182 PWs)   bands (ev):

   -32.4513 -19.2991 -19.2978 -17.9697 -14.7837 -14.7795 -14.7757 -11.6657
   -11.5735 -11.5723 -11.2754 -11.2737 -11.2731  -6.0820  -6.0816  -6.0816
    -6.0628  -6.0624  -6.0624  -4.9095  -4.9091  -4.9088  -0.8680  -0.6886
    -0.6863  -0.3910  -0.3897  -0.3896   0.0755   0.0757   0.0759   0.3053
     0.3058   0.3066   0.4671   0.4682   0.4689   0.6718   0.6723   0.6732
     3.9779   3.9833   3.9841   4.0076   4.1058   4.1095   4.1160   5.3009
     6.0942

     occupation numbers
     1.0000   1.0000   1.0000   1.0000   1.0000   1.0000   1.0000   1.0000
     1.0000   1.0000   1.0000   1.0000   1.0000   1.0000   1.0000   1.0000
     1.0000   1.0000   1.0000   1.0000   1.0000   1.0000   1.0000   1.0000
     1.0000   1.0000   1.0000   1.0000   1.0000   1.0000   1.0000   1.0000
     1.0000   1.0000   1.0000   1.0000   1.0000   1.0000   1.0000   1.0000
     0.5640   0.2401   0.2014  -0.0055  -0.0000  -0.0000  -0.0000  -0.0000
    -0.0000

     the Fermi energy is     3.9789 ev

!    total energy              =    -898.67826653 Ry
     estimated scf accuracy    <       0.00000099 Ry
     smearing contrib. (-TS)   =      -0.00062393 Ry
     internal energy E=F+TS    =    -898.67764260 Ry

     The total energy is F=E-TS. E is the sum of the following terms:
     one-electron contribution =    -159.96700238 Ry
     hartree contribution      =     110.40881581 Ry
     xc contribution           =    -159.68030063 Ry
     ewald contribution        =    -269.86521352 Ry
     one-center paw contrib.   =    -419.57394188 Ry
      -> PAW hartree energy AE =      62.65325790 Ry
      -> PAW hartree energy PS =     -62.62548391 Ry
      -> PAW xc energy AE      =    -430.18402903 Ry
      -> PAW xc energy PS      =      10.58231316 Ry
      -> total E_H with PAW    =     110.43658980 Ry
      -> total E_XC with PAW   =    -579.28201650 Ry

     convergence has been achieved in  93 iterations

     negative rho (up, down):  8.869E-02 0.000E+00

     Forces acting on atoms (cartesian axes, Ry/au):

     atom    1 type  1   force =     0.00000000    0.00000000    0.00000000
     atom    2 type  1   force =     0.00000000    0.00000000    0.00002020
     atom    3 type  1   force =     0.00000000    0.00000000   -0.00002020
     atom    4 type  2   force =    -0.00000000   -0.00000000    0.00000000
     atom    5 type  3   force =     0.00000000   -0.00758198   -0.00512969
     atom    6 type  3   force =     0.00000000    0.00758198    0.00512969
     atom    7 type  3   force =    -0.00656619    0.00379099   -0.00512969
     atom    8 type  3   force =     0.00656619   -0.00379099    0.00512969
     atom    9 type  3   force =    -0.00656619   -0.00379099    0.00512969
     atom   10 type  3   force =     0.00656619    0.00379099   -0.00512969
     The non-local contrib.  to forces
     atom    1 type  1   force =    -0.00000000   -0.00000000    0.00000000
     atom    2 type  1   force =     0.00000000    0.00000000    0.00000492
     atom    3 type  1   force =     0.00000000    0.00000000   -0.00000492
     atom    4 type  2   force =     0.00000000    0.00000000   -0.00000000
     atom    5 type  3   force =    -0.00000000   -0.03617954   -0.02519895
     atom    6 type  3   force =     0.00000000    0.03617954    0.02519895
     atom    7 type  3   force =    -0.03133240    0.01808977   -0.02519895
     atom    8 type  3   force =     0.03133240   -0.01808977    0.02519895
     atom    9 type  3   force =    -0.03133240   -0.01808977    0.02519895
     atom   10 type  3   force =     0.03133240    0.01808977   -0.02519895
     The ionic contribution  to forces
     atom    1 type  1   force =    -0.00000000   -0.00000000   -0.00000000
     atom    2 type  1   force =    -0.00000000   -0.00000000   -0.00000000
     atom    3 type  1   force =     0.00000000    0.00000000    0.00000000
     atom    4 type  2   force =    -0.00000000    0.00000000    0.00000000
     atom    5 type  3   force =    -0.00000000    3.79473490    2.68328278
     atom    6 type  3   force =     0.00000000   -3.79473490   -2.68328278
     atom    7 type  3   force =     3.28633683   -1.89736745    2.68328278
     atom    8 type  3   force =    -3.28633683    1.89736745   -2.68328278
     atom    9 type  3   force =     3.28633683    1.89736745   -2.68328278
     atom   10 type  3   force =    -3.28633683   -1.89736745    2.68328278
     The local contribution  to forces
     atom    1 type  1   force =     0.00000013    0.00000082   -0.00000073
     atom    2 type  1   force =     0.00000903    0.00001230    0.00002068
     atom    3 type  1   force =    -0.00000927   -0.00001430   -0.00001956
     atom    4 type  2   force =    -0.00000105   -0.00000053    0.00000132
     atom    5 type  3   force =     0.00025388   -3.76637934   -2.66328035
     atom    6 type  3   force =    -0.00025365    3.76637985    2.66328040
     atom    7 type  3   force =    -3.26154599    1.88337929   -2.66323981
     atom    8 type  3   force =     3.26154630   -1.88337976    2.66323921
     atom    9 type  3   force =    -3.26132696   -1.88295682    2.66317018
     atom   10 type  3   force =     3.26132534    1.88295783   -2.66316919
     The core correction contribution to forces
     atom    1 type  1   force =     0.00000002   -0.00000004   -0.00000001
     atom    2 type  1   force =     0.00000122    0.00000060    0.00000077
     atom    3 type  1   force =    -0.00000126   -0.00000061   -0.00000075
     atom    4 type  2   force =    -0.00000000   -0.00000000    0.00000000
     atom    5 type  3   force =     0.00002425    0.00028155    0.00019408
     atom    6 type  3   force =    -0.00002421   -0.00028152   -0.00019398
     atom    7 type  3   force =     0.00025813   -0.00011957    0.00019400
     atom    8 type  3   force =    -0.00025820    0.00011955   -0.00019405
     atom    9 type  3   force =     0.00027465    0.00015707   -0.00019505
     atom   10 type  3   force =    -0.00027460   -0.00015712    0.00019505
     The Hubbard contrib.    to forces
     atom    1 type  1   force =     0.00000000    0.00000000    0.00000000
     atom    2 type  1   force =     0.00000000    0.00000000    0.00000000
     atom    3 type  1   force =     0.00000000    0.00000000    0.00000000
     atom    4 type  2   force =     0.00000000    0.00000000    0.00000000
     atom    5 type  3   force =     0.00000000    0.00000000    0.00000000
     atom    6 type  3   force =     0.00000000    0.00000000    0.00000000
     atom    7 type  3   force =     0.00000000    0.00000000    0.00000000
     atom    8 type  3   force =     0.00000000    0.00000000    0.00000000
     atom    9 type  3   force =     0.00000000    0.00000000    0.00000000
     atom   10 type  3   force =     0.00000000    0.00000000    0.00000000
     The SCF correction term to forces
     atom    1 type  1   force =     0.00000010   -0.00000177    0.00000088
     atom    2 type  1   force =     0.00002303    0.00000604   -0.00000604
     atom    3 type  1   force =    -0.00002311   -0.00000424    0.00000516
     atom    4 type  2   force =     0.00000126   -0.00000250    0.00000061
     atom    5 type  3   force =    -0.00003078   -0.00022076   -0.00016900
     atom    6 type  3   force =     0.00003145    0.00022122    0.00017175
     atom    7 type  3   force =    -0.00027698    0.00011760   -0.00021649
     atom    8 type  3   force =     0.00027430   -0.00011770    0.00021485
     atom    9 type  3   force =    -0.00022096   -0.00012291    0.00014758
     atom   10 type  3   force =     0.00022372    0.00012147   -0.00014854

     Total force =     0.022423     Total SCF correction =     0.000777

     Computing stress (Cartesian axis) and pressure

     negative rho (up, down):  8.869E-02 0.000E+00
          total   stress  (Ry/bohr**3)                   (kbar)     P=        5.25
   0.00003521   0.00000000  -0.00000000            5.18        0.00       -0.00
   0.00000000   0.00003521  -0.00000000            0.00        5.18       -0.00
   0.00000000  -0.00000000   0.00003672            0.00       -0.00        5.40

     kinetic stress (kbar)   4024.39     -0.00     -0.00
                               -0.00   4024.39     -0.00
                               -0.00     -0.00   4025.96

     local   stress (kbar)  -4806.94      1.22      0.30
                                1.22  -4808.52     -0.03
                                0.30     -0.03  -4807.75

     nonloc. stress (kbar)   4800.52     -0.00     -0.00
                                0.00   4800.52     -0.00
                               -0.00     -0.00   4798.99

     hartree stress (kbar)   1816.49     -0.37     -0.22
                               -0.37   1816.99     -0.08
                               -0.22     -0.08   1816.93

     exc-cor stress (kbar)   3274.21     -0.02     -0.02
                               -0.02   3274.23     -0.01
                               -0.02     -0.01   3274.24

     corecor stress (kbar)  -4662.24      0.02      0.01
                                0.02  -4662.27      0.00
                                0.01      0.00  -4662.27

     ewald   stress (kbar)  -4440.69      0.00      0.00
                                0.00  -4440.69     -0.00
                                0.00     -0.00  -4440.69

     hubbard stress (kbar)      0.00      0.00      0.00
                                0.00      0.00      0.00
                                0.00      0.00      0.00

     DFT-D   stress (kbar)      0.00      0.00      0.00
                                0.00      0.00      0.00
                                0.00      0.00      0.00

     XDM     stress (kbar)      0.00      0.00      0.00
                                0.00      0.00      0.00
                                0.00      0.00      0.00

     dft-nl  stress (kbar)      0.00      0.00      0.00
                                0.00      0.00      0.00
                                0.00      0.00      0.00

     TS-vdW  stress (kbar)      0.00      0.00      0.00
                                0.00      0.00      0.00
                                0.00      0.00      0.00

[...]

                                0.00      0.00      0.00

     Writing all to output data dir new_calculations/myprefix.save/

     General routines

     Parallel routines

     PAW routines

   This run was terminated on:   8:33:46  20May2023

   JOB DONE.