     Program PWSCF v.7.0 starts on 20May2023 at 16:21:43

     Reading input from espresso_14549.pwi
Warning: card &CELL ignored
Warning: card / ignored

     Current dimensions of program PWSCF are:
     Max number of different atomic species (ntypx) = 10
     Max number of k-points (npk) =  40000
     Max angular momentum in pseudopotentials (lmaxx) =  4
     file O.pbe-n-kjpaw_psl.0.1.UPF: wavefunction(s)  2P renormalized

     gamma-point specific algorithms are used

     Subspace diagonalization in iterative solution of the eigenvalue problem:
     a serial algorithm will be used

     Using Slab Decomposition

     bravais-lattice index     =            0
     lattice parameter (alat)  =      10.4574  a.u.
     unit-cell volume          =     736.4681 (a.u.)^3
     number of atoms/cell      =           10
     number of atomic types    =            3
     number of electrons       =        68.00
     number of Kohn-Sham states=           41
     kinetic-energy cutoff     =      30.0000  Ry
     charge density cutoff     =     240.0000  Ry
     scf convergence threshold =      1.0E-06
     mixing beta               =       0.7000
     number of iterations used =            8  plain     mixing
     Exchange-correlation= SLA  PW   PBX  PBC
                           (   1   4   3   4   0   0   0)

     celldm(1)=  10.457402  celldm(2)=   0.000000  celldm(3)=   0.000000
     celldm(4)=   0.000000  celldm(5)=   0.000000  celldm(6)=   0.000000

     crystal axes: (cart. coord. in units of alat)
               a(1) = (   1.000000   0.000000   0.000000 )
               a(2) = (   0.557095   0.830449   0.000000 )
               a(3) = (   0.557095   0.297117   0.775478 )

     reciprocal axes: (cart. coord. in units 2 pi/alat)
               b(1) = (  1.000000 -0.670836 -0.461365 )
               b(2) = (  0.000000  1.204168 -0.461365 )
               b(3) = (  0.000000  0.000000  1.289527 )

     PseudoPot. # 1 for Li read from file:
     /home/pragov/projects/rrg-bengioy-ad/pragov/crystal_structure_design/SSSP/li_pbe_v1.4.uspp.F.UPF
     MD5 check sum: e912e257baa3777c20ea3d68f190483c
     Pseudo is Ultrasoft, Zval =  3.0
     Generated by new atomic code, or converted to UPF format
     Using radial grid of  751 points,  5 beta functions with:
                l(1) =   0
                l(2) =   0
                l(3) =   0
                l(4) =   1
                l(5) =   1
     Q(r) pseudized with 10 coefficients,  rinner =    1.150   1.150   1.150

     PseudoPot. # 2 for Ta read from file:
     /home/pragov/projects/rrg-bengioy-ad/pragov/crystal_structure_design/SSSP/Ta_pbe_v1.uspp.F.UPF
     MD5 check sum: f8bbe9446314a3b8ea5d9f3e3836c939
     Pseudo is Ultrasoft + core correction, Zval = 13.0
     Generated by new atomic code, or converted to UPF format
     Using radial grid of  921 points,  7 beta functions with:
                l(1) =   0
                l(2) =   0
                l(3) =   1
                l(4) =   1
                l(5) =   2
                l(6) =   2
                l(7) =   3
     Q(r) pseudized with  6 coefficients,  rinner =    1.300   1.300   1.300
                                                       1.300   1.300   1.300
                                                       1.300

     PseudoPot. # 3 for O  read from file:
     /home/pragov/projects/rrg-bengioy-ad/pragov/crystal_structure_design/SSSP/O.pbe-n-kjpaw_psl.0.1.UPF
     MD5 check sum: 0234752ac141de4415c5fc33072bef88
     Pseudo is Projector augmented-wave + core cor, Zval =  6.0
     Generated using "atomic" code by A. Dal Corso  v.5.0.99 svn rev. 10869
     Shape of augmentation charge: BESSEL
     Using radial grid of 1095 points,  4 beta functions with:
                l(1) =   0
                l(2) =   0
                l(3) =   1
                l(4) =   1
     Q(r) pseudized with 0 coefficients

     atomic species   valence    mass     pseudopotential
        Li             3.00     6.94000     Li( 1.00)
        Ta            13.00   180.94788     Ta( 1.00)
        O              6.00    15.99900     O ( 1.00)

     No symmetry found

                                    s                        frac. trans.

      isym =  1     identity

 cryst.   s( 1) = (     1          0          0      )
                  (     0          1          0      )
                  (     0          0          1      )

 cart.    s( 1) = (  1.0000000  0.0000000 -0.0000000 )
                  (  0.0000000  1.0000000  0.0000000 )
                  (  0.0000000  0.0000000  1.0000000 )

   Cartesian axes

     site n.     atom                  positions (alat units)
         1           Li  tau(   1) = (   0.5967450   0.3182632   0.2188842  )
         2           Li  tau(   2) = (   1.6538401   0.8820459   0.6066234  )
         3           Ta  tau(   3) = (   2.1130211   1.1269418   0.7750496  )
         4           Ta  tau(   4) = (   1.0559260   0.5631591   0.3873104  )
         5           O   tau(   5) = (   1.0507715   0.7704746   0.6674178  )
         6           O   tau(   6) = (   0.7252193   0.7100501   0.2796786  )
         7           O   tau(   7) = (   0.8318686   0.3152385   0.5629865  )
         8           O   tau(   8) = (   0.9936763   0.3351156   0.0929473  )
         9           O   tau(   9) = (   1.2252193   0.7818724   0.1752473  )
        10           O   tau(  10) = (   1.3318686   0.3718399   0.4806865  )

   Crystallographic axes

     site n.     atom                  positions (cryst. coord.)
         1           Li  tau(   1) = (  0.2822570  0.2822570  0.2822570  )
         2           Li  tau(   2) = (  0.7822570  0.7822570  0.7822570  )
         3           Ta  tau(   3) = (  0.9994470  0.9994470  0.9994470  )
         4           Ta  tau(   4) = (  0.4994470  0.4994470  0.4994470  )
         5           O   tau(   5) = (  0.2259860  0.6198580  0.8606530  )
         6           O   tau(   6) = (  0.1198580  0.7259860  0.3606530  )
         7           O   tau(   7) = (  0.3606530  0.1198580  0.7259860  )
         8           O   tau(   8) = (  0.7259860  0.3606530  0.1198580  )
         9           O   tau(   9) = (  0.6198580  0.8606530  0.2259860  )
        10           O   tau(  10) = (  0.8606530  0.2259860  0.6198580  )

     number of k points=     1  Methfessel-Paxton smearing, width (Ry)=  0.0010
                       cart. coord. in units 2pi/alat
        k(    1) = (   0.0000000   0.0000000   0.0000000), wk =   2.0000000

                       cryst. coord.
        k(    1) = (   0.0000000   0.0000000   0.0000000), wk =   2.0000000

     Check: negative core charge=   -0.000009

     Initial potential from superposition of free atoms

     starting charge      67.0963, renormalised to      68.0000

     negative rho (up, down):  1.914E-01 0.000E+00
     Starting wfcs are   60 randomized atomic wfcs
     Checking if some PAW data can be deallocated...

     Self-consistent Calculation

     iteration #  1     ecut=    30.00 Ry     beta= 0.70
     Davidson diagonalization with overlap

     ethr =  1.00E-02,  avg # of iterations =  2.0

     negative rho (up, down):  1.897E-01 0.000E+00

     total energy              =    -561.69285243 Ry
     estimated scf accuracy    <       3.09004920 Ry

[...]

     total energy              =    -563.21818791 Ry
     estimated scf accuracy    <       0.00000198 Ry

     iteration # 11     ecut=    30.00 Ry     beta= 0.70
     Davidson diagonalization with overlap

     ethr =  2.92E-09,  avg # of iterations =  2.0

[...]

     End of self-consistent calculation

          k = 0.0000 0.0000 0.0000 (  1037 PWs)   bands (ev):

   -60.1813 -60.1773 -35.3456 -35.3425 -26.7485 -26.7484 -26.7217 -26.6527
   -26.6527 -26.6093  -9.9520  -9.0962  -9.0959  -8.1972  -8.0611  -8.0608
     2.6926   2.7439   2.7441   3.1984   3.1985   3.4453   5.1250   5.1250
     5.3108   6.2339   6.7449   6.8100   6.8102   7.0458   7.0462   7.0965
     7.4907   7.4908  10.8343  10.8343  11.1936  12.8901  12.8902  13.4795
    14.0678

     occupation numbers
     1.0000   1.0000   1.0000   1.0000   1.0000   1.0000   1.0000   1.0000
     1.0000   1.0000   1.0000   1.0000   1.0000   1.0000   1.0000   1.0000
     1.0000   1.0000   1.0000   1.0000   1.0000   1.0000   1.0000   1.0000
     1.0000   1.0000   1.0000   1.0000   1.0000   1.0000   1.0000   1.0000
     1.0000   1.0000  -0.0000  -0.0000  -0.0000  -0.0000  -0.0000  -0.0000
    -0.0000

     the Fermi energy is     9.5463 ev

!    total energy              =    -563.21818803 Ry
     estimated scf accuracy    <       0.00000023 Ry
     smearing contrib. (-TS)   =       0.00000000 Ry
     internal energy E=F+TS    =    -563.21818803 Ry

     The total energy is F=E-TS. E is the sum of the following terms:
     one-electron contribution =    -150.55934805 Ry
     hartree contribution      =     106.15141091 Ry
     xc contribution           =    -136.24853674 Ry
     ewald contribution        =    -325.49377180 Ry
     one-center paw contrib.   =     -57.06794235 Ry
      -> PAW hartree energy AE =     183.66590730 Ry
      -> PAW hartree energy PS =    -182.97725680 Ry
      -> PAW xc energy AE      =    -103.91224787 Ry
      -> PAW xc energy PS      =      46.15565502 Ry
      -> total E_H with PAW    =     106.84006141 Ry
      -> total E_XC with PAW   =    -194.00512959 Ry

     convergence has been achieved in  11 iterations

     negative rho (up, down):  1.922E-01 0.000E+00

     Forces acting on atoms (cartesian axes, Ry/au):

     atom    1 type  1   force =     0.00120650    0.00064036    0.00044483
     atom    2 type  1   force =     0.00120171    0.00064945    0.00045448
     atom    3 type  2   force =     0.20846083    0.11107578    0.07645196
     atom    4 type  2   force =     0.20845586    0.11118281    0.07643506
     atom    5 type  3   force =    -0.06242569   -0.06039586   -0.01238455
     atom    6 type  3   force =    -0.08492561   -0.01818820   -0.01237188
     atom    7 type  3   force =    -0.06230787   -0.06044140   -0.01255392
     atom    8 type  3   force =    -0.06241310   -0.03313898   -0.05195383
     atom    9 type  3   force =    -0.08492504   -0.01804288   -0.01255718
     atom   10 type  3   force =    -0.06232758   -0.03334107   -0.05196497
     The non-local contrib.  to forces
     atom    1 type  1   force =     0.02319652    0.01235672    0.00850420
     atom    2 type  1   force =     0.02318505    0.01237315    0.00852242
     atom    3 type  2   force =     0.05178407    0.02750537    0.01898839
     atom    4 type  2   force =     0.05188336    0.02764485    0.01886537
     atom    5 type  3   force =     0.17990844    0.07250664   -0.44095410
     atom    6 type  3   force =     0.16049249    0.10904066   -0.44095171
     atom    7 type  3   force =    -0.22013569    0.34095892    0.25957356
     atom    8 type  3   force =     0.18000194   -0.38584172    0.22557553
     atom    9 type  3   force =     0.16052759   -0.37284060    0.25960649
     atom   10 type  3   force =    -0.22020512    0.36444000    0.22550416
     The ionic contribution  to forces
     atom    1 type  1   force =    -0.91281504   -0.48683334   -0.33481755
     atom    2 type  1   force =    -0.91281492   -0.48683356   -0.33481755
     atom    3 type  2   force =     0.26362141    0.14059738    0.09669517
     atom    4 type  2   force =     0.26362111    0.14059793    0.09669517
     atom    5 type  3   force =    -0.42794518   -1.35004575    3.96686119
     atom    6 type  3   force =    -1.35954988    0.39671742    3.96686119
     atom    7 type  3   force =     2.43668783   -3.27174495   -1.04880051
     atom    8 type  3   force =    -0.42794481    3.22126442   -2.67993830
     atom    9 type  3   force =    -1.35954933    3.84621740   -1.04880051
     atom   10 type  3   force =     2.43668881   -2.14993695   -2.67993830
     The local contribution  to forces
     atom    1 type  1   force =     0.89079749    0.47507442    0.32673452
     atom    2 type  1   force =     0.89080326    0.47510442    0.32678220
     atom    3 type  2   force =    -0.11748977   -0.06271388   -0.04305942
     atom    4 type  2   force =    -0.11719313   -0.06257497   -0.04320764
     atom    5 type  3   force =     0.18771604    1.21838960   -3.54168898
     atom    6 type  3   force =     1.11624326   -0.52290069   -3.54183941
     atom    7 type  3   force =    -2.28004402    2.87362870    0.77894056
     atom    8 type  3   force =     0.18765761   -2.87126204    2.40471362
     atom    9 type  3   force =     1.11619809   -3.49431279    0.77887205
     atom   10 type  3   force =    -2.28001531    1.75542699    2.40472888
     The core correction contribution to forces
     atom    1 type  1   force =     0.00000000    0.00000000    0.00000000
     atom    2 type  1   force =     0.00000000    0.00000000    0.00000000
     atom    3 type  2   force =     0.01031914    0.00548971    0.00378152
     atom    4 type  2   force =     0.01032109    0.00550705    0.00377649
     atom    5 type  3   force =    -0.00209618   -0.00113858    0.00348912
     atom    6 type  3   force =    -0.00211451   -0.00110681    0.00348856
     atom    7 type  3   force =     0.00119867   -0.00335059   -0.00228144
     atom    8 type  3   force =    -0.00209743    0.00285102   -0.00231347
     atom    9 type  3   force =    -0.00211495    0.00286336   -0.00228218
     atom   10 type  3   force =     0.00119979   -0.00333037   -0.00231244
     The Hubbard contrib.    to forces
     atom    1 type  1   force =     0.00000000    0.00000000    0.00000000
     atom    2 type  1   force =     0.00000000    0.00000000    0.00000000
     atom    3 type  2   force =     0.00000000    0.00000000    0.00000000
     atom    4 type  2   force =     0.00000000    0.00000000    0.00000000
     atom    5 type  3   force =     0.00000000    0.00000000    0.00000000
     atom    6 type  3   force =     0.00000000    0.00000000    0.00000000
     atom    7 type  3   force =     0.00000000    0.00000000    0.00000000
     atom    8 type  3   force =     0.00000000    0.00000000    0.00000000
     atom    9 type  3   force =     0.00000000    0.00000000    0.00000000
     atom   10 type  3   force =     0.00000000    0.00000000    0.00000000
     The SCF correction term to forces
     atom    1 type  1   force =     0.00002638    0.00003789    0.00001512
     atom    2 type  1   force =     0.00002718    0.00000076   -0.00004114
     atom    3 type  2   force =     0.00022484    0.00019252    0.00003776
     atom    4 type  2   force =    -0.00017773    0.00000327    0.00029712
     atom    5 type  3   force =    -0.00000997   -0.00011243   -0.00010034
     atom    6 type  3   force =     0.00000188    0.00005655    0.00006093
     atom    7 type  3   force =    -0.00001581    0.00006185    0.00000537
     atom    8 type  3   force =    -0.00003157   -0.00015535    0.00000025
     atom    9 type  3   force =     0.00001240    0.00002508    0.00003842
     atom   10 type  3   force =     0.00000311    0.00005459    0.00004417

     Total force =     0.411671     Total SCF correction =     0.000529

     Computing stress (Cartesian axis) and pressure

     negative rho (up, down):  1.922E-01 0.000E+00
          total   stress  (Ry/bohr**3)                   (kbar)     P=     -330.01
  -0.00198828   0.00025797   0.00017773         -292.49       37.95       26.15
   0.00025797  -0.00233456   0.00009466           37.95     -343.43       13.93
   0.00017773   0.00009466  -0.00240718           26.15       13.93     -354.11

     kinetic stress (kbar)  25394.29     32.37     22.27
                               32.37  25350.84     11.87
                               22.27     11.87  25341.76

     local   stress (kbar)    734.65    413.54    284.53
                              413.54    179.73    151.70
                              284.53    151.70     63.45

     nonloc. stress (kbar)  -5104.18      7.80      5.36
                                7.80  -5114.63      2.86
                                5.36      2.86  -5116.82

     hartree stress (kbar)   6972.92    -95.87    -66.02
                              -95.87   7101.61    -35.18
                              -66.02    -35.18   7128.57

     exc-cor stress (kbar)   5731.59     -2.04     -1.40
                               -2.04   5734.33     -0.75
                               -1.40     -0.75   5734.90

     corecor stress (kbar) -12034.35      1.54      1.06
                                1.54 -12036.42      0.57
                                1.06      0.57 -12036.85

     ewald   stress (kbar) -21987.42   -319.39   -219.66
                             -319.39 -21558.89   -117.15
                             -219.66   -117.15 -21469.12

     hubbard stress (kbar)      0.00      0.00      0.00
                                0.00      0.00      0.00
                                0.00      0.00      0.00

     DFT-D   stress (kbar)      0.00      0.00      0.00
                                0.00      0.00      0.00
                                0.00      0.00      0.00

     XDM     stress (kbar)      0.00      0.00      0.00
                                0.00      0.00      0.00
                                0.00      0.00      0.00

     dft-nl  stress (kbar)      0.00      0.00      0.00
                                0.00      0.00      0.00
                                0.00      0.00      0.00

     TS-vdW  stress (kbar)      0.00      0.00      0.00
                                0.00      0.00      0.00
                                0.00      0.00      0.00

[...]

                                0.00      0.00      0.00

     Writing all to output data dir new_calculations/myprefix.save/

     General routines

     Parallel routines

     PAW routines

   This run was terminated on:  16:21:53  20May2023

   JOB DONE.