     Program PWSCF v.7.0 starts on 20May2023 at  8:42:26

     Reading input from espresso_3312.pwi
Warning: card &CELL ignored
Warning: card / ignored

     Current dimensions of program PWSCF are:
     Max number of different atomic species (ntypx) = 10
     Max number of k-points (npk) =  40000
     Max angular momentum in pseudopotentials (lmaxx) =  4

     gamma-point specific algorithms are used
     Message from routine setup:
     using ibrav=0 with symmetry is DISCOURAGED, use correct ibrav instead

     Subspace diagonalization in iterative solution of the eigenvalue problem:
     a serial algorithm will be used

     Using Slab Decomposition

     bravais-lattice index     =            0
     lattice parameter (alat)  =       7.0874  a.u.
     unit-cell volume          =    1129.4375 (a.u.)^3
     number of atoms/cell      =           12
     number of atomic types    =            3
     number of electrons       =       140.00
     number of Kohn-Sham states=           84
     kinetic-energy cutoff     =      30.0000  Ry
     charge density cutoff     =     240.0000  Ry
     scf convergence threshold =      1.0E-06
     mixing beta               =       0.7000
     number of iterations used =            8  plain     mixing
     Exchange-correlation= PBE
                           (   1   4   3   4   0   0   0)

     celldm(1)=   7.087448  celldm(2)=   0.000000  celldm(3)=   0.000000
     celldm(4)=   0.000000  celldm(5)=   0.000000  celldm(6)=   0.000000

     crystal axes: (cart. coord. in units of alat)
               a(1) = (   1.000000   0.000000   0.000000 )
               a(2) = (   0.000000   1.667584   0.000000 )
               a(3) = (   0.000000   0.000000   1.902413 )

     reciprocal axes: (cart. coord. in units 2 pi/alat)
               b(1) = (  1.000000  0.000000  0.000000 )
               b(2) = (  0.000000  0.599670  0.000000 )
               b(3) = (  0.000000  0.000000  0.525648 )

     PseudoPot. # 1 for Ti read from file:
     /home/pragov/projects/rrg-bengioy-ad/pragov/crystal_structure_design/SSSP/ti_pbe_v1.4.uspp.F.UPF
     MD5 check sum: 88a00a6731bd790ddea75d31a80cb452
     Pseudo is Ultrasoft + core correction, Zval = 12.0
     Generated by new atomic code, or converted to UPF format
     Using radial grid of  851 points,  6 beta functions with:
                l(1) =   0
                l(2) =   0
                l(3) =   1
                l(4) =   1
                l(5) =   2
                l(6) =   2
     Q(r) pseudized with  6 coefficients,  rinner =    1.000   1.000   1.000
                                                       1.000   1.000

     PseudoPot. # 2 for Ni read from file:
     /home/pragov/projects/rrg-bengioy-ad/pragov/crystal_structure_design/SSSP/ni_pbe_v1.4.uspp.F.UPF
     MD5 check sum: 1ee80287db30b12d2bc1f57a5b5d6409
     Pseudo is Ultrasoft + core correction, Zval = 18.0
     Generated by new atomic code, or converted to UPF format
     Using radial grid of  865 points,  6 beta functions with:
                l(1) =   0
                l(2) =   0
                l(3) =   1
                l(4) =   1
                l(5) =   2
                l(6) =   2
     Q(r) pseudized with 10 coefficients,  rinner =    0.980   0.980   0.980
                                                       0.980   0.980

     PseudoPot. # 3 for As read from file:
     /home/pragov/projects/rrg-bengioy-ad/pragov/crystal_structure_design/SSSP/As.pbe-n-rrkjus_psl.0.2.UPF
     MD5 check sum: 767315de957beeeb34f87d97bf945c8f
     Pseudo is Ultrasoft + core correction, Zval =  5.0
     Generated using "atomic" code by A. Dal Corso  v.5.0.99 svn rev. 10869
     Using radial grid of 1209 points,  4 beta functions with:
                l(1) =   0
                l(2) =   0
                l(3) =   1
                l(4) =   1
     Q(r) pseudized with 0 coefficients

     atomic species   valence    mass     pseudopotential
        Ti            12.00    47.86700     Ti( 1.00)
        Ni            18.00    58.69340     Ni( 1.00)
        As             5.00    74.92159     As( 1.00)

      8 Sym. Ops., with inversion, found ( 6 have fractional translation)

                                    s                        frac. trans.

      isym =  1     identity

 cryst.   s( 1) = (     1          0          0      )
                  (     0          1          0      )
                  (     0          0          1      )

 cart.    s( 1) = (  1.0000000  0.0000000  0.0000000 )
                  (  0.0000000  1.0000000  0.0000000 )
                  (  0.0000000  0.0000000  1.0000000 )

      isym =  2     180 deg rotation - cart. axis [0,0,1]

 cryst.   s( 2) = (    -1          0          0      )    f =(  0.0000000 )
                  (     0         -1          0      )       (  0.5000000 )
                  (     0          0          1      )       ( -0.5000000 )

 cart.    s( 2) = ( -1.0000000  0.0000000  0.0000000 )    f =(  0.0000000 )
                  (  0.0000000 -1.0000000  0.0000000 )       (  0.8337922 )
                  (  0.0000000  0.0000000  1.0000000 )       ( -0.9512063 )

[...]

      isym =  4     180 deg rotation - cart. axis [1,0,0]

[...]

      isym =  5     inversion

 cryst.   s( 5) = (    -1          0          0      )
                  (     0         -1          0      )
                  (     0          0         -1      )

 cart.    s( 5) = ( -1.0000000  0.0000000  0.0000000 )
                  (  0.0000000 -1.0000000  0.0000000 )
                  (  0.0000000  0.0000000 -1.0000000 )

      isym =  6     inv. 180 deg rotation - cart. axis [0,0,1]

[...]

      isym =  8     inv. 180 deg rotation - cart. axis [1,0,0]

 cryst.   s( 8) = (    -1          0          0      )    f =(  0.5000000 )
                  (     0          1          0      )       (  0.0000000 )
                  (     0          0          1      )       (  0.0000000 )

 cart.    s( 8) = ( -1.0000000  0.0000000  0.0000000 )    f =(  0.5000000 )
                  (  0.0000000  1.0000000  0.0000000 )       (  0.0000000 )
                  (  0.0000000  0.0000000  1.0000000 )       (  0.0000000 )

   Cartesian axes

     site n.     atom                  positions (alat units)
         1           Ti  tau(   1) = (   0.7500000   0.7898980   0.3407221  )
         2           Ti  tau(   2) = (   0.7500000   1.6236903   0.6104842  )
         3           Ti  tau(   3) = (   0.2500000   0.8776864   1.5616905  )
         4           Ti  tau(   4) = (   0.2500000   0.0438942   1.2919284  )
         5           Ni  tau(   5) = (   0.7500000   0.5897829   1.0690836  )
         6           Ni  tau(   6) = (   0.7500000   1.4235751   1.7845353  )
         7           Ni  tau(   7) = (   0.2500000   1.0778015   0.8333290  )
         8           Ni  tau(   8) = (   0.2500000   0.2440093   0.1178773  )
         9           As  tau(   9) = (   0.7500000   0.3925394   1.6704610  )
        10           As  tau(  10) = (   0.7500000   1.2263316   1.1831580  )
        11           As  tau(  11) = (   0.2500000   1.2750450   0.2319517  )
        12           As  tau(  12) = (   0.2500000   0.4412528   0.7192547  )

   Crystallographic axes

     site n.     atom                  positions (cryst. coord.)
         1           Ti  tau(   1) = (  0.7500000  0.4736780  0.1791000  )
         2           Ti  tau(   2) = (  0.7500000  0.9736780  0.3209000  )
         3           Ti  tau(   3) = (  0.2500000  0.5263220  0.8209000  )
         4           Ti  tau(   4) = (  0.2500000  0.0263220  0.6791000  )
         5           Ni  tau(   5) = (  0.7500000  0.3536750  0.5619620  )
         6           Ni  tau(   6) = (  0.7500000  0.8536750  0.9380380  )
         7           Ni  tau(   7) = (  0.2500000  0.6463250  0.4380380  )
         8           Ni  tau(   8) = (  0.2500000  0.1463250  0.0619620  )
         9           As  tau(   9) = (  0.7500000  0.2353940  0.8780750  )
        10           As  tau(  10) = (  0.7500000  0.7353940  0.6219250  )
        11           As  tau(  11) = (  0.2500000  0.7646060  0.1219250  )
        12           As  tau(  12) = (  0.2500000  0.2646060  0.3780750  )

     number of k points=     1  Methfessel-Paxton smearing, width (Ry)=  0.0010
                       cart. coord. in units 2pi/alat
        k(    1) = (   0.0000000   0.0000000   0.0000000), wk =   2.0000000

                       cryst. coord.
        k(    1) = (   0.0000000   0.0000000   0.0000000), wk =   2.0000000

     Check: negative core charge=   -0.000005

     Initial potential from superposition of free atoms

     starting charge     127.9989, renormalised to     140.0000

     negative rho (up, down):  8.014E-03 0.000E+00
     Starting wfcs are  108 randomized atomic wfcs

     Self-consistent Calculation

     iteration #  1     ecut=    30.00 Ry     beta= 0.70
     Davidson diagonalization with overlap

     ethr =  1.00E-02,  avg # of iterations =  8.0

     total energy              =   -1736.97719664 Ry
     estimated scf accuracy    <     259.62760639 Ry

[...]

     negative rho (up, down):  4.699E-04 0.000E+00

[...]

     total energy              =   -1922.38992607 Ry
     estimated scf accuracy    <       0.00000473 Ry

     iteration # 43     ecut=    30.00 Ry     beta= 0.70
     Davidson diagonalization with overlap

     ethr =  8.14E-10,  avg # of iterations =  2.0

[...]

     End of self-consistent calculation

          k = 0.0000 0.0000 0.0000 (  1562 PWs)   bands (ev):

   -89.0041 -89.0010 -89.0007 -88.9979 -49.4771 -49.4680 -49.4664 -49.4623
   -49.4618 -49.4597 -49.4594 -49.4518 -49.1145 -49.1055 -49.0974 -49.0941
   -41.6257 -41.6155 -41.6112 -41.6012 -18.1829 -18.1761 -18.0791 -18.0779
   -17.9632 -17.9370 -17.8459 -17.8252 -17.7936 -17.7775 -17.7478 -17.7327
     1.2375   2.7196   2.7929   2.9264   8.0333   8.3358   9.0131   9.7349
     9.8072  10.5269  10.5479  10.5677  10.7084  11.0455  11.2929  11.4790
    11.5835  12.0216  12.2130  12.2769  12.3051  12.4538  12.5065  12.7667
    12.7714  12.9497  13.1037  13.1076  13.1422  13.3083  13.5051  13.7482
    14.0324  14.1147  14.3838  14.5504  15.2907  15.4923  15.5005  15.5775
    15.6644  15.6887  15.8082  16.4085  16.5765  16.7709  16.8730  16.9875
    17.1014  17.1964  17.4483  17.6641

     occupation numbers
     1.0000   1.0000   1.0000   1.0000   1.0000   1.0000   1.0000   1.0000
     1.0000   1.0000   1.0000   1.0000   1.0000   1.0000   1.0000   1.0000
     1.0000   1.0000   1.0000   1.0000   1.0000   1.0000   1.0000   1.0000
     1.0000   1.0000   1.0000   1.0000   1.0000   1.0000   1.0000   1.0000
     1.0000   1.0000   1.0000   1.0000   1.0000   1.0000   1.0000   1.0000
     1.0000   1.0000   1.0000   1.0000   1.0000   1.0000   1.0000   1.0000
     1.0000   1.0000   1.0000   1.0000   1.0000   1.0000   1.0000   1.0000
     1.0000   1.0000   1.0000   1.0000   1.0000   1.0000   1.0000   1.0000
     1.0000   1.0000   1.0000   1.0000   1.0000   0.7424   0.2576  -0.0000
    -0.0000  -0.0000  -0.0000  -0.0000  -0.0000  -0.0000  -0.0000  -0.0000
    -0.0000  -0.0000  -0.0000  -0.0000

     the Fermi energy is    15.4964 ev

!    total energy              =   -1922.38992620 Ry
     estimated scf accuracy    <       0.00000014 Ry
     smearing contrib. (-TS)   =      -0.00042195 Ry
     internal energy E=F+TS    =   -1922.38950425 Ry

     The total energy is F=E-TS. E is the sum of the following terms:
     one-electron contribution =   -1197.96478087 Ry
     hartree contribution      =     670.57355301 Ry
     xc contribution           =    -252.41737139 Ry
     ewald contribution        =   -1142.58090499 Ry

     convergence has been achieved in  43 iterations

     negative rho (up, down):  3.801E-03 0.000E+00

     Forces acting on atoms (cartesian axes, Ry/au):

     atom    1 type  1   force =     0.00000000    0.01852520    0.03510657
     atom    2 type  1   force =     0.00000000    0.01852520   -0.03510657
     atom    3 type  1   force =     0.00000000   -0.01852520   -0.03510657
     atom    4 type  1   force =     0.00000000   -0.01852520    0.03510657
     atom    5 type  2   force =     0.00000000   -0.01209756    0.02056064
     atom    6 type  2   force =     0.00000000   -0.01209756   -0.02056064
     atom    7 type  2   force =     0.00000000    0.01209756   -0.02056064
     atom    8 type  2   force =    -0.00000000    0.01209756    0.02056064
     atom    9 type  3   force =     0.00000000    0.02980168   -0.06335374
     atom   10 type  3   force =     0.00000000    0.02980168    0.06335374
     atom   11 type  3   force =     0.00000000   -0.02980168    0.06335374
     atom   12 type  3   force =     0.00000000   -0.02980168   -0.06335374
     The non-local contrib.  to forces
     atom    1 type  1   force =     0.00000000    0.01899099    0.04908211
     atom    2 type  1   force =     0.00000000    0.01899099   -0.04908211
     atom    3 type  1   force =     0.00000000   -0.01899099   -0.04908211
     atom    4 type  1   force =     0.00000000   -0.01899099    0.04908211
     atom    5 type  2   force =     0.00000000   -0.16795115   -0.47738965
     atom    6 type  2   force =     0.00000000   -0.16795115    0.47738965
     atom    7 type  2   force =     0.00000000    0.16795115    0.47738965
     atom    8 type  2   force =     0.00000000    0.16795115   -0.47738965
     atom    9 type  3   force =     0.00000000   -0.03837725    0.01473347
     atom   10 type  3   force =     0.00000000   -0.03837725   -0.01473347
     atom   11 type  3   force =     0.00000000    0.03837725   -0.01473347
     atom   12 type  3   force =     0.00000000    0.03837725    0.01473347
     The ionic contribution  to forces
     atom    1 type  1   force =    -0.00000000    0.55339897   -5.83752198
     atom    2 type  1   force =    -0.00000000    0.55339897    5.83752198
     atom    3 type  1   force =    -0.00000000   -0.55339897    5.83752198
     atom    4 type  1   force =    -0.00000000   -0.55339897   -5.83752198
     atom    5 type  2   force =    -0.00000000   -9.53758448    4.28161370
     atom    6 type  2   force =    -0.00000000   -9.53758447   -4.28161370
     atom    7 type  2   force =    -0.00000000    9.53758448   -4.28161370
     atom    8 type  2   force =    -0.00000000    9.53758448    4.28161370
     atom    9 type  3   force =     0.00000000    3.54199423   -1.10657974
     atom   10 type  3   force =     0.00000000    3.54199423    1.10657974
     atom   11 type  3   force =    -0.00000000   -3.54199423    1.10657974
     atom   12 type  3   force =    -0.00000000   -3.54199423   -1.10657974
     The local contribution  to forces
     atom    1 type  1   force =     0.00004872   -0.55257946    5.82491910
     atom    2 type  1   force =     0.00004904   -0.55235985   -5.82435124
     atom    3 type  1   force =     0.00004592    0.55239178   -5.82479209
     atom    4 type  1   force =     0.00004922    0.55251939    5.82431092
     atom    5 type  2   force =    -0.00000440    9.68967302   -3.79126583
     atom    6 type  2   force =    -0.00001177    9.69014346    3.79072667
     atom    7 type  2   force =    -0.00001469   -9.68995093    3.79078399
     atom    8 type  2   force =    -0.00000495   -9.68985891   -3.79057140
     atom    9 type  3   force =    -0.00002507   -3.48017632    1.03011933
     atom   10 type  3   force =    -0.00002232   -3.48006135   -1.03028687
     atom   11 type  3   force =    -0.00002361    3.48015092   -1.03003690
     atom   12 type  3   force =    -0.00002508    3.48010165    1.03021994
     The core correction contribution to forces
     atom    1 type  1   force =     0.00000008   -0.00139605   -0.00110248
     atom    2 type  1   force =     0.00000004   -0.00139578    0.00110237
     atom    3 type  1   force =     0.00000037    0.00139451    0.00110269
     atom    4 type  1   force =     0.00000014    0.00139737   -0.00110247
     atom    5 type  2   force =    -0.00000018    0.00342114    0.00717230
     atom    6 type  2   force =    -0.00000014    0.00342111   -0.00717243
     atom    7 type  2   force =    -0.00000016   -0.00342074   -0.00717204
     atom    8 type  2   force =    -0.00000017   -0.00342125    0.00717223
     atom    9 type  3   force =    -0.00000110    0.00635442   -0.00168566
     atom   10 type  3   force =    -0.00000087    0.00635389    0.00168450
     atom   11 type  3   force =    -0.00000098   -0.00635177    0.00168546
     atom   12 type  3   force =    -0.00000114   -0.00635532   -0.00168525
     The Hubbard contrib.    to forces
     atom    1 type  1   force =     0.00000000    0.00000000    0.00000000
     atom    2 type  1   force =     0.00000000    0.00000000    0.00000000
     atom    3 type  1   force =     0.00000000    0.00000000    0.00000000
     atom    4 type  1   force =     0.00000000    0.00000000    0.00000000
     atom    5 type  2   force =     0.00000000    0.00000000    0.00000000
     atom    6 type  2   force =     0.00000000    0.00000000    0.00000000
     atom    7 type  2   force =     0.00000000    0.00000000    0.00000000
     atom    8 type  2   force =     0.00000000    0.00000000    0.00000000
     atom    9 type  3   force =     0.00000000    0.00000000    0.00000000
     atom   10 type  3   force =     0.00000000    0.00000000    0.00000000
     atom   11 type  3   force =     0.00000000    0.00000000    0.00000000
     atom   12 type  3   force =     0.00000000    0.00000000    0.00000000
     The SCF correction term to forces
     atom    1 type  1   force =    -0.00003569    0.00009400   -0.00026419
     atom    2 type  1   force =    -0.00003813   -0.00009197   -0.00029833
     atom    3 type  1   force =    -0.00003364    0.00006467    0.00013773
     atom    4 type  1   force =    -0.00003643   -0.00003777    0.00032603
     atom    5 type  2   force =     0.00000392    0.00032225    0.00040180
     atom    6 type  2   force =     0.00000757   -0.00008929    0.00011448
     atom    7 type  2   force =     0.00001463   -0.00005808    0.00004397
     atom    8 type  2   force =     0.00000367   -0.00015068   -0.00023807
     atom    9 type  3   force =     0.00001162    0.00000399    0.00006414
     atom   10 type  3   force =     0.00001087   -0.00009994    0.00010820
     atom   11 type  3   force =     0.00001147    0.00003271   -0.00013569
     atom   12 type  3   force =     0.00001176    0.00005769   -0.00004367

     Total force =     0.167888     Total SCF correction =     0.000857

     Computing stress (Cartesian axis) and pressure

     negative rho (up, down):  3.801E-03 0.000E+00
          total   stress  (Ry/bohr**3)                   (kbar)     P=     -566.73
  -0.00304615   0.00000000   0.00000000         -448.10        0.00        0.00
   0.00000000  -0.00489326   0.00000000            0.00     -719.82        0.00
   0.00000000   0.00000000  -0.00361828            0.00        0.00     -532.27

     kinetic stress (kbar)  27298.83      0.00      0.00
                                0.00  27296.62      0.00
                                0.00      0.00  26863.72

     local   stress (kbar) -13102.12     -0.00     -0.00
                               -0.00  -6432.21     -0.05
                               -0.00     -0.05  -5500.79

     nonloc. stress (kbar)  10608.86      0.00      0.00
                                0.00  10737.58      0.00
                                0.00      0.00  10635.78

     hartree stress (kbar)  31394.79      0.00      0.00
                                0.00  28449.98      0.02
                                0.00      0.02  27494.97

     exc-cor stress (kbar)  -3533.38      0.00      0.00
                                0.00  -3533.02      0.00
                                0.00      0.00  -3538.97

     corecor stress (kbar)  -6017.67      0.00     -0.00
                                0.00  -6007.10     -0.00
                               -0.00     -0.00  -5999.09

     ewald   stress (kbar) -47097.41     -0.00     -0.00
                               -0.00 -51231.66      0.00
                               -0.00      0.00 -50487.88

     hubbard stress (kbar)      0.00      0.00      0.00
                                0.00      0.00      0.00
                                0.00      0.00      0.00

     DFT-D   stress (kbar)      0.00      0.00      0.00
                                0.00      0.00      0.00
                                0.00      0.00      0.00

     XDM     stress (kbar)      0.00      0.00      0.00
                                0.00      0.00      0.00
                                0.00      0.00      0.00

     dft-nl  stress (kbar)      0.00      0.00      0.00
                                0.00      0.00      0.00
                                0.00      0.00      0.00

     TS-vdW  stress (kbar)      0.00      0.00      0.00
                                0.00      0.00      0.00
                                0.00      0.00      0.00

[...]

                                0.00      0.00      0.00

     Writing all to output data dir new_calculations/myprefix.save/

     General routines

     Parallel routines

   This run was terminated on:   8:43: 5  20May2023

   JOB DONE.