     Program PWSCF v.7.0 starts on 20May2023 at  5:55:49

     Reading input from espresso_10164.pwi
Warning: card &CELL ignored
Warning: card / ignored

     Current dimensions of program PWSCF are:
     Max number of different atomic species (ntypx) = 10
     Max number of k-points (npk) =  40000
     Max angular momentum in pseudopotentials (lmaxx) =  4

     gamma-point specific algorithms are used
     Message from routine setup:
     using ibrav=0 with symmetry is DISCOURAGED, use correct ibrav instead

     Subspace diagonalization in iterative solution of the eigenvalue problem:
     a serial algorithm will be used

     Using Slab Decomposition

     bravais-lattice index     =            0
     lattice parameter (alat)  =       5.8925  a.u.
     unit-cell volume          =     463.5517 (a.u.)^3
     number of atoms/cell      =            6
     number of atomic types    =            2
     number of electrons       =        64.00
     number of Kohn-Sham states=           38
     kinetic-energy cutoff     =      30.0000  Ry
     charge density cutoff     =     240.0000  Ry
     scf convergence threshold =      1.0E-06
     mixing beta               =       0.7000
     number of iterations used =            8  plain     mixing
     Exchange-correlation=  SLA  PW   PBX  PBC
                           (   1   4   3   4   0   0   0)

     celldm(1)=   5.892455  celldm(2)=   0.000000  celldm(3)=   0.000000
     celldm(4)=   0.000000  celldm(5)=   0.000000  celldm(6)=   0.000000

     crystal axes: (cart. coord. in units of alat)
               a(1) = (   1.000000   0.000000   0.000000 )
               a(2) = (   0.000000   1.489368   0.000000 )
               a(3) = (   0.000000   0.000000   1.521274 )

     reciprocal axes: (cart. coord. in units 2 pi/alat)
               b(1) = (  1.000000  0.000000  0.000000 )
               b(2) = (  0.000000  0.671426  0.000000 )
               b(3) = (  0.000000  0.000000  0.657344 )

     PseudoPot. # 1 for Ni read from file:
     /home/pragov/projects/rrg-bengioy-ad/pragov/crystal_structure_design/SSSP/ni_pbe_v1.4.uspp.F.UPF
     MD5 check sum: 1ee80287db30b12d2bc1f57a5b5d6409
     Pseudo is Ultrasoft + core correction, Zval = 18.0
     Generated by new atomic code, or converted to UPF format
     Using radial grid of  865 points,  6 beta functions with:
                l(1) =   0
                l(2) =   0
                l(3) =   1
                l(4) =   1
                l(5) =   2
                l(6) =   2
     Q(r) pseudized with 10 coefficients,  rinner =    0.980   0.980   0.980
                                                       0.980   0.980

     PseudoPot. # 2 for F  read from file:
     /home/pragov/projects/rrg-bengioy-ad/pragov/crystal_structure_design/SSSP/f_pbe_v1.4.uspp.F.UPF
     MD5 check sum: 4c38b6a325caf53ec0e86aed9459de46
     Pseudo is Ultrasoft, Zval =  7.0
     Generated by new atomic code, or converted to UPF format
     Using radial grid of  799 points,  4 beta functions with:
                l(1) =   0
                l(2) =   0
                l(3) =   1
                l(4) =   1
     Q(r) pseudized with  8 coefficients,  rinner =    0.950   0.950   0.950

     atomic species   valence    mass     pseudopotential
        Ni            18.00    58.69340     Ni( 1.00)
        F              7.00    18.99840     F ( 1.00)

      8 Sym. Ops., with inversion, found ( 4 have fractional translation)

                                    s                        frac. trans.

      isym =  1     identity

 cryst.   s( 1) = (     1          0          0      )
                  (     0          1          0      )
                  (     0          0          1      )

 cart.    s( 1) = (  1.0000000  0.0000000  0.0000000 )
                  (  0.0000000  1.0000000  0.0000000 )
                  (  0.0000000  0.0000000  1.0000000 )

      isym =  2     180 deg rotation - cart. axis [0,0,1]

 cryst.   s( 2) = (    -1          0          0      )    f =(  0.5000000 )
                  (     0         -1          0      )       (  0.5000000 )
                  (     0          0          1      )       ( -0.5000000 )

 cart.    s( 2) = ( -1.0000000  0.0000000  0.0000000 )    f =(  0.5000000 )
                  (  0.0000000 -1.0000000  0.0000000 )       (  0.7446838 )
                  (  0.0000000  0.0000000  1.0000000 )       ( -0.7606370 )

[...]

      isym =  4     180 deg rotation - cart. axis [1,0,0]

[...]

      isym =  5     inversion

[...]

      isym =  6     inv. 180 deg rotation - cart. axis [0,0,1]

[...]

 cryst.   s( 7) = (     1          0          0      )    f =( -0.5000000 )
                  (     0         -1          0      )       (  0.5000000 )
                  (     0          0          1      )       ( -0.5000000 )

 cart.    s( 7) = (  1.0000000  0.0000000  0.0000000 )    f =( -0.5000000 )
                  (  0.0000000 -1.0000000  0.0000000 )       (  0.7446838 )
                  (  0.0000000  0.0000000  1.0000000 )       ( -0.7606370 )

      isym =  8     inv. 180 deg rotation - cart. axis [1,0,0]

 cryst.   s( 8) = (    -1          0          0      )
                  (     0          1          0      )
                  (     0          0          1      )

 cart.    s( 8) = ( -1.0000000  0.0000000  0.0000000 )
                  (  0.0000000  1.0000000  0.0000000 )
                  (  0.0000000  0.0000000  1.0000000 )

   Cartesian axes

     site n.     atom                  positions (alat units)
         1           Ni  tau(   1) = (   0.0000000   0.0000000   0.0000000  )
         2           Ni  tau(   2) = (   0.5000000   0.7446838   0.7606370  )
         3           F   tau(   3) = (   0.0000000   0.4289483   0.4866464  )
         4           F   tau(   4) = (   0.5000000   0.3157355   1.2472834  )
         5           F   tau(   5) = (   0.0000000   1.0604193   1.0346276  )
         6           F   tau(   6) = (   0.5000000   1.1736321   0.2739906  )

   Crystallographic axes

     site n.     atom                  positions (cryst. coord.)
         1           Ni  tau(   1) = (  0.0000000  0.0000000  0.0000000  )
         2           Ni  tau(   2) = (  0.5000000  0.5000000  0.5000000  )
         3           F   tau(   3) = (  0.0000000  0.2880070  0.3198940  )
         4           F   tau(   4) = (  0.5000000  0.2119930  0.8198940  )
         5           F   tau(   5) = (  0.0000000  0.7119930  0.6801060  )
         6           F   tau(   6) = (  0.5000000  0.7880070  0.1801060  )

     number of k points=     1  Methfessel-Paxton smearing, width (Ry)=  0.0010
                       cart. coord. in units 2pi/alat
        k(    1) = (   0.0000000   0.0000000   0.0000000), wk =   2.0000000

                       cryst. coord.
        k(    1) = (   0.0000000   0.0000000   0.0000000), wk =   2.0000000

     Check: negative core charge=   -0.000007

     Initial potential from superposition of free atoms

     starting charge      60.0000, renormalised to      64.0000
     Starting wfcs are   42 randomized atomic wfcs

     Self-consistent Calculation

     iteration #  1     ecut=    30.00 Ry     beta= 0.70
     Davidson diagonalization with overlap

     ethr =  1.00E-02,  avg # of iterations =  4.0

     total energy              =    -843.59911848 Ry
     estimated scf accuracy    <      51.73078827 Ry

[...]

     negative rho (up, down):  6.986E-06 0.000E+00

[...]

     negative rho (up, down):  1.049E-06 0.000E+00

[...]

     total energy              =    -880.43295024 Ry
     estimated scf accuracy    <       0.00001575 Ry

     iteration # 33     ecut=    30.00 Ry     beta= 0.70
     Davidson diagonalization with overlap

     ethr =  2.02E-08,  avg # of iterations =  1.0

     End of self-consistent calculation

          k = 0.0000 0.0000 0.0000 (   634 PWs)   bands (ev):

   -96.3288 -96.3271 -57.1082 -57.1075 -56.5354 -56.5321 -56.3444 -56.3428
   -16.9745 -16.2287 -16.2225 -16.2137  -0.7326   0.5204   1.0877   1.4878
     1.5238   1.5394   1.8113   1.8566   2.9356   3.3300   3.3494   3.6230
     5.5293   5.6974   5.6996   5.8292   6.0644   6.5260   6.8130   7.4233
     7.4238   7.8272   9.8536  15.6375  15.7609  16.4331

     occupation numbers
     1.0000   1.0000   1.0000   1.0000   1.0000   1.0000   1.0000   1.0000
     1.0000   1.0000   1.0000   1.0000   1.0000   1.0000   1.0000   1.0000
     1.0000   1.0000   1.0000   1.0000   1.0000   1.0000   1.0000   1.0000
     1.0000   1.0000   1.0000   1.0000   1.0000   1.0000   1.0000   0.5151
     0.4849  -0.0000  -0.0000  -0.0000  -0.0000  -0.0000

     the Fermi energy is     7.4236 ev

!    total energy              =    -880.43295052 Ry
     estimated scf accuracy    <       0.00000005 Ry
     smearing contrib. (-TS)   =      -0.00056365 Ry
     internal energy E=F+TS    =    -880.43238686 Ry

     The total energy is F=E-TS. E is the sum of the following terms:
     one-electron contribution =    -636.21755127 Ry
     hartree contribution      =     348.18174144 Ry
     xc contribution           =    -108.38725099 Ry
     ewald contribution        =    -484.00932604 Ry

     convergence has been achieved in  33 iterations

     Forces acting on atoms (cartesian axes, Ry/au):

     atom    1 type  1   force =    -0.00000000    0.00000000    0.00000000
     atom    2 type  1   force =     0.00000000    0.00000000    0.00000000
     atom    3 type  2   force =     0.00000000   -0.01578871   -0.02131321
     atom    4 type  2   force =     0.00000000    0.01578871   -0.02131321
     atom    5 type  2   force =     0.00000000    0.01578871    0.02131321
     atom    6 type  2   force =     0.00000000   -0.01578871    0.02131321
     The non-local contrib.  to forces
     atom    1 type  1   force =     0.00000000    0.00000000    0.00000000
     atom    2 type  1   force =     0.00000000   -0.00000000    0.00000000
     atom    3 type  2   force =     0.00000000    0.15746311    0.00736298
     atom    4 type  2   force =     0.00000000   -0.15746311    0.00736298
     atom    5 type  2   force =     0.00000000   -0.15746311   -0.00736298
     atom    6 type  2   force =    -0.00000000    0.15746311   -0.00736298
     The ionic contribution  to forces
     atom    1 type  1   force =     0.00000000    0.00000000    0.00000000
     atom    2 type  1   force =    -0.00000000    0.00000000    0.00000000
     atom    3 type  2   force =     0.00000000   -3.27556834   -1.23709043
     atom    4 type  2   force =    -0.00000000    3.27556834   -1.23709043
     atom    5 type  2   force =     0.00000000    3.27556834    1.23709043
     atom    6 type  2   force =    -0.00000000   -3.27556834    1.23709043
     The local contribution  to forces
     atom    1 type  1   force =    -0.00000001   -0.00000622   -0.00001374
     atom    2 type  1   force =    -0.00000002    0.00000872    0.00001449
     atom    3 type  2   force =    -0.00000005    3.10213429    1.20822770
     atom    4 type  2   force =    -0.00000001   -3.10249942    1.20860243
     atom    5 type  2   force =     0.00000006   -3.10213414   -1.20822529
     atom    6 type  2   force =     0.00000001    3.10249891   -1.20860452
     The core correction contribution to forces
     atom    1 type  1   force =    -0.00000000   -0.00000002   -0.00000000
     atom    2 type  1   force =     0.00000000   -0.00000001   -0.00000001
     atom    3 type  2   force =     0.00000000    0.00000000    0.00000000
     atom    4 type  2   force =     0.00000000    0.00000000    0.00000000
     atom    5 type  2   force =     0.00000000    0.00000000    0.00000000
     atom    6 type  2   force =     0.00000000    0.00000000    0.00000000
     The Hubbard contrib.    to forces
     atom    1 type  1   force =     0.00000000    0.00000000    0.00000000
     atom    2 type  1   force =     0.00000000    0.00000000    0.00000000
     atom    3 type  2   force =     0.00000000    0.00000000    0.00000000
     atom    4 type  2   force =     0.00000000    0.00000000    0.00000000
     atom    5 type  2   force =     0.00000000    0.00000000    0.00000000
     atom    6 type  2   force =     0.00000000    0.00000000    0.00000000
     The SCF correction term to forces
     atom    1 type  1   force =     0.00000001    0.00000850    0.00001505
     atom    2 type  1   force =     0.00000000   -0.00001104   -0.00001594
     atom    3 type  2   force =     0.00000011    0.00018714    0.00018928
     atom    4 type  2   force =     0.00000001    0.00018830   -0.00019075
     atom    5 type  2   force =    -0.00000011   -0.00018816   -0.00019248
     atom    6 type  2   force =    -0.00000002   -0.00018769    0.00019399

     Total force =     0.053049     Total SCF correction =     0.000537

     Computing stress (Cartesian axis) and pressure

          total   stress  (Ry/bohr**3)                   (kbar)     P=     -865.64
  -0.00578099   0.00000000   0.00000000         -850.41        0.00        0.00
   0.00000000  -0.00614844   0.00000000            0.00     -904.47        0.00
   0.00000000   0.00000000  -0.00572406            0.00        0.00     -842.04

     kinetic stress (kbar)  34837.45      0.00      0.00
                                0.00  35382.53      0.00
                                0.00      0.00  35312.00

     local   stress (kbar) -46233.13      0.00      0.00
                                0.00  -6330.88      0.60
                                0.00      0.60  -8537.12

     nonloc. stress (kbar)   9271.63      0.00      0.00
                                0.00   9744.31      0.00
                                0.00      0.00   9765.93

     hartree stress (kbar)  47962.87     -0.00     -0.00
                               -0.00  30779.08     -0.32
                               -0.00     -0.32  31751.23

     exc-cor stress (kbar)  -9759.66     -0.00     -0.00
                               -0.00  -9760.42     -0.00
                               -0.00     -0.00  -9761.15

     corecor stress (kbar)  -1137.89      0.00      0.00
                                0.00  -1143.33      0.00
                                0.00      0.00  -1143.19

     ewald   stress (kbar) -35791.67     -0.00     -0.00
                               -0.00 -59575.76     -0.00
                               -0.00     -0.00 -58229.73

     hubbard stress (kbar)      0.00      0.00      0.00
                                0.00      0.00      0.00
                                0.00      0.00      0.00

     DFT-D   stress (kbar)      0.00      0.00      0.00
                                0.00      0.00      0.00
                                0.00      0.00      0.00

     XDM     stress (kbar)      0.00      0.00      0.00
                                0.00      0.00      0.00
                                0.00      0.00      0.00

     dft-nl  stress (kbar)      0.00      0.00      0.00
                                0.00      0.00      0.00
                                0.00      0.00      0.00

     TS-vdW  stress (kbar)      0.00      0.00      0.00
                                0.00      0.00      0.00
                                0.00      0.00      0.00

[...]

                                0.00      0.00      0.00

     Writing all to output data dir new_calculations/myprefix.save/

     General routines

     Parallel routines

   This run was terminated on:   5:55:56  20May2023

   JOB DONE.