     Program PWSCF v.7.0 starts on 20May2023 at 15: 4:58

     Reading input from espresso_16430.pwi
Warning: card &CELL ignored
Warning: card / ignored

     Current dimensions of program PWSCF are:
     Max number of different atomic species (ntypx) = 10
     Max number of k-points (npk) =  40000
     Max angular momentum in pseudopotentials (lmaxx) =  4

     gamma-point specific algorithms are used
     Message from routine setup:
     using ibrav=0 with symmetry is DISCOURAGED, use correct ibrav instead

     Subspace diagonalization in iterative solution of the eigenvalue problem:
     a serial algorithm will be used

     Using Slab Decomposition

     bravais-lattice index     =            0
     lattice parameter (alat)  =      12.8325  a.u.
     unit-cell volume          =    1626.7140 (a.u.)^3
     number of atoms/cell      =            8
     number of atomic types    =            3
     number of electrons       =        76.00
     number of Kohn-Sham states=           46
     kinetic-energy cutoff     =      30.0000  Ry
     charge density cutoff     =     240.0000  Ry
     scf convergence threshold =      1.0E-06
     mixing beta               =       0.7000
     number of iterations used =            8  plain     mixing
     Exchange-correlation=  SLA  PW   PBX  PBC
                           (   1   4   3   4   0   0   0)

     celldm(1)=  12.832493  celldm(2)=   0.000000  celldm(3)=   0.000000
     celldm(4)=   0.000000  celldm(5)=   0.000000  celldm(6)=   0.000000

     crystal axes: (cart. coord. in units of alat)
               a(1) = (   1.000000   0.000000   0.000000 )
               a(2) = (  -0.333333   0.942809   0.000000 )
               a(3) = (  -0.333333  -0.471405   0.816497 )

     reciprocal axes: (cart. coord. in units 2 pi/alat)
               b(1) = (  1.000000  0.353553  0.612372 )
               b(2) = (  0.000000  1.060660  0.612372 )
               b(3) = (  0.000000  0.000000  1.224745 )

     PseudoPot. # 1 for Ta read from file:
     /home/pragov/projects/rrg-bengioy-ad/pragov/crystal_structure_design/SSSP/Ta_pbe_v1.uspp.F.UPF
     MD5 check sum: f8bbe9446314a3b8ea5d9f3e3836c939
     Pseudo is Ultrasoft + core correction, Zval = 13.0
     Generated by new atomic code, or converted to UPF format
     Using radial grid of  921 points,  7 beta functions with:
                l(1) =   0
                l(2) =   0
                l(3) =   1
                l(4) =   1
                l(5) =   2
                l(6) =   2
                l(7) =   3
     Q(r) pseudized with  6 coefficients,  rinner =    1.300   1.300   1.300
                                                       1.300   1.300   1.300
                                                       1.300

     PseudoPot. # 2 for Tl read from file:
     /home/pragov/projects/rrg-bengioy-ad/pragov/crystal_structure_design/SSSP/Tl_pbe_v1.2.uspp.F.UPF
     MD5 check sum: b76cf1f7e72655a2b2c53cf6385d7059
     Pseudo is Ultrasoft + core correction, Zval = 13.0
     Generated by new atomic code, or converted to UPF format
     Using radial grid of  899 points,  6 beta functions with:
                l(1) =   0
                l(2) =   0
                l(3) =   1
                l(4) =   1
                l(5) =   2
                l(6) =   2
     Q(r) pseudized with  6 coefficients,  rinner =    1.100   1.100   1.100
                                                       1.100   1.100

     PseudoPot. # 3 for S  read from file:
     /home/pragov/projects/rrg-bengioy-ad/pragov/crystal_structure_design/SSSP/s_pbe_v1.4.uspp.F.UPF
     MD5 check sum: 88d86576ff6df21479756cfb9bdac1df
     Pseudo is Ultrasoft + core correction, Zval =  6.0
     Generated by new atomic code, or converted to UPF format
     Using radial grid of  907 points,  6 beta functions with:
                l(1) =   0
                l(2) =   0
                l(3) =   1
                l(4) =   1
                l(5) =   2
                l(6) =   2
     Q(r) pseudized with  8 coefficients,  rinner =    1.300   1.300   1.300
                                                       1.300   1.300

     atomic species   valence    mass     pseudopotential
        Ta            13.00   180.94788     Ta( 1.00)
        Tl            13.00   204.38000     Tl( 1.00)
        S              6.00    32.06000     S ( 1.00)

      2 Sym. Ops. (no inversion) found

                                    s                        frac. trans.

      isym =  1     identity

 cryst.   s( 1) = (     1          0          0      )
                  (     0          1          0      )
                  (     0          0          1      )

 cart.    s( 1) = (  1.0000000  0.0000000  0.0000000 )
                  (  0.0000000  1.0000000 -0.0000000 )
                  (  0.0000000  0.0000000  1.0000000 )

      isym =  2     inv. 180 deg rotation - cart. axis [0,0,1]

 cryst.   s( 2) = (     1          0          0      )
                  (     0          1          0      )
                  (    -1         -1         -1      )

 cart.    s( 2) = (  1.0000000  0.0000000 -0.0000000 )
                  (  0.0000000  1.0000000 -0.0000000 )
                  (  0.0000000  0.0000000 -1.0000000 )

   Cartesian axes

     site n.     atom                  positions (alat units)
         1           Ta  tau(   1) = (   0.0000000   0.0000000   0.0000000  )
         2           Tl  tau(   2) = (  -0.3333333   0.2357023   0.4082483  )
         3           Tl  tau(   3) = (   0.3333333   0.4714045   0.0000000  )
         4           Tl  tau(   4) = (   0.3333333  -0.2357023   0.4082483  )
         5           S   tau(   5) = (   0.2208760   0.3123658   0.5410335  )
         6           S   tau(   6) = (  -0.1124573   0.3180774   0.0000000  )
         7           S   tau(   7) = (   0.3373720   0.0000000   0.0000000  )
         8           S   tau(   8) = (  -0.1124573  -0.1590387   0.2754631  )

   Crystallographic axes

     site n.     atom                  positions (cryst. coord.)
         1           Ta  tau(   1) = (  0.0000000  0.0000000  0.0000000  )
         2           Tl  tau(   2) = (  0.0000000  0.5000000  0.5000000  )
         3           Tl  tau(   3) = (  0.5000000  0.5000000  0.0000000  )
         4           Tl  tau(   4) = (  0.5000000  0.0000000  0.5000000  )
         5           S   tau(   5) = (  0.6626280  0.6626280  0.6626280  )
         6           S   tau(   6) = ( -0.0000000  0.3373720  0.0000000  )
         7           S   tau(   7) = (  0.3373720  0.0000000  0.0000000  )
         8           S   tau(   8) = ( -0.0000000 -0.0000000  0.3373720  )

     number of k points=     1  Methfessel-Paxton smearing, width (Ry)=  0.0010
                       cart. coord. in units 2pi/alat
        k(    1) = (   0.0000000   0.0000000   0.0000000), wk =   2.0000000

                       cryst. coord.
        k(    1) = (   0.0000000   0.0000000   0.0000000), wk =   2.0000000

     Check: negative core charge=   -0.000005

     Initial potential from superposition of free atoms

     starting charge      75.9841, renormalised to      76.0000

     negative rho (up, down):  2.401E-01 0.000E+00
     Starting wfcs are   56 randomized atomic wfcs

     Self-consistent Calculation

     iteration #  1     ecut=    30.00 Ry     beta= 0.70
     Davidson diagonalization with overlap

     ethr =  1.00E-02,  avg # of iterations =  3.0

     negative rho (up, down):  2.338E-01 0.000E+00

     total energy              =    -673.49129564 Ry
     estimated scf accuracy    <       1.29483015 Ry

[...]

     total energy              =    -674.22520906 Ry
     estimated scf accuracy    <       0.00000487 Ry

     iteration #  9     ecut=    30.00 Ry     beta= 0.70
     Davidson diagonalization with overlap

     ethr =  6.41E-09,  avg # of iterations =  6.0

[...]

     End of self-consistent calculation

          k = 0.0000 0.0000 0.0000 (  2269 PWs)   bands (ev):

   -65.0794 -30.7473 -29.3150 -28.8439  -7.0593  -6.7604  -6.6283  -6.1115
    -4.8989  -4.8556  -4.7645  -4.7278  -4.7028  -4.6676  -4.6422  -4.6218
    -4.5839  -4.5727  -4.4941  -4.3734  -4.3105  -4.2733  -4.1421   0.4402
     0.6332   0.7209   2.3140   2.3221   2.4704   2.6654   2.6862   2.8437
     2.8862   3.0354   3.2236   3.2537   3.8321   3.8787   7.6974   7.8481
     7.8785   8.1795   8.2102   8.5634   8.6929   8.7425

     occupation numbers
     1.0000   1.0000   1.0000   1.0000   1.0000   1.0000   1.0000   1.0000
     1.0000   1.0000   1.0000   1.0000   1.0000   1.0000   1.0000   1.0000
     1.0000   1.0000   1.0000   1.0000   1.0000   1.0000   1.0000   1.0000
     1.0000   1.0000   1.0000   1.0000   1.0000   1.0000   1.0000   1.0000
     1.0000   1.0000   1.0000   1.0000   1.0000   1.0000  -0.0000  -0.0000
    -0.0000  -0.0000  -0.0000  -0.0000  -0.0000  -0.0000

     the Fermi energy is     4.2477 ev

!    total energy              =    -674.22521109 Ry
     estimated scf accuracy    <       0.00000075 Ry
     smearing contrib. (-TS)   =       0.00000000 Ry
     internal energy E=F+TS    =    -674.22521109 Ry

     The total energy is F=E-TS. E is the sum of the following terms:
     one-electron contribution =    -174.95934482 Ry
     hartree contribution      =     126.66850998 Ry
     xc contribution           =    -262.02428350 Ry
     ewald contribution        =    -363.91009275 Ry

     convergence has been achieved in   9 iterations

     negative rho (up, down):  2.225E-01 0.000E+00

     Forces acting on atoms (cartesian axes, Ry/au):

     atom    1 type  1   force =     0.07859097    0.01719811   -0.00000000
     atom    2 type  2   force =    -0.00722479    0.01636936    0.00431954
     atom    3 type  2   force =    -0.01484558    0.02524303   -0.00000000
     atom    4 type  2   force =    -0.00722479    0.01636936   -0.00431954
     atom    5 type  3   force =    -0.02028267    0.04862422    0.00400899
     atom    6 type  3   force =     0.00813864   -0.08504932    0.00000000
     atom    7 type  3   force =    -0.01686910   -0.08737898    0.00000000
     atom    8 type  3   force =    -0.02028267    0.04862422   -0.00400899
     The non-local contrib.  to forces
     atom    1 type  1   force =     0.06095568   -0.00664908   -0.00000000
     atom    2 type  2   force =     0.01271813   -0.02778878   -0.01754957
     atom    3 type  2   force =     0.00655934    0.02245661   -0.00000000
     atom    4 type  2   force =     0.01271813   -0.02778878    0.01754957
     atom    5 type  3   force =     0.06838765    0.02769991    0.09806746
     atom    6 type  3   force =     0.07464548   -0.17572477    0.00000000
     atom    7 type  3   force =    -0.17859311    0.00550721    0.00000000
     atom    8 type  3   force =     0.06838765    0.02769991   -0.09806746
     The ionic contribution  to forces
     atom    1 type  1   force =    -0.00000000   -0.00000000   -0.00000000
     atom    2 type  2   force =     0.00000000    0.00000000    0.00000000
     atom    3 type  2   force =    -0.00000000    0.00000000    0.00000000
     atom    4 type  2   force =    -0.00000000    0.00000000    0.00000000
     atom    5 type  3   force =    -1.86546865   -2.63817106   -4.56944631
     atom    6 type  3   force =    -1.86546865    5.27634212   -0.00000000
     atom    7 type  3   force =     5.59640594   -0.00000000   -0.00000000
     atom    8 type  3   force =    -1.86546865   -2.63817106    4.56944632
     The local contribution  to forces
     atom    1 type  1   force =     0.02342851    0.00806670   -0.00088499
     atom    2 type  2   force =    -0.00739677    0.02569631    0.00563913
     atom    3 type  2   force =    -0.02125367   -0.01030975    0.00443471
     atom    4 type  2   force =    -0.02452753    0.02421142   -0.02161919
     atom    5 type  3   force =     1.76175718    2.61865709    4.50794138
     atom    6 type  3   force =     1.81153446   -5.20953869   -0.05251201
     atom    7 type  3   force =    -5.43911459   -0.08527311    0.01931638
     atom    8 type  3   force =     1.81097496    2.66556844   -4.44876054
     The core correction contribution to forces
     atom    1 type  1   force =    -0.00237041    0.00274302   -0.00019403
     atom    2 type  2   force =     0.00308871    0.00645241    0.00689260
     atom    3 type  2   force =     0.00316808   -0.00100254    0.00643365
     atom    4 type  2   force =    -0.00333703    0.00405335   -0.00986165
     atom    5 type  3   force =    -0.01064508    0.00111448    0.00808971
     atom    6 type  3   force =    -0.00893980    0.00976246   -0.01312009
     atom    7 type  3   force =     0.00833728   -0.02129355    0.00676534
     atom    8 type  3   force =    -0.00179338    0.00548958    0.01396705
     The Hubbard contrib.    to forces
     atom    1 type  1   force =     0.00000000    0.00000000    0.00000000
     atom    2 type  2   force =     0.00000000    0.00000000    0.00000000
     atom    3 type  2   force =     0.00000000    0.00000000    0.00000000
     atom    4 type  2   force =     0.00000000    0.00000000    0.00000000
     atom    5 type  3   force =     0.00000000    0.00000000    0.00000000
     atom    6 type  3   force =     0.00000000    0.00000000    0.00000000
     atom    7 type  3   force =     0.00000000    0.00000000    0.00000000
     atom    8 type  3   force =     0.00000000    0.00000000    0.00000000
     The SCF correction term to forces
     atom    1 type  1   force =     0.00013778   -0.00081672    0.00026661
     atom    2 type  2   force =    -0.00037866   -0.00002017   -0.00010104
     atom    3 type  2   force =     0.00024125    0.00024452    0.00043860
     atom    4 type  2   force =    -0.00021340    0.00021459    0.00017330
     atom    5 type  3   force =     0.00035012   -0.00001461    0.00009387
     atom    6 type  3   force =    -0.00007226    0.00025538   -0.00008861
     atom    7 type  3   force =    -0.00034403   -0.00017372   -0.00005707
     atom    8 type  3   force =     0.00007403   -0.00033264    0.00014277

     Total force =     0.169736     Total SCF correction =     0.001357

     Computing stress (Cartesian axis) and pressure

     negative rho (up, down):  2.225E-01 0.000E+00
          total   stress  (Ry/bohr**3)                   (kbar)     P=      -39.85
  -0.00027326  -0.00010872   0.00000000          -40.20      -15.99        0.00
  -0.00010872  -0.00012043   0.00000000          -15.99      -17.72        0.00
   0.00000000   0.00000000  -0.00041900            0.00        0.00      -61.64

     kinetic stress (kbar)   6758.55     -5.52     -0.00
                               -5.52   6790.13     -0.00
                               -0.00     -0.00   6794.26

     local   stress (kbar)    392.36     -3.72     13.00
                               -3.72    435.95      2.53
                               13.00      2.53    396.05

     nonloc. stress (kbar)   3571.12     -4.41     -0.00
                               -4.41   3510.43     -0.00
                               -0.00     -0.00   3501.22

     hartree stress (kbar)   3820.79     -1.49      1.85
                               -1.49   3815.74     -2.54
                                1.85     -2.54   3818.21

     exc-cor stress (kbar)  13559.12      0.02     -0.11
                                0.02  13559.10      0.01
                               -0.11      0.01  13559.37

     corecor stress (kbar) -17172.56     -0.88      2.48
                               -0.88 -17159.50      0.01
                                2.48      0.01 -17161.19

     ewald   stress (kbar) -10969.56     -0.00     -0.00
                               -0.00 -10969.56     -0.00
                               -0.00     -0.00 -10969.56

     hubbard stress (kbar)      0.00      0.00      0.00
                                0.00      0.00      0.00
                                0.00      0.00      0.00

     DFT-D   stress (kbar)      0.00      0.00      0.00
                                0.00      0.00      0.00
                                0.00      0.00      0.00

     XDM     stress (kbar)      0.00      0.00      0.00
                                0.00      0.00      0.00
                                0.00      0.00      0.00

     dft-nl  stress (kbar)      0.00      0.00      0.00
                                0.00      0.00      0.00
                                0.00      0.00      0.00

     TS-vdW  stress (kbar)      0.00      0.00      0.00
                                0.00      0.00      0.00
                                0.00      0.00      0.00

[...]

                                0.00      0.00      0.00

     Writing all to output data dir new_calculations/myprefix.save/

     General routines

     Parallel routines

   This run was terminated on:  15: 5:26  20May2023

   JOB DONE.