     Program PWSCF v.7.0 starts on 20May2023 at 18:59: 9

     Reading input from espresso_5623.pwi
Warning: card &CELL ignored
Warning: card / ignored

     Current dimensions of program PWSCF are:
     Max number of different atomic species (ntypx) = 10
     Max number of k-points (npk) =  40000
     Max angular momentum in pseudopotentials (lmaxx) =  4
     file O.pbe-n-kjpaw_psl.0.1.UPF: wavefunction(s)  2P renormalized

     gamma-point specific algorithms are used
     Message from routine setup:
     using ibrav=0 with symmetry is DISCOURAGED, use correct ibrav instead

     Subspace diagonalization in iterative solution of the eigenvalue problem:
     a serial algorithm will be used

     Using Slab Decomposition

     bravais-lattice index     =            0
     lattice parameter (alat)  =       9.1578  a.u.
     unit-cell volume          =    2522.9040 (a.u.)^3
     number of atoms/cell      =           20
     number of atomic types    =            2
     number of electrons       =       192.00
     number of Kohn-Sham states=          115
     kinetic-energy cutoff     =      30.0000  Ry
     charge density cutoff     =     240.0000  Ry
     scf convergence threshold =      1.0E-06
     mixing beta               =       0.7000
     number of iterations used =            8  plain     mixing
     Exchange-correlation= SLA  PW   PBX  PBC
                           (   1   4   3   4   0   0   0)

     celldm(1)=   9.157847  celldm(2)=   0.000000  celldm(3)=   0.000000
     celldm(4)=   0.000000  celldm(5)=   0.000000  celldm(6)=   0.000000

     crystal axes: (cart. coord. in units of alat)
               a(1) = (   1.000000   0.000000   0.000000 )
               a(2) = (   0.000000   1.714134   0.000000 )
               a(3) = (   0.000000   1.142748   1.916354 )

     reciprocal axes: (cart. coord. in units 2 pi/alat)
               b(1) = (  1.000000  0.000000  0.000000 )
               b(2) = (  0.000000  0.583385 -0.347880 )
               b(3) = (  0.000000  0.000000  0.521824 )

     PseudoPot. # 1 for Sb read from file:
     /home/pragov/projects/rrg-bengioy-ad/pragov/crystal_structure_design/SSSP/sb_pbe_v1.4.uspp.F.UPF
     MD5 check sum: 9bc50dfb53373b713f5709b9110fe27f
     Pseudo is Ultrasoft + core correction, Zval = 15.0
     Generated by new atomic code, or converted to UPF format
     Using radial grid of  891 points,  6 beta functions with:
                l(1) =   0
                l(2) =   0
                l(3) =   1
                l(4) =   1
                l(5) =   2
                l(6) =   2
     Q(r) pseudized with  8 coefficients,  rinner =    1.350   1.350   1.350
                                                       1.350   1.350

     PseudoPot. # 2 for O  read from file:
     /home/pragov/projects/rrg-bengioy-ad/pragov/crystal_structure_design/SSSP/O.pbe-n-kjpaw_psl.0.1.UPF
     MD5 check sum: 0234752ac141de4415c5fc33072bef88
     Pseudo is Projector augmented-wave + core cor, Zval =  6.0
     Generated using "atomic" code by A. Dal Corso  v.5.0.99 svn rev. 10869
     Shape of augmentation charge: BESSEL
     Using radial grid of 1095 points,  4 beta functions with:
                l(1) =   0
                l(2) =   0
                l(3) =   1
                l(4) =   1
     Q(r) pseudized with 0 coefficients

     atomic species   valence    mass     pseudopotential
        Sb            15.00   121.76000     Sb( 1.00)
        O              6.00    15.99900     O ( 1.00)

      4 Sym. Ops., with inversion, found ( 2 have fractional translation)

                                    s                        frac. trans.

      isym =  1     identity

 cryst.   s( 1) = (     1          0          0      )
                  (     0          1          0      )
                  (     0          0          1      )

 cart.    s( 1) = (  1.0000000  0.0000000  0.0000000 )
                  (  0.0000000  1.0000000 -0.0000000 )
                  (  0.0000000  0.0000000  1.0000000 )

      isym =  2     180 deg rotation - cart. axis [1,0,0]

 cryst.   s( 2) = (     1          0          0      )    f =( -0.5000000 )
                  (     0         -1          0      )       ( -0.0000000 )
                  (     0          0         -1      )       (  0.5000000 )

 cart.    s( 2) = (  1.0000000  0.0000000  0.0000000 )    f =( -0.5000000 )
                  (  0.0000000 -1.0000000  0.0000000 )       (  0.5713742 )
                  (  0.0000000  0.0000000 -1.0000000 )       (  0.9581769 )

      isym =  3     inversion

 cryst.   s( 3) = (    -1          0          0      )
                  (     0         -1          0      )
                  (     0          0         -1      )

 cart.    s( 3) = ( -1.0000000  0.0000000  0.0000000 )
                  (  0.0000000 -1.0000000  0.0000000 )
                  (  0.0000000  0.0000000 -1.0000000 )

      isym =  4     inv. 180 deg rotation - cart. axis [1,0,0]

 cryst.   s( 4) = (    -1          0          0      )    f =(  0.5000000 )
                  (     0          1          0      )       ( -0.0000000 )
                  (     0          0          1      )       (  0.5000000 )

 cart.    s( 4) = ( -1.0000000  0.0000000  0.0000000 )    f =(  0.5000000 )
                  (  0.0000000  1.0000000 -0.0000000 )       (  0.5713742 )
                  (  0.0000000  0.0000000  1.0000000 )       (  0.9581769 )

   Cartesian axes

     site n.     atom                  positions (alat units)
         1           Sb  tau(   1) = (   0.3563180   1.7585227   0.3773895  )
         2           Sb  tau(   2) = (   0.8563180   0.5269859   0.5807874  )
         3           Sb  tau(   3) = (   0.6436820   1.0983601   1.5389643  )
         4           Sb  tau(   4) = (   0.1436820   2.3298968   1.3355663  )
         5           Sb  tau(   5) = (   0.8284960   1.1266552   0.1941918  )
         6           Sb  tau(   6) = (   0.3284960   1.1588534   0.7639851  )
         7           Sb  tau(   7) = (   0.1715040   1.7302276   1.7221620  )
         8           Sb  tau(   8) = (   0.6715040   1.6980293   1.1523687  )
         9           O   tau(   9) = (   0.9606100   1.8698687   0.4106842  )
        10           O   tau(  10) = (   0.4606100   0.4156399   0.5474927  )
        11           O   tau(  11) = (   0.0393900   0.9870140   1.5056696  )
        12           O   tau(  12) = (   0.5393900   2.4412428   1.3688611  )
        13           O   tau(  13) = (   0.6768010   1.0322904   0.5891696  )
        14           O   tau(  14) = (   0.1768010   1.2532181   0.3690073  )
        15           O   tau(  15) = (   0.3231990   1.8245923   1.3271842  )
        16           O   tau(  16) = (   0.8231990   1.6036646   1.5473464  )
        17           O   tau(  17) = (   0.8994570   0.7122003   0.2020948  )
        18           O   tau(  18) = (   0.3994570   1.5733083   0.7560820  )
        19           O   tau(  19) = (   0.1005430   2.1446824   1.7142589  )
        20           O   tau(  20) = (   0.6005430   1.2835745   1.1602717  )

   Crystallographic axes

     site n.     atom                  positions (cryst. coord.)
         1           Sb  tau(   1) = (  0.3563180  0.8946090  0.1969310  )
         2           Sb  tau(   2) = (  0.8563180  0.1053910  0.3030690  )
         3           Sb  tau(   3) = (  0.6436820  0.1053910  0.8030690  )
         4           Sb  tau(   4) = (  0.1436820  0.8946090  0.6969310  )
         5           Sb  tau(   5) = (  0.8284960  0.5897180  0.1013340  )
         6           Sb  tau(   6) = (  0.3284960  0.4102820  0.3986660  )
         7           Sb  tau(   7) = (  0.1715040  0.4102820  0.8986660  )
         8           Sb  tau(   8) = (  0.6715040  0.5897180  0.6013340  )
         9           O   tau(   9) = (  0.9606100  0.9479840  0.2143050  )
        10           O   tau(  10) = (  0.4606100  0.0520160  0.2856950  )
        11           O   tau(  11) = (  0.0393900  0.0520160  0.7856950  )
        12           O   tau(  12) = (  0.5393900  0.9479840  0.7143050  )
        13           O   tau(  13) = (  0.6768010  0.3972620  0.3074430  )
        14           O   tau(  14) = (  0.1768010  0.6027380  0.1925570  )
        15           O   tau(  15) = (  0.3231990  0.6027380  0.6925570  )
        16           O   tau(  16) = (  0.8231990  0.3972620  0.8074430  )
        17           O   tau(  17) = (  0.8994570  0.3451820  0.1054580  )
        18           O   tau(  18) = (  0.3994570  0.6548180  0.3945420  )
        19           O   tau(  19) = (  0.1005430  0.6548180  0.8945420  )
        20           O   tau(  20) = (  0.6005430  0.3451820  0.6054580  )

     number of k points=     1  Methfessel-Paxton smearing, width (Ry)=  0.0010
                       cart. coord. in units 2pi/alat
        k(    1) = (   0.0000000   0.0000000   0.0000000), wk =   2.0000000

                       cryst. coord.
        k(    1) = (   0.0000000   0.0000000   0.0000000), wk =   2.0000000

     Check: negative core charge=   -0.000010

     Initial potential from superposition of free atoms

     starting charge     183.9999, renormalised to     192.0000
     Starting wfcs are  120 randomized atomic wfcs
     Checking if some PAW data can be deallocated...

     Self-consistent Calculation

     iteration #  1     ecut=    30.00 Ry     beta= 0.70
     Davidson diagonalization with overlap

     ethr =  1.00E-02,  avg # of iterations =  3.0

     total energy              =   -1976.37364220 Ry
     estimated scf accuracy    <       6.10481541 Ry

[...]

     total energy              =   -1978.90046258 Ry
     estimated scf accuracy    <       0.00000622 Ry

     iteration # 10     ecut=    30.00 Ry     beta= 0.70
     Davidson diagonalization with overlap

     ethr =  2.34E-09,  avg # of iterations =  2.0

     End of self-consistent calculation

          k = 0.0000 0.0000 0.0000 (  3490 PWs)   bands (ev):

   -22.4003 -22.3959 -22.3736 -22.3648 -22.3499 -22.3422 -22.3411 -22.3358
   -22.3016 -22.2978 -22.2944 -22.2918 -22.2559 -22.2534 -22.2471 -22.2467
   -22.2452 -22.2442 -22.2115 -22.2111 -22.2049 -22.2022 -22.1924 -22.1919
   -22.1790 -22.1707 -22.1693 -22.1679 -22.1212 -22.1201 -22.1051 -22.1031
   -22.1009 -22.1000 -22.0958 -22.0942 -22.0510 -22.0417 -22.0412 -22.0329
   -12.8250 -12.4528 -12.1011 -11.9223 -11.9061 -11.5274 -11.1354 -10.9198
   -10.8799 -10.7736 -10.6328 -10.6122  -3.1677  -3.1010  -2.3931  -1.8855
    -1.5753  -1.1129   0.1100   0.6478   0.8915   0.9087   1.1606   1.2786
     1.4848   1.5390   1.8055   2.0306   2.2013   2.5759   2.7605   2.8067
     2.8593   3.1958   3.3054   3.4899   3.6824   3.7086   3.7668   3.9106
     4.0060   4.1890   4.4851   4.5154   4.5249   4.7312   4.7401   4.7899
     4.9906   5.1850   5.3814   5.4038   5.5144   5.8164   5.8410   6.3781
     9.1896   9.9589  10.0547  10.0918  10.1387  10.4135  10.4569  10.8566
    10.9843  11.1567  11.3685  11.5817  11.9652  12.1906  12.3107  12.5154
    12.6118  12.6843  13.0301

     occupation numbers
     1.0000   1.0000   1.0000   1.0000   1.0000   1.0000   1.0000   1.0000
     1.0000   1.0000   1.0000   1.0000   1.0000   1.0000   1.0000   1.0000
     1.0000   1.0000   1.0000   1.0000   1.0000   1.0000   1.0000   1.0000
     1.0000   1.0000   1.0000   1.0000   1.0000   1.0000   1.0000   1.0000
     1.0000   1.0000   1.0000   1.0000   1.0000   1.0000   1.0000   1.0000
     1.0000   1.0000   1.0000   1.0000   1.0000   1.0000   1.0000   1.0000
     1.0000   1.0000   1.0000   1.0000   1.0000   1.0000   1.0000   1.0000
     1.0000   1.0000   1.0000   1.0000   1.0000   1.0000   1.0000   1.0000
     1.0000   1.0000   1.0000   1.0000   1.0000   1.0000   1.0000   1.0000
     1.0000   1.0000   1.0000   1.0000   1.0000   1.0000   1.0000   1.0000
     1.0000   1.0000   1.0000   1.0000   1.0000   1.0000   1.0000   1.0000
     1.0000   1.0000   1.0000   1.0000   1.0000   1.0000   1.0000   1.0000
    -0.0000  -0.0000  -0.0000  -0.0000  -0.0000  -0.0000  -0.0000  -0.0000
    -0.0000  -0.0000  -0.0000  -0.0000  -0.0000  -0.0000  -0.0000  -0.0000
    -0.0000  -0.0000  -0.0000

     the Fermi energy is     8.7033 ev

!    total energy              =   -1978.90046312 Ry
     estimated scf accuracy    <       0.00000056 Ry
     smearing contrib. (-TS)   =       0.00000000 Ry
     internal energy E=F+TS    =   -1978.90046312 Ry

     The total energy is F=E-TS. E is the sum of the following terms:
     one-electron contribution =    -991.01732119 Ry
     hartree contribution      =     601.35768090 Ry
     xc contribution           =    -441.62839465 Ry
     ewald contribution        =   -1033.23941288 Ry
     one-center paw contrib.   =    -114.37301530 Ry
      -> PAW hartree energy AE =     353.34823313 Ry
      -> PAW hartree energy PS =    -352.16949591 Ry
      -> PAW xc energy AE      =    -205.74382141 Ry
      -> PAW xc energy PS      =      90.19206890 Ry
      -> total E_H with PAW    =     602.53641811 Ry
      -> total E_XC with PAW   =    -557.18014717 Ry

     convergence has been achieved in  10 iterations

     Forces acting on atoms (cartesian axes, Ry/au):

     atom    1 type  1   force =     0.03905971    0.00608871    0.00356966
     atom    2 type  1   force =     0.03905971   -0.00608871   -0.00356966
     atom    3 type  1   force =    -0.03905971   -0.00608871   -0.00356966
     atom    4 type  1   force =    -0.03905971    0.00608871    0.00356966
     atom    5 type  1   force =    -0.01262720   -0.00352528    0.00372771
     atom    6 type  1   force =    -0.01262720    0.00352528   -0.00372771
     atom    7 type  1   force =     0.01262720    0.00352528   -0.00372771
     atom    8 type  1   force =     0.01262720   -0.00352528    0.00372771
     atom    9 type  2   force =    -0.04066715   -0.06184752   -0.03983845
     atom   10 type  2   force =    -0.04066715    0.06184752    0.03983845
     atom   11 type  2   force =     0.04066715    0.06184752    0.03983845
     atom   12 type  2   force =     0.04066715   -0.06184752   -0.03983845
     atom   13 type  2   force =     0.01792952   -0.00321639    0.03097198
     atom   14 type  2   force =     0.01792952    0.00321639   -0.03097198
     atom   15 type  2   force =    -0.01792952    0.00321639   -0.03097198
     atom   16 type  2   force =    -0.01792952   -0.00321639    0.03097198
     atom   17 type  2   force =    -0.00245970   -0.00307709   -0.01077908
     atom   18 type  2   force =    -0.00245970    0.00307709    0.01077908
     atom   19 type  2   force =     0.00245970    0.00307709    0.01077908
     atom   20 type  2   force =     0.00245970   -0.00307709   -0.01077908
     The non-local contrib.  to forces
     atom    1 type  1   force =    -0.29617314    0.10788878    0.76245824
     atom    2 type  1   force =    -0.29617314   -0.10788878   -0.76245824
     atom    3 type  1   force =     0.29617314   -0.10788878   -0.76245824
     atom    4 type  1   force =     0.29617314    0.10788878    0.76245824
     atom    5 type  1   force =     0.49099283   -0.52891149    0.37366953
     atom    6 type  1   force =     0.49099283    0.52891149   -0.37366953
     atom    7 type  1   force =    -0.49099283    0.52891149   -0.37366953
     atom    8 type  1   force =    -0.49099283   -0.52891149    0.37366953
     atom    9 type  2   force =     0.72624723    0.73475794    0.44276664
     atom   10 type  2   force =     0.72624723   -0.73475794   -0.44276664
     atom   11 type  2   force =    -0.72624723   -0.73475794   -0.44276664
     atom   12 type  2   force =    -0.72624723    0.73475794    0.44276664
     atom   13 type  2   force =    -0.62557719    0.37982395   -0.42760905
     atom   14 type  2   force =    -0.62557719   -0.37982395    0.42760905
     atom   15 type  2   force =     0.62557719   -0.37982395    0.42760905
     atom   16 type  2   force =     0.62557719    0.37982395   -0.42760905
     atom   17 type  2   force =    -0.02332849    0.49929228    0.60580601
     atom   18 type  2   force =    -0.02332849   -0.49929228   -0.60580601
     atom   19 type  2   force =     0.02332849   -0.49929228   -0.60580601
     atom   20 type  2   force =     0.02332849    0.49929228    0.60580601
     The ionic contribution  to forces
     atom    1 type  1   force =     4.51251006   -2.20475234  -15.46529841
     atom    2 type  1   force =     4.51251006    2.20475234   15.46529841
     atom    3 type  1   force =    -4.51251006    2.20475234   15.46529841
     atom    4 type  1   force =    -4.51251006   -2.20475234  -15.46529841
     atom    5 type  1   force =    -9.26577532   10.98666542  -10.13880934
     atom    6 type  1   force =    -9.26577532  -10.98666542   10.13880934
     atom    7 type  1   force =     9.26577532  -10.98666542   10.13880934
     atom    8 type  1   force =     9.26577532   10.98666542  -10.13880934
     atom    9 type  2   force =    -4.86051675   -5.08961827   -3.39359443
     atom   10 type  2   force =    -4.86051675    5.08961827    3.39359443
     atom   11 type  2   force =     4.86051675    5.08961827    3.39359443
     atom   12 type  2   force =     4.86051675   -5.08961827   -3.39359443
     atom   13 type  2   force =     3.00248437   -2.57447242    4.35336185
     atom   14 type  2   force =     3.00248437    2.57447242   -4.35336185
     atom   15 type  2   force =    -3.00248437    2.57447242   -4.35336185
     atom   16 type  2   force =    -3.00248437   -2.57447242    4.35336185
     atom   17 type  2   force =    -0.66924768   -4.66515841   -3.56845562
     atom   18 type  2   force =    -0.66924768    4.66515841    3.56845562
     atom   19 type  2   force =     0.66924768    4.66515841    3.56845562
     atom   20 type  2   force =     0.66924768   -4.66515841   -3.56845562
     The local contribution  to forces
     atom    1 type  1   force =    -4.17978909    2.10312299   14.71653984
     atom    2 type  1   force =    -4.17998946   -2.10327818  -14.71566178
     atom    3 type  1   force =     4.17977599   -2.10319660  -14.71650667
     atom    4 type  1   force =     4.18000086    2.10325452   14.71568968
     atom    5 type  1   force =     8.76778848  -10.46808835    9.77319332
     atom    6 type  1   force =     8.76800946   10.46856040   -9.77261915
     atom    7 type  1   force =    -8.76773249   10.46814877   -9.77321959
     atom    8 type  1   force =    -8.76807314  -10.46850675    9.77257309
     atom    9 type  2   force =     4.10075274    4.30111224    2.91617384
     atom   10 type  2   force =     4.10079719   -4.30125428   -2.91594868
     atom   11 type  2   force =    -4.10075090   -4.30113053   -2.91616512
     atom   12 type  2   force =    -4.10080426    4.30125091    2.91596310
     atom   13 type  2   force =    -2.36534509    2.19542566   -3.89940192
     atom   14 type  2   force =    -2.36531597   -2.19531329    3.89960571
     atom   15 type  2   force =     2.36535337   -2.19541460    3.89940582
     atom   16 type  2   force =     2.36530202    2.19533092   -3.89959432
     atom   17 type  2   force =     0.68990415    4.16766320    2.95832858
     atom   18 type  2   force =     0.68998761   -4.16770169   -2.95822722
     atom   19 type  2   force =    -0.68990495   -4.16765447   -2.95834174
     atom   20 type  2   force =    -0.68998752    4.16770648    2.95821849
     The core correction contribution to forces
     atom    1 type  1   force =     0.00236891    0.00073857   -0.00890836
     atom    2 type  1   force =     0.00236803   -0.00073820    0.00891103
     atom    3 type  1   force =    -0.00236927   -0.00073867    0.00890800
     atom    4 type  1   force =    -0.00236780    0.00073838   -0.00891112
     atom    5 type  1   force =    -0.00541726    0.00673665   -0.00386476
     atom    6 type  1   force =    -0.00541600   -0.00673505    0.00386738
     atom    7 type  1   force =     0.00541744   -0.00673656    0.00386449
     atom    8 type  1   force =     0.00541546    0.00673468   -0.00386687
     atom    9 type  2   force =    -0.00727190   -0.00803543   -0.00498920
     atom   10 type  2   force =    -0.00727156    0.00803482    0.00498812
     atom   11 type  2   force =     0.00727183    0.00803552    0.00498919
     atom   12 type  2   force =     0.00727155   -0.00803472   -0.00498811
     atom   13 type  2   force =     0.00640073   -0.00401334    0.00475246
     atom   14 type  2   force =     0.00640038    0.00401311   -0.00475407
     atom   15 type  2   force =    -0.00640059    0.00401322   -0.00475229
     atom   16 type  2   force =    -0.00640056   -0.00401310    0.00475430
     atom   17 type  2   force =     0.00017731   -0.00511859   -0.00631510
     atom   18 type  2   force =     0.00017772    0.00511845    0.00631348
     atom   19 type  2   force =    -0.00017740    0.00511850    0.00631507
     atom   20 type  2   force =    -0.00017762   -0.00511843   -0.00631348
     The Hubbard contrib.    to forces
     atom    1 type  1   force =     0.00000000    0.00000000    0.00000000
     atom    2 type  1   force =     0.00000000    0.00000000    0.00000000
     atom    3 type  1   force =     0.00000000    0.00000000    0.00000000
     atom    4 type  1   force =     0.00000000    0.00000000    0.00000000
     atom    5 type  1   force =     0.00000000    0.00000000    0.00000000
     atom    6 type  1   force =     0.00000000    0.00000000    0.00000000
     atom    7 type  1   force =     0.00000000    0.00000000    0.00000000
     atom    8 type  1   force =     0.00000000    0.00000000    0.00000000
     atom    9 type  2   force =     0.00000000    0.00000000    0.00000000
     atom   10 type  2   force =     0.00000000    0.00000000    0.00000000
     atom   11 type  2   force =     0.00000000    0.00000000    0.00000000
     atom   12 type  2   force =     0.00000000    0.00000000    0.00000000
     atom   13 type  2   force =     0.00000000    0.00000000    0.00000000
     atom   14 type  2   force =     0.00000000    0.00000000    0.00000000
     atom   15 type  2   force =     0.00000000    0.00000000    0.00000000
     atom   16 type  2   force =     0.00000000    0.00000000    0.00000000
     atom   17 type  2   force =     0.00000000    0.00000000    0.00000000
     atom   18 type  2   force =     0.00000000    0.00000000    0.00000000
     atom   19 type  2   force =     0.00000000    0.00000000    0.00000000
     atom   20 type  2   force =     0.00000000    0.00000000    0.00000000
     The SCF correction term to forces
     atom    1 type  1   force =     0.00014084   -0.00089820   -0.00126030
     atom    2 type  1   force =     0.00034335    0.00107125    0.00030247
     atom    3 type  1   force =    -0.00012932    0.00098280    0.00122127
     atom    4 type  1   force =    -0.00035903   -0.00104480   -0.00033611
     atom    5 type  1   force =    -0.00021203    0.00005800   -0.00048373
     atom    6 type  1   force =    -0.00044430   -0.00056144   -0.00013494
     atom    7 type  1   force =     0.00014521   -0.00012393    0.00051147
     atom    8 type  1   force =     0.00051472    0.00050112    0.00018864
     atom    9 type  2   force =     0.00011097   -0.00007653   -0.00023730
     atom   10 type  2   force =     0.00008615    0.00019514   -0.00007003
     atom   11 type  2   force =    -0.00011465    0.00009978    0.00022707
     atom   12 type  2   force =    -0.00007944   -0.00018478    0.00005559
     atom   13 type  2   force =    -0.00002508    0.00000776   -0.00018979
     atom   14 type  2   force =    -0.00007280   -0.00014111   -0.00012862
     atom   15 type  2   force =     0.00002429   -0.00002624    0.00019793
     atom   16 type  2   force =     0.00007429    0.00012153    0.00013046
     atom   17 type  2   force =     0.00002339    0.00023989   -0.00019873
     atom   18 type  2   force =    -0.00003781   -0.00020757   -0.00000736
     atom   19 type  2   force =    -0.00002974   -0.00025497    0.00020553
     atom   20 type  2   force =     0.00004374    0.00020186    0.00002012

     Total force =     0.202485     Total SCF correction =     0.003152

     Computing stress (Cartesian axis) and pressure

          total   stress  (Ry/bohr**3)                   (kbar)     P=     -368.53
  -0.00264712   0.00000000   0.00000000         -389.40        0.00        0.00
   0.00000000  -0.00237861   0.00000120            0.00     -349.91        0.18
   0.00000000   0.00000120  -0.00248992            0.00        0.18     -366.28

     kinetic stress (kbar)  19068.84      0.00      0.00
                                0.00  19056.98     25.94
                                0.00     25.94  19204.76

     local   stress (kbar)  -5579.37     -0.01     -0.03
                               -0.01 -13350.14     73.41
                               -0.03     73.41  -1321.01

     nonloc. stress (kbar)   1212.18      0.00      0.00
                                0.00   1216.54     -2.10
                                0.00     -2.10   1223.62

     hartree stress (kbar)  11324.54      0.01      0.02
                                0.01  14428.84     -3.70
                                0.02     -3.70   9310.48

     exc-cor stress (kbar)   5464.69     -0.00     -0.00
                               -0.00   5466.19      0.12
                               -0.00      0.12   5463.54

     corecor stress (kbar) -11016.74      0.00      0.00
                                0.00 -11016.50     -0.03
                                0.00     -0.03 -11017.07

     ewald   stress (kbar) -20863.55      0.00     -0.00
                                0.00 -16151.82    -93.46
                               -0.00    -93.46 -23230.59

     hubbard stress (kbar)      0.00      0.00      0.00
                                0.00      0.00      0.00
                                0.00      0.00      0.00

     DFT-D   stress (kbar)      0.00      0.00      0.00
                                0.00      0.00      0.00
                                0.00      0.00      0.00

     XDM     stress (kbar)      0.00      0.00      0.00
                                0.00      0.00      0.00
                                0.00      0.00      0.00

     dft-nl  stress (kbar)      0.00      0.00      0.00
                                0.00      0.00      0.00
                                0.00      0.00      0.00

     TS-vdW  stress (kbar)      0.00      0.00      0.00
                                0.00      0.00      0.00
                                0.00      0.00      0.00

[...]

                                0.00      0.00      0.00

     Writing all to output data dir new_calculations/myprefix.save/

     General routines

     Parallel routines

     PAW routines

   This run was terminated on:  18:59:37  20May2023

   JOB DONE.