     Program PWSCF v.7.0 starts on 21May2023 at 13:46:24

     Reading input from espresso_26760.pwi
Warning: card &CELL ignored
Warning: card / ignored

     Current dimensions of program PWSCF are:
     Max number of different atomic species (ntypx) = 10
     Max number of k-points (npk) =  40000
     Max angular momentum in pseudopotentials (lmaxx) =  4

     gamma-point specific algorithms are used
     Message from routine setup:
     using ibrav=0 with symmetry is DISCOURAGED, use correct ibrav instead

     Subspace diagonalization in iterative solution of the eigenvalue problem:
     a serial algorithm will be used

     Using Slab Decomposition

     bravais-lattice index     =            0
     lattice parameter (alat)  =       9.9796  a.u.
     unit-cell volume          =    1976.0319 (a.u.)^3
     number of atoms/cell      =           16
     number of atomic types    =            2
     number of electrons       =        64.00
     number of Kohn-Sham states=           38
     kinetic-energy cutoff     =      30.0000  Ry
     charge density cutoff     =     240.0000  Ry
     scf convergence threshold =      1.0E-06
     mixing beta               =       0.7000
     number of iterations used =            8  plain     mixing
     Exchange-correlation= PBE
                           (   1   4   3   4   0   0   0)

     celldm(1)=   9.979578  celldm(2)=   0.000000  celldm(3)=   0.000000
     celldm(4)=   0.000000  celldm(5)=   0.000000  celldm(6)=   0.000000

     crystal axes: (cart. coord. in units of alat)
               a(1) = (   1.000000   0.000000   0.000000 )
               a(2) = (   0.000000   1.103099   0.000000 )
               a(3) = (   0.000000   0.956855   1.802366 )

     reciprocal axes: (cart. coord. in units 2 pi/alat)
               b(1) = (  1.000000  0.000000  0.000000 )
               b(2) = (  0.000000  0.906537 -0.481270 )
               b(3) = (  0.000000  0.000000  0.554826 )

     PseudoPot. # 1 for Li read from file:
     /home/pragov/projects/rrg-bengioy-ad/pragov/crystal_structure_design/SSSP/li_pbe_v1.4.uspp.F.UPF
     MD5 check sum: e912e257baa3777c20ea3d68f190483c
     Pseudo is Ultrasoft, Zval =  3.0
     Generated by new atomic code, or converted to UPF format
     Using radial grid of  751 points,  5 beta functions with:
                l(1) =   0
                l(2) =   0
                l(3) =   0
                l(4) =   1
                l(5) =   1
     Q(r) pseudized with 10 coefficients,  rinner =    1.150   1.150   1.150

     PseudoPot. # 2 for As read from file:
     /home/pragov/projects/rrg-bengioy-ad/pragov/crystal_structure_design/SSSP/As.pbe-n-rrkjus_psl.0.2.UPF
     MD5 check sum: 767315de957beeeb34f87d97bf945c8f
     Pseudo is Ultrasoft + core correction, Zval =  5.0
     Generated using "atomic" code by A. Dal Corso  v.5.0.99 svn rev. 10869
     Using radial grid of 1209 points,  4 beta functions with:
                l(1) =   0
                l(2) =   0
                l(3) =   1
                l(4) =   1
     Q(r) pseudized with 0 coefficients

     atomic species   valence    mass     pseudopotential
        Li             3.00     6.94000     Li( 1.00)
        As             5.00    74.92159     As( 1.00)

      4 Sym. Ops., with inversion, found ( 2 have fractional translation)

                                    s                        frac. trans.

      isym =  1     identity

 cryst.   s( 1) = (     1          0          0      )
                  (     0          1          0      )
                  (     0          0          1      )

 cart.    s( 1) = (  1.0000000  0.0000000  0.0000000 )
                  (  0.0000000  1.0000000  0.0000000 )
                  (  0.0000000  0.0000000  1.0000000 )

      isym =  2     180 deg rotation - cart. axis [1,0,0]

 cryst.   s( 2) = (     1          0          0      )    f =(  0.5000000 )
                  (     0         -1          0      )       (  0.0000000 )
                  (     0          0         -1      )       (  0.5000000 )

 cart.    s( 2) = (  1.0000000  0.0000000  0.0000000 )    f =(  0.5000000 )
                  (  0.0000000 -1.0000000 -0.0000000 )       (  0.4784275 )
                  (  0.0000000  0.0000000 -1.0000000 )       (  0.9011830 )

      isym =  3     inversion

 cryst.   s( 3) = (    -1          0          0      )
                  (     0         -1          0      )
                  (     0          0         -1      )

 cart.    s( 3) = ( -1.0000000  0.0000000  0.0000000 )
                  (  0.0000000 -1.0000000 -0.0000000 )
                  (  0.0000000  0.0000000 -1.0000000 )

      isym =  4     inv. 180 deg rotation - cart. axis [1,0,0]

 cryst.   s( 4) = (    -1          0          0      )    f =( -0.5000000 )
                  (     0          1          0      )       ( -0.0000000 )
                  (     0          0          1      )       (  0.5000000 )

 cart.    s( 4) = ( -1.0000000  0.0000000  0.0000000 )    f =( -0.5000000 )
                  (  0.0000000  1.0000000  0.0000000 )       (  0.4784275 )
                  (  0.0000000  0.0000000  1.0000000 )       (  0.9011830 )

   Cartesian axes

     site n.     atom                  positions (alat units)
         1           Li  tau(   1) = (   0.1672110   0.6815030   0.8078205  )
         2           Li  tau(   2) = (   0.6672110   0.9000235   0.0933626  )
         3           Li  tau(   3) = (   0.8327890   1.3784510   0.9945456  )
         4           Li  tau(   4) = (   0.3327890   1.1599305   1.7090035  )
         5           Li  tau(   5) = (   0.9150680   0.4242581   0.3088156  )
         6           Li  tau(   6) = (   0.4150680   1.1572684   0.5923674  )
         7           Li  tau(   7) = (   0.0849320   1.6356959   1.4935504  )
         8           Li  tau(   8) = (   0.5849320   0.9026856   1.2099986  )
         9           As  tau(   9) = (   0.6658580   0.6993236   0.7228101  )
        10           As  tau(  10) = (   0.1658580   0.8822029   0.1783730  )
        11           As  tau(  11) = (   0.3341420   1.3606304   1.0795560  )
        12           As  tau(  12) = (   0.8341420   1.1777511   1.6239931  )
        13           As  tau(  13) = (   0.4223090   0.5229109   0.3581193  )
        14           As  tau(  14) = (   0.9223090   1.0586156   0.5430637  )
        15           As  tau(  15) = (   0.5776910   1.5370431   1.4442467  )
        16           As  tau(  16) = (   0.0776910   1.0013384   1.2593023  )

   Crystallographic axes

     site n.     atom                  positions (cryst. coord.)
         1           Li  tau(   1) = (  0.1672110  0.2290280  0.4482000  )
         2           Li  tau(   2) = (  0.6672110  0.7709720  0.0518000  )
         3           Li  tau(   3) = (  0.8327890  0.7709720  0.5518000  )
         4           Li  tau(   4) = (  0.3327890  0.2290280  0.9482000  )
         5           Li  tau(   5) = (  0.9150680  0.2359820  0.1713390  )
         6           Li  tau(   6) = (  0.4150680  0.7640180  0.3286610  )
         7           Li  tau(   7) = (  0.0849320  0.7640180  0.8286610  )
         8           Li  tau(   8) = (  0.5849320  0.2359820  0.6713390  )
         9           As  tau(   9) = (  0.6658580  0.2860960  0.4010340  )
        10           As  tau(  10) = (  0.1658580  0.7139040  0.0989660  )
        11           As  tau(  11) = (  0.3341420  0.7139040  0.5989660  )
        12           As  tau(  12) = (  0.8341420  0.2860960  0.9010340  )
        13           As  tau(  13) = (  0.4223090  0.3016860  0.1986940  )
        14           As  tau(  14) = (  0.9223090  0.6983140  0.3013060  )
        15           As  tau(  15) = (  0.5776910  0.6983140  0.8013060  )
        16           As  tau(  16) = (  0.0776910  0.3016860  0.6986940  )

     number of k points=     1  Methfessel-Paxton smearing, width (Ry)=  0.0010
                       cart. coord. in units 2pi/alat
        k(    1) = (   0.0000000   0.0000000   0.0000000), wk =   2.0000000

                       cryst. coord.
        k(    1) = (   0.0000000   0.0000000   0.0000000), wk =   2.0000000

     Initial potential from superposition of free atoms

     starting charge      60.3922, renormalised to      64.0000
     Starting wfcs are   72 randomized atomic wfcs

     Self-consistent Calculation

     iteration #  1     ecut=    30.00 Ry     beta= 0.70
     Davidson diagonalization with overlap

     ethr =  1.00E-02,  avg # of iterations =  2.0

     Threshold (ethr) on eigenvalues was too large:
     Diagonalizing with lowered threshold

     Davidson diagonalization with overlap

[...]

     total energy              =    -261.89303676 Ry
     estimated scf accuracy    <       0.37924204 Ry

[...]

     total energy              =    -261.95587085 Ry
     estimated scf accuracy    <       0.00000743 Ry

     iteration #  9     ecut=    30.00 Ry     beta= 0.70
     Davidson diagonalization with overlap

     ethr =  1.16E-08,  avg # of iterations =  2.0

     End of self-consistent calculation

          k = 0.0000 0.0000 0.0000 (  2733 PWs)   bands (ev):

   -41.5288 -41.5280 -41.5274 -41.5268 -41.3002 -41.2986 -41.2954 -41.2938
    -8.1450  -7.7693  -6.1526  -5.7637  -5.6072  -5.4553  -3.1784  -3.0642
     0.0401   0.6436   0.8443   0.8726   1.6963   1.8282   1.9137   1.9739
     2.4718   2.7010   3.0521   3.1400   3.7386   3.7775   3.7858   4.4701
     5.3900   5.9694   6.2515   6.2530   6.4071   7.3688

     occupation numbers
     1.0000   1.0000   1.0000   1.0000   1.0000   1.0000   1.0000   1.0000
     1.0000   1.0000   1.0000   1.0000   1.0000   1.0000   1.0000   1.0000
     1.0000   1.0000   1.0000   1.0000   1.0000   1.0000   1.0000   1.0000
     1.0000   1.0000   1.0000   1.0000   1.0000   1.0000   1.0000   1.0000
    -0.0000  -0.0000  -0.0000  -0.0000  -0.0000  -0.0000

     the Fermi energy is     5.2000 ev

!    total energy              =    -261.95587186 Ry
     estimated scf accuracy    <       0.00000053 Ry
     smearing contrib. (-TS)   =       0.00000000 Ry
     internal energy E=F+TS    =    -261.95587186 Ry

     The total energy is F=E-TS. E is the sum of the following terms:
     one-electron contribution =     -46.16315491 Ry
     hartree contribution      =      34.16076315 Ry
     xc contribution           =    -101.03092710 Ry
     ewald contribution        =    -148.92255300 Ry

     convergence has been achieved in   9 iterations

     Forces acting on atoms (cartesian axes, Ry/au):

     atom    1 type  1   force =    -0.00173026    0.00267823   -0.00859128
     atom    2 type  1   force =    -0.00173026   -0.00267823    0.00859128
     atom    3 type  1   force =     0.00173026   -0.00267823    0.00859128
     atom    4 type  1   force =     0.00173026    0.00267823   -0.00859128
     atom    5 type  1   force =    -0.00034172    0.01764904    0.00908845
     atom    6 type  1   force =    -0.00034172   -0.01764904   -0.00908845
     atom    7 type  1   force =     0.00034172   -0.01764904   -0.00908845
     atom    8 type  1   force =     0.00034172    0.01764904    0.00908845
     atom    9 type  2   force =     0.02562408   -0.00792554    0.00705539
     atom   10 type  2   force =     0.02562408    0.00792554   -0.00705539
     atom   11 type  2   force =    -0.02562408    0.00792554   -0.00705539
     atom   12 type  2   force =    -0.02562408   -0.00792554    0.00705539
     atom   13 type  2   force =    -0.03193874    0.01816280   -0.04968584
     atom   14 type  2   force =    -0.03193874   -0.01816280    0.04968584
     atom   15 type  2   force =     0.03193874   -0.01816280    0.04968584
     atom   16 type  2   force =     0.03193874    0.01816280   -0.04968584
     The non-local contrib.  to forces
     atom    1 type  1   force =    -0.00204867   -0.00592082    0.00772947
     atom    2 type  1   force =    -0.00204867    0.00592082   -0.00772947
     atom    3 type  1   force =     0.00204867    0.00592082   -0.00772947
     atom    4 type  1   force =     0.00204867   -0.00592082    0.00772947
     atom    5 type  1   force =    -0.00243685   -0.00585802    0.00027497
     atom    6 type  1   force =    -0.00243685    0.00585802   -0.00027497
     atom    7 type  1   force =     0.00243685    0.00585802   -0.00027497
     atom    8 type  1   force =     0.00243685   -0.00585802    0.00027497
     atom    9 type  2   force =    -0.00745893    0.06648434   -0.26830248
     atom   10 type  2   force =    -0.00745893   -0.06648434    0.26830248
     atom   11 type  2   force =     0.00745893   -0.06648434    0.26830248
     atom   12 type  2   force =     0.00745893    0.06648434   -0.26830248
     atom   13 type  2   force =    -0.06228710    0.25129088    0.09876001
     atom   14 type  2   force =    -0.06228710   -0.25129088   -0.09876001
     atom   15 type  2   force =     0.06228710   -0.25129088   -0.09876001
     atom   16 type  2   force =     0.06228710    0.25129088    0.09876001
     The ionic contribution  to forces
     atom    1 type  1   force =    -0.06842226   -0.16775194    0.43066668
     atom    2 type  1   force =    -0.06842226    0.16775194   -0.43066668
     atom    3 type  1   force =     0.06842226    0.16775194   -0.43066668
     atom    4 type  1   force =     0.06842226   -0.16775194    0.43066668
     atom    5 type  1   force =     0.04742580   -0.35342585   -0.05093216
     atom    6 type  1   force =     0.04742580    0.35342585    0.05093216
     atom    7 type  1   force =    -0.04742580    0.35342585    0.05093216
     atom    8 type  1   force =    -0.04742580   -0.35342585   -0.05093216
     atom    9 type  2   force =     0.08806456   -0.36952190    1.07484022
     atom   10 type  2   force =     0.08806456    0.36952190   -1.07484022
     atom   11 type  2   force =    -0.08806456    0.36952190   -1.07484022
     atom   12 type  2   force =    -0.08806456   -0.36952190    1.07484022
     atom   13 type  2   force =    -0.06963342   -1.24106091   -0.41919157
     atom   14 type  2   force =    -0.06963342    1.24106091    0.41919157
     atom   15 type  2   force =     0.06963342    1.24106091    0.41919157
     atom   16 type  2   force =     0.06963342   -1.24106091   -0.41919157
     The local contribution  to forces
     atom    1 type  1   force =     0.06877266    0.17638030   -0.44713516
     atom    2 type  1   force =     0.06878352   -0.17634447    0.44704210
     atom    3 type  1   force =    -0.06877369   -0.17642769    0.44693017
     atom    4 type  1   force =    -0.06876833    0.17639623   -0.44687133
     atom    5 type  1   force =    -0.04532328    0.37697562    0.05951963
     atom    6 type  1   force =    -0.04529540   -0.37696613   -0.05974183
     atom    7 type  1   force =     0.04531668   -0.37706729   -0.05941789
     atom    8 type  1   force =     0.04529604    0.37706163    0.05971275
     atom    9 type  2   force =    -0.05667561    0.30153552   -0.82923689
     atom   10 type  2   force =    -0.05671645   -0.30145165    0.82890242
     atom   11 type  2   force =     0.05666673   -0.30154943    0.82903166
     atom   12 type  2   force =     0.05672618    0.30151371   -0.82881432
     atom   13 type  2   force =     0.09143400    1.03353307    0.28122149
     atom   14 type  2   force =     0.09128204   -1.03355886   -0.28171305
     atom   15 type  2   force =    -0.09141496   -1.03368546   -0.28120009
     atom   16 type  2   force =    -0.09128517    1.03373105    0.28169314
     The core correction contribution to forces
     atom    1 type  1   force =     0.00000000    0.00000000    0.00000000
     atom    2 type  1   force =     0.00000000    0.00000000    0.00000000
     atom    3 type  1   force =     0.00000000    0.00000000    0.00000000
     atom    4 type  1   force =     0.00000000    0.00000000    0.00000000
     atom    5 type  1   force =     0.00000000    0.00000000    0.00000000
     atom    6 type  1   force =     0.00000000    0.00000000    0.00000000
     atom    7 type  1   force =     0.00000000    0.00000000    0.00000000
     atom    8 type  1   force =     0.00000000    0.00000000    0.00000000
     atom    9 type  2   force =     0.00167912   -0.00633453    0.02961766
     atom   10 type  2   force =     0.00167880    0.00634234   -0.02961918
     atom   11 type  2   force =    -0.00168031    0.00633667   -0.02961852
     atom   12 type  2   force =    -0.00167418   -0.00633466    0.02960940
     atom   13 type  2   force =     0.00862492   -0.02549456   -0.01075421
     atom   14 type  2   force =     0.00861111    0.02549225    0.01074633
     atom   15 type  2   force =    -0.00862434    0.02549071    0.01075028
     atom   16 type  2   force =    -0.00861287   -0.02548897   -0.01074294
     The Hubbard contrib.    to forces
     atom    1 type  1   force =     0.00000000    0.00000000    0.00000000
     atom    2 type  1   force =     0.00000000    0.00000000    0.00000000
     atom    3 type  1   force =     0.00000000    0.00000000    0.00000000
     atom    4 type  1   force =     0.00000000    0.00000000    0.00000000
     atom    5 type  1   force =     0.00000000    0.00000000    0.00000000
     atom    6 type  1   force =     0.00000000    0.00000000    0.00000000
     atom    7 type  1   force =     0.00000000    0.00000000    0.00000000
     atom    8 type  1   force =     0.00000000    0.00000000    0.00000000
     atom    9 type  2   force =     0.00000000    0.00000000    0.00000000
     atom   10 type  2   force =     0.00000000    0.00000000    0.00000000
     atom   11 type  2   force =     0.00000000    0.00000000    0.00000000
     atom   12 type  2   force =     0.00000000    0.00000000    0.00000000
     atom   13 type  2   force =     0.00000000    0.00000000    0.00000000
     atom   14 type  2   force =     0.00000000    0.00000000    0.00000000
     atom   15 type  2   force =     0.00000000    0.00000000    0.00000000
     atom   16 type  2   force =     0.00000000    0.00000000    0.00000000
     The SCF correction term to forces
     atom    1 type  1   force =    -0.00002817   -0.00000441    0.00014034
     atom    2 type  1   force =    -0.00004179    0.00000707   -0.00007624
     atom    3 type  1   force =     0.00003197    0.00010296    0.00006871
     atom    4 type  1   force =     0.00003364   -0.00003028   -0.00011881
     atom    5 type  1   force =    -0.00000060   -0.00003464    0.00020414
     atom    6 type  1   force =    -0.00005604    0.00002819   -0.00001346
     atom    7 type  1   force =     0.00000569    0.00013252   -0.00034035
     atom    8 type  1   force =     0.00002894   -0.00014369    0.00003253
     atom    9 type  2   force =     0.00002277   -0.00007265    0.00022328
     atom   10 type  2   force =     0.00006278    0.00001533    0.00016423
     atom   11 type  2   force =    -0.00001213    0.00010968    0.00007436
     atom   12 type  2   force =    -0.00004869   -0.00005637   -0.00039355
     atom   13 type  2   force =    -0.00003075   -0.00011818    0.00029010
     atom   14 type  2   force =     0.00005395    0.00012888    0.00029752
     atom   15 type  2   force =     0.00003205    0.00026043   -0.00035818
     atom   16 type  2   force =    -0.00004658   -0.00030314   -0.00020190

     Total force =     0.142352     Total SCF correction =     0.001033

     Computing stress (Cartesian axis) and pressure

          total   stress  (Ry/bohr**3)                   (kbar)     P=      -10.78
   0.00004248   0.00000000   0.00000000            6.25        0.00        0.00
   0.00000000  -0.00002967   0.00001451            0.00       -4.36        2.13
   0.00000000   0.00001451  -0.00023265            0.00        2.13      -34.22

     kinetic stress (kbar)   3243.08      0.00      0.00
                                0.00   3157.47      8.31
                                0.00      8.31   3126.44

     local   stress (kbar)    322.33     -0.00      0.01
                               -0.00   1414.55    162.97
                                0.01    162.97   1378.76

     nonloc. stress (kbar)    193.74      0.00      0.00
                                0.00    204.27      0.24
                                0.00      0.24    204.99

     hartree stress (kbar)   1077.36      0.00     -0.00
                                0.00    723.27    -48.92
                               -0.00    -48.92    742.45

     exc-cor stress (kbar)   2035.41     -0.00     -0.00
                               -0.00   2030.87     -0.40
                               -0.00     -0.40   2030.83

     corecor stress (kbar)  -3618.07      0.00      0.00
                                0.00  -3606.92     -0.51
                                0.00     -0.51  -3606.69

     ewald   stress (kbar)  -3247.61     -0.00      0.00
                               -0.00  -3927.88   -119.56
                                0.00   -119.56  -3911.01

     hubbard stress (kbar)      0.00      0.00      0.00
                                0.00      0.00      0.00
                                0.00      0.00      0.00

     DFT-D   stress (kbar)      0.00      0.00      0.00
                                0.00      0.00      0.00
                                0.00      0.00      0.00

     XDM     stress (kbar)      0.00      0.00      0.00
                                0.00      0.00      0.00
                                0.00      0.00      0.00

     dft-nl  stress (kbar)      0.00      0.00      0.00
                                0.00      0.00      0.00
                                0.00      0.00      0.00

     TS-vdW  stress (kbar)      0.00      0.00      0.00
                                0.00      0.00      0.00
                                0.00      0.00      0.00

[...]

                                0.00      0.00      0.00

     Writing all to output data dir new_calculations/myprefix.save/

     General routines

     Parallel routines

   This run was terminated on:  13:46:39  21May2023

   JOB DONE.