     Program PWSCF v.7.0 starts on 20May2023 at  7:22:47

     Reading input from espresso_2263.pwi
Warning: card &CELL ignored
Warning: card / ignored

     Current dimensions of program PWSCF are:
     Max number of different atomic species (ntypx) = 10
     Max number of k-points (npk) =  40000
     Max angular momentum in pseudopotentials (lmaxx) =  4
     file K.pbe-spn-kjpaw_psl.1.0.0.UPF: wavefunction(s)  3S renormalized

     gamma-point specific algorithms are used
     Message from routine setup:
     using ibrav=0 with symmetry is DISCOURAGED, use correct ibrav instead

     Subspace diagonalization in iterative solution of the eigenvalue problem:
     a serial algorithm will be used

     Using Slab Decomposition

     bravais-lattice index     =            0
     lattice parameter (alat)  =      11.5354  a.u.
     unit-cell volume          =    3116.0698 (a.u.)^3
     number of atoms/cell      =           16
     number of atomic types    =            2
     number of electrons       =       112.00
     number of Kohn-Sham states=           67
     kinetic-energy cutoff     =      30.0000  Ry
     charge density cutoff     =     240.0000  Ry
     scf convergence threshold =      1.0E-06
     mixing beta               =       0.7000
     number of iterations used =            8  plain     mixing
     Exchange-correlation= PBE
                           (   1   4   3   4   0   0   0)

     celldm(1)=  11.535419  celldm(2)=   0.000000  celldm(3)=   0.000000
     celldm(4)=   0.000000  celldm(5)=   0.000000  celldm(6)=   0.000000

     crystal axes: (cart. coord. in units of alat)
               a(1) = (   1.000000   0.000000   0.000000 )
               a(2) = (   0.000000   1.083968   0.000000 )
               a(3) = (   0.000000   0.000000   1.872796 )

     reciprocal axes: (cart. coord. in units 2 pi/alat)
               b(1) = (  1.000000  0.000000  0.000000 )
               b(2) = (  0.000000  0.922536  0.000000 )
               b(3) = (  0.000000  0.000000  0.533961 )

     PseudoPot. # 1 for K  read from file:
     /home/pragov/projects/rrg-bengioy-ad/pragov/crystal_structure_design/SSSP/K.pbe-spn-kjpaw_psl.1.0.0.UPF
     MD5 check sum: 7d58810084cac21f60fbe77ea2b688fd
     Pseudo is Projector augmented-wave + core cor, Zval =  9.0
     Generated using "atomic" code by A. Dal Corso  v.5.1
     Shape of augmentation charge: PSQ
     Using radial grid of 1165 points,  6 beta functions with:
                l(1) =   0
                l(2) =   0
                l(3) =   1
                l(4) =   1
                l(5) =   2
                l(6) =   2
     Q(r) pseudized with 0 coefficients

     PseudoPot. # 2 for P  read from file:
     /home/pragov/projects/rrg-bengioy-ad/pragov/crystal_structure_design/SSSP/P.pbe-n-rrkjus_psl.1.0.0.UPF
     MD5 check sum: 8b930f418f0a4573dca56cd030ffe088
     Pseudo is Ultrasoft + core correction, Zval =  5.0
     Generated using "atomic" code by A. Dal Corso  v.5.1
     Using radial grid of 1147 points,  6 beta functions with:
                l(1) =   0
                l(2) =   0
                l(3) =   1
                l(4) =   1
                l(5) =   2
                l(6) =   2
     Q(r) pseudized with 0 coefficients

     atomic species   valence    mass     pseudopotential
        K              9.00    39.09830     K ( 1.00)
        P              5.00    30.97376     P ( 1.00)

      4 Sym. Ops. (no inversion) found ( 3 have fractional translation)

                                    s                        frac. trans.

      isym =  1     identity

 cryst.   s( 1) = (     1          0          0      )
                  (     0          1          0      )
                  (     0          0          1      )

 cart.    s( 1) = (  1.0000000  0.0000000  0.0000000 )
                  (  0.0000000  1.0000000  0.0000000 )
                  (  0.0000000  0.0000000  1.0000000 )

      isym =  2     180 deg rotation - cart. axis [0,0,1]

 cryst.   s( 2) = (    -1          0          0      )    f =(  0.5000000 )
                  (     0         -1          0      )       (  0.0000000 )
                  (     0          0          1      )       ( -0.5000000 )

 cart.    s( 2) = ( -1.0000000  0.0000000  0.0000000 )    f =(  0.5000000 )
                  (  0.0000000 -1.0000000  0.0000000 )       (  0.0000000 )
                  (  0.0000000  0.0000000  1.0000000 )       ( -0.9363981 )

[...]

      isym =  4     180 deg rotation - cart. axis [1,0,0]

 cryst.   s( 4) = (     1          0          0      )    f =(  0.5000000 )
                  (     0         -1          0      )       ( -0.5000000 )
                  (     0          0         -1      )       (  0.0000000 )

 cart.    s( 4) = (  1.0000000  0.0000000  0.0000000 )    f =(  0.5000000 )
                  (  0.0000000 -1.0000000  0.0000000 )       ( -0.5419841 )
                  (  0.0000000  0.0000000 -1.0000000 )       (  0.0000000 )

   Cartesian axes

     site n.     atom                  positions (alat units)
         1           K   tau(   1) = (   0.3967920   0.4156909   1.7172211  )
         2           K   tau(   2) = (   0.8967920   0.1262931   0.1555750  )
         3           K   tau(   3) = (   0.6032080   0.9576750   1.0919731  )
         4           K   tau(   4) = (   0.1032080   0.6682772   0.7808230  )
         5           K   tau(   5) = (   0.6648860   0.6994120   0.4046981  )
         6           K   tau(   6) = (   0.1648860   0.9265402   1.4680980  )
         7           K   tau(   7) = (   0.3351140   0.1574279   0.5316999  )
         8           K   tau(   8) = (   0.8351140   0.3845561   1.3410962  )
         9           P   tau(   9) = (   0.1655100   0.7467955   0.1884763  )
        10           P   tau(  10) = (   0.6655100   0.8791567   1.6843198  )
        11           P   tau(  11) = (   0.8344900   0.2048114   0.7479217  )
        12           P   tau(  12) = (   0.3344900   0.3371726   1.1248744  )
        13           P   tau(  13) = (   0.9060030   0.6310873   1.8177434  )
        14           P   tau(  14) = (   0.4060030   0.9948649   0.0550527  )
        15           P   tau(  15) = (   0.0939970   0.0891033   0.9914508  )
        16           P   tau(  16) = (   0.5939970   0.4528808   0.8813454  )

   Crystallographic axes

     site n.     atom                  positions (cryst. coord.)
         1           K   tau(   1) = (  0.3967920  0.3834900  0.9169290  )
         2           K   tau(   2) = (  0.8967920  0.1165100  0.0830710  )
         3           K   tau(   3) = (  0.6032080  0.8834900  0.5830710  )
         4           K   tau(   4) = (  0.1032080  0.6165100  0.4169290  )
         5           K   tau(   5) = (  0.6648860  0.6452330  0.2160930  )
         6           K   tau(   6) = (  0.1648860  0.8547670  0.7839070  )
         7           K   tau(   7) = (  0.3351140  0.1452330  0.2839070  )
         8           K   tau(   8) = (  0.8351140  0.3547670  0.7160930  )
         9           P   tau(   9) = (  0.1655100  0.6889460  0.1006390  )
        10           P   tau(  10) = (  0.6655100  0.8110540  0.8993610  )
        11           P   tau(  11) = (  0.8344900  0.1889460  0.3993610  )
        12           P   tau(  12) = (  0.3344900  0.3110540  0.6006390  )
        13           P   tau(  13) = (  0.9060030  0.5822010  0.9706040  )
        14           P   tau(  14) = (  0.4060030  0.9177990  0.0293960  )
        15           P   tau(  15) = (  0.0939970  0.0822010  0.5293960  )
        16           P   tau(  16) = (  0.5939970  0.4177990  0.4706040  )

     number of k points=     1  Methfessel-Paxton smearing, width (Ry)=  0.0010
                       cart. coord. in units 2pi/alat
        k(    1) = (   0.0000000   0.0000000   0.0000000), wk =   2.0000000

                       cryst. coord.
        k(    1) = (   0.0000000   0.0000000   0.0000000), wk =   2.0000000

     Check: negative core charge=   -0.000003

     Initial potential from superposition of free atoms

     starting charge     111.8481, renormalised to     112.0000
     Starting wfcs are   96 randomized atomic wfcs
     Checking if some PAW data can be deallocated...

     Self-consistent Calculation

     iteration #  1     ecut=    30.00 Ry     beta= 0.70
     Davidson diagonalization with overlap

     ethr =  1.00E-02,  avg # of iterations =  5.0

     Threshold (ethr) on eigenvalues was too large:
     Diagonalizing with lowered threshold

     Davidson diagonalization with overlap

[...]

     total energy              =   -1016.52892911 Ry
     estimated scf accuracy    <       0.86682934 Ry

[...]

     total energy              =   -1016.85109620 Ry
     estimated scf accuracy    <       0.00000174 Ry

     iteration #  9     ecut=    30.00 Ry     beta= 0.70
     Davidson diagonalization with overlap

     ethr =  1.55E-09,  avg # of iterations =  3.0

     End of self-consistent calculation

          k = 0.0000 0.0000 0.0000 (  4303 PWs)   bands (ev):

   -25.8011 -25.7985 -25.7821 -25.7820 -25.7000 -25.6947 -25.6887 -25.6859
    -9.4799  -9.4689  -9.4609  -9.4417  -9.4345  -9.4162  -9.3494  -9.3408
    -9.3351  -9.3270  -9.3207  -9.3154  -9.2452  -9.2392  -9.2354  -9.2182
    -9.1851  -9.1663  -9.1656  -9.1637  -9.1625  -9.1501  -9.1313  -9.1123
    -7.2027  -7.0463  -5.0060  -4.9790  -4.8884  -4.8774  -0.9442  -0.9306
     0.4604   0.4666   1.5262   1.8357   2.0026   2.0725   2.1371   2.4656
     3.3158   3.3576   4.2902   4.4764   4.5103   4.5292   4.8915   5.0792
     6.0776   6.6333   6.9027   6.9851   7.2289   7.2387   7.3897   8.2237
     8.2499   8.3012   8.9268

     occupation numbers
     1.0000   1.0000   1.0000   1.0000   1.0000   1.0000   1.0000   1.0000
     1.0000   1.0000   1.0000   1.0000   1.0000   1.0000   1.0000   1.0000
     1.0000   1.0000   1.0000   1.0000   1.0000   1.0000   1.0000   1.0000
     1.0000   1.0000   1.0000   1.0000   1.0000   1.0000   1.0000   1.0000
     1.0000   1.0000   1.0000   1.0000   1.0000   1.0000   1.0000   1.0000
     1.0000   1.0000   1.0000   1.0000   1.0000   1.0000   1.0000   1.0000
     1.0000   1.0000   1.0000   1.0000   1.0000   1.0000   1.0000   1.0000
    -0.0000  -0.0000  -0.0000  -0.0000  -0.0000  -0.0000  -0.0000  -0.0000
    -0.0000  -0.0000  -0.0000

     the Fermi energy is     5.7816 ev

!    total energy              =   -1016.85109646 Ry
     estimated scf accuracy    <       0.00000039 Ry
     smearing contrib. (-TS)   =       0.00000000 Ry
     internal energy E=F+TS    =   -1016.85109646 Ry

     The total energy is F=E-TS. E is the sum of the following terms:
     one-electron contribution =    -177.96115419 Ry
     hartree contribution      =     127.95156853 Ry
     xc contribution           =    -125.18771937 Ry
     ewald contribution        =    -398.32168503 Ry
     one-center paw contrib.   =    -443.33210640 Ry
      -> PAW hartree energy AE =     302.42852139 Ry
      -> PAW hartree energy PS =    -300.74780064 Ry
      -> PAW xc energy AE      =    -529.82993998 Ry
      -> PAW xc energy PS      =      84.81711284 Ry
      -> total E_H with PAW    =     129.63228928 Ry
      -> total E_XC with PAW   =    -570.20054651 Ry

     convergence has been achieved in   9 iterations

     Forces acting on atoms (cartesian axes, Ry/au):

     atom    1 type  1   force =    -0.00014847   -0.00772070   -0.00348928
     atom    2 type  1   force =    -0.00014847    0.00772070    0.00348928
     atom    3 type  1   force =     0.00014847   -0.00772070    0.00348928
     atom    4 type  1   force =     0.00014847    0.00772070   -0.00348928
     atom    5 type  1   force =    -0.00094762   -0.00249094    0.00803986
     atom    6 type  1   force =    -0.00094762    0.00249094   -0.00803986
     atom    7 type  1   force =     0.00094762   -0.00249094   -0.00803986
     atom    8 type  1   force =     0.00094762    0.00249094    0.00803986
     atom    9 type  2   force =     0.01272521   -0.01780052    0.01165639
     atom   10 type  2   force =     0.01272521    0.01780052   -0.01165639
     atom   11 type  2   force =    -0.01272521   -0.01780052   -0.01165639
     atom   12 type  2   force =    -0.01272521    0.01780052    0.01165639
     atom   13 type  2   force =    -0.01047729   -0.01224020   -0.01456940
     atom   14 type  2   force =    -0.01047729    0.01224020    0.01456940
     atom   15 type  2   force =     0.01047729   -0.01224020    0.01456940
     atom   16 type  2   force =     0.01047729    0.01224020   -0.01456940
     The non-local contrib.  to forces
     atom    1 type  1   force =     0.01180437    0.02107454   -0.03523912
     atom    2 type  1   force =     0.01180437   -0.02107454    0.03523912
     atom    3 type  1   force =    -0.01180437    0.02107454    0.03523912
     atom    4 type  1   force =    -0.01180437   -0.02107454   -0.03523912
     atom    5 type  1   force =     0.01328892    0.00057529    0.01547739
     atom    6 type  1   force =     0.01328892   -0.00057529   -0.01547739
     atom    7 type  1   force =    -0.01328892    0.00057529   -0.01547739
     atom    8 type  1   force =    -0.01328892   -0.00057529    0.01547739
     atom    9 type  2   force =    -0.02122034    0.08457711   -0.23396904
     atom   10 type  2   force =    -0.02122034   -0.08457711    0.23396904
     atom   11 type  2   force =     0.02122034    0.08457711    0.23396904
     atom   12 type  2   force =     0.02122034   -0.08457711   -0.23396904
     atom   13 type  2   force =    -0.02517340    0.23667298    0.09873799
     atom   14 type  2   force =    -0.02517340   -0.23667298   -0.09873799
     atom   15 type  2   force =     0.02517340    0.23667298   -0.09873799
     atom   16 type  2   force =     0.02517340   -0.23667298    0.09873799
     The ionic contribution  to forces
     atom    1 type  1   force =    -0.17233878   -1.43835883   -0.39939872
     atom    2 type  1   force =    -0.17233878    1.43835883    0.39939872
     atom    3 type  1   force =     0.17233878   -1.43835883    0.39939872
     atom    4 type  1   force =     0.17233878    1.43835883   -0.39939872
     atom    5 type  1   force =    -0.25471021   -0.28249688    1.24364055
     atom    6 type  1   force =    -0.25471021    0.28249688   -1.24364055
     atom    7 type  1   force =     0.25471021   -0.28249688   -1.24364055
     atom    8 type  1   force =     0.25471021    0.28249688    1.24364055
     atom    9 type  2   force =     0.06053034   -0.95590331    2.01128198
     atom   10 type  2   force =     0.06053034    0.95590331   -2.01128198
     atom   11 type  2   force =    -0.06053034   -0.95590331   -2.01128198
     atom   12 type  2   force =    -0.06053034    0.95590331    2.01128198
     atom   13 type  2   force =    -0.01665948   -1.65902963   -0.31146017
     atom   14 type  2   force =    -0.01665948    1.65902963    0.31146017
     atom   15 type  2   force =     0.01665948   -1.65902963    0.31146017
     atom   16 type  2   force =     0.01665948    1.65902963   -0.31146017
     The local contribution  to forces
     atom    1 type  1   force =     0.16081915    1.40953913    0.42873675
     atom    2 type  1   force =     0.16090479   -1.40938540   -0.42932863
     atom    3 type  1   force =    -0.16101077    1.40935889   -0.42877654
     atom    4 type  1   force =    -0.16080795   -1.40956961    0.42920152
     atom    5 type  1   force =     0.24119990    0.27932938   -1.24962261
     atom    6 type  1   force =     0.24116632   -0.27950043    1.24962315
     atom    7 type  1   force =    -0.24105342    0.27951216    1.24967919
     atom    8 type  1   force =    -0.24133545   -0.27926836   -1.24956661
     atom    9 type  2   force =    -0.02794373    0.85696212   -1.77599465
     atom   10 type  2   force =    -0.02773473   -0.85718628    1.77584111
     atom   11 type  2   force =     0.02761536    0.85722615    1.77587339
     atom   12 type  2   force =     0.02809952   -0.85685222   -1.77592186
     atom   13 type  2   force =     0.03013939    1.42060914    0.20305075
     atom   14 type  2   force =     0.03001679   -1.42067416   -0.20304107
     atom   15 type  2   force =    -0.02994838    1.42067240   -0.20292766
     atom   16 type  2   force =    -0.03022217   -1.42056500    0.20322535
     The core correction contribution to forces
     atom    1 type  1   force =    -0.00046953   -0.00024289    0.00180998
     atom    2 type  1   force =    -0.00047021    0.00024081   -0.00181930
     atom    3 type  1   force =     0.00046917   -0.00023964   -0.00181016
     atom    4 type  1   force =     0.00046813    0.00024284    0.00181822
     atom    5 type  1   force =    -0.00058408   -0.00002893   -0.00117320
     atom    6 type  1   force =    -0.00058332    0.00003219    0.00117126
     atom    7 type  1   force =     0.00058307   -0.00003075    0.00117411
     atom    8 type  1   force =     0.00058476    0.00002906   -0.00117206
     atom    9 type  2   force =     0.00119623   -0.00357918    0.01032221
     atom   10 type  2   force =     0.00119763    0.00357851   -0.01032454
     atom   11 type  2   force =    -0.00119831   -0.00357955   -0.01032366
     atom   12 type  2   force =    -0.00119519    0.00357948    0.01032285
     atom   13 type  2   force =     0.00128591   -0.01056123   -0.00485019
     atom   14 type  2   force =     0.00128545    0.01056190    0.00485107
     atom   15 type  2   force =    -0.00128425   -0.01056286    0.00485208
     atom   16 type  2   force =    -0.00128728    0.01056069   -0.00484775
     The Hubbard contrib.    to forces
     atom    1 type  1   force =     0.00000000    0.00000000    0.00000000
     atom    2 type  1   force =     0.00000000    0.00000000    0.00000000
     atom    3 type  1   force =     0.00000000    0.00000000    0.00000000
     atom    4 type  1   force =     0.00000000    0.00000000    0.00000000
     atom    5 type  1   force =     0.00000000    0.00000000    0.00000000
     atom    6 type  1   force =     0.00000000    0.00000000    0.00000000
     atom    7 type  1   force =     0.00000000    0.00000000    0.00000000
     atom    8 type  1   force =     0.00000000    0.00000000    0.00000000
     atom    9 type  2   force =     0.00000000    0.00000000    0.00000000
     atom   10 type  2   force =     0.00000000    0.00000000    0.00000000
     atom   11 type  2   force =     0.00000000    0.00000000    0.00000000
     atom   12 type  2   force =     0.00000000    0.00000000    0.00000000
     atom   13 type  2   force =     0.00000000    0.00000000    0.00000000
     atom   14 type  2   force =     0.00000000    0.00000000    0.00000000
     atom   15 type  2   force =     0.00000000    0.00000000    0.00000000
     atom   16 type  2   force =     0.00000000    0.00000000    0.00000000
     The SCF correction term to forces
     atom    1 type  1   force =     0.00003849    0.00022729    0.00044842
     atom    2 type  1   force =    -0.00008043   -0.00043061   -0.00017023
     atom    3 type  1   force =     0.00016468    0.00052960   -0.00043571
     atom    4 type  1   force =    -0.00008474   -0.00018003    0.00023879
     atom    5 type  1   force =    -0.00014452    0.00015698   -0.00032579
     atom    6 type  1   force =    -0.00009384    0.00008773    0.00022412
     atom    7 type  1   force =    -0.00000486   -0.00005308    0.00025842
     atom    8 type  1   force =     0.00029167   -0.00021702   -0.00032179
     atom    9 type  2   force =     0.00015728    0.00014717   -0.00000754
     atom   10 type  2   force =    -0.00003494    0.00007912    0.00011210
     atom   11 type  2   force =     0.00015308   -0.00013943    0.00011055
     atom   12 type  2   force =    -0.00029760   -0.00026404   -0.00005825
     atom   13 type  2   force =    -0.00007062    0.00007985   -0.00005669
     atom   14 type  2   force =     0.00005451    0.00000294    0.00004130
     atom   15 type  2   force =    -0.00010534   -0.00001619   -0.00003872
     atom   16 type  2   force =     0.00013647   -0.00013102   -0.00017335

     Total force =     0.070145     Total SCF correction =     0.001405

     Computing stress (Cartesian axis) and pressure

          total   stress  (Ry/bohr**3)                   (kbar)     P=       -9.98
  -0.00023934   0.00000000   0.00000000          -35.21        0.00        0.00
   0.00000000   0.00002134   0.00000000            0.00        3.14        0.00
   0.00000000   0.00000000   0.00001447            0.00        0.00        2.13

     kinetic stress (kbar)   6972.40      0.00      0.00
                                0.00   7092.28      0.00
                                0.00      0.00   7104.18

     local   stress (kbar)  -4553.32      0.00     -0.00
                                0.00  -3087.25     -0.00
                               -0.00     -0.00  -3321.33

     nonloc. stress (kbar)   2543.13      0.00      0.00
                                0.00   2535.32      0.00
                                0.00      0.00   2532.69

     hartree stress (kbar)   2314.19      0.00      0.00
                                0.00   1823.35      0.00
                                0.00      0.00   1902.87

     exc-cor stress (kbar)   -291.99     -0.00     -0.00
                               -0.00   -293.86     -0.00
                               -0.00     -0.00   -293.03

     corecor stress (kbar)  -1401.48      0.00     -0.00
                                0.00  -1401.93     -0.00
                               -0.00     -0.00  -1401.96

     ewald   stress (kbar)  -5618.14      0.00     -0.00
                                0.00  -6664.76      0.00
                               -0.00      0.00  -6521.28

     hubbard stress (kbar)      0.00      0.00      0.00
                                0.00      0.00      0.00
                                0.00      0.00      0.00

     DFT-D   stress (kbar)      0.00      0.00      0.00
                                0.00      0.00      0.00
                                0.00      0.00      0.00

     XDM     stress (kbar)      0.00      0.00      0.00
                                0.00      0.00      0.00
                                0.00      0.00      0.00

     dft-nl  stress (kbar)      0.00      0.00      0.00
                                0.00      0.00      0.00
                                0.00      0.00      0.00

     TS-vdW  stress (kbar)      0.00      0.00      0.00
                                0.00      0.00      0.00
                                0.00      0.00      0.00

[...]

                                0.00      0.00      0.00

     Writing all to output data dir new_calculations/myprefix.save/

     General routines

     Parallel routines

     PAW routines

   This run was terminated on:   7:23:36  20May2023

   JOB DONE.