     Program PWSCF v.7.0 starts on 20May2023 at 22:25: 5

     Reading input from espresso_22275.pwi
Warning: card &CELL ignored
Warning: card / ignored

     Current dimensions of program PWSCF are:
     Max number of different atomic species (ntypx) = 10
     Max number of k-points (npk) =  40000
     Max angular momentum in pseudopotentials (lmaxx) =  4

     gamma-point specific algorithms are used
     Message from routine setup:
     using ibrav=0 with symmetry is DISCOURAGED, use correct ibrav instead

     Subspace diagonalization in iterative solution of the eigenvalue problem:
     a serial algorithm will be used

     Using Slab Decomposition

     bravais-lattice index     =            0
     lattice parameter (alat)  =       5.3827  a.u.
     unit-cell volume          =     463.0147 (a.u.)^3
     number of atoms/cell      =           10
     number of atomic types    =            2
     number of electrons       =        44.00
     number of Kohn-Sham states=           26
     kinetic-energy cutoff     =      30.0000  Ry
     charge density cutoff     =     240.0000  Ry
     scf convergence threshold =      1.0E-06
     mixing beta               =       0.7000
     number of iterations used =            8  plain     mixing
     Exchange-correlation= PBE
                           (   1   4   3   4   0   0   0)

     celldm(1)=   5.382655  celldm(2)=   0.000000  celldm(3)=   0.000000
     celldm(4)=   0.000000  celldm(5)=   0.000000  celldm(6)=   0.000000

     crystal axes: (cart. coord. in units of alat)
               a(1) = (   1.000000   0.000000   0.000000 )
               a(2) = (  -0.500000   0.866025   0.000000 )
               a(3) = (   0.000000   0.000000   3.428267 )

     reciprocal axes: (cart. coord. in units 2 pi/alat)
               b(1) = (  1.000000  0.577350  0.000000 )
               b(2) = (  0.000000  1.154701  0.000000 )
               b(3) = (  0.000000  0.000000  0.291693 )

     PseudoPot. # 1 for Be read from file:
     /home/pragov/projects/rrg-bengioy-ad/pragov/crystal_structure_design/SSSP/be_pbe_v1.4.uspp.F.UPF
     MD5 check sum: 5ecff1440924c7c98ad504bef30f5264
     Pseudo is Ultrasoft, Zval =  4.0
     Generated by new atomic code, or converted to UPF format
     Using radial grid of  769 points,  6 beta functions with:
                l(1) =   0
                l(2) =   0
                l(3) =   0
                l(4) =   1
                l(5) =   1
                l(6) =   2
     Q(r) pseudized with 10 coefficients,  rinner =    1.000   1.000   1.000
                                                       1.000   1.000

     PseudoPot. # 2 for N  read from file:
     /home/pragov/projects/rrg-bengioy-ad/pragov/crystal_structure_design/SSSP/N.pbe-n-radius_5.UPF
     MD5 check sum: 16739722b17309cd8fe442a2ace49922
     Pseudo is Ultrasoft + core correction, Zval =  5.0
     Generated using "atomic" code by A. Dal Corso  v.5.1
     Using radial grid of 1085 points,  4 beta functions with:
                l(1) =   0
                l(2) =   0
                l(3) =   1
                l(4) =   1
     Q(r) pseudized with 0 coefficients

     atomic species   valence    mass     pseudopotential
        Be             4.00     9.01218     Be( 1.00)
        N              5.00    14.00700     N ( 1.00)

     24 Sym. Ops., with inversion, found (12 have fractional translation)

                                    s                        frac. trans.

      isym =  1     identity

 cryst.   s( 1) = (     1          0          0      )
                  (     0          1          0      )
                  (     0          0          1      )

 cart.    s( 1) = (  1.0000000 -0.0000000  0.0000000 )
                  (  0.0000000  1.0000000  0.0000000 )
                  (  0.0000000  0.0000000  1.0000000 )

      isym =  2     180 deg rotation - cart. axis [0,0,1]

 cryst.   s( 2) = (    -1          0          0      )    f =(  0.0000000 )
                  (     0         -1          0      )       (  0.0000000 )
                  (     0          0          1      )       ( -0.5000000 )

 cart.    s( 2) = ( -1.0000000  0.0000000  0.0000000 )    f =(  0.0000000 )
                  (  0.0000000 -1.0000000  0.0000000 )       (  0.0000000 )
                  (  0.0000000  0.0000000  1.0000000 )       ( -1.7141333 )

[...]

      isym =  4     180 deg rotation - cart. axis [1,0,0]

[...]

      isym =  5      60 deg rotation - cryst. axis [0,0,1]

[...]

 cryst.   s( 8) = (    -1         -1          0      )
                  (     1          0          0      )
                  (     0          0          1      )

 cart.    s( 8) = ( -0.4999999  0.8660255  0.0000000 )
                  ( -0.8660254 -0.5000001  0.0000000 )
                  (  0.0000000  0.0000000  1.0000000 )

[...]

 cryst.   s( 9) = (     0         -1          0      )    f =(  0.0000000 )
                  (    -1          0          0      )       (  0.0000000 )
                  (     0          0         -1      )       (  0.5000000 )

 cart.    s( 9) = (  0.5000001 -0.8660254  0.0000000 )    f =(  0.0000000 )
                  ( -0.8660254 -0.5000001  0.0000000 )       (  0.0000000 )
                  (  0.0000000  0.0000000 -1.0000000 )       (  1.7141333 )

[...]

 cryst.   s(10) = (     1          1          0      )    f =(  0.0000000 )
                  (     0         -1          0      )       ( -0.0000010 )
                  (     0          0         -1      )       (  0.5000000 )

 cart.    s(10) = (  0.4999999  0.8660256  0.0000000 )    f =(  0.0000005 )
                  (  0.8660254 -0.4999999  0.0000000 )       ( -0.0000009 )
                  (  0.0000000  0.0000000 -1.0000000 )       (  1.7141333 )

[...]

 cryst.   s(11) = (    -1         -1          0      )
                  (     0          1          0      )
                  (     0          0         -1      )

 cart.    s(11) = ( -0.4999999 -0.8660256  0.0000000 )
                  ( -0.8660254  0.4999999  0.0000000 )
                  (  0.0000000  0.0000000 -1.0000000 )

      isym = 12     180 deg rotation - cryst. axis [1,1,0]

[...]

      isym = 13     inversion

[...]

      isym = 14     inv. 180 deg rotation - cart. axis [0,0,1]

[...]

      isym = 16     inv. 180 deg rotation - cart. axis [1,0,0]

[...]

      isym = 17     inv.  60 deg rotation - cryst. axis [0,0,1]

[...]

 cryst.   s(22) = (    -1         -1          0      )    f =(  0.0000000 )
                  (     0          1          0      )       ( -0.0000010 )
                  (     0          0          1      )       ( -0.5000000 )

 cart.    s(22) = ( -0.4999999 -0.8660256  0.0000000 )    f =(  0.0000005 )
                  ( -0.8660254  0.4999999  0.0000000 )       ( -0.0000009 )
                  (  0.0000000  0.0000000  1.0000000 )       ( -1.7141333 )

[...]

      isym = 24     inv. 180 deg rotation - cryst. axis [1,1,0]

 cryst.   s(24) = (     0         -1          0      )
                  (    -1          0          0      )
                  (     0          0          1      )

 cart.    s(24) = (  0.5000001 -0.8660254  0.0000000 )
                  ( -0.8660254 -0.5000001  0.0000000 )
                  (  0.0000000  0.0000000  1.0000000 )

   Cartesian axes

     site n.     atom                  positions (alat units)
         1           Be  tau(   1) = (  -0.0000006   0.5773505   0.2684230  )
         2           Be  tau(   2) = (   0.5000005   0.2886748   1.9825563  )
         3           Be  tau(   3) = (   0.5000005   0.2886748   3.1598436  )
         4           Be  tau(   4) = (  -0.0000006   0.5773505   1.4457103  )
         5           Be  tau(   5) = (   0.0000000   0.0000000   0.8570666  )
         6           Be  tau(   6) = (   0.0000000   0.0000000   2.5711999  )
         7           N   tau(   7) = (   0.0000000   0.0000000   0.0000000  )
         8           N   tau(   8) = (   0.0000000   0.0000000   1.7141333  )
         9           N   tau(   9) = (  -0.0000006   0.5773505   0.8570666  )
        10           N   tau(  10) = (   0.5000005   0.2886748   2.5711999  )

   Crystallographic axes

     site n.     atom                  positions (cryst. coord.)
         1           Be  tau(   1) = (  0.3333330  0.6666670  0.0782970  )
         2           Be  tau(   2) = (  0.6666670  0.3333330  0.5782970  )
         3           Be  tau(   3) = (  0.6666670  0.3333330  0.9217030  )
         4           Be  tau(   4) = (  0.3333330  0.6666670  0.4217030  )
         5           Be  tau(   5) = (  0.0000000  0.0000000  0.2500000  )
         6           Be  tau(   6) = (  0.0000000  0.0000000  0.7500000  )
         7           N   tau(   7) = (  0.0000000  0.0000000  0.0000000  )
         8           N   tau(   8) = (  0.0000000  0.0000000  0.5000000  )
         9           N   tau(   9) = (  0.3333330  0.6666670  0.2500000  )
        10           N   tau(  10) = (  0.6666670  0.3333330  0.7500000  )

     number of k points=     1  Methfessel-Paxton smearing, width (Ry)=  0.0010
                       cart. coord. in units 2pi/alat
        k(    1) = (   0.0000000   0.0000000   0.0000000), wk =   2.0000000

                       cryst. coord.
        k(    1) = (   0.0000000   0.0000000   0.0000000), wk =   2.0000000

     Check: negative core charge=   -0.000004

     Initial potential from superposition of free atoms

     starting charge      43.9990, renormalised to      44.0000
     Starting wfcs are   46 randomized atomic wfcs

     Self-consistent Calculation

     iteration #  1     ecut=    30.00 Ry     beta= 0.70
     Davidson diagonalization with overlap

     ethr =  1.00E-02,  avg # of iterations =  2.0

     total energy              =    -247.25666426 Ry
     estimated scf accuracy    <       3.32889372 Ry

[...]

     total energy              =    -248.51599517 Ry
     estimated scf accuracy    <       0.00001506 Ry

     iteration #  9     ecut=    30.00 Ry     beta= 0.70
     Davidson diagonalization with overlap

     ethr =  3.42E-08,  avg # of iterations =  2.0

     End of self-consistent calculation

          k = 0.0000 0.0000 0.0000 (   653 PWs)   bands (ev):

   -90.9691 -90.9619 -90.9593 -90.9480 -89.3251 -89.3149  -7.0018  -6.1893
    -6.0740  -4.7708   1.1727   3.5446   5.9115   8.4236   8.4236   8.8177
     8.8177   9.2462   9.2526   9.2527   9.8000   9.8000  15.1466  16.4528
    16.7905  16.8899

     occupation numbers
     1.0000   1.0000   1.0000   1.0000   1.0000   1.0000   1.0000   1.0000
     1.0000   1.0000   1.0000   1.0000   1.0000   1.0000   1.0000   1.0000
     1.0000   1.0000   1.0000   1.0000   1.0000   1.0000  -0.0000  -0.0000
    -0.0000  -0.0000

     the Fermi energy is    10.2678 ev

!    total energy              =    -248.51599811 Ry
     estimated scf accuracy    <       0.00000018 Ry
     smearing contrib. (-TS)   =       0.00000000 Ry
     internal energy E=F+TS    =    -248.51599811 Ry

     The total energy is F=E-TS. E is the sum of the following terms:
     one-electron contribution =     -92.80116234 Ry
     hartree contribution      =      45.62545883 Ry
     xc contribution           =     -53.84441737 Ry
     ewald contribution        =    -147.49587724 Ry

     convergence has been achieved in   9 iterations

     Forces acting on atoms (cartesian axes, Ry/au):

     atom    1 type  1   force =    -0.00000000   -0.00000000    0.01058193
     atom    2 type  1   force =    -0.00000000   -0.00000000    0.01058193
     atom    3 type  1   force =     0.00000000    0.00000000   -0.01058193
     atom    4 type  1   force =     0.00000000    0.00000000   -0.01058193
     atom    5 type  1   force =     0.00000000    0.00000000    0.00000000
     atom    6 type  1   force =    -0.00000000   -0.00000000    0.00000000
     atom    7 type  2   force =     0.00000000    0.00000000    0.00000000
     atom    8 type  2   force =     0.00000000    0.00000000    0.00000000
     atom    9 type  2   force =    -0.00000000   -0.00000000    0.00000000
     atom   10 type  2   force =     0.00000000    0.00000000    0.00000000
     The non-local contrib.  to forces
     atom    1 type  1   force =    -0.00000000    0.00000000   -0.21711018
     atom    2 type  1   force =     0.00000000    0.00000000   -0.21711018
     atom    3 type  1   force =     0.00000000   -0.00000000    0.21711018
     atom    4 type  1   force =     0.00000000   -0.00000000    0.21711018
     atom    5 type  1   force =     0.00000000    0.00000000    0.00000000
     atom    6 type  1   force =     0.00000000   -0.00000000    0.00000000
     atom    7 type  2   force =     0.00000000    0.00000000    0.00000000
     atom    8 type  2   force =     0.00000000    0.00000000    0.00000000
     atom    9 type  2   force =     0.00000000   -0.00000000    0.00000000
     atom   10 type  2   force =     0.00000000    0.00000000    0.00000000
     The ionic contribution  to forces
     atom    1 type  1   force =     0.00000586   -0.00000338    0.17649098
     atom    2 type  1   force =    -0.00000586    0.00000338    0.17649098
     atom    3 type  1   force =    -0.00000586    0.00000338   -0.17649098
     atom    4 type  1   force =     0.00000586   -0.00000338   -0.17649098
     atom    5 type  1   force =    -0.00000807    0.00000466   -0.00000000
     atom    6 type  1   force =     0.00000807   -0.00000466    0.00000000
     atom    7 type  2   force =    -0.00000000   -0.00000000   -0.00000000
     atom    8 type  2   force =    -0.00000000   -0.00000000    0.00000000
     atom    9 type  2   force =     0.00000746   -0.00000430    0.00000000
     atom   10 type  2   force =    -0.00000745    0.00000430   -0.00000000
     The local contribution  to forces
     atom    1 type  1   force =     0.00000214    0.00000833    0.05146550
     atom    2 type  1   force =     0.00000962    0.00000426    0.05090644
     atom    3 type  1   force =     0.00001324    0.00000029   -0.05107932
     atom    4 type  1   force =     0.00000094    0.00001190   -0.05130094
     atom    5 type  1   force =     0.00000891   -0.00000053    0.00030381
     atom    6 type  1   force =    -0.00000882    0.00000945   -0.00029454
     atom    7 type  2   force =     0.00002974    0.00002766    0.00020626
     atom    8 type  2   force =     0.00002637   -0.00000098   -0.00021713
     atom    9 type  2   force =    -0.00000391   -0.00001594    0.00029285
     atom   10 type  2   force =     0.00005031   -0.00001506   -0.00028416
     The core correction contribution to forces
     atom    1 type  1   force =     0.00000000    0.00000000    0.00000000
     atom    2 type  1   force =     0.00000000    0.00000000    0.00000000
     atom    3 type  1   force =     0.00000000    0.00000000    0.00000000
     atom    4 type  1   force =     0.00000000    0.00000000    0.00000000
     atom    5 type  1   force =     0.00000000    0.00000000    0.00000000
     atom    6 type  1   force =     0.00000000    0.00000000    0.00000000
     atom    7 type  2   force =     0.00000048    0.00000030   -0.00000102
     atom    8 type  2   force =     0.00000036    0.00000014    0.00000106
     atom    9 type  2   force =     0.00000011    0.00000020   -0.00000222
     atom   10 type  2   force =     0.00000044    0.00000005    0.00000206
     The Hubbard contrib.    to forces
     atom    1 type  1   force =     0.00000000    0.00000000    0.00000000
     atom    2 type  1   force =     0.00000000    0.00000000    0.00000000
     atom    3 type  1   force =     0.00000000    0.00000000    0.00000000
     atom    4 type  1   force =     0.00000000    0.00000000    0.00000000
     atom    5 type  1   force =     0.00000000    0.00000000    0.00000000
     atom    6 type  1   force =     0.00000000    0.00000000    0.00000000
     atom    7 type  2   force =     0.00000000    0.00000000    0.00000000
     atom    8 type  2   force =     0.00000000    0.00000000    0.00000000
     atom    9 type  2   force =     0.00000000    0.00000000    0.00000000
     atom   10 type  2   force =     0.00000000    0.00000000    0.00000000
     The SCF correction term to forces
     atom    1 type  1   force =     0.00000728   -0.00000464   -0.00037324
     atom    2 type  1   force =     0.00000225    0.00000861    0.00040708
     atom    3 type  1   force =     0.00001124    0.00000459   -0.00010496
     atom    4 type  1   force =     0.00000238   -0.00000649    0.00008651
     atom    5 type  1   force =     0.00000286   -0.00001270   -0.00037335
     atom    6 type  1   force =    -0.00001354   -0.00000101    0.00036224
     atom    7 type  2   force =    -0.00001889   -0.00001610   -0.00031524
     atom    8 type  2   force =    -0.00001783   -0.00000274    0.00032558
     atom    9 type  2   force =     0.00000698    0.00001571   -0.00048451
     atom   10 type  2   force =    -0.00001307    0.00000852    0.00047653

     Total force =     0.021164     Total SCF correction =     0.001124

     Computing stress (Cartesian axis) and pressure

          total   stress  (Ry/bohr**3)                   (kbar)     P=      378.85
   0.00283437   0.00000000   0.00000000          416.95        0.00        0.00
   0.00000000   0.00283437   0.00000000            0.00      416.95        0.00
   0.00000000   0.00000000   0.00205729            0.00        0.00      302.64

     kinetic stress (kbar)  16273.95      0.00      0.00
                                0.00  16273.96      0.00
                                0.00      0.00  14558.21

     local   stress (kbar)  -1479.93      0.04      0.00
                                0.04  -1479.88      0.00
                                0.00      0.00   1395.44

     nonloc. stress (kbar)   1541.36      0.00      0.00
                                0.00   1541.36      0.00
                                0.00      0.00   1081.92

     hartree stress (kbar)   4964.98     -0.01      0.00
                               -0.01   4964.96     -0.00
                                0.00     -0.00   4565.79

     exc-cor stress (kbar)  -4922.13     -0.00      0.00
                               -0.00  -4922.14     -0.00
                                0.00     -0.00  -4907.95

     corecor stress (kbar)   -490.95     -0.00      0.00
                               -0.00   -490.95     -0.00
                                0.00     -0.00   -470.35

     ewald   stress (kbar) -15470.33     -0.03     -0.00
                               -0.03 -15470.37      0.00
                               -0.00      0.00 -15920.43

     hubbard stress (kbar)      0.00      0.00      0.00
                                0.00      0.00      0.00
                                0.00      0.00      0.00

     DFT-D   stress (kbar)      0.00      0.00      0.00
                                0.00      0.00      0.00
                                0.00      0.00      0.00

     XDM     stress (kbar)      0.00      0.00      0.00
                                0.00      0.00      0.00
                                0.00      0.00      0.00

     dft-nl  stress (kbar)      0.00      0.00      0.00
                                0.00      0.00      0.00
                                0.00      0.00      0.00

     TS-vdW  stress (kbar)      0.00      0.00      0.00
                                0.00      0.00      0.00
                                0.00      0.00      0.00

[...]

                                0.00      0.00      0.00

     Writing all to output data dir new_calculations/myprefix.save/

     General routines

     Parallel routines

   This run was terminated on:  22:25:11  20May2023

   JOB DONE.