     Program PWSCF v.7.0 starts on 20May2023 at  7:49: 6

     Reading input from espresso_17137.pwi
Warning: card &CELL ignored
Warning: card / ignored

     Current dimensions of program PWSCF are:
     Max number of different atomic species (ntypx) = 10
     Max number of k-points (npk) =  40000
     Max angular momentum in pseudopotentials (lmaxx) =  4

     gamma-point specific algorithms are used
     Message from routine setup:
     using ibrav=0 with symmetry is DISCOURAGED, use correct ibrav instead

     Subspace diagonalization in iterative solution of the eigenvalue problem:
     a serial algorithm will be used

     Using Slab Decomposition

     bravais-lattice index     =            0
     lattice parameter (alat)  =      13.6792  a.u.
     unit-cell volume          =    1970.4356 (a.u.)^3
     number of atoms/cell      =           17
     number of atomic types    =            3
     number of electrons       =       281.00
     number of Kohn-Sham states=          169
     kinetic-energy cutoff     =      30.0000  Ry
     charge density cutoff     =     240.0000  Ry
     scf convergence threshold =      1.0E-06
     mixing beta               =       0.7000
     number of iterations used =            8  plain     mixing
     Exchange-correlation= SLA  PW   PBE  PBE
                           (   1   4   3   4   0   0   0)

     celldm(1)=  13.679221  celldm(2)=   0.000000  celldm(3)=   0.000000
     celldm(4)=   0.000000  celldm(5)=   0.000000  celldm(6)=   0.000000

     crystal axes: (cart. coord. in units of alat)
               a(1) = (   1.000000   0.000000   0.000000 )
               a(2) = (  -0.333333   0.942809   0.000000 )
               a(3) = (  -0.333333  -0.471405   0.816497 )

     reciprocal axes: (cart. coord. in units 2 pi/alat)
               b(1) = (  1.000000  0.353553  0.612372 )
               b(2) = (  0.000000  1.060660  0.612372 )
               b(3) = (  0.000000  0.000000  1.224745 )

     PseudoPot. # 1 for Tm read from file:
     /home/pragov/projects/rrg-bengioy-ad/pragov/crystal_structure_design/SSSP/Tm.GGA-PBE-paw-v1.0.UPF
     MD5 check sum: e502ddec747d736c64e0ed72ddfd7d4c
     Pseudo is Projector augmented-wave + core cor, Zval = 23.0
     Generated using ATOMPAW code
     Shape of augmentation charge: BESSEL
     Using radial grid of 1116 points,  8 beta functions with:
                l(1) =   0
                l(2) =   0
                l(3) =   1
                l(4) =   1
                l(5) =   2
                l(6) =   2
                l(7) =   3
                l(8) =   3
     Q(r) pseudized with 0 coefficients

     PseudoPot. # 2 for Ge read from file:
     /home/pragov/projects/rrg-bengioy-ad/pragov/crystal_structure_design/SSSP/ge_pbe_v1.4.uspp.F.UPF
     MD5 check sum: 9c9eaa91e581c3f09632fb3098b2c6b2
     Pseudo is Ultrasoft + core correction, Zval = 14.0
     Generated by new atomic code, or converted to UPF format
     Using radial grid of  873 points,  6 beta functions with:
                l(1) =   0
                l(2) =   0
                l(3) =   1
                l(4) =   1
                l(5) =   2
                l(6) =   2
     Q(r) pseudized with  8 coefficients,  rinner =    1.400   1.400   1.400
                                                       1.400   1.400

     PseudoPot. # 3 for Ir read from file:
     /home/pragov/projects/rrg-bengioy-ad/pragov/crystal_structure_design/SSSP/Ir_pbe_v1.2.uspp.F.UPF
     MD5 check sum: 8836f839c3459d2b385c504ce6d91f2c
     Pseudo is Ultrasoft + core correction, Zval = 15.0
     Generated by new atomic code, or converted to UPF format
     Using radial grid of  983 points,  7 beta functions with:
                l(1) =   0
                l(2) =   0
                l(3) =   1
                l(4) =   1
                l(5) =   1
                l(6) =   2
                l(7) =   2
     Q(r) pseudized with  8 coefficients,  rinner =    1.400   1.400   1.400
                                                       1.400   1.400

     atomic species   valence    mass     pseudopotential
        Tm            23.00   168.93422     Tm( 1.00)
        Ge            14.00    72.63000     Ge( 1.00)
        Ir            15.00   192.21700     Ir( 1.00)

      4 Sym. Ops., with inversion, found

                                    s                        frac. trans.

      isym =  1     identity

 cryst.   s( 1) = (     1          0          0      )
                  (     0          1          0      )
                  (     0          0          1      )

 cart.    s( 1) = (  1.0000000  0.0000000 -0.0000000 )
                  (  0.0000000  1.0000000 -0.0000000 )
                  (  0.0000000  0.0000000  1.0000000 )

      isym =  2     180 deg rotation - cart. axis [0,0,1]

[...]

      isym =  3     inversion

[...]

      isym =  4     inv. 180 deg rotation - cart. axis [0,0,1]

 cryst.   s( 4) = (     1          0          0      )
                  (     0          1          0      )
                  (    -1         -1         -1      )

 cart.    s( 4) = (  1.0000000  0.0000000 -0.0000000 )
                  (  0.0000000  1.0000000 -0.0000000 )
                  (  0.0000000  0.0000000 -1.0000000 )

   Cartesian axes

     site n.     atom                  positions (alat units)
         1           Tm  tau(   1) = (  -0.1666667  -0.2357023   0.4082483  )
         2           Tm  tau(   2) = (  -0.1666667   0.4714045   0.0000000  )
         3           Tm  tau(   3) = (   0.5000000   0.0000000   0.0000000  )
         4           Tm  tau(   4) = (   0.1666667   0.2357023   0.4082483  )
         5           Ge  tau(   5) = (   0.4556720   0.6444175   0.0000000  )
         6           Ge  tau(   6) = (   0.2109947  -0.1491958   0.2584146  )
         7           Ge  tau(   7) = (   0.7890053   0.1491958   0.2584146  )
         8           Ge  tau(   8) = (   0.2109947   0.2983915   0.0000000  )
         9           Ge  tau(   9) = (   0.4556720  -0.3222088   0.5580819  )
        10           Ge  tau(  10) = (   0.5443280   0.3222088   0.5580819  )
        11           Ir  tau(  11) = (   0.5000000   0.0000000   0.4082483  )
        12           Ir  tau(  12) = (   0.5000000   0.3535534   0.2041241  )
        13           Ir  tau(  13) = (   0.1666667  -0.1178511   0.6123724  )
        14           Ir  tau(  14) = (  -0.1666667   0.1178511   0.6123724  )
        15           Ir  tau(  15) = (  -0.1666667   0.4714045   0.4082483  )
        16           Ir  tau(  16) = (   0.1666667   0.5892557   0.2041241  )
        17           Ir  tau(  17) = (   0.0000000   0.0000000   0.0000000  )

   Crystallographic axes

     site n.     atom                  positions (cryst. coord.)
         1           Tm  tau(   1) = ( -0.0000000 -0.0000000  0.5000000  )
         2           Tm  tau(   2) = ( -0.0000000  0.5000000  0.0000000  )
         3           Tm  tau(   3) = (  0.5000000  0.0000000  0.0000000  )
         4           Tm  tau(   4) = (  0.5000000  0.5000000  0.5000000  )
         5           Ge  tau(   5) = (  0.6835080  0.6835080  0.0000000  )
         6           Ge  tau(   6) = (  0.3164920  0.0000000  0.3164920  )
         7           Ge  tau(   7) = (  1.0000000  0.3164920  0.3164920  )
         8           Ge  tau(   8) = (  0.3164920  0.3164920  0.0000000  )
         9           Ge  tau(   9) = (  0.6835080 -0.0000000  0.6835080  )
        10           Ge  tau(  10) = (  1.0000000  0.6835080  0.6835080  )
        11           Ir  tau(  11) = (  0.7500000  0.2500000  0.5000000  )
        12           Ir  tau(  12) = (  0.7500000  0.5000000  0.2500000  )
        13           Ir  tau(  13) = (  0.5000000  0.2500000  0.7500000  )
        14           Ir  tau(  14) = (  0.2500000  0.5000000  0.7500000  )
        15           Ir  tau(  15) = (  0.2500000  0.7500000  0.5000000  )
        16           Ir  tau(  16) = (  0.5000000  0.7500000  0.2500000  )
        17           Ir  tau(  17) = (  0.0000000  0.0000000  0.0000000  )

     number of k points=     1  Methfessel-Paxton smearing, width (Ry)=  0.0010
                       cart. coord. in units 2pi/alat
        k(    1) = (   0.0000000   0.0000000   0.0000000), wk =   2.0000000

                       cryst. coord.
        k(    1) = (   0.0000000   0.0000000   0.0000000), wk =   2.0000000

     Initial potential from superposition of free atoms

     starting charge     277.4771, renormalised to     281.0000

     negative rho (up, down):  2.496E+00 0.000E+00
     Starting wfcs are  266 randomized atomic wfcs
     Checking if some PAW data can be deallocated...

     Self-consistent Calculation

     iteration #  1     ecut=    30.00 Ry     beta= 0.70
     Davidson diagonalization with overlap

     ethr =  1.00E-02,  avg # of iterations =  6.0

     negative rho (up, down):  1.675E+00 0.000E+00

     total energy              =   -6315.95813667 Ry
     estimated scf accuracy    <      22.70555438 Ry

[...]

     total energy              =   -6334.50352592 Ry
     estimated scf accuracy    <       0.00000763 Ry

     iteration # 70     ecut=    30.00 Ry     beta= 0.70
     Davidson diagonalization with overlap

     ethr =  5.27E-10,  avg # of iterations =  1.0

[...]

     End of self-consistent calculation

          k = 0.0000 0.0000 0.0000 (  2713 PWs)   bands (ev):

   -33.2774 -32.6406 -32.0708 -31.3949 -31.1116 -31.0692 -30.9253 -30.8851
   -30.7468 -30.6035 -30.5473 -30.4074 -30.3777 -30.3004 -30.2567 -30.0805
   -29.8424 -29.7996 -29.5802 -29.4710 -28.9364 -28.7284 -28.6063 -28.4795
   -27.6653  -7.3809  -7.2228  -6.7925  -6.5577  -6.1233  -6.0369  -6.0056
    -5.8881  -5.8809  -5.8670  -5.7772  -5.7602  -5.7191  -5.6678  -5.6455
    -5.6393  -5.5852  -5.5770  -5.5062  -5.4065  -5.3783  -5.3418  -5.3064
    -5.2561  -5.2507  -5.1755  -5.1275  -4.9709  -4.9418  -4.9052  -4.9010
    -4.8785  -4.8107  -4.7635  -4.7618  -4.6990  -4.6227  -4.5870  -4.5698
    -4.3869  -4.2535  -3.9557   6.3899   7.6301   8.1686   8.9637   9.0780
     9.5252  10.9389  11.9721  12.1590  12.6076  12.6354  12.6952  12.7758
    12.9926  13.0990  13.3997  13.9111  14.0899  14.1542  14.1975  14.3796
    14.4225  14.4978  14.5447  14.6487  14.6512  14.7625  15.0641  15.0895
    15.2247  15.2556  15.3049  15.3471  15.3747  15.5506  15.6474  15.7615
    15.9618  16.0948  16.3262  16.3483  16.6184  16.6762  16.7307  16.7870
    16.8431  16.8831  16.9296  17.0357  17.0372  17.0487  17.1287  17.1598
    17.1684  17.2139  17.2334  17.2335  17.2645  17.2863  17.3297  17.3632
    17.3635  17.3885  17.4114  17.4339  17.4443  17.4683  17.4812  17.5439
    17.5610  17.6214  17.6303  17.7077  17.7467  17.7572  17.7620  17.9886
    18.1670  18.4460  19.1227  19.4333  19.8887  20.0877  20.1043  20.2776
    20.9260  20.9679  21.0967  21.1264  21.3494  21.4115  21.4625  21.7113
    21.9928  22.2913  22.5408  22.6125  22.7050  22.7998  23.0850  23.1018
    23.2183

     occupation numbers
     1.0000   1.0000   1.0000   1.0000   1.0000   1.0000   1.0000   1.0000
     1.0000   1.0000   1.0000   1.0000   1.0000   1.0000   1.0000   1.0000
     1.0000   1.0000   1.0000   1.0000   1.0000   1.0000   1.0000   1.0000
     1.0000   1.0000   1.0000   1.0000   1.0000   1.0000   1.0000   1.0000
     1.0000   1.0000   1.0000   1.0000   1.0000   1.0000   1.0000   1.0000
     1.0000   1.0000   1.0000   1.0000   1.0000   1.0000   1.0000   1.0000
     1.0000   1.0000   1.0000   1.0000   1.0000   1.0000   1.0000   1.0000
     1.0000   1.0000   1.0000   1.0000   1.0000   1.0000   1.0000   1.0000
     1.0000   1.0000   1.0000   1.0000   1.0000   1.0000   1.0000   1.0000
     1.0000   1.0000   1.0000   1.0000   1.0000   1.0000   1.0000   1.0000
     1.0000   1.0000   1.0000   1.0000   1.0000   1.0000   1.0000   1.0000
     1.0000   1.0000   1.0000   1.0000   1.0000   1.0000   1.0000   1.0000
     1.0000   1.0000   1.0000   1.0000   1.0000   1.0000   1.0000   1.0000
     1.0000   1.0000   1.0000   1.0000   1.0000   1.0000   1.0000   1.0000
     1.0000   1.0000   1.0000   1.0000   1.0000   1.0000   1.0000   1.0000
     1.0000   1.0000   1.0000   1.0000   1.0000   1.0000   1.0000   1.0000
     1.0000   1.0000   1.0000   1.0000   1.0000   1.0000   1.0000   1.0000
     1.0000   1.0000   1.0000   1.0002   0.5120   0.0212  -0.0334  -0.0000
    -0.0000  -0.0000  -0.0000  -0.0000  -0.0000  -0.0000  -0.0000  -0.0000
    -0.0000  -0.0000  -0.0000  -0.0000  -0.0000  -0.0000  -0.0000  -0.0000
    -0.0000  -0.0000  -0.0000  -0.0000  -0.0000  -0.0000  -0.0000  -0.0000
    -0.0000

     the Fermi energy is    17.7469 ev

!    total energy              =   -6334.50352554 Ry
     estimated scf accuracy    <       0.00000025 Ry
     smearing contrib. (-TS)   =      -0.00013565 Ry
     internal energy E=F+TS    =   -6334.50338989 Ry

     The total energy is F=E-TS. E is the sum of the following terms:
     one-electron contribution =   -1805.71722921 Ry
     hartree contribution      =    1067.14591923 Ry
     xc contribution           =    -846.87780777 Ry
     ewald contribution        =   -2799.22365046 Ry
     one-center paw contrib.   =   -1949.83062169 Ry
      -> PAW hartree energy AE =    1527.36916115 Ry
      -> PAW hartree energy PS =   -1338.45188011 Ry
      -> PAW xc energy AE      =   -2273.29710398 Ry
      -> PAW xc energy PS      =     134.54920125 Ry
      -> total E_H with PAW    =    1256.06320027 Ry
      -> total E_XC with PAW   =   -2985.62571050 Ry

     convergence has been achieved in  70 iterations

     negative rho (up, down):  1.630E+00 0.000E+00

     Forces acting on atoms (cartesian axes, Ry/au):

     atom    1 type  1   force =     0.00000000    0.00000000   -0.00000000
     atom    2 type  1   force =     0.00000000    0.00000000   -0.00000000
     atom    3 type  1   force =     0.00000000    0.00000000    0.00000000
     atom    4 type  1   force =     0.00000000   -0.00000000   -0.00000000
     atom    5 type  2   force =     0.03816752    0.01767176   -0.00000000
     atom    6 type  2   force =    -0.03268738   -0.03602551   -0.06462336
     atom    7 type  2   force =     0.03268738    0.03602551   -0.06462336
     atom    8 type  2   force =    -0.03816752   -0.01767176    0.00000000
     atom    9 type  2   force =     0.03268738    0.03602551    0.06462336
     atom   10 type  2   force =    -0.03268738   -0.03602551    0.06462336
     atom   11 type  3   force =     0.00000000    0.00000000   -0.00128995
     atom   12 type  3   force =     0.00775245   -0.00561742    0.15312360
     atom   13 type  3   force =     0.00775245   -0.00561742   -0.15312360
     atom   14 type  3   force =    -0.00775245    0.00561742   -0.15312360
     atom   15 type  3   force =     0.00000000    0.00000000    0.00128995
     atom   16 type  3   force =    -0.00775245    0.00561742    0.15312360
     atom   17 type  3   force =     0.00000000    0.00000000   -0.00000000
     The non-local contrib.  to forces
     atom    1 type  1   force =     0.00000000    0.00000000    0.00000000
     atom    2 type  1   force =     0.00000000    0.00000000    0.00000000
     atom    3 type  1   force =     0.00000000    0.00000000   -0.00000000
     atom    4 type  1   force =     0.00000000    0.00000000    0.00000000
     atom    5 type  2   force =    -0.05449725   -0.03973732    0.00000000
     atom    6 type  2   force =    -0.01123505   -0.16440493    0.09160309
     atom    7 type  2   force =     0.01123505    0.16440493    0.09160309
     atom    8 type  2   force =     0.05449725    0.03973732   -0.00000000
     atom    9 type  2   force =     0.01123505    0.16440493   -0.09160309
     atom   10 type  2   force =    -0.01123505   -0.16440493   -0.09160309
     atom   11 type  3   force =     0.00000000    0.00000000   -0.00186699
     atom   12 type  3   force =     0.01688466    0.00171007    0.08399744
     atom   13 type  3   force =     0.01688466    0.00171007   -0.08399744
     atom   14 type  3   force =    -0.01688466   -0.00171007   -0.08399744
     atom   15 type  3   force =     0.00000000    0.00000000    0.00186699
     atom   16 type  3   force =    -0.01688466   -0.00171007    0.08399744
     atom   17 type  3   force =     0.00000000    0.00000000    0.00000000
     The ionic contribution  to forces
     atom    1 type  1   force =    -0.00000000   -0.00000000    0.00000000
     atom    2 type  1   force =    -0.00000000   -0.00000000   -0.00000000
     atom    3 type  1   force =    -0.00000000    0.00000000   -0.00000000
     atom    4 type  1   force =     0.00000000    0.00000000    0.00000000
     atom    5 type  2   force =     6.75764056    9.55674693   -0.00000000
     atom    6 type  2   force =    -6.75764056    4.77837347   -8.27638562
     atom    7 type  2   force =     6.75764056   -4.77837347   -8.27638562
     atom    8 type  2   force =    -6.75764056   -9.55674693    0.00000000
     atom    9 type  2   force =     6.75764056   -4.77837347    8.27638562
     atom   10 type  2   force =    -6.75764056    4.77837347    8.27638562
     atom   11 type  3   force =     0.00000000   -0.00000000    0.00000000
     atom   12 type  3   force =     0.00000000   -0.00000000   -0.00000000
     atom   13 type  3   force =     0.00000000   -0.00000000    0.00000000
     atom   14 type  3   force =    -0.00000000   -0.00000000    0.00000000
     atom   15 type  3   force =    -0.00000000   -0.00000000    0.00000000
     atom   16 type  3   force =    -0.00000000    0.00000000   -0.00000000
     atom   17 type  3   force =     0.00000000    0.00000000   -0.00000000
     The local contribution  to forces
     atom    1 type  1   force =     0.00001278   -0.00004335   -0.00002605
     atom    2 type  1   force =     0.00018652    0.00005925    0.00017495
     atom    3 type  1   force =     0.00000969   -0.00019995   -0.00012480
     atom    4 type  1   force =    -0.00021422    0.00017310   -0.00003632
     atom    5 type  2   force =    -6.66925639   -9.50261537    0.05347654
     atom    6 type  2   force =     6.71208089   -4.54981497    8.16762161
     atom    7 type  2   force =    -6.75281864    4.76698565    8.09111356
     atom    8 type  2   force =     6.66908905    9.50273922   -0.05342907
     atom    9 type  2   force =    -6.71209869    4.54958766   -8.16773749
     atom   10 type  2   force =     6.75299835   -4.76686852   -8.09102595
     atom   11 type  3   force =     0.00953140   -0.09529460   -0.00721842
     atom   12 type  3   force =     0.01493131    0.02704296    0.09931701
     atom   13 type  3   force =    -0.03377354   -0.03086912   -0.01720715
     atom   14 type  3   force =    -0.01491904   -0.02688716   -0.09924210
     atom   15 type  3   force =    -0.00941795    0.09521204    0.00718200
     atom   16 type  3   force =     0.03365112    0.03079412    0.01714661
     atom   17 type  3   force =     0.00000218   -0.00000097    0.00000457
     The core correction contribution to forces
     atom    1 type  1   force =    -0.00000000   -0.00000000   -0.00000000
     atom    2 type  1   force =     0.00000000    0.00000000    0.00000000
     atom    3 type  1   force =     0.00000000   -0.00000000   -0.00000000
     atom    4 type  1   force =    -0.00000000    0.00000000   -0.00000000
     atom    5 type  2   force =     0.00435717    0.00354977    0.00671010
     atom    6 type  2   force =     0.00078244    0.01958101   -0.00997505
     atom    7 type  2   force =    -0.00582406    0.00252877   -0.00866419
     atom    8 type  2   force =    -0.00435704   -0.00354979   -0.00671003
     atom    9 type  2   force =    -0.00078256   -0.01958119    0.00997512
     atom   10 type  2   force =     0.00582391   -0.00252871    0.00866428
     atom   11 type  3   force =    -0.00360265   -0.03019335    0.00785630
     atom   12 type  3   force =    -0.00186115    0.01142642    0.02496075
     atom   13 type  3   force =     0.00192213   -0.02194006    0.00310271
     atom   14 type  3   force =     0.00186147   -0.01142595   -0.02496045
     atom   15 type  3   force =     0.00360348    0.03019269   -0.00785628
     atom   16 type  3   force =    -0.00192232    0.02193974   -0.00310267
     atom   17 type  3   force =    -0.00000019    0.00000049   -0.00000030
     The Hubbard contrib.    to forces
     atom    1 type  1   force =     0.00000000    0.00000000    0.00000000
     atom    2 type  1   force =     0.00000000    0.00000000    0.00000000
     atom    3 type  1   force =     0.00000000    0.00000000    0.00000000
     atom    4 type  1   force =     0.00000000    0.00000000    0.00000000
     atom    5 type  2   force =     0.00000000    0.00000000    0.00000000
     atom    6 type  2   force =     0.00000000    0.00000000    0.00000000
     atom    7 type  2   force =     0.00000000    0.00000000    0.00000000
     atom    8 type  2   force =     0.00000000    0.00000000    0.00000000
     atom    9 type  2   force =     0.00000000    0.00000000    0.00000000
     atom   10 type  2   force =     0.00000000    0.00000000    0.00000000
     atom   11 type  3   force =     0.00000000    0.00000000    0.00000000
     atom   12 type  3   force =     0.00000000    0.00000000    0.00000000
     atom   13 type  3   force =     0.00000000    0.00000000    0.00000000
     atom   14 type  3   force =     0.00000000    0.00000000    0.00000000
     atom   15 type  3   force =     0.00000000    0.00000000    0.00000000
     atom   16 type  3   force =     0.00000000    0.00000000    0.00000000
     atom   17 type  3   force =     0.00000000    0.00000000    0.00000000
     The SCF correction term to forces
     atom    1 type  1   force =    -0.00001244    0.00004674    0.00002687
     atom    2 type  1   force =    -0.00019325   -0.00006136   -0.00018269
     atom    3 type  1   force =    -0.00000860    0.00020601    0.00012702
     atom    4 type  1   force =     0.00021829   -0.00017939    0.00003628
     atom    5 type  2   force =    -0.00007025   -0.00027590    0.00009146
     atom    6 type  2   force =     0.00046409   -0.00019875    0.00028141
     atom    7 type  2   force =    -0.00041323    0.00002838   -0.00005677
     atom    8 type  2   force =     0.00025009    0.00014479   -0.00014285
     atom    9 type  2   force =    -0.00044570    0.00044353   -0.00015617
     atom   10 type  2   force =     0.00022039   -0.00015346   -0.00003591
     atom   11 type  3   force =    -0.00016413   -0.00034953   -0.00006020
     atom   12 type  3   force =     0.00017662   -0.00005262   -0.00018773
     atom   13 type  3   force =     0.00034132   -0.00026342   -0.00005634
     atom   14 type  3   force =    -0.00018836   -0.00010604    0.00011049
     atom   15 type  3   force =     0.00004911    0.00043501    0.00009791
     atom   16 type  3   force =    -0.00021734    0.00033941    0.00011783
     atom   17 type  3   force =    -0.00000178    0.00000036   -0.00000408

     Total force =     0.351945     Total SCF correction =     0.001503

     Computing stress (Cartesian axis) and pressure

     negative rho (up, down):  1.630E+00 0.000E+00
          total   stress  (Ry/bohr**3)                   (kbar)     P=     -332.63
  -0.00250440   0.00024380   0.00000000         -368.41       35.86        0.00
   0.00024380  -0.00258093   0.00000000           35.86     -379.67        0.00
   0.00000000   0.00000000  -0.00169809            0.00        0.00     -249.80

     kinetic stress (kbar)  25918.74    -32.28     -0.00
                              -32.28  25847.92     -0.00
                               -0.00     -0.00  25920.43

     local   stress (kbar)  20659.43     48.34    135.21
                               48.34  21183.07     98.46
                              135.21     98.46  21282.88

     nonloc. stress (kbar)   9059.94     34.10     -0.00
                               34.10   8681.28     -0.00
                               -0.00     -0.00   8661.90

     hartree stress (kbar)  26641.55    -16.00    -36.01
                              -16.00  26529.10    -27.43
                              -36.01    -27.43  26498.32

     exc-cor stress (kbar)  18610.83     -0.27     -0.63
                               -0.27  18607.08     -0.55
                               -0.63     -0.55  18605.86

     corecor stress (kbar) -31599.17      1.97      6.78
                                1.97 -31568.39      4.99
                                6.78      4.99 -31559.47

     ewald   stress (kbar) -69659.73     -0.00     -0.00
                               -0.00 -69659.73     -0.00
                               -0.00     -0.00 -69659.73

     hubbard stress (kbar)      0.00      0.00      0.00
                                0.00      0.00      0.00
                                0.00      0.00      0.00

     DFT-D   stress (kbar)      0.00      0.00      0.00
                                0.00      0.00      0.00
                                0.00      0.00      0.00

     XDM     stress (kbar)      0.00      0.00      0.00
                                0.00      0.00      0.00
                                0.00      0.00      0.00

     dft-nl  stress (kbar)      0.00      0.00      0.00
                                0.00      0.00      0.00
                                0.00      0.00      0.00

     TS-vdW  stress (kbar)      0.00      0.00      0.00
                                0.00      0.00      0.00
                                0.00      0.00      0.00

[...]

                                0.00      0.00      0.00

     Writing all to output data dir new_calculations/myprefix.save/

     General routines

     Parallel routines

     PAW routines

   This run was terminated on:   7:54:21  20May2023

   JOB DONE.