     Program PWSCF v.7.0 starts on 20May2023 at 18:43:29

     Reading input from espresso_23049.pwi
Warning: card &CELL ignored
Warning: card / ignored

     Current dimensions of program PWSCF are:
     Max number of different atomic species (ntypx) = 10
     Max number of k-points (npk) =  40000
     Max angular momentum in pseudopotentials (lmaxx) =  4
     file Ga.pbe-dn-kjpaw_psl.1.0.0.UPF: wavefunction(s)  4S renormalized

     gamma-point specific algorithms are used
     Message from routine setup:
     using ibrav=0 with symmetry is DISCOURAGED, use correct ibrav instead

     Subspace diagonalization in iterative solution of the eigenvalue problem:
     a serial algorithm will be used

     Using Slab Decomposition

     bravais-lattice index     =            0
     lattice parameter (alat)  =      14.8158  a.u.
     unit-cell volume          =    2299.6337 (a.u.)^3
     number of atoms/cell      =           10
     number of atomic types    =            4
     number of electrons       =        82.00
     number of Kohn-Sham states=           49
     kinetic-energy cutoff     =      30.0000  Ry
     charge density cutoff     =     240.0000  Ry
     scf convergence threshold =      1.0E-06
     mixing beta               =       0.7000
     number of iterations used =            8  plain     mixing
     Exchange-correlation=  SLA  PW   PBX  PBC
                           (   1   4   3   4   0   0   0)

     celldm(1)=  14.815781  celldm(2)=   0.000000  celldm(3)=   0.000000
     celldm(4)=   0.000000  celldm(5)=   0.000000  celldm(6)=   0.000000

     crystal axes: (cart. coord. in units of alat)
               a(1) = (   1.000000   0.000000   0.000000 )
               a(2) = (   0.500000   0.866025   0.000000 )
               a(3) = (   0.500000   0.288675   0.816497 )

     reciprocal axes: (cart. coord. in units 2 pi/alat)
               b(1) = (  1.000000 -0.577350 -0.408248 )
               b(2) = (  0.000000  1.154701 -0.408248 )
               b(3) = (  0.000000  0.000000  1.224745 )

     PseudoPot. # 1 for Cs read from file:
     /home/pragov/projects/rrg-bengioy-ad/pragov/crystal_structure_design/SSSP/Cs_pbe_v1.uspp.F.UPF
     MD5 check sum: 3476d69cb178dfad3ffaa59df4e07ca4
     Pseudo is Ultrasoft + core correction, Zval =  9.0
     Generated by new atomic code, or converted to UPF format
     Using radial grid of  905 points,  6 beta functions with:
                l(1) =   0
                l(2) =   0
                l(3) =   1
                l(4) =   1
                l(5) =   2
                l(6) =   2
     Q(r) pseudized with  6 coefficients,  rinner =    1.500   1.500   1.500
                                                       1.500   1.500

     PseudoPot. # 2 for Rb read from file:
     /home/pragov/projects/rrg-bengioy-ad/pragov/crystal_structure_design/SSSP/Rb_ONCV_PBE-1.0.oncvpsp.upf
     MD5 check sum: 55a5172d6bfbce6759a58e35d43f6aa9
     Pseudo is Norm-conserving, Zval =  9.0
     Generated using ONCVPSP code by D. R. Hamann
     Using radial grid of 2308 points,  6 beta functions with:
                l(1) =   0
                l(2) =   0
                l(3) =   1
                l(4) =   1
                l(5) =   2
                l(6) =   2

     PseudoPot. # 3 for Ga read from file:
     /home/pragov/projects/rrg-bengioy-ad/pragov/crystal_structure_design/SSSP/Ga.pbe-dn-kjpaw_psl.1.0.0.UPF
     MD5 check sum: a27b4342b1af7e5f338de752e9ed7044
     Pseudo is Projector augmented-wave + core cor, Zval = 13.0
     Generated using "atomic" code by A. Dal Corso  v.5.1
     Shape of augmentation charge: PSQ
     Using radial grid of 1205 points,  6 beta functions with:
                l(1) =   0
                l(2) =   0
                l(3) =   1
                l(4) =   1
                l(5) =   2
                l(6) =   2
     Q(r) pseudized with 0 coefficients

     PseudoPot. # 4 for Cl read from file:
     /home/pragov/projects/rrg-bengioy-ad/pragov/crystal_structure_design/SSSP/cl_pbe_v1.4.uspp.F.UPF
     MD5 check sum: fc6f6913ecf08c9257cb748ef0700058
     Pseudo is Ultrasoft + core correction, Zval =  7.0
     Generated by new atomic code, or converted to UPF format
     Using radial grid of  909 points,  6 beta functions with:
                l(1) =   0
                l(2) =   0
                l(3) =   1
                l(4) =   1
                l(5) =   2
                l(6) =   2
     Q(r) pseudized with  8 coefficients,  rinner =    1.300   1.300   1.300
                                                       1.300   1.300

     atomic species   valence    mass     pseudopotential
        Cs             9.00   132.90545     Cs( 1.00)
        Rb             9.00    85.46780     Rb( 1.00)
        Ga            13.00    69.72300     Ga( 1.00)
        Cl             7.00    35.45000     Cl( 1.00)

     12 Sym. Ops., with inversion, found

                                    s                        frac. trans.

      isym =  1     identity

 cryst.   s( 1) = (     1          0          0      )
                  (     0          1          0      )
                  (     0          0          1      )

 cart.    s( 1) = (  1.0000000  0.0000000  0.0000000 )
                  (  0.0000000  1.0000000 -0.0000000 )
                  (  0.0000000  0.0000000  1.0000000 )

      isym =  2     180 deg rotation - cart. axis [1,0,0]

[...]

      isym =  3     120 deg rotation - cryst. axis [0,0,1]

[...]

      isym =  6     180 deg rotation - cryst. axis [1,1,0]

[...]

      isym =  7     inversion

[...]

      isym =  8     inv. 180 deg rotation - cart. axis [1,0,0]

[...]

      isym =  9     inv. 120 deg rotation - cryst. axis [0,0,1]

 cryst.   s( 9) = (     1         -1          0      )
                  (     1          0          0      )
                  (     1          0         -1      )

 cart.    s( 9) = (  0.5000000  0.8660254  0.0000000 )
                  ( -0.8660254  0.5000000  0.0000000 )
                  (  0.0000000  0.0000000 -1.0000000 )

[...]

 cryst.   s(10) = (     0          1          0      )
                  (    -1          1          0      )
                  (     0          1         -1      )

 cart.    s(10) = (  0.5000000 -0.8660254 -0.0000000 )
                  (  0.8660254  0.5000000  0.0000000 )
                  (  0.0000000  0.0000000 -1.0000000 )

[...]

      isym = 12     inv. 180 deg rotation - cryst. axis [1,1,0]

 cryst.   s(12) = (     1         -1          0      )
                  (     0         -1          0      )
                  (     0         -1          1      )

 cart.    s(12) = (  0.5000000 -0.8660254 -0.0000000 )
                  ( -0.8660254 -0.5000000 -0.0000000 )
                  (  0.0000000  0.0000000  1.0000000 )

   Cartesian axes

     site n.     atom                  positions (alat units)
         1           Cs  tau(   1) = (   1.5000000   0.8660254   0.6123724  )
         2           Cs  tau(   2) = (   0.5000000   0.2886751   0.2041241  )
         3           Rb  tau(   3) = (   1.0000000   0.5773503   0.4082483  )
         4           Ga  tau(   4) = (   0.0000000   0.0000000   0.0000000  )
         5           Cl  tau(   5) = (   1.0000000   0.2502455   0.1769503  )
         6           Cl  tau(   6) = (   0.7167190   0.4137979   0.6395463  )
         7           Cl  tau(   7) = (   1.0000000   0.9044550   0.6395463  )
         8           Cl  tau(   8) = (   0.7167190   0.7409026   0.1769503  )
         9           Cl  tau(   9) = (   1.2832810   0.4137979   0.6395463  )
        10           Cl  tau(  10) = (   1.2832810   0.7409026   0.1769503  )

   Crystallographic axes

     site n.     atom                  positions (cryst. coord.)
         1           Cs  tau(   1) = (  0.7500000  0.7500000  0.7500000  )
         2           Cs  tau(   2) = (  0.2500000  0.2500000  0.2500000  )
         3           Rb  tau(   3) = (  0.5000000  0.5000000  0.5000000  )
         4           Ga  tau(   4) = (  0.0000000  0.0000000  0.0000000  )
         5           Cl  tau(   5) = (  0.7832810  0.2167190  0.2167190  )
         6           Cl  tau(   6) = (  0.2167190  0.2167190  0.7832810  )
         7           Cl  tau(   7) = (  0.2167190  0.7832810  0.7832810  )
         8           Cl  tau(   8) = (  0.2167190  0.7832810  0.2167190  )
         9           Cl  tau(   9) = (  0.7832810  0.2167190  0.7832810  )
        10           Cl  tau(  10) = (  0.7832810  0.7832810  0.2167190  )

     number of k points=     1  Methfessel-Paxton smearing, width (Ry)=  0.0010
                       cart. coord. in units 2pi/alat
        k(    1) = (   0.0000000   0.0000000   0.0000000), wk =   2.0000000

                       cryst. coord.
        k(    1) = (   0.0000000   0.0000000   0.0000000), wk =   2.0000000

     Initial potential from superposition of free atoms

     starting charge      81.8935, renormalised to      82.0000

     negative rho (up, down):  8.937E-02 0.000E+00
     Starting wfcs are   64 randomized atomic wfcs
     Checking if some PAW data can be deallocated...

     Self-consistent Calculation

     iteration #  1     ecut=    30.00 Ry     beta= 0.70
     Davidson diagonalization with overlap

     ethr =  1.00E-02,  avg # of iterations =  4.0

     Threshold (ethr) on eigenvalues was too large:
     Diagonalizing with lowered threshold

     Davidson diagonalization with overlap

[...]

     negative rho (up, down):  9.280E-02 0.000E+00

     total energy              =    -653.55275699 Ry
     estimated scf accuracy    <       0.47901714 Ry

[...]

     total energy              =    -653.72984491 Ry
     estimated scf accuracy    <       0.00000613 Ry

     iteration #  7     ecut=    30.00 Ry     beta= 0.70
     Davidson diagonalization with overlap

     ethr =  7.47E-09,  avg # of iterations =  4.0

[...]

     End of self-consistent calculation

          k = 0.0000 0.0000 0.0000 (  3188 PWs)   bands (ev):

   -22.8436 -17.8204 -17.8141 -12.1530 -12.1530 -11.8161 -11.8161 -11.8161
   -11.5633 -10.9533 -10.9532 -10.9530 -10.3361 -10.3360  -6.9710  -6.9710
    -6.9710  -4.6870  -4.6870  -4.6870  -4.6202  -4.6202  -4.6202  -3.2851
    -0.5967  -0.5966  -0.5965   0.4171   0.4172   0.4172   1.1723   1.1724
     1.2868   1.2869   1.2869   1.4666   1.4666   1.4666   1.8891   1.8892
     1.8892   5.0791   7.1108   7.9372   7.9373   8.3374   8.3374   8.3375
     8.5796

     occupation numbers
     1.0000   1.0000   1.0000   1.0000   1.0000   1.0000   1.0000   1.0000
     1.0000   1.0000   1.0000   1.0000   1.0000   1.0000   1.0000   1.0000
     1.0000   1.0000   1.0000   1.0000   1.0000   1.0000   1.0000   1.0000
     1.0000   1.0000   1.0000   1.0000   1.0000   1.0000   1.0000   1.0000
     1.0000   1.0000   1.0000   1.0000   1.0000   1.0000   1.0000   1.0000
     1.0000  -0.0000  -0.0000  -0.0000  -0.0000  -0.0000  -0.0000  -0.0000
    -0.0000

     the Fermi energy is     4.7538 ev

!    total energy              =    -653.72984759 Ry
     estimated scf accuracy    <       0.00000050 Ry
     smearing contrib. (-TS)   =       0.00000000 Ry
     internal energy E=F+TS    =    -653.72984759 Ry

     The total energy is F=E-TS. E is the sum of the following terms:
     one-electron contribution =    -264.27502249 Ry
     hartree contribution      =     169.38483951 Ry
     xc contribution           =    -163.23663164 Ry
     ewald contribution        =    -284.62676686 Ry
     one-center paw contrib.   =    -110.97626610 Ry
      -> PAW hartree energy AE =     136.21355639 Ry
      -> PAW hartree energy PS =    -134.06144158 Ry
      -> PAW xc energy AE      =    -150.51718512 Ry
      -> PAW xc energy PS      =      37.38880421 Ry
      -> total E_H with PAW    =     171.53695432 Ry
      -> total E_XC with PAW   =    -276.36501256 Ry

     convergence has been achieved in   7 iterations

     negative rho (up, down):  8.837E-02 0.000E+00

     Forces acting on atoms (cartesian axes, Ry/au):

     atom    1 type  1   force =     0.00000000    0.00000000   -0.00000590
     atom    2 type  1   force =     0.00000000    0.00000000    0.00000590
     atom    3 type  2   force =    -0.00000000    0.00000000    0.00000000
     atom    4 type  3   force =     0.00000000    0.00000000    0.00000000
     atom    5 type  4   force =     0.00000000    0.01182433    0.00836196
     atom    6 type  4   force =     0.01024017    0.00591216   -0.00836196
     atom    7 type  4   force =     0.00000000   -0.01182433   -0.00836196
     atom    8 type  4   force =     0.01024017   -0.00591216    0.00836196
     atom    9 type  4   force =    -0.01024017    0.00591216   -0.00836196
     atom   10 type  4   force =    -0.01024017   -0.00591216    0.00836196
     The non-local contrib.  to forces
     atom    1 type  1   force =     0.00000000    0.00000000   -0.00000707
     atom    2 type  1   force =     0.00000000    0.00000000    0.00000707
     atom    3 type  2   force =     0.00000000    0.00000000    0.00000000
     atom    4 type  3   force =     0.00000000   -0.00000000   -0.00000000
     atom    5 type  4   force =    -0.00000000   -0.08180046   -0.05787178
     atom    6 type  4   force =    -0.07084128   -0.04090023    0.05787178
     atom    7 type  4   force =     0.00000000    0.08180046    0.05787178
     atom    8 type  4   force =    -0.07084128    0.04090023   -0.05787178
     atom    9 type  4   force =     0.07084128   -0.04090023    0.05787178
     atom   10 type  4   force =     0.07084128    0.04090023   -0.05787178
     The ionic contribution  to forces
     atom    1 type  1   force =    -0.00000000    0.00000000    0.00000000
     atom    2 type  1   force =     0.00000000   -0.00000000   -0.00000000
     atom    3 type  2   force =    -0.00000000    0.00000000    0.00000000
     atom    4 type  3   force =     0.00000000    0.00000000    0.00000000
     atom    5 type  4   force =    -0.00000000    6.35707068    4.49512779
     atom    6 type  4   force =     5.50538470    3.17853534   -4.49512779
     atom    7 type  4   force =     0.00000000   -6.35707068   -4.49512779
     atom    8 type  4   force =     5.50538470   -3.17853534    4.49512779
     atom    9 type  4   force =    -5.50538470    3.17853534   -4.49512779
     atom   10 type  4   force =    -5.50538470   -3.17853534    4.49512779
     The local contribution  to forces
     atom    1 type  1   force =    -0.00005569    0.00014722   -0.00012013
     atom    2 type  1   force =     0.00008151   -0.00012846    0.00001148
     atom    3 type  2   force =     0.00001482    0.00005728    0.00010271
     atom    4 type  3   force =    -0.00030710   -0.00021944    0.00008892
     atom    5 type  4   force =    -0.00005311   -6.26459914   -4.42945930
     atom    6 type  4   force =    -5.42506263   -3.13231892    4.42949832
     atom    7 type  4   force =     0.00000136    6.26441199    4.42939688
     atom    8 type  4   force =    -5.42519471    3.13235504   -4.42959398
     atom    9 type  4   force =     5.42514612   -3.13231475    4.42965620
     atom   10 type  4   force =     5.42511469    3.13236768   -4.42952244
     The core correction contribution to forces
     atom    1 type  1   force =     0.00000091    0.00000398    0.00000205
     atom    2 type  1   force =    -0.00000144    0.00000490   -0.00000241
     atom    3 type  2   force =     0.00000000    0.00000000    0.00000000
     atom    4 type  3   force =    -0.00000723   -0.00000665    0.00000113
     atom    5 type  4   force =    -0.00000088    0.00159277    0.00113038
     atom    6 type  4   force =     0.00138329    0.00079595   -0.00113024
     atom    7 type  4   force =    -0.00000074   -0.00159645   -0.00113174
     atom    8 type  4   force =     0.00138013   -0.00079575    0.00112816
     atom    9 type  4   force =    -0.00138020    0.00079612   -0.00112719
     atom   10 type  4   force =    -0.00138109   -0.00079649    0.00112929
     The Hubbard contrib.    to forces
     atom    1 type  1   force =     0.00000000    0.00000000    0.00000000
     atom    2 type  1   force =     0.00000000    0.00000000    0.00000000
     atom    3 type  2   force =     0.00000000    0.00000000    0.00000000
     atom    4 type  3   force =     0.00000000    0.00000000    0.00000000
     atom    5 type  4   force =     0.00000000    0.00000000    0.00000000
     atom    6 type  4   force =     0.00000000    0.00000000    0.00000000
     atom    7 type  4   force =     0.00000000    0.00000000    0.00000000
     atom    8 type  4   force =     0.00000000    0.00000000    0.00000000
     atom    9 type  4   force =     0.00000000    0.00000000    0.00000000
     atom   10 type  4   force =     0.00000000    0.00000000    0.00000000
     The SCF correction term to forces
     atom    1 type  1   force =     0.00004483   -0.00010698    0.00010335
     atom    2 type  1   force =    -0.00006653    0.00011866   -0.00002614
     atom    3 type  2   force =    -0.00002182   -0.00006941   -0.00011084
     atom    4 type  3   force =     0.00054705    0.00033768   -0.00013691
     atom    5 type  4   force =     0.00003811   -0.00045860   -0.00054112
     atom    6 type  4   force =    -0.00057550   -0.00021974    0.00050629
     atom    7 type  4   force =     0.00000304    0.00058880    0.00057886
     atom    8 type  4   force =    -0.00050310    0.00019800   -0.00046398
     atom    9 type  4   force =     0.00055469   -0.00023571    0.00041913
     atom   10 type  4   force =     0.00055065    0.00017288   -0.00050476

     Total force =     0.035474     Total SCF correction =     0.001987

     Computing stress (Cartesian axis) and pressure

     negative rho (up, down):  8.837E-02 0.000E+00
          total   stress  (Ry/bohr**3)                   (kbar)     P=       24.37
   0.00016567   0.00000000   0.00000000           24.37        0.00        0.00
   0.00000000   0.00016567   0.00000000            0.00       24.37        0.00
  -0.00000000   0.00000000   0.00016567           -0.00        0.00       24.37

     kinetic stress (kbar)   5151.18     -0.00     -0.00
                               -0.00   5151.18      0.00
                               -0.00      0.00   5151.18

     local   stress (kbar)  -5332.26      0.00      0.01
                                0.00  -5332.21      0.00
                                0.01      0.00  -5332.26

     nonloc. stress (kbar)   4650.33     -0.00     -0.00
                               -0.00   4650.33      0.00
                               -0.00      0.00   4650.33

     hartree stress (kbar)   3611.80     -0.00     -0.01
                               -0.00   3611.76      0.00
                               -0.01      0.00   3611.80

     exc-cor stress (kbar)   3447.59     -0.00     -0.00
                               -0.00   3447.59     -0.00
                               -0.00     -0.00   3447.59

     corecor stress (kbar)  -5435.19      0.00      0.00
                                0.00  -5435.19      0.00
                                0.00      0.00  -5435.19

     ewald   stress (kbar)  -6069.09     -0.00     -0.00
                               -0.00  -6069.09     -0.00
                               -0.00     -0.00  -6069.09

     hubbard stress (kbar)      0.00      0.00      0.00
                                0.00      0.00      0.00
                                0.00      0.00      0.00

     DFT-D   stress (kbar)      0.00      0.00      0.00
                                0.00      0.00      0.00
                                0.00      0.00      0.00

     XDM     stress (kbar)      0.00      0.00      0.00
                                0.00      0.00      0.00
                                0.00      0.00      0.00

     dft-nl  stress (kbar)      0.00      0.00      0.00
                                0.00      0.00      0.00
                                0.00      0.00      0.00

     TS-vdW  stress (kbar)      0.00      0.00      0.00
                                0.00      0.00      0.00
                                0.00      0.00      0.00

[...]

                                0.00      0.00      0.00

     Writing all to output data dir new_calculations/myprefix.save/

     General routines

     Parallel routines

     PAW routines

   This run was terminated on:  18:44:15  20May2023

   JOB DONE.