     Program PWSCF v.7.0 starts on 21May2023 at  1:23:13

     Reading input from espresso_10894.pwi
Warning: card &CELL ignored
Warning: card / ignored

     Current dimensions of program PWSCF are:
     Max number of different atomic species (ntypx) = 10
     Max number of k-points (npk) =  40000
     Max angular momentum in pseudopotentials (lmaxx) =  4
     file Pb.pbe-dn-kjpaw_psl.0.2.2.UPF: wavefunction(s)  6S renormalized
     file O.pbe-n-kjpaw_psl.0.1.UPF: wavefunction(s)  2P renormalized

     gamma-point specific algorithms are used
     Message from routine setup:
     using ibrav=0 with symmetry is DISCOURAGED, use correct ibrav instead

     Subspace diagonalization in iterative solution of the eigenvalue problem:
     a serial algorithm will be used

     Using Slab Decomposition

     bravais-lattice index     =            0
     lattice parameter (alat)  =      11.1270  a.u.
     unit-cell volume          =    2364.6291 (a.u.)^3
     number of atoms/cell      =           20
     number of atomic types    =            3
     number of electrons       =       168.00
     number of Kohn-Sham states=          101
     kinetic-energy cutoff     =      30.0000  Ry
     charge density cutoff     =     240.0000  Ry
     scf convergence threshold =      1.0E-06
     mixing beta               =       0.7000
     number of iterations used =            8  plain     mixing
     Exchange-correlation= SLA  PW   PBX  PBC
                           (   1   4   3   4   0   0   0)

     celldm(1)=  11.126991  celldm(2)=   0.000000  celldm(3)=   0.000000
     celldm(4)=   0.000000  celldm(5)=   0.000000  celldm(6)=   0.000000

     crystal axes: (cart. coord. in units of alat)
               a(1) = (   1.000000   0.000000   0.000000 )
               a(2) = (   0.000000   1.250575   0.000000 )
               a(3) = (   0.000000   0.343171   1.372525 )

     reciprocal axes: (cart. coord. in units 2 pi/alat)
               b(1) = (  1.000000  0.000000  0.000000 )
               b(2) = (  0.000000  0.799632 -0.199931 )
               b(3) = (  0.000000  0.000000  0.728584 )

     PseudoPot. # 1 for Pb read from file:
     /home/pragov/projects/rrg-bengioy-ad/pragov/crystal_structure_design/SSSP/Pb.pbe-dn-kjpaw_psl.0.2.2.UPF
     MD5 check sum: 9d431e6316058b74ade52399a6cf67da
     Pseudo is Projector augmented-wave + core cor, Zval = 14.0
     Generated using "atomic" code by A. Dal Corso  v.5.0.99 svn rev. 10869
     Shape of augmentation charge: PSQ
     Using radial grid of 1281 points,  6 beta functions with:
                l(1) =   0
                l(2) =   0
                l(3) =   1
                l(4) =   1
                l(5) =   2
                l(6) =   2
     Q(r) pseudized with 0 coefficients

     PseudoPot. # 2 for S  read from file:
     /home/pragov/projects/rrg-bengioy-ad/pragov/crystal_structure_design/SSSP/s_pbe_v1.4.uspp.F.UPF
     MD5 check sum: 88d86576ff6df21479756cfb9bdac1df
     Pseudo is Ultrasoft + core correction, Zval =  6.0
     Generated by new atomic code, or converted to UPF format
     Using radial grid of  907 points,  6 beta functions with:
                l(1) =   0
                l(2) =   0
                l(3) =   1
                l(4) =   1
                l(5) =   2
                l(6) =   2
     Q(r) pseudized with  8 coefficients,  rinner =    1.300   1.300   1.300
                                                       1.300   1.300

     PseudoPot. # 3 for O  read from file:
     /home/pragov/projects/rrg-bengioy-ad/pragov/crystal_structure_design/SSSP/O.pbe-n-kjpaw_psl.0.1.UPF
     MD5 check sum: 0234752ac141de4415c5fc33072bef88
     Pseudo is Projector augmented-wave + core cor, Zval =  6.0
     Generated using "atomic" code by A. Dal Corso  v.5.0.99 svn rev. 10869
     Shape of augmentation charge: BESSEL
     Using radial grid of 1095 points,  4 beta functions with:
                l(1) =   0
                l(2) =   0
                l(3) =   1
                l(4) =   1
     Q(r) pseudized with 0 coefficients

     atomic species   valence    mass     pseudopotential
        Pb            14.00   207.20000     Pb( 1.00)
        S              6.00    32.06000     S ( 1.00)
        O              6.00    15.99900     O ( 1.00)

      4 Sym. Ops., with inversion, found ( 2 have fractional translation)

                                    s                        frac. trans.

      isym =  1     identity

 cryst.   s( 1) = (     1          0          0      )
                  (     0          1          0      )
                  (     0          0          1      )

 cart.    s( 1) = (  1.0000000  0.0000000  0.0000000 )
                  (  0.0000000  1.0000000 -0.0000000 )
                  (  0.0000000  0.0000000  1.0000000 )

      isym =  2     180 deg rotation - cart. axis [1,0,0]

 cryst.   s( 2) = (     1          0          0      )    f =(  0.5000000 )
                  (     0         -1          0      )       ( -0.0000000 )
                  (     0          0         -1      )       ( -0.0000000 )

 cart.    s( 2) = (  1.0000000  0.0000000  0.0000000 )    f =(  0.5000000 )
                  (  0.0000000 -1.0000000  0.0000000 )       ( -0.0000000 )
                  (  0.0000000  0.0000000 -1.0000000 )       ( -0.0000000 )

      isym =  3     inversion

 cryst.   s( 3) = (    -1          0          0      )
                  (     0         -1          0      )
                  (     0          0         -1      )

 cart.    s( 3) = ( -1.0000000  0.0000000  0.0000000 )
                  (  0.0000000 -1.0000000  0.0000000 )
                  (  0.0000000  0.0000000 -1.0000000 )

      isym =  4     inv. 180 deg rotation - cart. axis [1,0,0]

 cryst.   s( 4) = (    -1          0          0      )    f =(  0.5000000 )
                  (     0          1          0      )       (  0.0000000 )
                  (     0          0          1      )       (  0.0000000 )

 cart.    s( 4) = ( -1.0000000  0.0000000  0.0000000 )    f =(  0.5000000 )
                  (  0.0000000  1.0000000 -0.0000000 )       (  0.0000000 )
                  (  0.0000000  0.0000000  1.0000000 )       (  0.0000000 )

   Cartesian axes

     site n.     atom                  positions (alat units)
         1           Pb  tau(   1) = (   0.2500000   1.2407841   1.1566128  )
         2           Pb  tau(   2) = (   0.7500000   0.3529616   0.2159119  )
         3           Pb  tau(   3) = (   0.2500000   0.6330071   0.5682499  )
         4           Pb  tau(   4) = (   0.7500000   0.9607387   0.8042747  )
         5           Pb  tau(   5) = (   0.2500000   1.2833129   0.5185453  )
         6           Pb  tau(   6) = (   0.7500000   0.3104329   0.8539793  )
         7           S   tau(   7) = (   0.2500000   0.6614070   1.1764815  )
         8           S   tau(   8) = (   0.7500000   0.9323387   0.1960432  )
         9           O   tau(   9) = (   0.5005370   1.2412758   0.8525492  )
        10           O   tau(  10) = (   0.0005370   0.3524699   0.5199755  )
        11           O   tau(  11) = (   0.4994630   0.3524699   0.5199755  )
        12           O   tau(  12) = (   0.9994630   1.2412758   0.8525492  )
        13           O   tau(  13) = (   0.2500000   0.4787892   0.9952135  )
        14           O   tau(  14) = (   0.7500000   1.1149566   0.3773111  )
        15           O   tau(  15) = (   0.2500000   0.2108072   0.0305716  )
        16           O   tau(  16) = (   0.7500000   1.3829386   1.3419530  )
        17           O   tau(  17) = (   0.5445010   0.7838300   0.2264570  )
        18           O   tau(  18) = (   0.0445010   0.8099157   1.1460677  )
        19           O   tau(  19) = (   0.4554990   0.8099157   1.1460677  )
        20           O   tau(  20) = (   0.9554990   0.7838300   0.2264570  )

   Crystallographic axes

     site n.     atom                  positions (cryst. coord.)
         1           Pb  tau(   1) = (  0.2500000  0.7609280  0.8426900  )
         2           Pb  tau(   2) = (  0.7500000  0.2390720  0.1573100  )
         3           Pb  tau(   3) = (  0.2500000  0.3925620  0.4140180  )
         4           Pb  tau(   4) = (  0.7500000  0.6074380  0.5859820  )
         5           Pb  tau(   5) = (  0.2500000  0.9225050  0.3778040  )
         6           Pb  tau(   6) = (  0.7500000  0.0774950  0.6221960  )
         7           S   tau(   7) = (  0.2500000  0.2936670  0.8571660  )
         8           S   tau(   8) = (  0.7500000  0.7063330  0.1428340  )
         9           O   tau(   9) = (  0.5005370  0.8221130  0.6211540  )
        10           O   tau(  10) = (  0.0005370  0.1778870  0.3788460  )
        11           O   tau(  11) = (  0.4994630  0.1778870  0.3788460  )
        12           O   tau(  12) = (  0.9994630  0.8221130  0.6211540  )
        13           O   tau(  13) = (  0.2500000  0.1838810  0.7250970  )
        14           O   tau(  14) = (  0.7500000  0.8161190  0.2749030  )
        15           O   tau(  15) = (  0.2500000  0.1624560  0.0222740  )
        16           O   tau(  16) = (  0.7500000  0.8375440  0.9777260  )
        17           O   tau(  17) = (  0.5445010  0.5815000  0.1649930  )
        18           O   tau(  18) = (  0.0445010  0.4185000  0.8350070  )
        19           O   tau(  19) = (  0.4554990  0.4185000  0.8350070  )
        20           O   tau(  20) = (  0.9554990  0.5815000  0.1649930  )

     number of k points=     1  Methfessel-Paxton smearing, width (Ry)=  0.0010
                       cart. coord. in units 2pi/alat
        k(    1) = (   0.0000000   0.0000000   0.0000000), wk =   2.0000000

                       cryst. coord.
        k(    1) = (   0.0000000   0.0000000   0.0000000), wk =   2.0000000

     Check: negative core charge=   -0.000009

     Initial potential from superposition of free atoms

     starting charge     167.9858, renormalised to     168.0000
     Starting wfcs are  110 randomized atomic wfcs
     Checking if some PAW data can be deallocated...

     Self-consistent Calculation

     iteration #  1     ecut=    30.00 Ry     beta= 0.70
     Davidson diagonalization with overlap

     ethr =  1.00E-02,  avg # of iterations =  2.0

     total energy              =   -5767.93774636 Ry
     estimated scf accuracy    <       5.45533979 Ry

[...]

     c_bands:  1 eigenvalues not converged
     ethr =  5.68E-05,  avg # of iterations = 20.0

[...]

     total energy              =   -5770.84815296 Ry
     estimated scf accuracy    <       0.00000705 Ry

     iteration # 12     ecut=    30.00 Ry     beta= 0.70
     Davidson diagonalization with overlap

     ethr =  4.19E-09,  avg # of iterations =  5.0

     End of self-consistent calculation

          k = 0.0000 0.0000 0.0000 (  3288 PWs)   bands (ev):

   -17.0585 -17.0422 -13.0334 -13.0314 -12.9973 -12.9822 -12.7856 -12.7544
   -10.9797 -10.8662 -10.8369 -10.7824  -9.2036  -9.1990  -9.1917  -9.1854
    -9.1699  -9.1552  -9.1230  -9.1096  -9.1075  -9.1031  -9.0779  -9.0775
    -9.0771  -9.0467  -9.0345  -9.0138  -8.9394  -8.8988  -8.8864  -8.8383
    -8.8029  -8.7950  -8.7944  -8.7829  -8.7414  -8.7215  -8.7102  -8.3963
    -7.8510  -7.6477  -3.0765  -2.8167  -1.2732  -1.1971  -0.7496  -0.5335
    -0.1990  -0.1566  -0.1367  -0.1018   0.0769   0.2627   0.8268   1.0397
     2.6601   2.6862   2.7602   2.8064   2.9311   2.9994   3.1805   3.2104
     3.5211   3.5562   3.8503   3.8547   3.9889   4.6397   4.6447   4.7095
     5.0947   5.1490   5.2637   5.3896   5.4344   5.5545   5.5664   5.6548
     5.6566   5.8888   5.9477   6.4145   9.3988   9.4453   9.5888  10.3540
    10.3674  10.5912  10.6576  11.5232  11.6344  11.8753  12.3811  12.4840
    12.5278  13.1685  13.2194  13.6499  13.7970

     occupation numbers
     1.0000   1.0000   1.0000   1.0000   1.0000   1.0000   1.0000   1.0000
     1.0000   1.0000   1.0000   1.0000   1.0000   1.0000   1.0000   1.0000
     1.0000   1.0000   1.0000   1.0000   1.0000   1.0000   1.0000   1.0000
     1.0000   1.0000   1.0000   1.0000   1.0000   1.0000   1.0000   1.0000
     1.0000   1.0000   1.0000   1.0000   1.0000   1.0000   1.0000   1.0000
     1.0000   1.0000   1.0000   1.0000   1.0000   1.0000   1.0000   1.0000
     1.0000   1.0000   1.0000   1.0000   1.0000   1.0000   1.0000   1.0000
     1.0000   1.0000   1.0000   1.0000   1.0000   1.0000   1.0000   1.0000
     1.0000   1.0000   1.0000   1.0000   1.0000   1.0000   1.0000   1.0000
     1.0000   1.0000   1.0000   1.0000   1.0000   1.0000   1.0000   1.0000
     1.0000   1.0000   1.0000   1.0000  -0.0000  -0.0000  -0.0000  -0.0000
    -0.0000  -0.0000  -0.0000  -0.0000  -0.0000  -0.0000  -0.0000  -0.0000
    -0.0000  -0.0000  -0.0000  -0.0000  -0.0000

     the Fermi energy is     8.0966 ev

!    total energy              =   -5770.84815464 Ry
     estimated scf accuracy    <       0.00000099 Ry
     smearing contrib. (-TS)   =       0.00000000 Ry
     internal energy E=F+TS    =   -5770.84815464 Ry

     The total energy is F=E-TS. E is the sum of the following terms:
     one-electron contribution =    -423.47418609 Ry
     hartree contribution      =     334.01076026 Ry
     xc contribution           =    -373.24710929 Ry
     ewald contribution        =    -822.92036403 Ry
     one-center paw contrib.   =   -4485.21725549 Ry
      -> PAW hartree energy AE =     943.68249896 Ry
      -> PAW hartree energy PS =    -941.21623208 Ry
      -> PAW xc energy AE      =   -4841.30867916 Ry
      -> PAW xc energy PS      =     353.62515680 Ry
      -> total E_H with PAW    =     336.47702713 Ry
      -> total E_XC with PAW   =   -4860.93063166 Ry

     convergence has been achieved in  12 iterations

     Forces acting on atoms (cartesian axes, Ry/au):

     atom    1 type  1   force =     0.00000000    0.00181429   -0.00663789
     atom    2 type  1   force =     0.00000000   -0.00181429    0.00663789
     atom    3 type  1   force =     0.00000000   -0.00577493   -0.00575337
     atom    4 type  1   force =     0.00000000    0.00577493    0.00575337
     atom    5 type  1   force =     0.00000000    0.01105712    0.00468358
     atom    6 type  1   force =     0.00000000   -0.01105712   -0.00468358
     atom    7 type  2   force =     0.00000000    0.03299474   -0.00119911
     atom    8 type  2   force =     0.00000000   -0.03299474    0.00119911
     atom    9 type  3   force =    -0.01688555    0.00463898    0.00090117
     atom   10 type  3   force =    -0.01688555   -0.00463898   -0.00090117
     atom   11 type  3   force =     0.01688555   -0.00463898   -0.00090117
     atom   12 type  3   force =     0.01688555    0.00463898    0.00090117
     atom   13 type  3   force =     0.00000000   -0.02665905   -0.01468742
     atom   14 type  3   force =     0.00000000    0.02665905    0.01468742
     atom   15 type  3   force =     0.00000000   -0.01073731    0.02617709
     atom   16 type  3   force =     0.00000000    0.01073731   -0.02617709
     atom   17 type  3   force =     0.00482162    0.00162187    0.00343501
     atom   18 type  3   force =     0.00482162   -0.00162187   -0.00343501
     atom   19 type  3   force =    -0.00482162   -0.00162187   -0.00343501
     atom   20 type  3   force =    -0.00482162    0.00162187    0.00343501
     The non-local contrib.  to forces
     atom    1 type  1   force =     0.00000000   -0.10513036   -0.33146070
     atom    2 type  1   force =     0.00000000    0.10513036    0.33146070
     atom    3 type  1   force =     0.00000000   -0.39673003   -0.06969864
     atom    4 type  1   force =     0.00000000    0.39673003    0.06969864
     atom    5 type  1   force =     0.00000000    0.34079019    0.28418514
     atom    6 type  1   force =     0.00000000   -0.34079019   -0.28418514
     atom    7 type  2   force =     0.00000000   -0.00290874   -0.06970626
     atom    8 type  2   force =     0.00000000    0.00290874    0.06970626
     atom    9 type  3   force =     0.25121102   -0.16723061    0.02165896
     atom   10 type  3   force =     0.25121102    0.16723061   -0.02165896
     atom   11 type  3   force =    -0.25121102    0.16723061   -0.02165896
     atom   12 type  3   force =    -0.25121102   -0.16723061    0.02165896
     atom   13 type  3   force =     0.00000000    1.46225877    1.22809479
     atom   14 type  3   force =     0.00000000   -1.46225877   -1.22809479
     atom   15 type  3   force =     0.00000000    0.90459134   -1.93931360
     atom   16 type  3   force =     0.00000000   -0.90459134    1.93931360
     atom   17 type  3   force =     1.67425712    1.05989805   -0.14512318
     atom   18 type  3   force =     1.67425712   -1.05989805    0.14512318
     atom   19 type  3   force =    -1.67425712   -1.05989805    0.14512318
     atom   20 type  3   force =    -1.67425712    1.05989805   -0.14512318
     The ionic contribution  to forces
     atom    1 type  1   force =     0.00000000    3.63538680   13.14506177
     atom    2 type  1   force =     0.00000000   -3.63538680  -13.14506177
     atom    3 type  1   force =     0.00000000   11.52065147   -1.09875645
     atom    4 type  1   force =     0.00000000  -11.52065147    1.09875645
     atom    5 type  1   force =     0.00000000   -9.76987261  -11.42946505
     atom    6 type  1   force =     0.00000000    9.76987261   11.42946505
     atom    7 type  2   force =     0.00000000   -1.44690361    1.71853923
     atom    8 type  2   force =     0.00000000    1.44690361   -1.71853923
     atom    9 type  3   force =    -1.03613345   -0.67193769    1.71626797
     atom   10 type  3   force =    -1.03613345    0.67193769   -1.71626797
     atom   11 type  3   force =     1.03613345    0.67193769   -1.71626797
     atom   12 type  3   force =     1.03613345   -0.67193769    1.71626797
     atom   13 type  3   force =     0.00000000   -5.48098879   -1.62283522
     atom   14 type  3   force =     0.00000000    5.48098879    1.62283522
     atom   15 type  3   force =     0.00000000   -5.94077116    7.51418929
     atom   16 type  3   force =     0.00000000    5.94077116   -7.51418929
     atom   17 type  3   force =    -8.49010537   -2.76962174   -1.08455738
     atom   18 type  3   force =    -8.49010537    2.76962174    1.08455737
     atom   19 type  3   force =     8.49010536    2.76962174    1.08455738
     atom   20 type  3   force =     8.49010536   -2.76962174   -1.08455738
     The local contribution  to forces
     atom    1 type  1   force =    -0.00086173   -3.53419007  -12.83147533
     atom    2 type  1   force =     0.00082404    3.53422432   12.83077757
     atom    3 type  1   force =    -0.00109076  -11.14299152    1.15658749
     atom    4 type  1   force =     0.00112852   11.14366576   -1.15614079
     atom    5 type  1   force =    -0.00124949    9.45486007   11.16267340
     atom    6 type  1   force =     0.00124942   -9.45555231  -11.16182144
     atom    7 type  2   force =    -0.00012040    1.48235119   -1.65539156
     atom    8 type  2   force =     0.00012148   -1.48240485    1.65526006
     atom    9 type  3   force =     0.77079368    0.84189627   -1.73667172
     atom   10 type  3   force =     0.77103722   -0.84193518    1.73686205
     atom   11 type  3   force =    -0.77077406   -0.84192381    1.73676046
     atom   12 type  3   force =    -0.77104206    0.84186103   -1.73674570
     atom   13 type  3   force =    -0.00019609    4.00529966    0.39102420
     atom   14 type  3   force =     0.00020246   -4.00539035   -0.39102611
     atom   15 type  3   force =    -0.00014247    5.03331447   -5.56575201
     atom   16 type  3   force =     0.00014662   -5.03334052    5.56550368
     atom   17 type  3   force =     6.83570138    1.72056957    1.23171215
     atom   18 type  3   force =     6.83558725   -1.72050091   -1.23181457
     atom   19 type  3   force =    -6.83565075   -1.72049143   -1.23174169
     atom   20 type  3   force =    -6.83560013    1.72055377    1.23175583
     The core correction contribution to forces
     atom    1 type  1   force =    -0.00000607    0.00553662    0.01073288
     atom    2 type  1   force =     0.00000612   -0.00553635   -0.01073908
     atom    3 type  1   force =    -0.00000682    0.01338326    0.00581409
     atom    4 type  1   force =     0.00000658   -0.01337581   -0.00580789
     atom    5 type  1   force =    -0.00000703   -0.01517564   -0.01246966
     atom    6 type  1   force =     0.00000582    0.01517008    0.01247999
     atom    7 type  2   force =     0.00000066    0.00058452    0.00558361
     atom    8 type  2   force =    -0.00000104   -0.00058566   -0.00558112
     atom    9 type  3   force =    -0.00290800    0.00182162   -0.00011748
     atom   10 type  3   force =    -0.00290524   -0.00181987    0.00011651
     atom   11 type  3   force =     0.00290847   -0.00182120    0.00011660
     atom   12 type  3   force =     0.00290463    0.00181950   -0.00011664
     atom   13 type  3   force =     0.00000055   -0.01329669   -0.01073619
     atom   14 type  3   force =    -0.00000026    0.01329666    0.01073584
     atom   15 type  3   force =     0.00000012   -0.00783789    0.01700674
     atom   16 type  3   force =    -0.00000005    0.00783768   -0.01700608
     atom   17 type  3   force =    -0.01499886   -0.00927050    0.00116512
     atom   18 type  3   force =    -0.01499868    0.00926945   -0.00116363
     atom   19 type  3   force =     0.01499901    0.00927019   -0.00116367
     atom   20 type  3   force =     0.01499901   -0.00927010    0.00116464
     The Hubbard contrib.    to forces
     atom    1 type  1   force =     0.00000000    0.00000000    0.00000000
     atom    2 type  1   force =     0.00000000    0.00000000    0.00000000
     atom    3 type  1   force =     0.00000000    0.00000000    0.00000000
     atom    4 type  1   force =     0.00000000    0.00000000    0.00000000
     atom    5 type  1   force =     0.00000000    0.00000000    0.00000000
     atom    6 type  1   force =     0.00000000    0.00000000    0.00000000
     atom    7 type  2   force =     0.00000000    0.00000000    0.00000000
     atom    8 type  2   force =     0.00000000    0.00000000    0.00000000
     atom    9 type  3   force =     0.00000000    0.00000000    0.00000000
     atom   10 type  3   force =     0.00000000    0.00000000    0.00000000
     atom   11 type  3   force =     0.00000000    0.00000000    0.00000000
     atom   12 type  3   force =     0.00000000    0.00000000    0.00000000
     atom   13 type  3   force =     0.00000000    0.00000000    0.00000000
     atom   14 type  3   force =     0.00000000    0.00000000    0.00000000
     atom   15 type  3   force =     0.00000000    0.00000000    0.00000000
     atom   16 type  3   force =     0.00000000    0.00000000    0.00000000
     atom   17 type  3   force =     0.00000000    0.00000000    0.00000000
     atom   18 type  3   force =     0.00000000    0.00000000    0.00000000
     atom   19 type  3   force =     0.00000000    0.00000000    0.00000000
     atom   20 type  3   force =     0.00000000    0.00000000    0.00000000
     The SCF correction term to forces
     atom    1 type  1   force =     0.00091074    0.00020511    0.00049132
     atom    2 type  1   force =    -0.00086942   -0.00025201    0.00018829
     atom    3 type  1   force =     0.00115079   -0.00008912    0.00029332
     atom    4 type  1   force =    -0.00118241   -0.00059459   -0.00075987
     atom    5 type  1   force =     0.00133498    0.00046093   -0.00024307
     atom    6 type  1   force =    -0.00134780    0.00024850   -0.00062485
     atom    7 type  2   force =     0.00013555   -0.00013958   -0.00018941
     atom    8 type  2   force =    -0.00014833    0.00017246    0.00038787
     atom    9 type  3   force =     0.00006697    0.00014945   -0.00028380
     atom   10 type  3   force =    -0.00001358   -0.00000809    0.00001420
     atom   11 type  3   force =    -0.00006195   -0.00009967    0.00013844
     atom   12 type  3   force =    -0.00001148    0.00007341   -0.00015942
     atom   13 type  3   force =     0.00024490    0.00007365   -0.00025934
     atom   14 type  3   force =    -0.00024454    0.00002837    0.00021292
     atom   15 type  3   force =     0.00016166   -0.00002665    0.00006069
     atom   16 type  3   force =    -0.00016853    0.00006776    0.00021504
     atom   17 type  3   force =    -0.00003491    0.00001994    0.00029175
     atom   18 type  3   force =     0.00009358   -0.00014616   -0.00009575
     atom   19 type  3   force =    -0.00000695   -0.00011113   -0.00018101
     atom   20 type  3   force =    -0.00006989    0.00006955    0.00021246

     Total force =     0.086779     Total SCF correction =     0.003326

     Computing stress (Cartesian axis) and pressure

          total   stress  (Ry/bohr**3)                   (kbar)     P=     -230.09
  -0.00140743   0.00000000   0.00000000         -207.04        0.00        0.00
   0.00000000  -0.00162876  -0.00001946            0.00     -239.60       -2.86
   0.00000000  -0.00001946  -0.00165610            0.00       -2.86     -243.62

     kinetic stress (kbar)  17280.58      0.00      0.00
                                0.00  17147.03     14.41
                                0.00     14.41  17183.54

     local   stress (kbar)  -7649.47     -0.03     -0.07
                               -0.03  -4613.18   3308.43
                               -0.07   3308.43  -1509.05

     nonloc. stress (kbar)   2283.25      0.00      0.00
                                0.00   2270.88      4.05
                                0.00      4.05   2262.62

     hartree stress (kbar)   8265.30      0.02      0.06
                                0.02   6889.33  -1407.88
                                0.06  -1407.88   5624.39

     exc-cor stress (kbar)   6522.94     -0.00     -0.00
                               -0.00   6521.99     -1.57
                               -0.00     -1.57   6520.43

     corecor stress (kbar) -11500.13      0.00      0.00
                                0.00 -11497.99      0.66
                                0.00      0.66 -11498.32

     ewald   stress (kbar) -15409.51     -0.00     -0.00
                               -0.00 -16957.67  -1920.97
                               -0.00  -1920.97 -18827.22

     hubbard stress (kbar)      0.00      0.00      0.00
                                0.00      0.00      0.00
                                0.00      0.00      0.00

     DFT-D   stress (kbar)      0.00      0.00      0.00
                                0.00      0.00      0.00
                                0.00      0.00      0.00

     XDM     stress (kbar)      0.00      0.00      0.00
                                0.00      0.00      0.00
                                0.00      0.00      0.00

     dft-nl  stress (kbar)      0.00      0.00      0.00
                                0.00      0.00      0.00
                                0.00      0.00      0.00

     TS-vdW  stress (kbar)      0.00      0.00      0.00
                                0.00      0.00      0.00
                                0.00      0.00      0.00

[...]

                                0.00      0.00      0.00

     Writing all to output data dir new_calculations/myprefix.save/

     General routines

     Parallel routines

     PAW routines

   This run was terminated on:   1:23:50  21May2023

   JOB DONE.