     Program PWSCF v.7.0 starts on 20May2023 at 20: 8: 0

     Reading input from espresso_25074.pwi
Warning: card &CELL ignored
Warning: card / ignored

     Current dimensions of program PWSCF are:
     Max number of different atomic species (ntypx) = 10
     Max number of k-points (npk) =  40000
     Max angular momentum in pseudopotentials (lmaxx) =  4

     gamma-point specific algorithms are used
     Message from routine setup:
     using ibrav=0 with symmetry is DISCOURAGED, use correct ibrav instead

     Subspace diagonalization in iterative solution of the eigenvalue problem:
     a serial algorithm will be used

     Using Slab Decomposition

     bravais-lattice index     =            0
     lattice parameter (alat)  =      13.3987  a.u.
     unit-cell volume          =    1804.9327 (a.u.)^3
     number of atoms/cell      =            8
     number of atomic types    =            4
     number of electrons       =        79.00
     number of Kohn-Sham states=           48
     kinetic-energy cutoff     =      30.0000  Ry
     charge density cutoff     =     240.0000  Ry
     scf convergence threshold =      1.0E-06
     mixing beta               =       0.7000
     number of iterations used =            8  plain     mixing
     Exchange-correlation= SLA  PW   PBE  PBE
                           (   1   4   3   4   0   0   0)

     celldm(1)=  13.398655  celldm(2)=   0.000000  celldm(3)=   0.000000
     celldm(4)=   0.000000  celldm(5)=   0.000000  celldm(6)=   0.000000

     crystal axes: (cart. coord. in units of alat)
               a(1) = (   1.000000   0.000000   0.000000 )
               a(2) = (  -0.498499   0.866890   0.000000 )
               a(3) = (  -0.250751  -0.433445   0.865592 )

     reciprocal axes: (cart. coord. in units 2 pi/alat)
               b(1) = (  1.000000  0.575042  0.577639 )
               b(2) = (  0.000000  1.153548  0.577639 )
               b(3) = (  0.000000  0.000000  1.155279 )

     PseudoPot. # 1 for Mn read from file:
     /home/pragov/projects/rrg-bengioy-ad/pragov/crystal_structure_design/SSSP/mn_pbe_v1.5.uspp.F.UPF
     MD5 check sum: 82ef2b46521d7a7d9e736dc3972e4928
     Pseudo is Ultrasoft + core correction, Zval = 15.0
     Generated by new atomic code, or converted to UPF format
     Using radial grid of  859 points,  6 beta functions with:
                l(1) =   0
                l(2) =   0
                l(3) =   1
                l(4) =   1
                l(5) =   2
                l(6) =   2
     Q(r) pseudized with  8 coefficients,  rinner =    0.950   0.950   0.950
                                                       0.950   0.950

     PseudoPot. # 2 for Tl read from file:
     /home/pragov/projects/rrg-bengioy-ad/pragov/crystal_structure_design/SSSP/Tl_pbe_v1.2.uspp.F.UPF
     MD5 check sum: b76cf1f7e72655a2b2c53cf6385d7059
     Pseudo is Ultrasoft + core correction, Zval = 13.0
     Generated by new atomic code, or converted to UPF format
     Using radial grid of  899 points,  6 beta functions with:
                l(1) =   0
                l(2) =   0
                l(3) =   1
                l(4) =   1
                l(5) =   2
                l(6) =   2
     Q(r) pseudized with  6 coefficients,  rinner =    1.100   1.100   1.100
                                                       1.100   1.100

     PseudoPot. # 3 for Sn read from file:
     /home/pragov/projects/rrg-bengioy-ad/pragov/crystal_structure_design/SSSP/Sn_pbe_v1.uspp.F.UPF
     MD5 check sum: 4cf58ce39ec5d5d420df3dd08604eb00
     Pseudo is Ultrasoft + core correction, Zval = 14.0
     Generated by new atomic code, or converted to UPF format
     Using radial grid of  891 points,  6 beta functions with:
                l(1) =   0
                l(2) =   0
                l(3) =   1
                l(4) =   1
                l(5) =   2
                l(6) =   2
     Q(r) pseudized with  6 coefficients,  rinner =    1.200   1.200   1.200
                                                       1.200   1.200

     PseudoPot. # 4 for Te read from file:
     /home/pragov/projects/rrg-bengioy-ad/pragov/crystal_structure_design/SSSP/Te_pbe_v1.uspp.F.UPF
     MD5 check sum: c319670d6894cc26e93307826a071b75
     Pseudo is Ultrasoft + core correction, Zval =  6.0
     Generated by new atomic code, or converted to UPF format
     Using radial grid of  891 points,  5 beta functions with:
                l(1) =   0
                l(2) =   0
                l(3) =   1
                l(4) =   1
                l(5) =   2
     Q(r) pseudized with  6 coefficients,  rinner =    1.800   1.800   1.800
                                                       1.800   1.800

     atomic species   valence    mass     pseudopotential
        Mn            15.00    54.93804     Mn( 1.00)
        Tl            13.00   204.38000     Tl( 1.00)
        Sn            14.00   118.71000     Sn( 1.00)
        Te             6.00   127.60000     Te( 1.00)

      2 Sym. Ops. (no inversion) found

                                    s                        frac. trans.

      isym =  1     identity

 cryst.   s( 1) = (     1          0          0      )
                  (     0          1          0      )
                  (     0          0          1      )

 cart.    s( 1) = (  1.0000000 -0.0000000  0.0000000 )
                  (  0.0000000  1.0000000  0.0000000 )
                  (  0.0000000  0.0000000  1.0000000 )

      isym =  2     inv. 180 deg rotation - cart. axis [0,0,1]

 cryst.   s( 2) = (     1          0          0      )
                  (     0          1          0      )
                  (    -1         -1         -1      )

 cart.    s( 2) = (  1.0000000 -0.0000000 -0.0000000 )
                  (  0.0000000  1.0000000 -0.0000000 )
                  (  0.0000000  0.0000000 -1.0000000 )

   Cartesian axes

     site n.     atom                  positions (alat units)
         1           Mn  tau(   1) = (   0.2507507   0.4334452   0.0000000  )
         2           Tl  tau(   2) = (   0.3746247  -0.2167226   0.4327959  )
         3           Tl  tau(   3) = (  -0.3746247   0.2167226   0.4327959  )
         4           Sn  tau(   4) = (   0.0000000   0.0000000   0.0000000  )
         5           Te  tau(   5) = (   0.1235213   0.2135177   0.5608239  )
         6           Te  tau(   6) = (   0.3910341   0.0673149   0.0000000  )
         7           Te  tau(   7) = (   0.3742720   0.6469630   0.3047680  )
         8           Te  tau(   8) = (  -0.1365753   0.3725401   0.0000000  )

   Crystallographic axes

     site n.     atom                  positions (cryst. coord.)
         1           Mn  tau(   1) = (  0.5000000  0.5000000  0.0000000  )
         2           Tl  tau(   2) = (  0.5000000 -0.0000000  0.5000000  )
         3           Tl  tau(   3) = (  0.0000000  0.5000000  0.5000000  )
         4           Sn  tau(   4) = (  0.0000000  0.0000000  0.0000000  )
         5           Te  tau(   5) = (  0.5702570  0.5702570  0.6479080  )
         6           Te  tau(   6) = (  0.4297430  0.0776510  0.0000000  )
         7           Te  tau(   7) = (  0.9223490  0.9223490  0.3520920  )
         8           Te  tau(   8) = (  0.0776510  0.4297430  0.0000000  )

     number of k points=     1  Methfessel-Paxton smearing, width (Ry)=  0.0010
                       cart. coord. in units 2pi/alat
        k(    1) = (   0.0000000   0.0000000   0.0000000), wk =   2.0000000

                       cryst. coord.
        k(    1) = (   0.0000000   0.0000000   0.0000000), wk =   2.0000000

     Check: negative core charge=   -0.000004

     Initial potential from superposition of free atoms

     starting charge      77.4893, renormalised to      79.0000

     negative rho (up, down):  9.816E-02 0.000E+00
     Starting wfcs are   56 randomized atomic wfcs

     Self-consistent Calculation

     iteration #  1     ecut=    30.00 Ry     beta= 0.70
     Davidson diagonalization with overlap

     ethr =  1.00E-02,  avg # of iterations =  3.0

     negative rho (up, down):  9.491E-02 0.000E+00

     total energy              =    -770.05644117 Ry
     estimated scf accuracy    <       1.41260120 Ry

[...]

     total energy              =    -771.20941214 Ry
     estimated scf accuracy    <       0.00000112 Ry

     iteration # 29     ecut=    30.00 Ry     beta= 0.70
     Davidson diagonalization with overlap

     ethr =  1.42E-09,  avg # of iterations =  1.0

[...]

     End of self-consistent calculation

          k = 0.0000 0.0000 0.0000 (  2504 PWs)   bands (ev):

   -72.3343 -41.1835 -40.9909 -40.7696 -15.8393 -15.8279 -15.8083 -15.6480
   -15.4963  -5.4783  -4.7102  -4.5598  -4.3732  -4.3475  -4.1960  -4.1362
    -4.1011  -4.0737  -4.0574  -4.0209  -3.9551  -3.8935  -3.7967  -0.7521
     1.2104   1.9387   2.0543   2.3389   2.4974   3.2285   3.2552   3.6716
     3.8450   3.8821   4.3985   4.8823   5.0653   6.1149   6.6063   6.6136
     6.6663   6.8259   7.9346   9.2804   9.4019   9.5510  10.2463  10.6072

     occupation numbers
     1.0000   1.0000   1.0000   1.0000   1.0000   1.0000   1.0000   1.0000
     1.0000   1.0000   1.0000   1.0000   1.0000   1.0000   1.0000   1.0000
     1.0000   1.0000   1.0000   1.0000   1.0000   1.0000   1.0000   1.0000
     1.0000   1.0000   1.0000   1.0000   1.0000   1.0000   1.0000   1.0000
     1.0000   1.0000   1.0000   1.0000   1.0000   1.0000   0.9294   0.5706
    -0.0000  -0.0000  -0.0000  -0.0000  -0.0000  -0.0000  -0.0000  -0.0000

     the Fermi energy is     6.6147 ev

!    total energy              =    -771.20941212 Ry
     estimated scf accuracy    <       0.00000017 Ry
     smearing contrib. (-TS)   =      -0.00031988 Ry
     internal energy E=F+TS    =    -771.20909223 Ry

     The total energy is F=E-TS. E is the sum of the following terms:
     one-electron contribution =    -335.50219281 Ry
     hartree contribution      =     208.43765313 Ry
     xc contribution           =    -255.87278737 Ry
     ewald contribution        =    -388.27176517 Ry

     convergence has been achieved in  29 iterations

     negative rho (up, down):  9.439E-02 0.000E+00

     Forces acting on atoms (cartesian axes, Ry/au):

     atom    1 type  1   force =    -0.00529442    0.00203186    0.00000000
     atom    2 type  2   force =     0.00196768   -0.00447634   -0.00914792
     atom    3 type  2   force =     0.00196768   -0.00447634    0.00914792
     atom    4 type  3   force =     0.02023201   -0.01283543    0.00000000
     atom    5 type  4   force =    -0.01797622   -0.01264497    0.06236429
     atom    6 type  4   force =    -0.12814376   -0.12574490    0.00000000
     atom    7 type  4   force =    -0.01797622   -0.01264497   -0.06236429
     atom    8 type  4   force =     0.14522326    0.17079110   -0.00000000
     The non-local contrib.  to forces
     atom    1 type  1   force =    -0.03182291    0.03430628   -0.00000000
     atom    2 type  2   force =     0.00767461   -0.00359396    0.01907564
     atom    3 type  2   force =     0.00767461   -0.00359396   -0.01907564
     atom    4 type  3   force =    -0.01339952   -0.00063006    0.00000000
     atom    5 type  4   force =     0.02346317    0.02478702   -0.20239253
     atom    6 type  4   force =     0.01498222   -0.33550698    0.00000000
     atom    7 type  4   force =     0.02346317    0.02478702    0.20239253
     atom    8 type  4   force =    -0.04254780    0.29607083   -0.00000000
     The ionic contribution  to forces
     atom    1 type  1   force =     0.00000000    0.00000000    0.00000000
     atom    2 type  2   force =     0.00000000    0.00000000   -0.00000000
     atom    3 type  2   force =     0.00000000   -0.00000000   -0.00000000
     atom    4 type  3   force =    -0.00000000   -0.00000000   -0.00000000
     atom    5 type  4   force =     0.13146648    0.22725169   -4.08805689
     atom    6 type  4   force =     3.40712238   -2.27434671    0.00000000
     atom    7 type  4   force =     0.13146648    0.22725169    4.08805689
     atom    8 type  4   force =    -3.67005534    1.81984332    0.00000000
     The local contribution  to forces
     atom    1 type  1   force =     0.02154770   -0.02680669    0.10936016
     atom    2 type  2   force =    -0.01172593   -0.01237430   -0.03249706
     atom    3 type  2   force =    -0.00460885    0.01863729    0.02279139
     atom    4 type  3   force =     0.03127857   -0.01045017    0.00466376
     atom    5 type  4   force =    -0.15867732   -0.29068644    4.40857533
     atom    6 type  4   force =    -3.58183911    2.51000287   -0.06838657
     atom    7 type  4   force =    -0.19548732   -0.22979485   -4.37467245
     atom    8 type  4   force =     3.88174294   -1.96587588   -0.00099928
     The core correction contribution to forces
     atom    1 type  1   force =     0.00207168   -0.00222325    0.01258331
     atom    2 type  2   force =    -0.00512941   -0.00672961   -0.00005976
     atom    3 type  2   force =     0.00389693    0.00545389    0.00105646
     atom    4 type  3   force =    -0.00057896    0.00158818    0.00011653
     atom    5 type  4   force =    -0.00007629    0.00129479   -0.03997812
     atom    6 type  4   force =     0.02853393   -0.02249695    0.00685831
     atom    7 type  4   force =     0.00239265   -0.00354663    0.03757015
     atom    8 type  4   force =    -0.02693452    0.02411564   -0.00046358
     The Hubbard contrib.    to forces
     atom    1 type  1   force =     0.00000000    0.00000000    0.00000000
     atom    2 type  2   force =     0.00000000    0.00000000    0.00000000
     atom    3 type  2   force =     0.00000000    0.00000000    0.00000000
     atom    4 type  3   force =     0.00000000    0.00000000    0.00000000
     atom    5 type  4   force =     0.00000000    0.00000000    0.00000000
     atom    6 type  4   force =     0.00000000    0.00000000    0.00000000
     atom    7 type  4   force =     0.00000000    0.00000000    0.00000000
     atom    8 type  4   force =     0.00000000    0.00000000    0.00000000
     The SCF correction term to forces
     atom    1 type  1   force =    -0.00012825    0.00010950    0.00001005
     atom    2 type  2   force =     0.00007744   -0.00001635    0.00001019
     atom    3 type  2   force =     0.00000123   -0.00002771    0.00005266
     atom    4 type  3   force =    -0.00010545    0.00001060   -0.00002796
     atom    5 type  4   force =    -0.00002082    0.00004615   -0.00003593
     atom    6 type  4   force =     0.00001946   -0.00004315    0.00001468
     atom    7 type  4   force =    -0.00001736    0.00002757    0.00003616
     atom    8 type  4   force =    -0.00001938   -0.00000883   -0.00001016

     Total force =     0.303411     Total SCF correction =     0.000244

     Computing stress (Cartesian axis) and pressure

     negative rho (up, down):  9.439E-02 0.000E+00
          total   stress  (Ry/bohr**3)                   (kbar)     P=       49.89
  -0.00058468   0.00028189   0.00000000          -86.01       41.47        0.00
   0.00028189   0.00136212  -0.00000000           41.47      200.37       -0.00
   0.00000000  -0.00000000   0.00024004            0.00       -0.00       35.31

     kinetic stress (kbar)   6037.58     37.91     -0.00
                               37.91   6238.62     -0.00
                               -0.00     -0.00   6112.54

     local   stress (kbar)   1466.36  -3220.06     36.91
                            -3220.06  -2039.72     -9.56
                               36.91     -9.56   3447.31

     nonloc. stress (kbar)   1283.16     -6.46     -0.00
                               -6.46   1215.15     -0.00
                               -0.00     -0.00   1250.25

     hartree stress (kbar)   5430.92   1352.69     -0.57
                             1352.69   6936.04     10.76
                               -0.57     10.76   4621.06

     exc-cor stress (kbar)  10712.23      1.77      0.02
                                1.77  10713.14      0.14
                                0.02      0.14  10710.85

     corecor stress (kbar) -14109.95     -3.56     -3.08
                               -3.56 -14117.77     -2.87
                               -3.08     -2.87 -14113.28

     ewald   stress (kbar) -10906.30   1879.18     -0.00
                             1879.18  -8745.09     -0.00
                               -0.00     -0.00 -11993.42

     hubbard stress (kbar)      0.00      0.00      0.00
                                0.00      0.00      0.00
                                0.00      0.00      0.00

     DFT-D   stress (kbar)      0.00      0.00      0.00
                                0.00      0.00      0.00
                                0.00      0.00      0.00

     XDM     stress (kbar)      0.00      0.00      0.00
                                0.00      0.00      0.00
                                0.00      0.00      0.00

     dft-nl  stress (kbar)      0.00      0.00      0.00
                                0.00      0.00      0.00
                                0.00      0.00      0.00

     TS-vdW  stress (kbar)      0.00      0.00      0.00
                                0.00      0.00      0.00
                                0.00      0.00      0.00

[...]

                                0.00      0.00      0.00

     Writing all to output data dir new_calculations/myprefix.save/

     General routines

     Parallel routines

   This run was terminated on:  20: 8:53  20May2023

   JOB DONE.