     Program PWSCF v.7.0 starts on 21May2023 at  5:50:51

     Reading input from espresso_3093.pwi
Warning: card &CELL ignored
Warning: card / ignored

     Current dimensions of program PWSCF are:
     Max number of different atomic species (ntypx) = 10
     Max number of k-points (npk) =  40000
     Max angular momentum in pseudopotentials (lmaxx) =  4
     file Al.pbe-n-kjpaw_psl.1.0.0.UPF: wavefunction(s)  3S 3P renormalized

     gamma-point specific algorithms are used

     Subspace diagonalization in iterative solution of the eigenvalue problem:
     a serial algorithm will be used

     Using Slab Decomposition

     bravais-lattice index     =            0
     lattice parameter (alat)  =      10.8377  a.u.
     unit-cell volume          =    2374.4231 (a.u.)^3
     number of atoms/cell      =           16
     number of atomic types    =            3
     number of electrons       =       174.00
     number of Kohn-Sham states=          104
     kinetic-energy cutoff     =      30.0000  Ry
     charge density cutoff     =     240.0000  Ry
     scf convergence threshold =      1.0E-06
     mixing beta               =       0.7000
     number of iterations used =            8  plain     mixing
     Exchange-correlation=  SLA  PW   PBX  PBC
                           (   1   4   3   4   0   0   0)

     celldm(1)=  10.837664  celldm(2)=   0.000000  celldm(3)=   0.000000
     celldm(4)=   0.000000  celldm(5)=   0.000000  celldm(6)=   0.000000

     crystal axes: (cart. coord. in units of alat)
               a(1) = (   1.000000   0.000000   0.000000 )
               a(2) = (   0.000003   1.467478   0.000000 )
               a(3) = (  -0.000003   0.733349   1.271099 )

     reciprocal axes: (cart. coord. in units 2 pi/alat)
               b(1) = (  1.000000 -0.000002  0.000003 )
               b(2) = (  0.000000  0.681441 -0.393151 )
               b(3) = (  0.000000  0.000000  0.786721 )

     PseudoPot. # 1 for Zr read from file:
     /home/pragov/projects/rrg-bengioy-ad/pragov/crystal_structure_design/SSSP/Zr_pbe_v1.uspp.F.UPF
     MD5 check sum: 5db81b1e868ab7776c4564c113de050b
     Pseudo is Ultrasoft + core correction, Zval = 12.0
     Generated by new atomic code, or converted to UPF format
     Using radial grid of  887 points,  6 beta functions with:
                l(1) =   0
                l(2) =   0
                l(3) =   1
                l(4) =   1
                l(5) =   2
                l(6) =   2
     Q(r) pseudized with  6 coefficients,  rinner =    1.200   1.200   1.200
                                                       1.200   1.200

     PseudoPot. # 2 for Al read from file:
     /home/pragov/projects/rrg-bengioy-ad/pragov/crystal_structure_design/SSSP/Al.pbe-n-kjpaw_psl.1.0.0.UPF
     MD5 check sum: cfc449ca30b5f3223ec38ddd88ac046d
     Pseudo is Projector augmented-wave + core cor, Zval =  3.0
     Generated using "atomic" code by A. Dal Corso  v.5.1
     Shape of augmentation charge: PSQ
     Using radial grid of 1135 points,  6 beta functions with:
                l(1) =   0
                l(2) =   0
                l(3) =   1
                l(4) =   1
                l(5) =   2
                l(6) =   2
     Q(r) pseudized with 0 coefficients

     PseudoPot. # 3 for Sb read from file:
     /home/pragov/projects/rrg-bengioy-ad/pragov/crystal_structure_design/SSSP/sb_pbe_v1.4.uspp.F.UPF
     MD5 check sum: 9bc50dfb53373b713f5709b9110fe27f
     Pseudo is Ultrasoft + core correction, Zval = 15.0
     Generated by new atomic code, or converted to UPF format
     Using radial grid of  891 points,  6 beta functions with:
                l(1) =   0
                l(2) =   0
                l(3) =   1
                l(4) =   1
                l(5) =   2
                l(6) =   2
     Q(r) pseudized with  8 coefficients,  rinner =    1.350   1.350   1.350
                                                       1.350   1.350

     atomic species   valence    mass     pseudopotential
        Zr            12.00    91.22400     Zr( 1.00)
        Al             3.00    26.98154     Al( 1.00)
        Sb            15.00   121.76000     Sb( 1.00)

     No symmetry found

                                    s                        frac. trans.

      isym =  1     identity

 cryst.   s( 1) = (     1          0          0      )
                  (     0          1          0      )
                  (     0          0          1      )

 cart.    s( 1) = (  1.0000000 -0.0000000 -0.0000000 )
                  (  0.0000000  1.0000000  0.0000000 )
                  (  0.0000000  0.0000000  1.0000000 )

   Cartesian axes

     site n.     atom                  positions (alat units)
         1           Zr  tau(   1) = (   0.5061190   0.7336269   0.4236775  )
         2           Zr  tau(   2) = (   0.5061189   1.4672289   0.8473729  )
         3           Zr  tau(   3) = (   0.9938809   1.4672377   0.8473602  )
         4           Zr  tau(   4) = (   0.9938810   0.7336335   0.4236636  )
         5           Zr  tau(   5) = (   0.7499946   0.9166181   0.9537803  )
         6           Zr  tau(   6) = (   0.7500060   1.1012384   0.0000102  )
         7           Zr  tau(   7) = (   0.7500060   1.6504924   0.3172345  )
         8           Zr  tau(   8) = (   0.2499973   1.2843720   0.3170374  )
         9           Zr  tau(   9) = (   0.2500027   0.3659642   0.0000051  )
        10           Zr  tau(  10) = (   0.2500026   2.0179386   0.9541108  )
        11           Al  tau(  11) = (   0.7499936   1.1818164   0.4946061  )
        12           Al  tau(  12) = (   0.7500013   1.3043592   1.2710898  )
        13           Al  tau(  13) = (   0.7500013   0.4480039   0.7764977  )
        14           Sb  tau(  14) = (   0.2499924   1.0218533   0.7715722  )
        15           Sb  tau(  15) = (   0.2500046   0.8906303   0.0000102  )
        16           Sb  tau(  16) = (   0.2500046   1.7557405   0.4996587  )

   Crystallographic axes

     site n.     atom                  positions (cryst. coord.)
         1           Zr  tau(   1) = (  0.5061190  0.3333540  0.3333160  )
         2           Zr  tau(   2) = (  0.5061190  0.6666840  0.6666460  )
         3           Zr  tau(   3) = (  0.9938810  0.6666950  0.6666360  )
         4           Zr  tau(   4) = (  0.9938810  0.3333640  0.3333050  )
         5           Zr  tau(   5) = (  0.7499960  0.2496410  0.7503590  )
         6           Zr  tau(   6) = (  0.7500040  0.7504250  0.0000080  )
         7           Zr  tau(   7) = (  0.7500040  0.9999920  0.2495750  )
         8           Zr  tau(   8) = (  0.2499960  0.7505800  0.2494200  )
         9           Zr  tau(   9) = (  0.2500020  0.2493810  0.0000040  )
        10           Zr  tau(  10) = (  0.2500020  0.9999960  0.7506190  )
        11           Al  tau(  11) = (  0.7499930  0.6108830  0.3891170  )
        12           Al  tau(  12) = (  0.7500030  0.3891130  0.9999930  )
        13           Al  tau(  13) = (  0.7500030  0.0000070  0.6108870  )
        14           Sb  tau(  14) = (  0.2499930  0.3929880  0.6070120  )
        15           Sb  tau(  15) = (  0.2500030  0.6069080  0.0000080  )
        16           Sb  tau(  16) = (  0.2500030  0.9999920  0.3930920  )

     number of k points=     1  Methfessel-Paxton smearing, width (Ry)=  0.0010
                       cart. coord. in units 2pi/alat
        k(    1) = (   0.0000000   0.0000000   0.0000000), wk =   2.0000000

                       cryst. coord.
        k(    1) = (   0.0000000   0.0000000   0.0000000), wk =   2.0000000

     Check: negative core charge=   -0.000004

     Initial potential from superposition of free atoms

     starting charge     170.9716, renormalised to     174.0000

     negative rho (up, down):  6.175E-01 0.000E+00
     Starting wfcs are  169 randomized atomic wfcs
     Checking if some PAW data can be deallocated...

     Self-consistent Calculation

     iteration #  1     ecut=    30.00 Ry     beta= 0.70
     Davidson diagonalization with overlap

     ethr =  1.00E-02,  avg # of iterations =  2.0

     negative rho (up, down):  6.118E-01 0.000E+00

     total energy              =   -1663.82069773 Ry
     estimated scf accuracy    <       3.32958114 Ry

[...]

     total energy              =   -1665.72096101 Ry
     estimated scf accuracy    <       0.00003234 Ry

     iteration # 15     ecut=    30.00 Ry     beta= 0.70
     Davidson diagonalization with overlap

     ethr =  1.86E-08,  avg # of iterations =  2.0

[...]

     End of self-consistent calculation

          k = 0.0000 0.0000 0.0000 (  3316 PWs)   bands (ev):

   -36.1691 -36.1610 -36.1601 -36.0580 -36.0524 -36.0514 -35.1691 -35.1688
   -35.0049 -35.0046 -15.9862 -15.9855 -15.9683 -15.9601 -15.9546 -15.9539
   -15.9532 -15.9523 -15.9474 -15.9210 -15.9203 -15.9177 -15.9096 -15.9056
   -15.9047 -14.3608 -14.2882 -14.2692 -14.2685 -14.2242 -14.2237 -14.1738
   -14.1571 -14.1565 -14.1142 -14.1019 -14.1014 -14.0977 -14.0971 -14.0497
   -13.9075 -13.9066 -13.8687 -13.6236 -13.6062 -13.3595 -13.3594 -13.3556
   -13.3556 -13.1999 -13.1998 -13.1831 -13.1829 -12.3194 -12.3155   2.5192
     3.2828   3.2835   7.5129   7.7011   7.7018   8.4105   8.9359   9.1712
     9.1714   9.2661   9.8072   9.8077  10.0851  10.0863  10.6489  10.6498
    11.1960  11.7223  11.8758  11.8760  11.8972  11.9444  11.9454  12.0119
    12.0141  12.0931  12.2755  12.3704  12.3709  12.7348  12.7639  13.3202
    13.3606  13.3614  13.3650  13.3681  13.6396  14.1444  14.1448  14.4657
    15.0936  15.0948  15.1434  15.1443  15.4988  15.7060  15.7069  15.7989

     occupation numbers
     1.0000   1.0000   1.0000   1.0000   1.0000   1.0000   1.0000   1.0000
     1.0000   1.0000   1.0000   1.0000   1.0000   1.0000   1.0000   1.0000
     1.0000   1.0000   1.0000   1.0000   1.0000   1.0000   1.0000   1.0000
     1.0000   1.0000   1.0000   1.0000   1.0000   1.0000   1.0000   1.0000
     1.0000   1.0000   1.0000   1.0000   1.0000   1.0000   1.0000   1.0000
     1.0000   1.0000   1.0000   1.0000   1.0000   1.0000   1.0000   1.0000
     1.0000   1.0000   1.0000   1.0000   1.0000   1.0000   1.0000   1.0000
     1.0000   1.0000   1.0000   1.0000   1.0000   1.0000   1.0000   1.0000
     1.0000   1.0000   1.0000   1.0000   1.0000   1.0000   1.0000   1.0000
     1.0000   1.0000   1.0000   1.0000   1.0000   1.0000   1.0000   1.0000
     1.0000   1.0000   1.0000   1.0000   1.0000   1.0000   1.0000  -0.0000
    -0.0000  -0.0000  -0.0000  -0.0000  -0.0000  -0.0000  -0.0000  -0.0000
    -0.0000  -0.0000  -0.0000  -0.0000  -0.0000  -0.0000  -0.0000  -0.0000

     the Fermi energy is    13.0781 ev

!    total energy              =   -1665.72096396 Ry
     estimated scf accuracy    <       0.00000089 Ry
     smearing contrib. (-TS)   =       0.00000000 Ry
     internal energy E=F+TS    =   -1665.72096396 Ry

     The total energy is F=E-TS. E is the sum of the following terms:
     one-electron contribution =    -485.98870101 Ry
     hartree contribution      =     321.22713219 Ry
     xc contribution           =    -318.14993839 Ry
     ewald contribution        =   -1078.71799332 Ry
     one-center paw contrib.   =    -104.09146344 Ry
      -> PAW hartree energy AE =       4.47826523 Ry
      -> PAW hartree energy PS =      -4.46125325 Ry
      -> PAW xc energy AE      =    -109.94208658 Ry
      -> PAW xc energy PS      =       5.83361115 Ry
      -> total E_H with PAW    =     321.24414417 Ry
      -> total E_XC with PAW   =    -422.25841381 Ry

     convergence has been achieved in  15 iterations

     negative rho (up, down):  6.200E-01 0.000E+00

     Forces acting on atoms (cartesian axes, Ry/au):

     atom    1 type  1   force =    -0.02103247   -0.00004246    0.00008409
     atom    2 type  1   force =    -0.02101502    0.00014353   -0.00006377
     atom    3 type  1   force =     0.02100539    0.00010678    0.00001008
     atom    4 type  1   force =     0.02104059   -0.00007791    0.00014131
     atom    5 type  1   force =     0.00000702    0.00529978   -0.00942601
     atom    6 type  1   force =    -0.00002209   -0.01084800   -0.00002873
     atom    7 type  1   force =    -0.00000359    0.00552178    0.00947375
     atom    8 type  1   force =    -0.00000398    0.00208081   -0.00367075
     atom    9 type  1   force =    -0.00001351   -0.00429890    0.00020176
     atom   10 type  1   force =    -0.00000394    0.00207185    0.00368876
     atom   11 type  2   force =     0.00000293   -0.01318253    0.02287893
     atom   12 type  2   force =     0.00000129    0.02656021   -0.00001499
     atom   13 type  2   force =     0.00000099   -0.01321771   -0.02300485
     atom   14 type  3   force =     0.00002483    0.01651420   -0.02857188
     atom   15 type  3   force =     0.00000510   -0.03348683    0.00000872
     atom   16 type  3   force =     0.00000646    0.01685540    0.02829358
     The non-local contrib.  to forces
     atom    1 type  1   force =    -0.00628641    0.00002315    0.00008612
     atom    2 type  1   force =    -0.00631759    0.00003193   -0.00010760
     atom    3 type  1   force =     0.00633207    0.00002682   -0.00015668
     atom    4 type  1   force =     0.00628793    0.00004794    0.00007371
     atom    5 type  1   force =     0.00001551    0.01318261   -0.02290191
     atom    6 type  1   force =    -0.00000429   -0.02633489   -0.00013321
     atom    7 type  1   force =    -0.00000547    0.01325756    0.02293121
     atom    8 type  1   force =     0.00000819   -0.04894696    0.08478817
     atom    9 type  1   force =    -0.00001659    0.09770519    0.00003596
     atom   10 type  1   force =    -0.00000731   -0.04899635   -0.08466575
     atom   11 type  2   force =     0.00000332   -0.00518675    0.00898166
     atom   12 type  2   force =    -0.00000051    0.01044638   -0.00003895
     atom   13 type  2   force =     0.00000160   -0.00514764   -0.00904286
     atom   14 type  3   force =     0.00002961   -0.02788559    0.04835104
     atom   15 type  3   force =     0.00000260    0.05590796   -0.00018792
     atom   16 type  3   force =     0.00000520   -0.02773851   -0.04923015
     The ionic contribution  to forces
     atom    1 type  1   force =     6.76464669   -0.00129061   -0.00345834
     atom    2 type  1   force =     6.76464669    0.00364169   -0.00060900
     atom    3 type  1   force =    -6.76465342    0.00375482   -0.00025948
     atom    4 type  1   force =    -6.76465342   -0.00165121   -0.00338243
     atom    5 type  1   force =     0.00022810   -3.19174576    5.52630838
     atom    6 type  1   force =    -0.00037697    6.37709684   -0.00097497
     atom    7 type  1   force =    -0.00037741   -3.18601002   -5.52419312
     atom    8 type  1   force =     0.00027087    3.06587273   -5.30836775
     atom    9 type  1   force =    -0.00001678   -6.13542589    0.00625680
     atom   10 type  1   force =    -0.00001701    3.06066290    5.31750163
     atom   11 type  2   force =    -0.00001597    0.41294571   -0.71498972
     atom   12 type  2   force =    -0.00000716   -0.82517344   -0.00013119
     atom   13 type  2   force =    -0.00000711    0.41248114    0.71468214
     atom   14 type  3   force =    -0.00031151   -1.13670844    1.96813926
     atom   15 type  3   force =     0.00032208    2.27811505   -0.00217864
     atom   16 type  3   force =     0.00032231   -1.13656550   -1.97434357
     The local contribution  to forces
     atom    1 type  1   force =    -6.77707669    0.00125160    0.00408493
     atom    2 type  1   force =    -6.77703446   -0.00315628   -0.00012416
     atom    3 type  1   force =     6.77699747   -0.00333037   -0.00034806
     atom    4 type  1   force =     6.77714745    0.00155689    0.00406757
     atom    5 type  1   force =    -0.00018553    3.18539820   -5.51673006
     atom    6 type  1   force =     0.00033713   -6.36509361    0.00106353
     atom    7 type  1   force =     0.00037777    3.17986766    5.51481055
     atom    8 type  1   force =    -0.00025929   -3.01818329    5.22588488
     atom    9 type  1   force =    -0.00003585    6.03971196   -0.00591860
     atom   10 type  1   force =    -0.00000930   -3.01327018   -5.23522972
     atom   11 type  2   force =     0.00001705   -0.42147364    0.72989521
     atom   12 type  2   force =     0.00001516    0.84250848    0.00016198
     atom   13 type  2   force =     0.00000955   -0.42120105   -0.72973252
     atom   14 type  3   force =     0.00024829    1.18197183   -2.04726629
     atom   15 type  3   force =    -0.00033254   -2.36794611    0.00234636
     atom   16 type  3   force =    -0.00033517    1.18143208    2.05419244
     The core correction contribution to forces
     atom    1 type  1   force =    -0.00151446    0.00000111    0.00000564
     atom    2 type  1   force =    -0.00151040    0.00000079   -0.00000351
     atom    3 type  1   force =     0.00150924    0.00000076    0.00000045
     atom    4 type  1   force =     0.00151520   -0.00000106    0.00000650
     atom    5 type  1   force =    -0.00000005   -0.00184774    0.00318828
     atom    6 type  1   force =    -0.00000075    0.00369068    0.00000955
     atom    7 type  1   force =     0.00000011   -0.00185444   -0.00319087
     atom    8 type  1   force =    -0.00000011    0.00343814   -0.00595202
     atom    9 type  1   force =    -0.00000013   -0.00687243    0.00000019
     atom   10 type  1   force =     0.00000013    0.00344083    0.00594849
     atom   11 type  2   force =    -0.00000017    0.00057249   -0.00099024
     atom   12 type  2   force =     0.00000011   -0.00115232    0.00000445
     atom   13 type  2   force =     0.00000017    0.00056860    0.00099724
     atom   14 type  3   force =    -0.00000074   -0.00091560    0.00158727
     atom   15 type  3   force =    -0.00000065    0.00181121    0.00000855
     atom   16 type  3   force =    -0.00000044   -0.00090907   -0.00156117
     The Hubbard contrib.    to forces
     atom    1 type  1   force =     0.00000000    0.00000000    0.00000000
     atom    2 type  1   force =     0.00000000    0.00000000    0.00000000
     atom    3 type  1   force =     0.00000000    0.00000000    0.00000000
     atom    4 type  1   force =     0.00000000    0.00000000    0.00000000
     atom    5 type  1   force =     0.00000000    0.00000000    0.00000000
     atom    6 type  1   force =     0.00000000    0.00000000    0.00000000
     atom    7 type  1   force =     0.00000000    0.00000000    0.00000000
     atom    8 type  1   force =     0.00000000    0.00000000    0.00000000
     atom    9 type  1   force =     0.00000000    0.00000000    0.00000000
     atom   10 type  1   force =     0.00000000    0.00000000    0.00000000
     atom   11 type  2   force =     0.00000000    0.00000000    0.00000000
     atom   12 type  2   force =     0.00000000    0.00000000    0.00000000
     atom   13 type  2   force =     0.00000000    0.00000000    0.00000000
     atom   14 type  3   force =     0.00000000    0.00000000    0.00000000
     atom   15 type  3   force =     0.00000000    0.00000000    0.00000000
     atom   16 type  3   force =     0.00000000    0.00000000    0.00000000
     The SCF correction term to forces
     atom    1 type  1   force =    -0.00080069   -0.00004502   -0.00064001
     atom    2 type  1   force =    -0.00079834   -0.00039191    0.00077475
     atom    3 type  1   force =     0.00082096   -0.00036256    0.00076811
     atom    4 type  1   force =     0.00074434   -0.00004778   -0.00062978
     atom    5 type  1   force =    -0.00005010    0.00029516    0.00070356
     atom    6 type  1   force =     0.00002372   -0.00022433    0.00000061
     atom    7 type  1   force =     0.00000233    0.00024371   -0.00088978
     atom    8 type  1   force =    -0.00002272   -0.00011712   -0.00002977
     atom    9 type  1   force =     0.00005676    0.00056495   -0.00017834
     atom   10 type  1   force =     0.00003047    0.00021734    0.00012836
     atom   11 type  2   force =    -0.00000038   -0.00005764   -0.00002374
     atom   12 type  2   force =    -0.00000539   -0.00008620   -0.00001703
     atom   13 type  2   force =    -0.00000228    0.00006393    0.00008541
     atom   14 type  3   force =     0.00006010    0.00003469    0.00061109
     atom   15 type  3   force =     0.00001453   -0.00139226    0.00001463
     atom   16 type  3   force =     0.00001549    0.00061909   -0.00076972

     Total force =     0.087056     Total SCF correction =     0.003167

     Computing stress (Cartesian axis) and pressure

     negative rho (up, down):  6.200E-01 0.000E+00
          total   stress  (Ry/bohr**3)                   (kbar)     P=      -84.09
  -0.00064917   0.00000001   0.00000002          -95.50        0.00        0.00
   0.00000001  -0.00053190   0.00000217            0.00      -78.25        0.32
   0.00000002   0.00000217  -0.00053389            0.00        0.32      -78.54

     kinetic stress (kbar)  16202.97     -0.00     -0.00
                               -0.00  16033.30      0.32
                               -0.00      0.32  16032.90

     local   stress (kbar)  -3010.52     -0.07      0.14
                               -0.07  -5762.83     -3.48
                                0.14     -3.48  -5758.37

     nonloc. stress (kbar)   9058.75      0.00     -0.00
                                0.00   9100.05      0.02
                               -0.00      0.02   9100.00

     hartree stress (kbar)   5740.08      0.03     -0.05
                                0.03   7081.42      1.12
                               -0.05      1.12   7079.81

     exc-cor stress (kbar)   3587.14     -0.00     -0.00
                               -0.00   3585.53      0.01
                               -0.00      0.01   3585.52

     corecor stress (kbar)  -8357.41      0.00      0.00
                                0.00  -8359.85      0.00
                                0.00      0.00  -8359.85

     ewald   stress (kbar) -23316.50      0.05     -0.08
                                0.05 -21755.87      2.32
                               -0.08      2.32 -21758.55

     hubbard stress (kbar)      0.00      0.00      0.00
                                0.00      0.00      0.00
                                0.00      0.00      0.00

     DFT-D   stress (kbar)      0.00      0.00      0.00
                                0.00      0.00      0.00
                                0.00      0.00      0.00

     XDM     stress (kbar)      0.00      0.00      0.00
                                0.00      0.00      0.00
                                0.00      0.00      0.00

     dft-nl  stress (kbar)      0.00      0.00      0.00
                                0.00      0.00      0.00
                                0.00      0.00      0.00

     TS-vdW  stress (kbar)      0.00      0.00      0.00
                                0.00      0.00      0.00
                                0.00      0.00      0.00

[...]

                                0.00      0.00      0.00

     Writing all to output data dir new_calculations/myprefix.save/

     General routines

     Parallel routines

     PAW routines

   This run was terminated on:   5:51:44  21May2023

   JOB DONE.