     Program PWSCF v.7.0 starts on 21May2023 at  4:41:23

     Reading input from espresso_18880.pwi
Warning: card &CELL ignored
Warning: card / ignored

     Current dimensions of program PWSCF are:
     Max number of different atomic species (ntypx) = 10
     Max number of k-points (npk) =  40000
     Max angular momentum in pseudopotentials (lmaxx) =  4

     gamma-point specific algorithms are used

     Subspace diagonalization in iterative solution of the eigenvalue problem:
     a serial algorithm will be used

     Using Slab Decomposition

     bravais-lattice index     =            0
     lattice parameter (alat)  =      10.5155  a.u.
     unit-cell volume          =    1360.0220 (a.u.)^3
     number of atoms/cell      =           13
     number of atomic types    =            3
     number of electrons       =       108.00
     number of Kohn-Sham states=           65
     kinetic-energy cutoff     =      30.0000  Ry
     charge density cutoff     =     240.0000  Ry
     scf convergence threshold =      1.0E-06
     mixing beta               =       0.7000
     number of iterations used =            8  plain     mixing
     Exchange-correlation=  SLA  PW   PBX  PBC
                           (   1   4   3   4   0   0   0)

     celldm(1)=  10.515515  celldm(2)=   0.000000  celldm(3)=   0.000000
     celldm(4)=   0.000000  celldm(5)=   0.000000  celldm(6)=   0.000000

     crystal axes: (cart. coord. in units of alat)
               a(1) = (   1.000000   0.000000   0.000000 )
               a(2) = (   0.314691   0.949194   0.000000 )
               a(3) = (   0.471540   0.340448   1.232251 )

     reciprocal axes: (cart. coord. in units 2 pi/alat)
               b(1) = (  1.000000 -0.331534 -0.291069 )
               b(2) = (  0.000000  1.053525 -0.291069 )
               b(3) = (  0.000000  0.000000  0.811523 )

     PseudoPot. # 1 for Ca read from file:
     /home/pragov/projects/rrg-bengioy-ad/pragov/crystal_structure_design/SSSP/Ca_pbe_v1.uspp.F.UPF
     MD5 check sum: 403a4c14b9e4d4dfdc3024c9a3812218
     Pseudo is Ultrasoft + core correction, Zval = 10.0
     Generated by new atomic code, or converted to UPF format
     Using radial grid of  845 points,  6 beta functions with:
                l(1) =   0
                l(2) =   0
                l(3) =   1
                l(4) =   1
                l(5) =   2
                l(6) =   2
     Q(r) pseudized with  8 coefficients,  rinner =    1.500   1.500   1.500
                                                       1.500   1.500

     PseudoPot. # 2 for Cr read from file:
     /home/pragov/projects/rrg-bengioy-ad/pragov/crystal_structure_design/SSSP/cr_pbe_v1.5.uspp.F.UPF
     MD5 check sum: 0d52af634a40206e4dee301ad30da4bf
     Pseudo is Ultrasoft + core correction, Zval = 14.0
     Generated by new atomic code, or converted to UPF format
     Using radial grid of  857 points,  6 beta functions with:
                l(1) =   0
                l(2) =   0
                l(3) =   1
                l(4) =   1
                l(5) =   2
                l(6) =   2
     Q(r) pseudized with  8 coefficients,  rinner =    0.950   0.950   0.950
                                                       0.950   0.950

     PseudoPot. # 3 for F  read from file:
     /home/pragov/projects/rrg-bengioy-ad/pragov/crystal_structure_design/SSSP/f_pbe_v1.4.uspp.F.UPF
     MD5 check sum: 4c38b6a325caf53ec0e86aed9459de46
     Pseudo is Ultrasoft, Zval =  7.0
     Generated by new atomic code, or converted to UPF format
     Using radial grid of  799 points,  4 beta functions with:
                l(1) =   0
                l(2) =   0
                l(3) =   1
                l(4) =   1
     Q(r) pseudized with  8 coefficients,  rinner =    0.950   0.950   0.950

     atomic species   valence    mass     pseudopotential
        Ca            10.00    40.07800     Ca( 1.00)
        Cr            14.00    51.99610     Cr( 1.00)
        F              7.00    18.99840     F ( 1.00)

     No symmetry found

                                    s                        frac. trans.

      isym =  1     identity

 cryst.   s( 1) = (     1          0          0      )
                  (     0          1          0      )
                  (     0          0          1      )

 cart.    s( 1) = (  1.0000000 -0.0000000  0.0000000 )
                  (  0.0000000  1.0000000 -0.0000000 )
                  (  0.0000000  0.0000000  1.0000000 )

   Cartesian axes

     site n.     atom                  positions (alat units)
         1           Ca  tau(   1) = (   0.6841409   0.4374837   0.0000000  )
         2           Cr  tau(   2) = (   0.3584465   0.2577250   0.9163351  )
         3           Cr  tau(   3) = (   1.4288000   1.0305102   0.3159159  )
         4           F   tau(   4) = (   1.1858834   0.8791451   0.4503175  )
         5           F   tau(   5) = (   0.5785649   0.4406669   0.7819335  )
         6           F   tau(   6) = (   0.3702090   0.2395457   0.1659275  )
         7           F   tau(   7) = (   1.4423541   1.0136244   1.0663235  )
         8           F   tau(   8) = (   0.5954136   1.0571557   0.6161255  )
         9           F   tau(   9) = (   0.9505988   0.0684236   0.0000000  )
        10           F   tau(  10) = (   0.8917386   0.9654116   0.9761855  )
        11           F   tau(  11) = (   0.5892458   0.7470147   0.2560654  )
        12           F   tau(  12) = (   1.1330116   0.4955842   0.8975581  )
        13           F   tau(  13) = (   0.9592770   0.3701495   0.3346929  )

   Crystallographic axes

     site n.     atom                  positions (cryst. coord.)
         1           Ca  tau(   1) = (  0.5391000  0.4609000  0.0000000  )
         2           Cr  tau(   2) = (  0.0062850  0.0048030  0.7436270  )
         3           Cr  tau(   3) = (  0.9951970  0.9937150  0.2563730  )
         4           F   tau(   4) = (  0.7633430  0.7951280  0.3654430  )
         5           F   tau(   5) = (  0.2048720  0.2366570  0.6345570  )
         6           F   tau(   6) = (  0.2424950  0.2040710  0.1346540  )
         7           F   tau(   7) = (  0.7959290  0.7575050  0.8653460  )
         8           F   tau(   8) = (  0.0655950  0.9344050  0.5000000  )
         9           F   tau(   9) = (  0.9279140  0.0720860  0.0000000  )
        10           F   tau(  10) = (  0.2875340  0.7329480  0.7921970  )
        11           F   tau(  11) = (  0.2670520  0.7124660  0.2078030  )
        12           F   tau(  12) = (  0.7074570  0.2608590  0.7283890  )
        13           F   tau(  13) = (  0.7391410  0.2925430  0.2716110  )

     number of k points=     1  Methfessel-Paxton smearing, width (Ry)=  0.0010
                       cart. coord. in units 2pi/alat
        k(    1) = (   0.0000000   0.0000000   0.0000000), wk =   2.0000000

                       cryst. coord.
        k(    1) = (   0.0000000   0.0000000   0.0000000), wk =   2.0000000

     Check: negative core charge=   -0.000006

     Initial potential from superposition of free atoms

     starting charge     105.9945, renormalised to     108.0000

     negative rho (up, down):  1.134E-03 0.000E+00
     Starting wfcs are   70 randomized atomic wfcs

     Self-consistent Calculation

     iteration #  1     ecut=    30.00 Ry     beta= 0.70
     Davidson diagonalization with overlap

     ethr =  1.00E-02,  avg # of iterations =  2.0

     negative rho (up, down):  2.671E-03 0.000E+00

     total energy              =    -911.88517232 Ry
     estimated scf accuracy    <       1.52886864 Ry

[...]

     total energy              =    -912.79643332 Ry
     estimated scf accuracy    <       0.00002286 Ry

     iteration # 34     ecut=    30.00 Ry     beta= 0.70
     Davidson diagonalization with overlap

     ethr =  1.57E-08,  avg # of iterations =  1.0

[...]

     End of self-consistent calculation

          k = 0.0000 0.0000 0.0000 (  1885 PWs)   bands (ev):

   -71.1889 -71.1885 -42.7134 -42.7131 -42.6710 -42.6708 -42.0568 -42.0342
   -36.9217 -21.6519 -21.3195 -20.8043 -20.6937 -20.4860 -20.4001 -20.3313
   -20.2827 -20.2320 -20.1481 -17.7689 -17.7555 -17.6622  -5.1584  -3.8734
    -3.8079  -3.7423  -3.7323  -3.6382  -3.5310  -3.4353  -3.1505  -2.9276
    -2.8387  -2.7476  -2.2619  -2.2533  -1.9843  -1.9275  -1.8923  -1.8141
    -1.7346  -1.3643  -1.3035  -1.1745  -1.1012  -1.0111  -0.9656  -0.9502
    -0.9013  -0.8522  -0.5279  -0.4189   2.1617   2.3051   2.3249   2.3808
     2.4311   2.6774   3.3671   4.7657   4.7934   5.1641   7.7304   8.5845
     8.6995

     occupation numbers
     1.0000   1.0000   1.0000   1.0000   1.0000   1.0000   1.0000   1.0000
     1.0000   1.0000   1.0000   1.0000   1.0000   1.0000   1.0000   1.0000
     1.0000   1.0000   1.0000   1.0000   1.0000   1.0000   1.0000   1.0000
     1.0000   1.0000   1.0000   1.0000   1.0000   1.0000   1.0000   1.0000
     1.0000   1.0000   1.0000   1.0000   1.0000   1.0000   1.0000   1.0000
     1.0000   1.0000   1.0000   1.0000   1.0000   1.0000   1.0000   1.0000
     1.0000   1.0000   1.0000   1.0000   1.0000   0.9685   0.0315  -0.0000
    -0.0000  -0.0000  -0.0000  -0.0000  -0.0000  -0.0000  -0.0000  -0.0000
    -0.0000

     the Fermi energy is     2.3150 ev

!    total energy              =    -912.79643337 Ry
     estimated scf accuracy    <       0.00000078 Ry
     smearing contrib. (-TS)   =       0.00001778 Ry
     internal energy E=F+TS    =    -912.79645115 Ry

     The total energy is F=E-TS. E is the sum of the following terms:
     one-electron contribution =    -706.46847217 Ry
     hartree contribution      =     391.42971382 Ry
     xc contribution           =    -149.61630974 Ry
     ewald contribution        =    -448.14138306 Ry

     convergence has been achieved in  34 iterations

     negative rho (up, down):  1.721E-03 0.000E+00

     Forces acting on atoms (cartesian axes, Ry/au):

     atom    1 type  1   force =    -0.00203056    0.00276311    0.00000283
     atom    2 type  2   force =     0.01076711    0.00092762   -0.02032870
     atom    3 type  2   force =    -0.00428734   -0.00993146    0.02034003
     atom    4 type  3   force =     0.01772698    0.00841264   -0.00471112
     atom    5 type  3   force =    -0.01366568   -0.01426967    0.00478971
     atom    6 type  3   force =    -0.00301610   -0.00149581   -0.00487630
     atom    7 type  3   force =     0.00249555    0.00249836    0.00479663
     atom    8 type  3   force =    -0.01890950    0.02625215    0.00009452
     atom    9 type  3   force =     0.01028802   -0.01430762   -0.00007742
     atom   10 type  3   force =    -0.00845225    0.01475023    0.00660150
     atom   11 type  3   force =    -0.01127499    0.01261410   -0.00659305
     atom   12 type  3   force =     0.00813815   -0.01561570    0.00466275
     atom   13 type  3   force =     0.01222060   -0.01259797   -0.00470139
     The non-local contrib.  to forces
     atom    1 type  1   force =     0.01979282   -0.02745559   -0.00000160
     atom    2 type  2   force =     0.02060845    0.03067383   -0.02454548
     atom    3 type  2   force =    -0.03561495   -0.00990658    0.02455008
     atom    4 type  3   force =     1.04856064    0.68712519   -0.60631361
     atom    5 type  3   force =    -0.98227984   -0.77912835    0.60638534
     atom    6 type  3   force =    -0.43944980   -0.28936609    0.27959051
     atom    7 type  3   force =     0.41307540    0.32615085   -0.27965549
     atom    8 type  3   force =    -0.33390904    0.46253743    0.00008486
     atom    9 type  3   force =     0.13413138   -0.18583874   -0.00007364
     atom   10 type  3   force =    -0.48858484    0.69567921    0.15132026
     atom   11 type  3   force =    -0.50653058    0.68264312   -0.15133161
     atom   12 type  3   force =     0.90561102   -0.64200665    0.38992470
     atom   13 type  3   force =     0.32435664   -1.06159963   -0.38994679
     The ionic contribution  to forces
     atom    1 type  1   force =    -0.94193864    1.30464110   -0.00000000
     atom    2 type  2   force =     0.41706324   -1.37943790   -3.98702135
     atom    3 type  2   force =     1.17810869   -0.82997021    3.98702135
     atom    4 type  3   force =   -14.78993443   -9.71231314    9.59877292
     atom    5 type  3   force =    13.87312588   10.98214757   -9.59877292
     atom    6 type  3   force =     9.08127303    5.57938852   -4.17252910
     atom    7 type  3   force =    -8.15371521   -6.86411134    4.17252910
     atom    8 type  3   force =     4.07911667   -5.64981948   -0.00000000
     atom    9 type  3   force =    -1.89677197    2.62714213   -0.00000000
     atom   10 type  3   force =     8.40074622  -11.00696853   -2.41350774
     atom   11 type  3   force =     7.80411572  -11.43773016    2.41350774
     atom   12 type  3   force =   -12.71041011   10.89410879   -6.08504593
     atom   13 type  3   force =    -6.34077909   15.49292265    6.08504593
     The local contribution  to forces
     atom    1 type  1   force =     0.92006371   -1.27461330    0.00002581
     atom    2 type  2   force =    -0.42545112    1.35178917    3.98863562
     atom    3 type  2   force =    -1.14905222    0.82929776   -3.98872475
     atom    4 type  3   force =    13.75960808    9.03401313   -8.99755127
     atom    5 type  3   force =   -12.90466228  -10.21730660    8.99726984
     atom    6 type  3   force =    -8.64525768   -5.29188131    3.88830580
     atom    7 type  3   force =     7.74325568    6.54045342   -3.88807706
     atom    8 type  3   force =    -3.76435381    5.21357415   -0.00044483
     atom    9 type  3   force =     1.77317066   -2.45568126    0.00038321
     atom   10 type  3   force =    -7.92074853   10.32603161    2.26883409
     atom   11 type  3   force =    -7.30916279   10.76824866   -2.26886631
     atom   12 type  3   force =    11.81307577  -10.26773168    5.69988976
     atom   13 type  3   force =     6.02895973  -14.44446070   -5.69979626
     The core correction contribution to forces
     atom    1 type  1   force =    -0.00005024    0.00006773   -0.00000044
     atom    2 type  2   force =    -0.00145646   -0.00214777    0.00274720
     atom    3 type  2   force =     0.00249901    0.00070641   -0.00274727
     atom    4 type  3   force =     0.00000000    0.00000000    0.00000000
     atom    5 type  3   force =     0.00000000    0.00000000    0.00000000
     atom    6 type  3   force =     0.00000000    0.00000000    0.00000000
     atom    7 type  3   force =     0.00000000    0.00000000    0.00000000
     atom    8 type  3   force =     0.00000000    0.00000000    0.00000000
     atom    9 type  3   force =     0.00000000    0.00000000    0.00000000
     atom   10 type  3   force =     0.00000000    0.00000000    0.00000000
     atom   11 type  3   force =     0.00000000    0.00000000    0.00000000
     atom   12 type  3   force =     0.00000000    0.00000000    0.00000000
     atom   13 type  3   force =     0.00000000    0.00000000    0.00000000
     The Hubbard contrib.    to forces
     atom    1 type  1   force =     0.00000000    0.00000000    0.00000000
     atom    2 type  2   force =     0.00000000    0.00000000    0.00000000
     atom    3 type  2   force =     0.00000000    0.00000000    0.00000000
     atom    4 type  3   force =     0.00000000    0.00000000    0.00000000
     atom    5 type  3   force =     0.00000000    0.00000000    0.00000000
     atom    6 type  3   force =     0.00000000    0.00000000    0.00000000
     atom    7 type  3   force =     0.00000000    0.00000000    0.00000000
     atom    8 type  3   force =     0.00000000    0.00000000    0.00000000
     atom    9 type  3   force =     0.00000000    0.00000000    0.00000000
     atom   10 type  3   force =     0.00000000    0.00000000    0.00000000
     atom   11 type  3   force =     0.00000000    0.00000000    0.00000000
     atom   12 type  3   force =     0.00000000    0.00000000    0.00000000
     atom   13 type  3   force =     0.00000000    0.00000000    0.00000000
     The SCF correction term to forces
     atom    1 type  1   force =     0.00009934    0.00011690   -0.00001993
     atom    2 type  2   force =     0.00000054    0.00004402   -0.00014370
     atom    3 type  2   force =    -0.00023032   -0.00006511    0.00024163
     atom    4 type  3   force =    -0.00050976   -0.00041883    0.00038184
     atom    5 type  3   force =     0.00014810    0.00001144   -0.00009155
     atom    6 type  3   force =     0.00041590    0.00035681   -0.00024252
     atom    7 type  3   force =    -0.00012278   -0.00000083    0.00000108
     atom    8 type  3   force =     0.00023423   -0.00004622    0.00045548
     atom    9 type  3   force =    -0.00024450    0.00006398   -0.00038599
     atom   10 type  3   force =     0.00013245    0.00000167   -0.00004412
     atom   11 type  3   force =     0.00030020   -0.00055379    0.00009813
     atom   12 type  3   force =    -0.00014098    0.00000757   -0.00010478
     atom   13 type  3   force =    -0.00031913    0.00053344   -0.00000327

     Total force =     0.068156     Total SCF correction =     0.001571

     Computing stress (Cartesian axis) and pressure

     negative rho (up, down):  1.721E-03 0.000E+00
          total   stress  (Ry/bohr**3)                   (kbar)     P=     -173.90
  -0.00114764  -0.00004598  -0.00003303         -168.82       -6.76       -4.86
  -0.00004598  -0.00111757  -0.00002461           -6.76     -164.40       -3.62
  -0.00003303  -0.00002461  -0.00128129           -4.86       -3.62     -188.48

     kinetic stress (kbar)  19891.10     55.62     74.68
                               55.62  19854.46     54.29
                               74.68     54.29  20037.85

     local   stress (kbar) -14505.25   1422.24  -3532.17
                             1422.24 -15448.82  -2551.12
                            -3532.17  -2551.12 -18826.13

     nonloc. stress (kbar)   3280.00      9.47     56.96
                                9.47   3273.87     41.34
                               56.96     41.34   3387.77

     hartree stress (kbar)  13231.86   -556.12   1705.99
                             -556.12  13600.68   1231.93
                             1705.99   1231.93  15505.97

     exc-cor stress (kbar)  -4370.44      0.35     -1.57
                                0.35  -4370.67     -1.13
                               -1.57     -1.13  -4373.96

     corecor stress (kbar)   -738.17     -0.45     -1.63
                               -0.45   -737.88     -1.19
                               -1.63     -1.19   -741.29

     ewald   stress (kbar) -16957.92   -937.87   1692.89
                             -937.87 -16336.05   1222.25
                             1692.89   1222.25 -15178.69

     hubbard stress (kbar)      0.00      0.00      0.00
                                0.00      0.00      0.00
                                0.00      0.00      0.00

     DFT-D   stress (kbar)      0.00      0.00      0.00
                                0.00      0.00      0.00
                                0.00      0.00      0.00

     XDM     stress (kbar)      0.00      0.00      0.00
                                0.00      0.00      0.00
                                0.00      0.00      0.00

     dft-nl  stress (kbar)      0.00      0.00      0.00
                                0.00      0.00      0.00
                                0.00      0.00      0.00

     TS-vdW  stress (kbar)      0.00      0.00      0.00
                                0.00      0.00      0.00
                                0.00      0.00      0.00

[...]

                                0.00      0.00      0.00

     Writing all to output data dir new_calculations/myprefix.save/

     General routines

     Parallel routines

   This run was terminated on:   4:42: 0  21May2023

   JOB DONE.