     Program PWSCF v.7.0 starts on 20May2023 at 19:58:37

     Reading input from espresso_3723.pwi
Warning: card &CELL ignored
Warning: card / ignored

     Current dimensions of program PWSCF are:
     Max number of different atomic species (ntypx) = 10
     Max number of k-points (npk) =  40000
     Max angular momentum in pseudopotentials (lmaxx) =  4
     file O.pbe-n-kjpaw_psl.0.1.UPF: wavefunction(s)  2P renormalized

     gamma-point specific algorithms are used
     Message from routine setup:
     using ibrav=0 with symmetry is DISCOURAGED, use correct ibrav instead

     Subspace diagonalization in iterative solution of the eigenvalue problem:
     a serial algorithm will be used

     Using Slab Decomposition

     bravais-lattice index     =            0
     lattice parameter (alat)  =       9.6396  a.u.
     unit-cell volume          =    1418.2259 (a.u.)^3
     number of atoms/cell      =           20
     number of atomic types    =            3
     number of electrons       =       244.00
     number of Kohn-Sham states=          146
     kinetic-energy cutoff     =      30.0000  Ry
     charge density cutoff     =     240.0000  Ry
     scf convergence threshold =      1.0E-06
     mixing beta               =       0.7000
     number of iterations used =            8  plain     mixing
     Exchange-correlation= SLA  PW   PBX  PBC
                           (   1   4   3   4   0   0   0)

     celldm(1)=   9.639578  celldm(2)=   0.000000  celldm(3)=   0.000000
     celldm(4)=   0.000000  celldm(5)=   0.000000  celldm(6)=   0.000000

     crystal axes: (cart. coord. in units of alat)
               a(1) = (   1.000000   0.000000   0.000000 )
               a(2) = (   0.000000   1.103597   0.000000 )
               a(3) = (   0.000000   0.000000   1.434699 )

     reciprocal axes: (cart. coord. in units 2 pi/alat)
               b(1) = (  1.000000  0.000000  0.000000 )
               b(2) = (  0.000000  0.906128  0.000000 )
               b(3) = (  0.000000  0.000000  0.697010 )

     PseudoPot. # 1 for Lu read from file:
     /home/pragov/projects/rrg-bengioy-ad/pragov/crystal_structure_design/SSSP/Lu.GGA-PBE-paw-v1.0.UPF
     MD5 check sum: 9ceca61ee0c17e9380a83635bfffa61d
     Pseudo is Projector augmented-wave + core cor, Zval = 25.0
     Generated using ATOMPAW code
     Shape of augmentation charge: BESSEL
     Using radial grid of 1118 points,  8 beta functions with:
                l(1) =   0
                l(2) =   0
                l(3) =   1
                l(4) =   1
                l(5) =   2
                l(6) =   2
                l(7) =   3
                l(8) =   3
     Q(r) pseudized with 0 coefficients

     PseudoPot. # 2 for Ni read from file:
     /home/pragov/projects/rrg-bengioy-ad/pragov/crystal_structure_design/SSSP/ni_pbe_v1.4.uspp.F.UPF
     MD5 check sum: 1ee80287db30b12d2bc1f57a5b5d6409
     Pseudo is Ultrasoft + core correction, Zval = 18.0
     Generated by new atomic code, or converted to UPF format
     Using radial grid of  865 points,  6 beta functions with:
                l(1) =   0
                l(2) =   0
                l(3) =   1
                l(4) =   1
                l(5) =   2
                l(6) =   2
     Q(r) pseudized with 10 coefficients,  rinner =    0.980   0.980   0.980
                                                       0.980   0.980

     PseudoPot. # 3 for O  read from file:
     /home/pragov/projects/rrg-bengioy-ad/pragov/crystal_structure_design/SSSP/O.pbe-n-kjpaw_psl.0.1.UPF
     MD5 check sum: 0234752ac141de4415c5fc33072bef88
     Pseudo is Projector augmented-wave + core cor, Zval =  6.0
     Generated using "atomic" code by A. Dal Corso  v.5.0.99 svn rev. 10869
     Shape of augmentation charge: BESSEL
     Using radial grid of 1095 points,  4 beta functions with:
                l(1) =   0
                l(2) =   0
                l(3) =   1
                l(4) =   1
     Q(r) pseudized with 0 coefficients

     atomic species   valence    mass     pseudopotential
        Lu            25.00   174.96680     Lu( 1.00)
        Ni            18.00    58.69340     Ni( 1.00)
        O              6.00    15.99900     O ( 1.00)

      8 Sym. Ops., with inversion, found ( 6 have fractional translation)

                                    s                        frac. trans.

      isym =  1     identity

 cryst.   s( 1) = (     1          0          0      )
                  (     0          1          0      )
                  (     0          0          1      )

 cart.    s( 1) = (  1.0000000  0.0000000  0.0000000 )
                  (  0.0000000  1.0000000  0.0000000 )
                  (  0.0000000  0.0000000  1.0000000 )

      isym =  2     180 deg rotation - cart. axis [0,0,1]

 cryst.   s( 2) = (    -1          0          0      )    f =(  0.0000000 )
                  (     0         -1          0      )       ( -0.0000000 )
                  (     0          0          1      )       ( -0.5000000 )

 cart.    s( 2) = ( -1.0000000  0.0000000  0.0000000 )    f =(  0.0000000 )
                  (  0.0000000 -1.0000000  0.0000000 )       ( -0.0000000 )
                  (  0.0000000  0.0000000  1.0000000 )       ( -0.7173496 )

[...]

      isym =  4     180 deg rotation - cart. axis [1,0,0]

[...]

      isym =  5     inversion

 cryst.   s( 5) = (    -1          0          0      )
                  (     0         -1          0      )
                  (     0          0         -1      )

 cart.    s( 5) = ( -1.0000000  0.0000000  0.0000000 )
                  (  0.0000000 -1.0000000  0.0000000 )
                  (  0.0000000  0.0000000 -1.0000000 )

      isym =  6     inv. 180 deg rotation - cart. axis [0,0,1]

[...]

      isym =  8     inv. 180 deg rotation - cart. axis [1,0,0]

 cryst.   s( 8) = (    -1          0          0      )    f =(  0.5000000 )
                  (     0          1          0      )       (  0.5000000 )
                  (     0          0          1      )       (  0.0000000 )

 cart.    s( 8) = ( -1.0000000  0.0000000  0.0000000 )    f =(  0.5000000 )
                  (  0.0000000  1.0000000  0.0000000 )       (  0.5517985 )
                  (  0.0000000  0.0000000  1.0000000 )       (  0.0000000 )

   Cartesian axes

     site n.     atom                  positions (alat units)
         1           Lu  tau(   1) = (   0.5271410   0.6479902   0.3586748  )
         2           Lu  tau(   2) = (   0.9728590   0.0961917   0.3586748  )
         3           Lu  tau(   3) = (   0.4728590   0.4556068   1.0760244  )
         4           Lu  tau(   4) = (   0.0271410   1.0074053   1.0760244  )
         5           Ni  tau(   5) = (   0.0000000   0.5517985   0.0000000  )
         6           Ni  tau(   6) = (   0.5000000   0.0000000   0.7173496  )
         7           Ni  tau(   7) = (   0.0000000   0.5517985   0.7173496  )
         8           Ni  tau(   8) = (   0.5000000   0.0000000   0.0000000  )
         9           O   tau(   9) = (   0.3793410   1.0609220   0.3586748  )
        10           O   tau(  10) = (   0.1206590   0.5091235   0.3586748  )
        11           O   tau(  11) = (   0.6206590   0.0426750   1.0760244  )
        12           O   tau(  12) = (   0.8793410   0.5944735   1.0760244  )
        13           O   tau(  13) = (   0.8057190   0.8990045   0.0834694  )
        14           O   tau(  14) = (   0.6942810   0.3472060   0.6338802  )
        15           O   tau(  15) = (   0.1942810   0.2045925   0.8008189  )
        16           O   tau(  16) = (   0.3057190   0.7563910   1.3512298  )
        17           O   tau(  17) = (   0.1942810   0.2045925   1.3512298  )
        18           O   tau(  18) = (   0.3057190   0.7563910   0.8008189  )
        19           O   tau(  19) = (   0.8057190   0.8990045   0.6338802  )
        20           O   tau(  20) = (   0.6942810   0.3472060   0.0834694  )

   Crystallographic axes

     site n.     atom                  positions (cryst. coord.)
         1           Lu  tau(   1) = (  0.5271410  0.5871620  0.2500000  )
         2           Lu  tau(   2) = (  0.9728590  0.0871620  0.2500000  )
         3           Lu  tau(   3) = (  0.4728590  0.4128380  0.7500000  )
         4           Lu  tau(   4) = (  0.0271410  0.9128380  0.7500000  )
         5           Ni  tau(   5) = (  0.0000000  0.5000000  0.0000000  )
         6           Ni  tau(   6) = (  0.5000000  0.0000000  0.5000000  )
         7           Ni  tau(   7) = (  0.0000000  0.5000000  0.5000000  )
         8           Ni  tau(   8) = (  0.5000000  0.0000000  0.0000000  )
         9           O   tau(   9) = (  0.3793410  0.9613310  0.2500000  )
        10           O   tau(  10) = (  0.1206590  0.4613310  0.2500000  )
        11           O   tau(  11) = (  0.6206590  0.0386690  0.7500000  )
        12           O   tau(  12) = (  0.8793410  0.5386690  0.7500000  )
        13           O   tau(  13) = (  0.8057190  0.8146130  0.0581790  )
        14           O   tau(  14) = (  0.6942810  0.3146130  0.4418210  )
        15           O   tau(  15) = (  0.1942810  0.1853870  0.5581790  )
        16           O   tau(  16) = (  0.3057190  0.6853870  0.9418210  )
        17           O   tau(  17) = (  0.1942810  0.1853870  0.9418210  )
        18           O   tau(  18) = (  0.3057190  0.6853870  0.5581790  )
        19           O   tau(  19) = (  0.8057190  0.8146130  0.4418210  )
        20           O   tau(  20) = (  0.6942810  0.3146130  0.0581790  )

     number of k points=     1  Methfessel-Paxton smearing, width (Ry)=  0.0010
                       cart. coord. in units 2pi/alat
        k(    1) = (   0.0000000   0.0000000   0.0000000), wk =   2.0000000

                       cryst. coord.
        k(    1) = (   0.0000000   0.0000000   0.0000000), wk =   2.0000000

     Check: negative core charge=   -0.000017

     Initial potential from superposition of free atoms

     starting charge     235.9849, renormalised to     244.0000
     Starting wfcs are  228 randomized atomic wfcs
     Checking if some PAW data can be deallocated...

     Self-consistent Calculation

     iteration #  1     ecut=    30.00 Ry     beta= 0.70
     Davidson diagonalization with overlap

     ethr =  1.00E-02,  avg # of iterations =  2.0

     total energy              =   -5926.18436445 Ry
     estimated scf accuracy    <     221.67427205 Ry

[...]

     negative rho (up, down):  1.888E-02 0.000E+00

[...]

     negative rho (up, down):  2.839E-07 0.000E+00

[...]

     c_bands:  1 eigenvalues not converged
     ethr =  1.37E-05,  avg # of iterations = 20.0

[...]

     total energy              =   -6193.82046027 Ry
     estimated scf accuracy    <       0.00001308 Ry

     iteration # 57     ecut=    30.00 Ry     beta= 0.70
     Davidson diagonalization with overlap

     ethr =  1.63E-09,  avg # of iterations =  1.0

     End of self-consistent calculation

          k = 0.0000 0.0000 0.0000 (  1982 PWs)   bands (ev):

   -90.0328 -90.0327 -90.0326 -90.0279 -50.7122 -50.7093 -50.7026 -50.6822
   -50.2610 -50.2602 -50.2582 -50.2557 -50.0573 -50.0550 -50.0547 -50.0527
   -40.2895 -40.2861 -40.2807 -40.2778 -11.3322 -11.3247 -11.3043 -11.3034
[...]
    11.0197  11.0212  11.0322  11.0552  11.1723  11.1738  11.2162  11.2216
    11.2307  11.2532  11.2650  11.2696  11.2763  11.2994  11.3096  11.3164
    11.3201  11.3349  11.3420  11.3692  11.3761  11.3789  11.4557  11.5616
    11.5932  11.6870  11.7340  11.8480  11.8638  11.8750  11.9965  12.2332
    12.3288  12.3966  12.4872  12.5684  12.5817  12.6008  12.6543  12.7277
    12.7588  12.8174  12.8377  12.8822  13.1650  13.2557  13.3312  13.5705
    13.9356  13.9804  13.9870  14.4036  14.8328  16.0180  16.0681  16.2404
    18.9093  19.7803  19.8355  20.0698  20.0807  20.1765  20.5489  20.6093
    20.8194  21.3436  21.3871  21.3942  21.7360  21.9256  22.1787  22.3304
    22.5354  22.5977

     occupation numbers
     1.0000   1.0000   1.0000   1.0000   1.0000   1.0000   1.0000   1.0000
     1.0000   1.0000   1.0000   1.0000   1.0000   1.0000   1.0000   1.0000
     1.0000   1.0000   1.0000   1.0000   1.0000   1.0000   1.0000   1.0000
     1.0000   1.0000   1.0000   1.0000   1.0000   1.0000   1.0000   1.0000
     1.0000   1.0000   1.0000   1.0000   1.0000   1.0000   1.0000   1.0000
     1.0000   1.0000   1.0000   1.0000   1.0000   1.0000   1.0000   1.0000
     1.0000   1.0000   1.0000   1.0000   1.0000   1.0000   1.0000   1.0000
     1.0000   1.0000   1.0000   1.0000   1.0000   1.0000   1.0000   1.0000
     1.0000   1.0000   1.0000   1.0000   1.0000   1.0000   1.0000   1.0000
     1.0000   1.0000   1.0000   1.0000   1.0000   1.0000   1.0000   1.0000
     1.0000   1.0000   1.0000   1.0000   1.0000   1.0000   1.0000   1.0000
     1.0000   1.0000   1.0000   1.0000   1.0000   1.0000   1.0000   1.0000
     1.0000   1.0000   1.0000   1.0000   1.0000   1.0000   1.0000   1.0000
     1.0000   1.0000   1.0000   1.0000   1.0000   1.0000   1.0000   1.0000
     1.0000   1.0000   1.0000   1.0000   1.0000   1.0000   1.0000   1.0000
     1.0000   0.6971   0.3029  -0.0000  -0.0000  -0.0000  -0.0000  -0.0000
    -0.0000  -0.0000  -0.0000  -0.0000  -0.0000  -0.0000  -0.0000  -0.0000
    -0.0000  -0.0000  -0.0000  -0.0000  -0.0000  -0.0000  -0.0000  -0.0000
    -0.0000  -0.0000

     the Fermi energy is    13.9837 ev

!    total energy              =   -6193.82046080 Ry
     estimated scf accuracy    <       0.00000011 Ry
     smearing contrib. (-TS)   =      -0.00047090 Ry
     internal energy E=F+TS    =   -6193.81998990 Ry

     The total energy is F=E-TS. E is the sum of the following terms:
     one-electron contribution =   -2482.15271318 Ry
     hartree contribution      =    1248.26857161 Ry
     xc contribution           =    -397.20756193 Ry
     ewald contribution        =   -2485.11559011 Ry
     one-center paw contrib.   =   -2077.61269629 Ry
      -> PAW hartree energy AE =    2316.41258229 Ry
      -> PAW hartree energy PS =   -2041.14652963 Ry
      -> PAW xc energy AE      =   -2602.90871018 Ry
      -> PAW xc energy PS      =     250.02996123 Ry
      -> total E_H with PAW    =    1523.53462427 Ry
      -> total E_XC with PAW   =   -2750.08631089 Ry

     convergence has been achieved in  57 iterations

     Forces acting on atoms (cartesian axes, Ry/au):

     atom    1 type  1   force =     0.00798851    0.02585540    0.00000000
     atom    2 type  1   force =    -0.00798851    0.02585540    0.00000000
     atom    3 type  1   force =    -0.00798851   -0.02585540    0.00000000
     atom    4 type  1   force =     0.00798851   -0.02585540   -0.00000000
     atom    5 type  2   force =    -0.00000000   -0.00000000    0.00000000
     atom    6 type  2   force =     0.00000000    0.00000000    0.00000000
     atom    7 type  2   force =     0.00000000    0.00000000    0.00000000
     atom    8 type  2   force =     0.00000000    0.00000000   -0.00000000
     atom    9 type  3   force =    -0.00174387   -0.02762757    0.00000000
     atom   10 type  3   force =     0.00174387   -0.02762757    0.00000000
     atom   11 type  3   force =     0.00174387    0.02762757   -0.00000000
     atom   12 type  3   force =    -0.00174387    0.02762757   -0.00000000
     atom   13 type  3   force =     0.02411611   -0.01813422    0.00660525
     atom   14 type  3   force =    -0.02411611   -0.01813422   -0.00660525
     atom   15 type  3   force =    -0.02411611    0.01813422    0.00660525
     atom   16 type  3   force =     0.02411611    0.01813422   -0.00660525
     atom   17 type  3   force =    -0.02411611    0.01813422   -0.00660525
     atom   18 type  3   force =     0.02411611    0.01813422    0.00660525
     atom   19 type  3   force =     0.02411611   -0.01813422   -0.00660525
     atom   20 type  3   force =    -0.02411611   -0.01813422    0.00660525
     The non-local contrib.  to forces
     atom    1 type  1   force =     0.02014261    0.05255240    0.00000000
     atom    2 type  1   force =    -0.02014261    0.05255240    0.00000000
     atom    3 type  1   force =    -0.02014261   -0.05255240    0.00000000
     atom    4 type  1   force =     0.02014261   -0.05255240    0.00000000
     atom    5 type  2   force =     0.00000000    0.00000000    0.00000000
     atom    6 type  2   force =     0.00000000    0.00000000    0.00000000
     atom    7 type  2   force =     0.00000000    0.00000000    0.00000000
     atom    8 type  2   force =     0.00000000    0.00000000    0.00000000
     atom    9 type  3   force =     0.39058935    0.14495902   -0.00000000
     atom   10 type  3   force =    -0.39058935    0.14495902   -0.00000000
     atom   11 type  3   force =    -0.39058935   -0.14495902    0.00000000
     atom   12 type  3   force =     0.39058935   -0.14495902    0.00000000
     atom   13 type  3   force =    -0.24692082    0.04047730   -0.02827860
     atom   14 type  3   force =     0.24692082    0.04047730    0.02827860
     atom   15 type  3   force =     0.24692082   -0.04047730   -0.02827860
     atom   16 type  3   force =    -0.24692082   -0.04047730    0.02827860
     atom   17 type  3   force =     0.24692082   -0.04047730    0.02827860
     atom   18 type  3   force =    -0.24692082   -0.04047730   -0.02827860
     atom   19 type  3   force =    -0.24692082    0.04047730    0.02827860
     atom   20 type  3   force =     0.24692082    0.04047730   -0.02827860
     The ionic contribution  to forces
     atom    1 type  1   force =    -5.64740601   -8.03471363   -0.00000000
     atom    2 type  1   force =     5.64740601   -8.03471363   -0.00000000
     atom    3 type  1   force =     5.64740601    8.03471363   -0.00000000
     atom    4 type  1   force =    -5.64740601    8.03471363   -0.00000000
     atom    5 type  2   force =     0.00000000    0.00000000   -0.00000000
     atom    6 type  2   force =     0.00000000    0.00000000    0.00000000
     atom    7 type  2   force =    -0.00000000    0.00000000    0.00000000
     atom    8 type  2   force =     0.00000000   -0.00000000   -0.00000000
     atom    9 type  3   force =    -2.78395362    2.32547247    0.00000000
     atom   10 type  3   force =     2.78395362    2.32547247    0.00000000
     atom   11 type  3   force =     2.78395362   -2.32547247   -0.00000000
     atom   12 type  3   force =    -2.78395362   -2.32547247   -0.00000000
     atom   13 type  3   force =     3.83765297   -1.45614180   -1.25579984
     atom   14 type  3   force =    -3.83765297   -1.45614180    1.25579984
     atom   15 type  3   force =    -3.83765297    1.45614180   -1.25579984
     atom   16 type  3   force =     3.83765297    1.45614180    1.25579984
     atom   17 type  3   force =    -3.83765297    1.45614180    1.25579984
     atom   18 type  3   force =     3.83765297    1.45614180   -1.25579984
     atom   19 type  3   force =     3.83765297   -1.45614180    1.25579984
     atom   20 type  3   force =    -3.83765297   -1.45614180   -1.25579984
     The local contribution  to forces
     atom    1 type  1   force =     5.63507574    8.00769676   -0.00066565
     atom    2 type  1   force =    -5.63509896    8.00850131   -0.00063392
     atom    3 type  1   force =    -5.63569789   -8.00798444    0.00064335
     atom    4 type  1   force =     5.63576809   -8.00791259    0.00066292
     atom    5 type  2   force =     0.00015959   -0.00016557    0.00071263
     atom    6 type  2   force =    -0.00020492    0.00012716   -0.00066439
     atom    7 type  2   force =     0.00012555   -0.00019900   -0.00072313
     atom    8 type  2   force =    -0.00022578    0.00009821    0.00065518
     atom    9 type  3   force =     2.39684395   -2.49550906   -0.00012688
     atom   10 type  3   force =    -2.39691627   -2.49551820   -0.00021871
     atom   11 type  3   force =    -2.39677182    2.49564000    0.00012480
     atom   12 type  3   force =     2.39681912    2.49555775    0.00021724
     atom   13 type  3   force =    -3.56928894    1.39737328    1.28975707
     atom   14 type  3   force =     3.56926901    1.39751143   -1.28992950
     atom   15 type  3   force =     3.56929675   -1.39749031    1.28963655
     atom   16 type  3   force =    -3.56939865   -1.39753833   -1.28944460
     atom   17 type  3   force =     3.56929685   -1.39736768   -1.28946116
     atom   18 type  3   force =    -3.56926105   -1.39754178    1.28964285
     atom   19 type  3   force =    -3.56929184    1.39749969   -1.28994085
     atom   20 type  3   force =     3.56939967    1.39752393    1.28975033
     The core correction contribution to forces
     atom    1 type  1   force =    -0.00000017   -0.00000142   -0.00000000
     atom    2 type  1   force =     0.00000017   -0.00000142   -0.00000000
     atom    3 type  1   force =     0.00000017    0.00000142    0.00000000
     atom    4 type  1   force =    -0.00000017    0.00000142    0.00000000
     atom    5 type  2   force =    -0.00000007   -0.00000011    0.00000124
     atom    6 type  2   force =    -0.00000013    0.00000014   -0.00000112
     atom    7 type  2   force =    -0.00000016   -0.00000018   -0.00000126
     atom    8 type  2   force =    -0.00000015    0.00000011    0.00000104
     atom    9 type  3   force =    -0.00520881   -0.00251455    0.00000009
     atom   10 type  3   force =     0.00520826   -0.00251435    0.00000005
     atom   11 type  3   force =     0.00521049    0.00251556   -0.00000006
     atom   12 type  3   force =    -0.00521022    0.00251552   -0.00000007
     atom   13 type  3   force =     0.00268126    0.00004571    0.00096803
     atom   14 type  3   force =    -0.00268154    0.00004609   -0.00096847
     atom   15 type  3   force =    -0.00268173   -0.00004639    0.00096904
     atom   16 type  3   force =     0.00268115   -0.00004564   -0.00096834
     atom   17 type  3   force =    -0.00268128   -0.00004573   -0.00096827
     atom   18 type  3   force =     0.00268181   -0.00004625    0.00096910
     atom   19 type  3   force =     0.00268170    0.00004634   -0.00096890
     atom   20 type  3   force =    -0.00268093    0.00004556    0.00096773
     The Hubbard contrib.    to forces
     atom    1 type  1   force =     0.00000000    0.00000000    0.00000000
     atom    2 type  1   force =     0.00000000    0.00000000    0.00000000
     atom    3 type  1   force =     0.00000000    0.00000000    0.00000000
     atom    4 type  1   force =     0.00000000    0.00000000    0.00000000
     atom    5 type  2   force =     0.00000000    0.00000000    0.00000000
     atom    6 type  2   force =     0.00000000    0.00000000    0.00000000
     atom    7 type  2   force =     0.00000000    0.00000000    0.00000000
     atom    8 type  2   force =     0.00000000    0.00000000    0.00000000
     atom    9 type  3   force =     0.00000000    0.00000000    0.00000000
     atom   10 type  3   force =     0.00000000    0.00000000    0.00000000
     atom   11 type  3   force =     0.00000000    0.00000000    0.00000000
     atom   12 type  3   force =     0.00000000    0.00000000    0.00000000
     atom   13 type  3   force =     0.00000000    0.00000000    0.00000000
     atom   14 type  3   force =     0.00000000    0.00000000    0.00000000
     atom   15 type  3   force =     0.00000000    0.00000000    0.00000000
     atom   16 type  3   force =     0.00000000    0.00000000    0.00000000
     atom   17 type  3   force =     0.00000000    0.00000000    0.00000000
     atom   18 type  3   force =     0.00000000    0.00000000    0.00000000
     atom   19 type  3   force =     0.00000000    0.00000000    0.00000000
     atom   20 type  3   force =     0.00000000    0.00000000    0.00000000
     The SCF correction term to forces
     atom    1 type  1   force =     0.00020172    0.00033493    0.00068168
     atom    2 type  1   force =    -0.00016956   -0.00050278    0.00064399
     atom    3 type  1   force =     0.00046025   -0.00002396   -0.00065081
     atom    4 type  1   force =    -0.00054341   -0.00012103   -0.00067451
     atom    5 type  2   force =    -0.00016491    0.00017345   -0.00072448
     atom    6 type  2   force =     0.00021512   -0.00013674    0.00067783
     atom    7 type  2   force =    -0.00012694    0.00021157    0.00073240
     atom    8 type  2   force =     0.00023051   -0.00009980   -0.00066180
     atom    9 type  3   force =     0.00002133   -0.00001327    0.00013013
     atom   10 type  3   force =     0.00001363    0.00001815    0.00022215
     atom   11 type  3   force =     0.00000558   -0.00006405   -0.00012700
     atom   12 type  3   force =    -0.00003391    0.00002019   -0.00022125
     atom   13 type  3   force =    -0.00001951    0.00009662   -0.00007845
     atom   14 type  3   force =     0.00002301   -0.00002261    0.00023040
     atom   15 type  3   force =    -0.00002101   -0.00002302    0.00012707
     atom   16 type  3   force =     0.00008399    0.00007574   -0.00027053
     atom   17 type  3   force =     0.00000818   -0.00010454   -0.00025501
     atom   18 type  3   force =    -0.00001228    0.00004076    0.00012113
     atom   19 type  3   force =     0.00001102    0.00000962    0.00021506
     atom   20 type  3   force =    -0.00007000   -0.00006657   -0.00009108

     Total force =     0.116735     Total SCF correction =     0.002321

     Computing stress (Cartesian axis) and pressure

          total   stress  (Ry/bohr**3)                   (kbar)     P=     -808.00
  -0.00505062   0.00000000   0.00000000         -742.97        0.00        0.00
   0.00000000  -0.00531791   0.00000000            0.00     -782.29        0.00
   0.00000000   0.00000000  -0.00610948            0.00        0.00     -898.74

     kinetic stress (kbar)  34451.35      0.00      0.00
                                0.00  34478.71      0.00
                                0.00      0.00  34094.56

     local   stress (kbar)    675.53     -0.01      0.02
                               -0.01     -6.93     -0.03
                                0.02     -0.03  -1389.97

     nonloc. stress (kbar)  20955.67      0.00      0.00
                                0.00  20991.79      0.00
                                0.00      0.00  20661.85

     hartree stress (kbar)  42651.79      0.02     -0.01
                                0.02  43031.44     -0.00
                               -0.01     -0.00  43793.07

     exc-cor stress (kbar) -11741.54     -0.00     -0.00
                               -0.00 -11741.07      0.00
                               -0.00      0.00 -11745.25

     corecor stress (kbar)  -1273.27      0.00      0.00
                                0.00  -1273.51     -0.00
                                0.00     -0.00  -1270.30

     ewald   stress (kbar) -86462.49      0.00     -0.00
                                0.00 -86262.72     -0.00
                               -0.00     -0.00 -85042.69

     hubbard stress (kbar)      0.00      0.00      0.00
                                0.00      0.00      0.00
                                0.00      0.00      0.00

     DFT-D   stress (kbar)      0.00      0.00      0.00
                                0.00      0.00      0.00
                                0.00      0.00      0.00

     XDM     stress (kbar)      0.00      0.00      0.00
                                0.00      0.00      0.00
                                0.00      0.00      0.00

     dft-nl  stress (kbar)      0.00      0.00      0.00
                                0.00      0.00      0.00
                                0.00      0.00      0.00

     TS-vdW  stress (kbar)      0.00      0.00      0.00
                                0.00      0.00      0.00
                                0.00      0.00      0.00

[...]

                                0.00      0.00      0.00

     Writing all to output data dir new_calculations/myprefix.save/

     General routines

     Parallel routines

     PAW routines

   This run was terminated on:  20: 1:48  20May2023

   JOB DONE.