     Program PWSCF v.7.0 starts on 21May2023 at  3:27:54

     Reading input from espresso_13870.pwi
Warning: card &CELL ignored
Warning: card / ignored

     Current dimensions of program PWSCF are:
     Max number of different atomic species (ntypx) = 10
     Max number of k-points (npk) =  40000
     Max angular momentum in pseudopotentials (lmaxx) =  4

     gamma-point specific algorithms are used

     Subspace diagonalization in iterative solution of the eigenvalue problem:
     a serial algorithm will be used

     Using Slab Decomposition

     bravais-lattice index     =            0
     lattice parameter (alat)  =      13.9402  a.u.
     unit-cell volume          =     948.8463 (a.u.)^3
     number of atoms/cell      =            8
     number of atomic types    =            3
     number of electrons       =        64.00
     number of Kohn-Sham states=           38
     kinetic-energy cutoff     =      30.0000  Ry
     charge density cutoff     =     240.0000  Ry
     scf convergence threshold =      1.0E-06
     mixing beta               =       0.7000
     number of iterations used =            8  plain     mixing
     Exchange-correlation= PBE
                           (   1   4   3   4   0   0   0)

     celldm(1)=  13.940195  celldm(2)=   0.000000  celldm(3)=   0.000000
     celldm(4)=   0.000000  celldm(5)=   0.000000  celldm(6)=   0.000000

     crystal axes: (cart. coord. in units of alat)
               a(1) = (   1.000000   0.000000   0.000000 )
               a(2) = (   1.000085   0.861622   0.000000 )
               a(3) = (   0.499474   0.570478   0.406511 )

     reciprocal axes: (cart. coord. in units 2 pi/alat)
               b(1) = (  1.000000 -1.160701  0.400186 )
               b(2) = (  0.000000  1.160602 -1.628731 )
               b(3) = (  0.000000  0.000000  2.459955 )

     PseudoPot. # 1 for Sr read from file:
     /home/pragov/projects/rrg-bengioy-ad/pragov/crystal_structure_design/SSSP/Sr_pbe_v1.uspp.F.UPF
     MD5 check sum: 6b418c05fbe9db5448babca5e47b7a5b
     Pseudo is Ultrasoft + core correction, Zval = 10.0
     Generated by new atomic code, or converted to UPF format
     Using radial grid of  883 points,  6 beta functions with:
                l(1) =   0
                l(2) =   0
                l(3) =   1
                l(4) =   1
                l(5) =   2
                l(6) =   2
     Q(r) pseudized with  6 coefficients,  rinner =    1.400   1.400   1.400
                                                       1.400   1.400

     PseudoPot. # 2 for Ce read from file:
     /home/pragov/projects/rrg-bengioy-ad/pragov/crystal_structure_design/SSSP/Ce.GGA-PBE-paw-v1.0.UPF
     MD5 check sum: f2b950f613061344c13339c8d844425d
     Pseudo is Projector augmented-wave + core cor, Zval = 12.0
     Generated using ATOMPAW code
     Shape of augmentation charge: BESSEL
     Using radial grid of 1102 points,  8 beta functions with:
                l(1) =   0
                l(2) =   0
                l(3) =   1
                l(4) =   1
                l(5) =   2
                l(6) =   2
                l(7) =   3
                l(8) =   3
     Q(r) pseudized with 0 coefficients

     PseudoPot. # 3 for N  read from file:
     /home/pragov/projects/rrg-bengioy-ad/pragov/crystal_structure_design/SSSP/N.pbe-n-radius_5.UPF
     MD5 check sum: 16739722b17309cd8fe442a2ace49922
     Pseudo is Ultrasoft + core correction, Zval =  5.0
     Generated using "atomic" code by A. Dal Corso  v.5.1
     Using radial grid of 1085 points,  4 beta functions with:
                l(1) =   0
                l(2) =   0
                l(3) =   1
                l(4) =   1
     Q(r) pseudized with 0 coefficients

     atomic species   valence    mass     pseudopotential
        Sr            10.00    87.62000     Sr( 1.00)
        Ce            12.00   140.11600     Ce( 1.00)
        N              5.00    14.00700     N ( 1.00)

     No symmetry found

                                    s                        frac. trans.

      isym =  1     identity

 cryst.   s( 1) = (     1          0          0      )
                  (     0          1          0      )
                  (     0          0          1      )

 cart.    s( 1) = (  1.0000000 -0.0000000 -0.0000000 )
                  (  0.0000000  1.0000000 -0.0000000 )
                  (  0.0000000  0.0000000  1.0000000 )

   Cartesian axes

     site n.     atom                  positions (alat units)
         1           Sr  tau(   1) = (   1.0000764   0.8602154   0.0009431  )
         2           Sr  tau(   2) = (   1.2496504   0.4302743   0.0003207  )
         3           Ce  tau(   3) = (   0.7511021   0.4283626   0.0018061  )
         4           Ce  tau(   4) = (   1.4961552   0.8606266   0.0001175  )
         5           N   tau(   5) = (   0.5022721   0.2514089   0.1763089  )
         6           N   tau(   6) = (   0.7559535   0.6772535   0.1823058  )
         7           N   tau(   7) = (   0.9967210   0.3205887   0.2251041  )
         8           N   tau(   8) = (   1.2566548   0.7524821   0.2232134  )

   Crystallographic axes

     site n.     atom                  positions (cryst. coord.)
         1           Sr  tau(   1) = (  0.0020010  0.9968320  0.0023200  )
         2           Sr  tau(   2) = (  0.7503590  0.4988550  0.0007890  )
         3           Ce  tau(   3) = (  0.2546240  0.4942170  0.0044430  )
         4           Ce  tau(   4) = (  0.4972720  0.9986540  0.0002890  )
         5           N   tau(   5) = (  0.2810180  0.0046260  0.4337120  )
         6           N   tau(   6) = (  0.0428210  0.4890950  0.4484640  )
         7           N   tau(   7) = (  0.7146970  0.0054420  0.5537460  )
         8           N   tau(   8) = (  0.4725750  0.5097780  0.5490950  )

     number of k points=     1  Methfessel-Paxton smearing, width (Ry)=  0.0010
                       cart. coord. in units 2pi/alat
        k(    1) = (   0.0000000   0.0000000   0.0000000), wk =   2.0000000

                       cryst. coord.
        k(    1) = (   0.0000000   0.0000000   0.0000000), wk =   2.0000000

     Check: negative core charge=   -0.000003

     Initial potential from superposition of free atoms

     starting charge      63.9187, renormalised to      64.0000

     negative rho (up, down):  1.268E-01 0.000E+00
     Starting wfcs are  106 randomized atomic wfcs
     Checking if some PAW data can be deallocated...

     Self-consistent Calculation

     iteration #  1     ecut=    30.00 Ry     beta= 0.70
     Davidson diagonalization with overlap

     ethr =  1.00E-02,  avg # of iterations =  2.0

     negative rho (up, down):  1.304E-01 0.000E+00

     total energy              =   -1180.25436790 Ry
     estimated scf accuracy    <       6.48619799 Ry

[...]

     total energy              =   -1185.08147503 Ry
     estimated scf accuracy    <       0.00000862 Ry

     iteration # 26     ecut=    30.00 Ry     beta= 0.70
     Davidson diagonalization with overlap

     ethr =  1.56E-09,  avg # of iterations =  6.0

[...]

     End of self-consistent calculation

          k = 0.0000 0.0000 0.0000 (  1320 PWs)   bands (ev):

   -23.1496 -23.0684 -21.9311 -21.7789  -5.9360  -5.4430  -5.4349  -5.4262
    -5.4221  -5.3720  -5.3406  -4.9792  -4.9730  -4.6704  -4.5223  -4.5143
    -0.9189  -0.8857   0.3032   0.4409   9.0481   9.5263   9.9358   9.9469
    10.0475  10.0525  10.7249  10.7535  10.8131  10.8367  10.9224  11.2254
    11.6565  12.8954  13.0883  13.0948  13.1328  13.1429

     occupation numbers
     1.0000   1.0000   1.0000   1.0000   1.0000   1.0000   1.0000   1.0000
     1.0000   1.0000   1.0000   1.0000   1.0000   1.0000   1.0000   1.0000
     1.0000   1.0000   1.0000   1.0000   1.0000   1.0000   1.0000   1.0000
     1.0000   1.0000   1.0000   1.0000   1.0000   1.0000   1.0000   1.0000
    -0.0000  -0.0000  -0.0000  -0.0000  -0.0000  -0.0000

     the Fermi energy is    11.5650 ev

!    total energy              =   -1185.08147541 Ry
     estimated scf accuracy    <       0.00000067 Ry
     smearing contrib. (-TS)   =       0.00000000 Ry
     internal energy E=F+TS    =   -1185.08147541 Ry

     The total energy is F=E-TS. E is the sum of the following terms:
     one-electron contribution =     -22.08089656 Ry
     hartree contribution      =      52.05058385 Ry
     xc contribution           =     -79.37723422 Ry
     ewald contribution        =    -319.04636320 Ry
     one-center paw contrib.   =    -816.62756529 Ry
      -> PAW hartree energy AE =      88.94124566 Ry
      -> PAW hartree energy PS =     -88.46973660 Ry
      -> PAW xc energy AE      =    -834.38301471 Ry
      -> PAW xc energy PS      =      17.28394037 Ry
      -> total E_H with PAW    =      52.52209291 Ry
      -> total E_XC with PAW   =    -896.47630856 Ry

     convergence has been achieved in  26 iterations

     negative rho (up, down):  1.365E-01 0.000E+00

     Forces acting on atoms (cartesian axes, Ry/au):

     atom    1 type  1   force =    -0.03290569   -0.00272129    0.00516311
     atom    2 type  1   force =    -0.00417980   -0.01041209    0.01533662
     atom    3 type  2   force =    -0.00694152   -0.01071541    0.01700836
     atom    4 type  2   force =    -0.03577655   -0.00480062    0.00689103
     atom    5 type  3   force =     0.01068471   -0.06393290   -0.07767664
     atom    6 type  3   force =     0.02776710   -0.07552378   -0.05881871
     atom    7 type  3   force =     0.00399873    0.08397096    0.04721132
     atom    8 type  3   force =     0.03735302    0.08413514    0.04488491
     The non-local contrib.  to forces
     atom    1 type  1   force =     0.02947556    0.00568931   -0.00974102
     atom    2 type  1   force =     0.01181999    0.00671075   -0.01503777
     atom    3 type  2   force =     0.02460533    0.03811231   -0.05663998
     atom    4 type  2   force =     0.12108577    0.01200841   -0.02500792
     atom    5 type  3   force =    -0.00879202    0.35775476    0.27956738
     atom    6 type  3   force =    -0.03142793    0.39060405    0.23414430
     atom    7 type  3   force =     0.03011749   -0.37611608   -0.24979769
     atom    8 type  3   force =    -0.04137252   -0.38417068   -0.23015886
     The ionic contribution  to forces
     atom    1 type  1   force =    -0.21723884    0.02235348   -0.02613933
     atom    2 type  1   force =     0.02900531   -0.11119791    0.09723943
     atom    3 type  2   force =    -0.31543712    0.22524934   -0.38274622
     atom    4 type  2   force =     0.88239131   -0.03294833    0.08622687
     atom    5 type  3   force =    -0.09726393    1.73338767    1.29893957
     atom    6 type  3   force =    -0.33481576    2.03447957    0.93010777
     atom    7 type  3   force =     0.33342726   -1.90783884   -1.06607493
     atom    8 type  3   force =    -0.28006823   -1.96348496   -0.93755316
     The local contribution  to forces
     atom    1 type  1   force =     0.15684496   -0.03026368    0.04048001
     atom    2 type  1   force =    -0.04415467    0.09452798   -0.06792486
     atom    3 type  2   force =     0.28392137   -0.27395293    0.45653240
     atom    4 type  2   force =    -1.03909599    0.01594197   -0.05459434
     atom    5 type  3   force =     0.11666887   -2.15120715   -1.65316874
     atom    6 type  3   force =     0.39362747   -2.49661920   -1.22066935
     atom    7 type  3   force =    -0.35925019    2.36377375    1.36034957
     atom    8 type  3   force =     0.35830320    2.42780089    1.21025729
     The core correction contribution to forces
     atom    1 type  1   force =    -0.00199600   -0.00038497    0.00068213
     atom    2 type  1   force =    -0.00085909   -0.00047175    0.00102841
     atom    3 type  2   force =    -0.00004713   -0.00000840    0.00001701
     atom    4 type  2   force =    -0.00002398   -0.00001159    0.00002658
     atom    5 type  3   force =     0.00010612   -0.00391432   -0.00306913
     atom    6 type  3   force =     0.00038105   -0.00428306   -0.00257242
     atom    7 type  3   force =    -0.00032485    0.00413292    0.00271544
     atom    8 type  3   force =     0.00047679    0.00421556    0.00251443
     The Hubbard contrib.    to forces
     atom    1 type  1   force =     0.00000000    0.00000000    0.00000000
     atom    2 type  1   force =     0.00000000    0.00000000    0.00000000
     atom    3 type  2   force =     0.00000000    0.00000000    0.00000000
     atom    4 type  2   force =     0.00000000    0.00000000    0.00000000
     atom    5 type  3   force =     0.00000000    0.00000000    0.00000000
     atom    6 type  3   force =     0.00000000    0.00000000    0.00000000
     atom    7 type  3   force =     0.00000000    0.00000000    0.00000000
     atom    8 type  3   force =     0.00000000    0.00000000    0.00000000
     The SCF correction term to forces
     atom    1 type  1   force =     0.00000812   -0.00012200   -0.00012162
     atom    2 type  1   force =     0.00000813    0.00001226    0.00002849
     atom    3 type  2   force =     0.00001550   -0.00012230   -0.00015778
     atom    4 type  2   force =    -0.00013420    0.00020235    0.00023691
     atom    5 type  3   force =    -0.00003485    0.00003956    0.00005135
     atom    6 type  3   force =     0.00000174    0.00028829    0.00016807
     atom    7 type  3   force =     0.00002850    0.00001262    0.00001599
     atom    8 type  3   force =     0.00001326   -0.00023224   -0.00017772

     Total force =     0.207931     Total SCF correction =     0.000624

     Computing stress (Cartesian axis) and pressure

     negative rho (up, down):  1.365E-01 0.000E+00
          total   stress  (Ry/bohr**3)                   (kbar)     P=       93.69
   0.00108317   0.00000515  -0.00000856          159.34        0.76       -1.26
   0.00000515   0.00019806  -0.00063688            0.76       29.14      -93.69
  -0.00000856  -0.00063688   0.00062947           -1.26      -93.69       92.60

     kinetic stress (kbar)  13465.51      7.02      0.11
                                7.02  13631.14    124.43
                                0.11    124.43  13569.70

     local   stress (kbar)  -4894.01    -93.95    -87.17
                              -93.95  -7028.64  -1751.45
                              -87.17  -1751.45  -6368.63

     nonloc. stress (kbar)   9889.03     -3.27     -3.00
                               -3.27   9648.66   -182.40
                               -3.00   -182.40   9752.40

     hartree stress (kbar)   2318.14     33.86     30.14
                               33.86   2966.64    543.62
                               30.14    543.62   2784.91

     exc-cor stress (kbar)     31.32      0.15      0.15
                                0.15     43.40      8.97
                                0.15      8.97     38.16

     corecor stress (kbar)  -3368.55     -0.07      0.02
                               -0.07  -3366.72      1.29
                                0.02      1.29  -3367.81

     ewald   stress (kbar) -17282.10     57.02     58.50
                               57.02 -15865.34   1161.86
                               58.50   1161.86 -16316.14

     hubbard stress (kbar)      0.00      0.00      0.00
                                0.00      0.00      0.00
                                0.00      0.00      0.00

     DFT-D   stress (kbar)      0.00      0.00      0.00
                                0.00      0.00      0.00
                                0.00      0.00      0.00

     XDM     stress (kbar)      0.00      0.00      0.00
                                0.00      0.00      0.00
                                0.00      0.00      0.00

     dft-nl  stress (kbar)      0.00      0.00      0.00
                                0.00      0.00      0.00
                                0.00      0.00      0.00

     TS-vdW  stress (kbar)      0.00      0.00      0.00
                                0.00      0.00      0.00
                                0.00      0.00      0.00

[...]

                                0.00      0.00      0.00

     Writing all to output data dir new_calculations/myprefix.save/

     General routines

     Parallel routines

     PAW routines

   This run was terminated on:   3:28:45  21May2023

   JOB DONE.