     Program PWSCF v.7.0 starts on 20May2023 at 20:25:17

     Reading input from espresso_12512.pwi
Warning: card &CELL ignored
Warning: card / ignored

     Current dimensions of program PWSCF are:
     Max number of different atomic species (ntypx) = 10
     Max number of k-points (npk) =  40000
     Max angular momentum in pseudopotentials (lmaxx) =  4
     file O.pbe-n-kjpaw_psl.0.1.UPF: wavefunction(s)  2P renormalized

     gamma-point specific algorithms are used
     Message from routine setup:
     using ibrav=0 with symmetry is DISCOURAGED, use correct ibrav instead

     Subspace diagonalization in iterative solution of the eigenvalue problem:
     a serial algorithm will be used

     Using Slab Decomposition

     bravais-lattice index     =            0
     lattice parameter (alat)  =      11.8228  a.u.
     unit-cell volume          =    1265.7711 (a.u.)^3
     number of atoms/cell      =           16
     number of atomic types    =            4
     number of electrons       =       100.00
     number of Kohn-Sham states=           60
     kinetic-energy cutoff     =      30.0000  Ry
     charge density cutoff     =     240.0000  Ry
     scf convergence threshold =      1.0E-06
     mixing beta               =       0.7000
     number of iterations used =            8  plain     mixing
     Exchange-correlation= SLA  PW   PBX  PBC
                           (   1   4   3   4   0   0   0)

     celldm(1)=  11.822805  celldm(2)=   0.000000  celldm(3)=   0.000000
     celldm(4)=   0.000000  celldm(5)=   0.000000  celldm(6)=   0.000000

     crystal axes: (cart. coord. in units of alat)
               a(1) = (   1.000000   0.000000   0.000000 )
               a(2) = (  -0.408935   0.912563   0.000000 )
               a(3) = (  -0.295532  -0.456282   0.839326 )

     reciprocal axes: (cart. coord. in units 2 pi/alat)
               b(1) = (  1.000000  0.448117  0.595716 )
               b(2) = (  0.000000  1.095814  0.595716 )
               b(3) = (  0.000000  0.000000  1.191433 )

     PseudoPot. # 1 for Sr read from file:
     /home/pragov/projects/rrg-bengioy-ad/pragov/crystal_structure_design/SSSP/Sr_pbe_v1.uspp.F.UPF
     MD5 check sum: 6b418c05fbe9db5448babca5e47b7a5b
     Pseudo is Ultrasoft + core correction, Zval = 10.0
     Generated by new atomic code, or converted to UPF format
     Using radial grid of  883 points,  6 beta functions with:
                l(1) =   0
                l(2) =   0
                l(3) =   1
                l(4) =   1
                l(5) =   2
                l(6) =   2
     Q(r) pseudized with  6 coefficients,  rinner =    1.400   1.400   1.400
                                                       1.400   1.400

     PseudoPot. # 2 for Ge read from file:
     /home/pragov/projects/rrg-bengioy-ad/pragov/crystal_structure_design/SSSP/ge_pbe_v1.4.uspp.F.UPF
     MD5 check sum: 9c9eaa91e581c3f09632fb3098b2c6b2
     Pseudo is Ultrasoft + core correction, Zval = 14.0
     Generated by new atomic code, or converted to UPF format
     Using radial grid of  873 points,  6 beta functions with:
                l(1) =   0
                l(2) =   0
                l(3) =   1
                l(4) =   1
                l(5) =   2
                l(6) =   2
     Q(r) pseudized with  8 coefficients,  rinner =    1.400   1.400   1.400
                                                       1.400   1.400

     PseudoPot. # 3 for H  read from file:
     /home/pragov/projects/rrg-bengioy-ad/pragov/crystal_structure_design/SSSP/H.pbe-rrkjus_psl.1.0.0.UPF
     MD5 check sum: f52b6d4d1c606e5624b1dc7b2218f220
     Pseudo is Ultrasoft, Zval =  1.0
     Generated using "atomic" code by A. Dal Corso  v.5.1
     Using radial grid of  929 points,  2 beta functions with:
                l(1) =   0
                l(2) =   0
     Q(r) pseudized with 0 coefficients

     PseudoPot. # 4 for O  read from file:
     /home/pragov/projects/rrg-bengioy-ad/pragov/crystal_structure_design/SSSP/O.pbe-n-kjpaw_psl.0.1.UPF
     MD5 check sum: 0234752ac141de4415c5fc33072bef88
     Pseudo is Projector augmented-wave + core cor, Zval =  6.0
     Generated using "atomic" code by A. Dal Corso  v.5.0.99 svn rev. 10869
     Shape of augmentation charge: BESSEL
     Using radial grid of 1095 points,  4 beta functions with:
                l(1) =   0
                l(2) =   0
                l(3) =   1
                l(4) =   1
     Q(r) pseudized with 0 coefficients

     atomic species   valence    mass     pseudopotential
        Sr            10.00    87.62000     Sr( 1.00)
        Ge            14.00    72.63000     Ge( 1.00)
        H              1.00     1.00800     H ( 1.00)
        O              6.00    15.99900     O ( 1.00)

      2 Sym. Ops. (no inversion) found ( 1 have fractional translation)

                                    s                        frac. trans.

      isym =  1     identity

 cryst.   s( 1) = (     1          0          0      )
                  (     0          1          0      )
                  (     0          0          1      )

 cart.    s( 1) = (  1.0000000  0.0000000  0.0000000 )
                  (  0.0000000  1.0000000  0.0000000 )
                  (  0.0000000  0.0000000  1.0000000 )

      isym =  2     inv. 180 deg rotation - cart. axis [0,0,1]

 cryst.   s( 2) = (     1          0          0      )    f =( -0.2500000 )
                  (     0          1          0      )       (  0.2500000 )
                  (    -1         -1         -1      )       ( -0.5000000 )

 cart.    s( 2) = (  1.0000000  0.0000000  0.0000000 )    f =( -0.2044677 )
                  (  0.0000000  1.0000000  0.0000000 )       (  0.4562817 )
                  (  0.0000000  0.0000000 -1.0000000 )       ( -0.4196629 )

   Cartesian axes

     site n.     atom                  positions (alat units)
         1           Sr  tau(   1) = (   0.5000000  -0.0000000   0.4196629  )
         2           Sr  tau(   2) = (   0.2955323   0.4562817   0.0000000  )
         3           Ge  tau(   3) = (  -0.2044677   0.4562817   0.4196629  )
         4           Ge  tau(   4) = (   0.0000000   0.0000000   0.0000000  )
         5           H   tau(   5) = (  -0.0192241  -0.1494728   0.3545404  )
         6           H   tau(   6) = (   0.7763081   0.3068088   0.0651224  )
         7           H   tau(   7) = (  -0.3330097   0.3776137   0.7742033  )
         8           H   tau(   8) = (   0.1669903   0.3776137   0.4847853  )
         9           O   tau(   9) = (   0.0707301   0.4821113   0.3506359  )
        10           O   tau(  10) = (  -0.2396470   0.2749927   0.6366017  )
        11           O   tau(  11) = (   0.6444807   0.3500429   0.2027240  )
        12           O   tau(  12) = (   0.1155008  -0.1945836   0.4886899  )
        13           O   tau(  13) = (   0.2603530   0.2749927   0.6223869  )
        14           O   tau(  14) = (   0.8489484  -0.1062388   0.2169389  )
        15           O   tau(  15) = (   0.2751978   0.0258296   0.0690270  )
        16           O   tau(  16) = (   0.6155008  -0.1945836   0.7702988  )

   Crystallographic axes

     site n.     atom                  positions (cryst. coord.)
         1           Sr  tau(   1) = (  0.7500000  0.2500000  0.5000000  )
         2           Sr  tau(   2) = (  0.5000000  0.5000000  0.0000000  )
         3           Ge  tau(   3) = (  0.2500000  0.7500000  0.5000000  )
         4           Ge  tau(   4) = (  0.0000000  0.0000000  0.0000000  )
         5           H   tau(   5) = (  0.1250000  0.0474110  0.4224110  )
         6           H   tau(   6) = (  0.9525890  0.3750000  0.0775890  )
         7           H   tau(   7) = (  0.2974110  0.8750000  0.9224110  )
         8           H   tau(   8) = (  0.6250000  0.7025890  0.5775890  )
         9           O   tau(   9) = (  0.4956520  0.7371840  0.4177590  )
        10           O   tau(  10) = (  0.2628160  0.6805750  0.7584680  )
        11           O   tau(  11) = (  0.9221070  0.5043480  0.2415320  )
        12           O   tau(  12) = (  0.3194250  0.0778930  0.5822410  )
        13           O   tau(  13) = (  0.7543480  0.6721070  0.7415320  )
        14           O   tau(  14) = (  0.9305750  0.0128160  0.2584680  )
        15           O   tau(  15) = (  0.3278930  0.0694250  0.0822410  )
        16           O   tau(  16) = (  0.9871840  0.2456520  0.9177590  )

     number of k points=     1  Methfessel-Paxton smearing, width (Ry)=  0.0010
                       cart. coord. in units 2pi/alat
        k(    1) = (   0.0000000   0.0000000   0.0000000), wk =   2.0000000

                       cryst. coord.
        k(    1) = (   0.0000000   0.0000000   0.0000000), wk =   2.0000000

     Check: negative core charge=   -0.000012

     Initial potential from superposition of free atoms

     starting charge      99.9309, renormalised to     100.0000

     negative rho (up, down):  1.298E-01 0.000E+00
     Starting wfcs are   80 randomized atomic wfcs
     Checking if some PAW data can be deallocated...

     Self-consistent Calculation

     iteration #  1     ecut=    30.00 Ry     beta= 0.70
     Davidson diagonalization with overlap

     ethr =  1.00E-02,  avg # of iterations =  3.0

     negative rho (up, down):  1.296E-01 0.000E+00

     total energy              =    -904.91603564 Ry
     estimated scf accuracy    <       2.77299665 Ry

[...]

     total energy              =    -906.13001304 Ry
     estimated scf accuracy    <       0.00000464 Ry

     iteration #  9     ecut=    30.00 Ry     beta= 0.70
     Davidson diagonalization with overlap

     ethr =  4.64E-09,  avg # of iterations =  2.0

[...]

     End of self-consistent calculation

          k = 0.0000 0.0000 0.0000 (  1778 PWs)   bands (ev):

   -27.1673 -27.1350 -18.3218 -18.3012 -18.2841 -18.2604 -18.2305 -18.1606
   -18.0948 -18.0688 -18.0443 -17.9747 -13.7566 -12.5891 -12.5665 -12.5559
   -12.4600 -11.8695 -11.5543 -11.5158  -9.3056  -9.2605  -9.2290  -9.1322
    -9.0291  -8.9130  -2.3324  -1.0700  -1.0311  -0.4418  -0.4313   0.9590
     1.7265   1.8145   1.8269   2.1088   2.5420   2.5658   2.9542   3.6722
     4.0311   4.0696   4.1125   4.2508   4.3662   4.3783   4.4988   4.5960
     4.6202   4.6592   8.6868  11.3576  11.5475  12.7753  12.7832  12.9879
    13.0053  13.4580  13.5308  13.5957

     occupation numbers
     1.0000   1.0000   1.0000   1.0000   1.0000   1.0000   1.0000   1.0000
     1.0000   1.0000   1.0000   1.0000   1.0000   1.0000   1.0000   1.0000
     1.0000   1.0000   1.0000   1.0000   1.0000   1.0000   1.0000   1.0000
     1.0000   1.0000   1.0000   1.0000   1.0000   1.0000   1.0000   1.0000
     1.0000   1.0000   1.0000   1.0000   1.0000   1.0000   1.0000   1.0000
     1.0000   1.0000   1.0000   1.0000   1.0000   1.0000   1.0000   1.0000
     1.0000   1.0000  -0.0000  -0.0000  -0.0000  -0.0000  -0.0000  -0.0000
    -0.0000  -0.0000  -0.0000  -0.0000

     the Fermi energy is     8.6023 ev

!    total energy              =    -906.13001300 Ry
     estimated scf accuracy    <       0.00000072 Ry
     smearing contrib. (-TS)   =       0.00000000 Ry
     internal energy E=F+TS    =    -906.13001300 Ry

     The total energy is F=E-TS. E is the sum of the following terms:
     one-electron contribution =    -464.28208096 Ry
     hartree contribution      =     297.03219967 Ry
     xc contribution           =    -216.29064934 Ry
     ewald contribution        =    -446.42872451 Ry
     one-center paw contrib.   =     -76.16075787 Ry
      -> PAW hartree energy AE =     244.11574088 Ry
      -> PAW hartree energy PS =    -243.29865557 Ry
      -> PAW xc energy AE      =    -138.36030473 Ry
      -> PAW xc energy PS      =      61.38246155 Ry
      -> total E_H with PAW    =     297.84928498 Ry
      -> total E_XC with PAW   =    -293.26849252 Ry

     convergence has been achieved in   9 iterations

     negative rho (up, down):  1.317E-01 0.000E+00

     Forces acting on atoms (cartesian axes, Ry/au):

     atom    1 type  1   force =     0.00616023   -0.00316252   -0.00216291
     atom    2 type  1   force =     0.00616023   -0.00316252    0.00216291
     atom    3 type  2   force =     0.00229697   -0.00277334   -0.00297393
     atom    4 type  2   force =     0.00229697   -0.00277334    0.00297393
     atom    5 type  3   force =     0.00203910    0.00149462   -0.00084922
     atom    6 type  3   force =     0.00203910    0.00149462    0.00084922
     atom    7 type  3   force =    -0.00306406    0.00502612   -0.00032407
     atom    8 type  3   force =    -0.00306406    0.00502612    0.00032407
     atom    9 type  4   force =    -0.00775970    0.00140491    0.00897772
     atom   10 type  4   force =    -0.00823926    0.01595435    0.00609305
     atom   11 type  4   force =     0.01135485   -0.01321616   -0.00649200
     atom   12 type  4   force =    -0.00278813   -0.00472798   -0.01060482
     atom   13 type  4   force =    -0.00823926    0.01595435   -0.00609305
     atom   14 type  4   force =     0.01135485   -0.01321616    0.00649200
     atom   15 type  4   force =    -0.00775970    0.00140491   -0.00897772
     atom   16 type  4   force =    -0.00278813   -0.00472798    0.01060482
     The non-local contrib.  to forces
     atom    1 type  1   force =     0.00191408   -0.00227154   -0.00284183
     atom    2 type  1   force =     0.00191408   -0.00227154    0.00284183
     atom    3 type  2   force =     0.00387069    0.00747825    0.00388380
     atom    4 type  2   force =     0.00387069    0.00747825   -0.00388380
     atom    5 type  3   force =     0.00143102   -0.00076883   -0.00126135
     atom    6 type  3   force =     0.00143102   -0.00076883    0.00126135
     atom    7 type  3   force =    -0.00141535    0.00105395   -0.00123155
     atom    8 type  3   force =    -0.00141535    0.00105395    0.00123155
     atom    9 type  4   force =    -0.82187255   -0.42232919    0.67023771
     atom   10 type  4   force =    -0.11356912    1.04190892   -0.49559968
     atom   11 type  4   force =     0.98814650    0.31093282    0.48732370
     atom   12 type  4   force =    -0.04612978   -0.93556250   -0.67405301
     atom   13 type  4   force =    -0.11356912    1.04190892    0.49559968
     atom   14 type  4   force =     0.98814650    0.31093282   -0.48732370
     atom   15 type  4   force =    -0.82187255   -0.42232919   -0.67023771
     atom   16 type  4   force =    -0.04612978   -0.93556250    0.67405301
     The ionic contribution  to forces
     atom    1 type  1   force =     0.00000000   -0.00000000    0.00000000
     atom    2 type  1   force =    -0.00000000    0.00000000   -0.00000000
     atom    3 type  2   force =     0.00000000    0.00000000    0.00000000
     atom    4 type  2   force =    -0.00000000    0.00000000    0.00000000
     atom    5 type  3   force =    -0.54363874    0.35211319    0.64770887
     atom    6 type  3   force =    -0.54363874    0.35211319   -0.64770887
     atom    7 type  3   force =     0.54363874   -0.35211319    0.64770887
     atom    8 type  3   force =     0.54363874   -0.35211319   -0.64770887
     atom    9 type  4   force =     9.83080588    2.00069883   -4.76356761
     atom   10 type  4   force =     0.17998253   -8.48465662    7.16361115
     atom   11 type  4   force =    -7.81638751   -3.30543160   -7.16361115
     atom   12 type  4   force =    -2.19440090    9.78938939    4.76356761
     atom   13 type  4   force =     0.17998252   -8.48465663   -7.16361115
     atom   14 type  4   force =    -7.81638751   -3.30543160    7.16361115
     atom   15 type  4   force =     9.83080588    2.00069882    4.76356761
     atom   16 type  4   force =    -2.19440089    9.78938939   -4.76356761
     The local contribution  to forces
     atom    1 type  1   force =     0.00239783   -0.00273892   -0.00263929
     atom    2 type  1   force =     0.00559172   -0.00308209   -0.00390772
     atom    3 type  2   force =    -0.00359994   -0.01173724   -0.01714424
     atom    4 type  2   force =     0.00157906   -0.01262193   -0.00384052
     atom    5 type  3   force =     0.54555850   -0.35245703   -0.64647389
     atom    6 type  3   force =     0.54359589   -0.35200917    0.64810024
     atom    7 type  3   force =    -0.54540774    0.35306689   -0.64721359
     atom    8 type  3   force =    -0.54457328    0.35438707    0.64636492
     atom    9 type  4   force =    -9.03473051   -1.59156161    4.09797234
     atom   10 type  4   force =    -0.05980915    7.46596611   -6.66820835
     atom   11 type  4   force =     6.83530973    2.99036001    6.68197336
     atom   12 type  4   force =     2.24696420   -8.85883463   -4.10394423
     atom   13 type  4   force =    -0.09026829    7.46813701    6.66778902
     atom   14 type  4   force =     6.86439781    2.97486100   -6.66943074
     atom   15 type  4   force =    -9.01496331   -1.57603876   -4.12026469
     atom   16 type  4   force =     2.22813053   -8.88287851    4.11010142
     The core correction contribution to forces
     atom    1 type  1   force =     0.00066857   -0.00043931    0.00002650
     atom    2 type  1   force =     0.00040514   -0.00042857   -0.00007542
     atom    3 type  2   force =    -0.00029009   -0.00017222   -0.00029144
     atom    4 type  2   force =    -0.00011420   -0.00050662    0.00019188
     atom    5 type  3   force =     0.00000000    0.00000000    0.00000000
     atom    6 type  3   force =     0.00000000    0.00000000    0.00000000
     atom    7 type  3   force =     0.00000000    0.00000000    0.00000000
     atom    8 type  3   force =     0.00000000    0.00000000    0.00000000
     atom    9 type  4   force =     0.00811040    0.00422247   -0.00701157
     atom   10 type  4   force =     0.00114937   -0.01047375    0.00592832
     atom   11 type  4   force =    -0.01024910   -0.00352255   -0.00574681
     atom   12 type  4   force =     0.00069578    0.01008254    0.00689685
     atom   13 type  4   force =     0.00016401   -0.01059846   -0.00613743
     atom   14 type  4   force =    -0.00927830   -0.00379253    0.00598417
     atom   15 type  4   force =     0.00854477    0.00454960    0.00637031
     atom   16 type  4   force =     0.00026271    0.00944087   -0.00668076
     The Hubbard contrib.    to forces
     atom    1 type  1   force =     0.00000000    0.00000000    0.00000000
     atom    2 type  1   force =     0.00000000    0.00000000    0.00000000
     atom    3 type  2   force =     0.00000000    0.00000000    0.00000000
     atom    4 type  2   force =     0.00000000    0.00000000    0.00000000
     atom    5 type  3   force =     0.00000000    0.00000000    0.00000000
     atom    6 type  3   force =     0.00000000    0.00000000    0.00000000
     atom    7 type  3   force =     0.00000000    0.00000000    0.00000000
     atom    8 type  3   force =     0.00000000    0.00000000    0.00000000
     atom    9 type  4   force =     0.00000000    0.00000000    0.00000000
     atom   10 type  4   force =     0.00000000    0.00000000    0.00000000
     atom   11 type  4   force =     0.00000000    0.00000000    0.00000000
     atom   12 type  4   force =     0.00000000    0.00000000    0.00000000
     atom   13 type  4   force =     0.00000000    0.00000000    0.00000000
     atom   14 type  4   force =     0.00000000    0.00000000    0.00000000
     atom   15 type  4   force =     0.00000000    0.00000000    0.00000000
     atom   16 type  4   force =     0.00000000    0.00000000    0.00000000
     The SCF correction term to forces
     atom    1 type  1   force =     0.00003354    0.00015485   -0.00002606
     atom    2 type  1   force =     0.00002061   -0.00000061   -0.00001355
     atom    3 type  2   force =    -0.00019915   -0.00015195    0.00007203
     atom    4 type  2   force =     0.00010198   -0.00006593    0.00000045
     atom    5 type  3   force =     0.00001148   -0.00000307    0.00001446
     atom    6 type  3   force =    -0.00004713    0.00001706    0.00003382
     atom    7 type  3   force =     0.00002588   -0.00002783   -0.00002253
     atom    8 type  3   force =     0.00000536   -0.00000812    0.00000175
     atom    9 type  4   force =     0.00008723    0.00009722   -0.00014602
     atom   10 type  4   force =     0.00000946   -0.00019876    0.00011481
     atom   11 type  4   force =    -0.00020682   -0.00006459   -0.00009575
     atom   12 type  4   force =     0.00005458    0.00014100    0.00014023
     atom   13 type  4   force =     0.00007438   -0.00018077    0.00002004
     atom   14 type  4   force =    -0.00015649   -0.00002881   -0.00001353
     atom   15 type  4   force =     0.00019050    0.00004892    0.00009390
     atom   16 type  4   force =     0.00000241    0.00018626   -0.00008898

     Total force =     0.047053     Total SCF correction =     0.000678

     Computing stress (Cartesian axis) and pressure

     negative rho (up, down):  1.317E-01 0.000E+00
          total   stress  (Ry/bohr**3)                   (kbar)     P=     -296.96
  -0.00193348  -0.00002175  -0.00000000         -284.43       -3.20       -0.00
  -0.00002175  -0.00213448  -0.00000000           -3.20     -313.99       -0.00
  -0.00000000  -0.00000000  -0.00198811           -0.00       -0.00     -292.46

     kinetic stress (kbar)  16683.06    112.16      0.00
                              112.16  16776.16      0.00
                                0.00      0.00  16608.96

     local   stress (kbar) -10700.40    106.34      9.55
                              106.34 -10629.33     10.60
                                9.55     10.60 -10783.36

     nonloc. stress (kbar)   5117.98     16.58      0.00
                               16.58   5143.35      0.00
                                0.00      0.00   5120.88

     hartree stress (kbar)  11518.81    -99.86      2.06
                              -99.86  11424.83      0.61
                                2.06      0.61  11576.77

     exc-cor stress (kbar)   4244.11     -4.75      0.10
                               -4.75   4239.56      0.06
                                0.10      0.06   4246.89

     corecor stress (kbar)  -9864.72     -0.34      0.42
                               -0.34  -9865.79      0.16
                                0.42      0.16  -9865.70

     ewald   stress (kbar) -17283.27   -133.34      0.00
                             -133.34 -17402.77      0.00
                                0.00      0.00 -17196.90

     hubbard stress (kbar)      0.00      0.00      0.00
                                0.00      0.00      0.00
                                0.00      0.00      0.00

     DFT-D   stress (kbar)      0.00      0.00      0.00
                                0.00      0.00      0.00
                                0.00      0.00      0.00

     XDM     stress (kbar)      0.00      0.00      0.00
                                0.00      0.00      0.00
                                0.00      0.00      0.00

     dft-nl  stress (kbar)      0.00      0.00      0.00
                                0.00      0.00      0.00
                                0.00      0.00      0.00

     TS-vdW  stress (kbar)      0.00      0.00      0.00
                                0.00      0.00      0.00
                                0.00      0.00      0.00

[...]

                                0.00      0.00      0.00

     Writing all to output data dir new_calculations/myprefix.save/

     General routines

     Parallel routines

     PAW routines

   This run was terminated on:  20:25:50  20May2023

   JOB DONE.