     Program PWSCF v.7.0 starts on 20May2023 at 23:13: 2

     Reading input from espresso_6601.pwi
Warning: card &CELL ignored
Warning: card / ignored

     Current dimensions of program PWSCF are:
     Max number of different atomic species (ntypx) = 10
     Max number of k-points (npk) =  40000
     Max angular momentum in pseudopotentials (lmaxx) =  4
     file O.pbe-n-kjpaw_psl.0.1.UPF: wavefunction(s)  2P renormalized

     gamma-point specific algorithms are used
     Message from routine setup:
     using ibrav=0 with symmetry is DISCOURAGED, use correct ibrav instead

     Subspace diagonalization in iterative solution of the eigenvalue problem:
     a serial algorithm will be used

     Using Slab Decomposition

     bravais-lattice index     =            0
     lattice parameter (alat)  =      10.6122  a.u.
     unit-cell volume          =     979.0925 (a.u.)^3
     number of atoms/cell      =           11
     number of atomic types    =            3
     number of electrons       =        90.00
     number of Kohn-Sham states=           54
     kinetic-energy cutoff     =      30.0000  Ry
     charge density cutoff     =     240.0000  Ry
     scf convergence threshold =      1.0E-06
     mixing beta               =       0.7000
     number of iterations used =            8  plain     mixing
     Exchange-correlation= SLA  PW   PBX  PBC
                           (   1   4   3   4   0   0   0)

     celldm(1)=  10.612195  celldm(2)=   0.000000  celldm(3)=   0.000000
     celldm(4)=   0.000000  celldm(5)=   0.000000  celldm(6)=   0.000000

     crystal axes: (cart. coord. in units of alat)
               a(1) = (   1.000000   0.000000   0.000000 )
               a(2) = (  -0.106496   0.994313   0.000000 )
               a(3) = (   0.231697   0.257838   0.823920 )

     reciprocal axes: (cart. coord. in units 2 pi/alat)
               b(1) = (  1.000000  0.107105 -0.314730 )
               b(2) = (  0.000000  1.005719 -0.314730 )
               b(3) = (  0.000000  0.000000  1.213711 )

     PseudoPot. # 1 for Cu read from file:
     /home/pragov/projects/rrg-bengioy-ad/pragov/crystal_structure_design/SSSP/Cu_pbe_v1.2.uspp.F.UPF
     MD5 check sum: 6e991ff952a84172a2a52a1c1e996048
     Pseudo is Ultrasoft + core correction, Zval = 19.0
     Generated by new atomic code, or converted to UPF format
     Using radial grid of  867 points,  6 beta functions with:
                l(1) =   0
                l(2) =   0
                l(3) =   1
                l(4) =   1
                l(5) =   2
                l(6) =   2
     Q(r) pseudized with  8 coefficients,  rinner =    1.150   1.150   1.150
                                                       1.150   1.150

     PseudoPot. # 2 for As read from file:
     /home/pragov/projects/rrg-bengioy-ad/pragov/crystal_structure_design/SSSP/As.pbe-n-rrkjus_psl.0.2.UPF
     MD5 check sum: 767315de957beeeb34f87d97bf945c8f
     Pseudo is Ultrasoft + core correction, Zval =  5.0
     Generated using "atomic" code by A. Dal Corso  v.5.0.99 svn rev. 10869
     Using radial grid of 1209 points,  4 beta functions with:
                l(1) =   0
                l(2) =   0
                l(3) =   1
                l(4) =   1
     Q(r) pseudized with 0 coefficients

     PseudoPot. # 3 for O  read from file:
     /home/pragov/projects/rrg-bengioy-ad/pragov/crystal_structure_design/SSSP/O.pbe-n-kjpaw_psl.0.1.UPF
     MD5 check sum: 0234752ac141de4415c5fc33072bef88
     Pseudo is Projector augmented-wave + core cor, Zval =  6.0
     Generated using "atomic" code by A. Dal Corso  v.5.0.99 svn rev. 10869
     Shape of augmentation charge: BESSEL
     Using radial grid of 1095 points,  4 beta functions with:
                l(1) =   0
                l(2) =   0
                l(3) =   1
                l(4) =   1
     Q(r) pseudized with 0 coefficients

     atomic species   valence    mass     pseudopotential
        Cu            19.00    63.54600     Cu( 1.00)
        As             5.00    74.92159     As( 1.00)
        O              6.00    15.99900     O ( 1.00)

      2 Sym. Ops., with inversion, found

                                    s                        frac. trans.

      isym =  1     identity

 cryst.   s( 1) = (     1          0          0      )
                  (     0          1          0      )
                  (     0          0          1      )

 cart.    s( 1) = (  1.0000000  0.0000000  0.0000000 )
                  (  0.0000000  1.0000000  0.0000000 )
                  (  0.0000000  0.0000000  1.0000000 )

      isym =  2     inversion

 cryst.   s( 2) = (    -1          0          0      )
                  (     0         -1          0      )
                  (     0          0         -1      )

 cart.    s( 2) = ( -1.0000000 -0.0000000 -0.0000000 )
                  (  0.0000000 -1.0000000 -0.0000000 )
                  (  0.0000000  0.0000000 -1.0000000 )

   Cartesian axes

     site n.     atom                  positions (alat units)
         1           Cu  tau(   1) = (   0.7682162   0.4413063   0.4119598  )
         2           Cu  tau(   2) = (   0.3569849   0.8108448   0.4119598  )
         3           As  tau(   3) = (   0.9232968   1.0274670   0.7459892  )
         4           As  tau(   4) = (   0.2019043   0.2246840   0.0779304  )
         5           O   tau(   5) = (   1.0645678   0.8093168   0.5904629  )
         6           O   tau(   6) = (   0.4338587   0.1074484   0.2334568  )
         7           O   tau(   7) = (   0.0606333   0.4428342   0.2334568  )
         8           O   tau(   8) = (   0.6913424   1.1447026   0.5904629  )
         9           O   tau(   9) = (   0.0000000   0.0000000   0.0000000  )
        10           O   tau(  10) = (   0.5907651   0.6574177   0.1925830  )
        11           O   tau(  11) = (   0.5344360   0.5947334   0.6313367  )

   Crystallographic axes

     site n.     atom                  positions (cryst. coord.)
         1           Cu  tau(   1) = (  0.6858260  0.3141740  0.5000000  )
         2           Cu  tau(   2) = (  0.3141740  0.6858260  0.5000000  )
         3           As  tau(   3) = (  0.7985580  0.7985580  0.9054150  )
         4           As  tau(   4) = (  0.2014420  0.2014420  0.0945850  )
         5           O   tau(   5) = (  0.9654130  0.6281090  0.7166510  )
         6           O   tau(   6) = (  0.3718910  0.0345870  0.2833490  )
         7           O   tau(   7) = (  0.0345870  0.3718910  0.2833490  )
         8           O   tau(   8) = (  0.6281090  0.9654130  0.7166510  )
         9           O   tau(   9) = (  0.0000000  0.0000000  0.0000000  )
        10           O   tau(  10) = (  0.6005660  0.6005660  0.2337400  )
        11           O   tau(  11) = (  0.3994340  0.3994340  0.7662600  )

     number of k points=     1  Methfessel-Paxton smearing, width (Ry)=  0.0010
                       cart. coord. in units 2pi/alat
        k(    1) = (   0.0000000   0.0000000   0.0000000), wk =   2.0000000

                       cryst. coord.
        k(    1) = (   0.0000000   0.0000000   0.0000000), wk =   2.0000000

     Check: negative core charge=   -0.000010

     Initial potential from superposition of free atoms

     starting charge      87.9995, renormalised to      90.0000
     Starting wfcs are   62 randomized atomic wfcs
     Checking if some PAW data can be deallocated...

     Self-consistent Calculation

     iteration #  1     ecut=    30.00 Ry     beta= 0.70
     Davidson diagonalization with overlap

     ethr =  1.00E-02,  avg # of iterations =  3.0

     total energy              =   -1133.89095784 Ry
     estimated scf accuracy    <       1.70379595 Ry

[...]

     total energy              =   -1134.63777291 Ry
     estimated scf accuracy    <       0.00000159 Ry

     iteration # 12     ecut=    30.00 Ry     beta= 0.70
     Davidson diagonalization with overlap

     ethr =  1.59E-09,  avg # of iterations =  2.0

     End of self-consistent calculation

          k = 0.0000 0.0000 0.0000 (  1362 PWs)   bands (ev):

  -106.5764-106.5762 -64.1758 -64.1744 -64.1482 -64.1448 -63.5195 -63.5192
   -15.6236 -14.4319 -13.7268 -13.1591 -13.0984 -12.9576 -12.8190  -5.7242
    -4.1623  -1.6724  -1.1142  -1.0695  -0.5138  -0.0100   0.8865   0.9665
     1.0781   1.7106   1.8733   2.0015   2.1093   2.5117   2.5425   2.7230
     2.8577   3.4107   3.5322   3.5714   3.8107   4.0452   4.1499   4.2842
     4.3877   4.4551   4.6244   4.7103   4.8848   5.7349   6.7884  10.4609
    10.9350  11.6178  11.7121  12.4643  12.7148  13.4653

     occupation numbers
     1.0000   1.0000   1.0000   1.0000   1.0000   1.0000   1.0000   1.0000
     1.0000   1.0000   1.0000   1.0000   1.0000   1.0000   1.0000   1.0000
     1.0000   1.0000   1.0000   1.0000   1.0000   1.0000   1.0000   1.0000
     1.0000   1.0000   1.0000   1.0000   1.0000   1.0000   1.0000   1.0000
     1.0000   1.0000   1.0000   1.0000   1.0000   1.0000   1.0000   1.0000
     1.0000   1.0000   1.0000   1.0000   1.0000  -0.0000  -0.0000  -0.0000
    -0.0000  -0.0000  -0.0000  -0.0000  -0.0000  -0.0000

     the Fermi energy is     5.1418 ev

!    total energy              =   -1134.63777312 Ry
     estimated scf accuracy    <       0.00000012 Ry
     smearing contrib. (-TS)   =       0.00000000 Ry
     internal energy E=F+TS    =   -1134.63777312 Ry

     The total energy is F=E-TS. E is the sum of the following terms:
     one-electron contribution =    -921.29513662 Ry
     hartree contribution      =     501.66139779 Ry
     xc contribution           =    -147.78274837 Ry
     ewald contribution        =    -500.54959427 Ry
     one-center paw contrib.   =     -66.67169165 Ry
      -> PAW hartree energy AE =     207.62574717 Ry
      -> PAW hartree energy PS =    -206.90075711 Ry
      -> PAW xc energy AE      =    -120.24357418 Ry
      -> PAW xc energy PS      =      52.84689248 Ry
      -> total E_H with PAW    =     502.38638784 Ry
      -> total E_XC with PAW   =    -215.17943007 Ry

     convergence has been achieved in  12 iterations

     Forces acting on atoms (cartesian axes, Ry/au):

     atom    1 type  1   force =    -0.00725654    0.00661519   -0.00003823
     atom    2 type  1   force =     0.00725654   -0.00661519    0.00003823
     atom    3 type  2   force =    -0.00185680   -0.00205985   -0.01900995
     atom    4 type  2   force =     0.00185680    0.00205985    0.01900995
     atom    5 type  3   force =    -0.01014298    0.00033948   -0.02126068
     atom    6 type  3   force =    -0.00141100    0.01004853    0.02127076
     atom    7 type  3   force =     0.01014298   -0.00033948    0.02126068
     atom    8 type  3   force =     0.00141100   -0.01004853   -0.02127076
     atom    9 type  3   force =     0.00000000    0.00000000    0.00000000
     atom   10 type  3   force =     0.00350265    0.00390178    0.05969453
     atom   11 type  3   force =    -0.00350265   -0.00390178   -0.05969453
     The non-local contrib.  to forces
     atom    1 type  1   force =    -0.07176336    0.06454828   -0.00002440
     atom    2 type  1   force =     0.07176336   -0.06454828    0.00002440
     atom    3 type  2   force =     0.05436406    0.06051157    0.07714456
     atom    4 type  2   force =    -0.05436406   -0.06051157   -0.07714456
     atom    5 type  3   force =    -0.08539164    1.40861349    0.72069017
     atom    6 type  3   force =    -1.40965643   -0.06510018   -0.72068677
     atom    7 type  3   force =     0.08539164   -1.40861349   -0.72069017
     atom    8 type  3   force =     1.40965643    0.06510018    0.72068677
     atom    9 type  3   force =     0.00000000    0.00000000    0.00000000
     atom   10 type  3   force =     0.47805868    0.53200633   -0.92210300
     atom   11 type  3   force =    -0.47805868   -0.53200633    0.92210300
     The ionic contribution  to forces
     atom    1 type  1   force =     7.19615277   -6.46656715   -0.00000000
     atom    2 type  1   force =    -7.19615277    6.46656715    0.00000000
     atom    3 type  2   force =     1.04004406    1.15738625   -0.59312462
     atom    4 type  2   force =    -1.04004406   -1.15738625    0.59312462
     atom    5 type  3   force =    -6.47533742   -0.78250106    4.54458480
     atom    6 type  3   force =     0.08845490    6.52184624   -4.54458480
     atom    7 type  3   force =     6.47533743    0.78250106   -4.54458480
     atom    8 type  3   force =    -0.08845490   -6.52184624    4.54458480
     atom    9 type  3   force =    -0.00000000   -0.00000000   -0.00000000
     atom   10 type  3   force =     0.60160068    0.66947582  -10.86522030
     atom   11 type  3   force =    -0.60160068   -0.66947582   10.86522030
     The local contribution  to forces
     atom    1 type  1   force =    -7.13183391    6.40846092    0.00048502
     atom    2 type  1   force =     7.13159862   -6.40866648    0.00039755
     atom    3 type  2   force =    -1.08298030   -1.20510432    0.51585207
     atom    4 type  2   force =     1.08295699    1.20511873   -0.51607075
     atom    5 type  3   force =     6.55085045   -0.61130950   -5.27907152
     atom    6 type  3   force =     1.30543883   -6.44837729    5.27917589
     atom    7 type  3   force =    -6.55057657    0.61133640    5.27909025
     atom    8 type  3   force =    -1.30547429    6.44834609   -5.27900675
     atom    9 type  3   force =     0.00005910    0.00000042    0.00007562
     atom   10 type  3   force =    -1.07149280   -1.19220489   11.83776370
     atom   11 type  3   force =     1.07126673    1.19228894  -11.83760447
     The core correction contribution to forces
     atom    1 type  1   force =    -0.00006184    0.00005544    0.00000013
     atom    2 type  1   force =     0.00006178   -0.00005564    0.00000011
     atom    3 type  2   force =    -0.01330762   -0.01481147   -0.01896547
     atom    4 type  2   force =     0.01330803    0.01480964    0.01897239
     atom    5 type  3   force =    -0.00001352   -0.01452315   -0.00753889
     atom    6 type  3   force =     0.01443897    0.00156143    0.00754041
     atom    7 type  3   force =     0.00001512    0.01452363    0.00754034
     atom    8 type  3   force =    -0.01443849   -0.00156029   -0.00753891
     atom    9 type  3   force =     0.00000026   -0.00000012    0.00000122
     atom   10 type  3   force =    -0.00482862   -0.00537290    0.00955081
     atom   11 type  3   force =     0.00482728    0.00537265   -0.00954941
     The Hubbard contrib.    to forces
     atom    1 type  1   force =     0.00000000    0.00000000    0.00000000
     atom    2 type  1   force =     0.00000000    0.00000000    0.00000000
     atom    3 type  2   force =     0.00000000    0.00000000    0.00000000
     atom    4 type  2   force =     0.00000000    0.00000000    0.00000000
     atom    5 type  3   force =     0.00000000    0.00000000    0.00000000
     atom    6 type  3   force =     0.00000000    0.00000000    0.00000000
     atom    7 type  3   force =     0.00000000    0.00000000    0.00000000
     atom    8 type  3   force =     0.00000000    0.00000000    0.00000000
     atom    9 type  3   force =     0.00000000    0.00000000    0.00000000
     atom   10 type  3   force =     0.00000000    0.00000000    0.00000000
     atom   11 type  3   force =     0.00000000    0.00000000    0.00000000
     The SCF correction term to forces
     atom    1 type  1   force =     0.00026496    0.00014585   -0.00056108
     atom    2 type  1   force =     0.00000070    0.00011622   -0.00044593
     atom    3 type  2   force =     0.00002629   -0.00004832    0.00010004
     atom    4 type  2   force =     0.00000318    0.00002287    0.00014478
     atom    5 type  3   force =    -0.00020467    0.00007337    0.00012274
     atom    6 type  3   force =    -0.00007871    0.00015955   -0.00013142
     atom    7 type  3   force =     0.00002153   -0.00007342   -0.00004695
     atom    8 type  3   force =     0.00013080   -0.00004704    0.00004587
     atom    9 type  3   force =    -0.00004840   -0.00001229    0.00000294
     atom   10 type  3   force =     0.00013323   -0.00001632   -0.00025372
     atom   11 type  3   force =     0.00003123   -0.00009496    0.00017901

     Total force =     0.101655     Total SCF correction =     0.000960

     Computing stress (Cartesian axis) and pressure

          total   stress  (Ry/bohr**3)                   (kbar)     P=     -492.05
  -0.00339921  -0.00003962  -0.00013840         -500.04       -5.83      -20.36
  -0.00003962  -0.00340771  -0.00015384           -5.83     -501.29      -22.63
  -0.00013840  -0.00015384  -0.00322781          -20.36      -22.63     -474.83

     kinetic stress (kbar)  21138.20    282.93    132.80
                              282.93  21198.81    147.79
                              132.80    147.79  21294.09

     local   stress (kbar) -28472.20  13880.36   8425.11
                            13880.36 -25498.98   9375.76
                             8425.11   9375.76 -16917.28

     nonloc. stress (kbar)   8507.83     83.51     33.06
                               83.51   8525.72     36.78
                               33.06     36.78   8427.62

     hartree stress (kbar)  27397.73  -5599.57  -3365.15
                            -5599.57  26198.33  -3744.88
                            -3365.15  -3744.88  21776.73

     exc-cor stress (kbar)  -4245.16     -6.52     -3.90
                               -6.52  -4246.56     -4.34
                               -3.90     -4.34  -4246.65

     corecor stress (kbar)  -2369.03      6.72      0.34
                                6.72  -2367.59      0.38
                                0.34      0.38  -2372.02

     ewald   stress (kbar) -22457.41  -8653.26  -5242.63
                            -8653.26 -24311.02  -5834.12
                            -5242.63  -5834.12 -28437.33

     hubbard stress (kbar)      0.00      0.00      0.00
                                0.00      0.00      0.00
                                0.00      0.00      0.00

     DFT-D   stress (kbar)      0.00      0.00      0.00
                                0.00      0.00      0.00
                                0.00      0.00      0.00

     XDM     stress (kbar)      0.00      0.00      0.00
                                0.00      0.00      0.00
                                0.00      0.00      0.00

     dft-nl  stress (kbar)      0.00      0.00      0.00
                                0.00      0.00      0.00
                                0.00      0.00      0.00

     TS-vdW  stress (kbar)      0.00      0.00      0.00
                                0.00      0.00      0.00
                                0.00      0.00      0.00

[...]

                                0.00      0.00      0.00

     Writing all to output data dir new_calculations/myprefix.save/

     General routines

     Parallel routines

     PAW routines

   This run was terminated on:  23:13:56  20May2023

   JOB DONE.