     Program PWSCF v.7.0 starts on 21May2023 at  8:51:24

     Reading input from espresso_21753.pwi
Warning: card &CELL ignored
Warning: card / ignored

     Current dimensions of program PWSCF are:
     Max number of different atomic species (ntypx) = 10
     Max number of k-points (npk) =  40000
     Max angular momentum in pseudopotentials (lmaxx) =  4
     file Ba.pbe-spn-kjpaw_psl.1.0.0.UPF: wavefunction(s)  5S 6S renormalized
     file Nb.pbe-spn-kjpaw_psl.0.3.0.UPF: wavefunction(s)  4S 4P renormalized
     file O.pbe-n-kjpaw_psl.0.1.UPF: wavefunction(s)  2P renormalized

     gamma-point specific algorithms are used
     Message from routine setup:
     using ibrav=0 with symmetry is DISCOURAGED, use correct ibrav instead

     Subspace diagonalization in iterative solution of the eigenvalue problem:
     a serial algorithm will be used

     Using Slab Decomposition

     bravais-lattice index     =            0
     lattice parameter (alat)  =      11.0919  a.u.
     unit-cell volume          =    1444.1277 (a.u.)^3
     number of atoms/cell      =           15
     number of atomic types    =            4
     number of electrons       =       127.00
     number of Kohn-Sham states=           77
     kinetic-energy cutoff     =      30.0000  Ry
     charge density cutoff     =     240.0000  Ry
     scf convergence threshold =      1.0E-06
     mixing beta               =       0.7000
     number of iterations used =            8  plain     mixing
     Exchange-correlation= SLA  PW   PBX  PBC
                           (   1   4   3   4   0   0   0)

     celldm(1)=  11.091862  celldm(2)=   0.000000  celldm(3)=   0.000000
     celldm(4)=   0.000000  celldm(5)=   0.000000  celldm(6)=   0.000000

     crystal axes: (cart. coord. in units of alat)
               a(1) = (   1.000000   0.000000   0.000000 )
               a(2) = (  -0.498685   0.863780   0.000000 )
               a(3) = (   0.000308   0.002559   1.225150 )

     reciprocal axes: (cart. coord. in units 2 pi/alat)
               b(1) = (  1.000000  0.577329 -0.001457 )
               b(2) = (  0.000000  1.157702 -0.002418 )
               b(3) = (  0.000000  0.000000  0.816227 )

     PseudoPot. # 1 for Ba read from file:
     /home/pragov/projects/rrg-bengioy-ad/pragov/crystal_structure_design/SSSP/Ba.pbe-spn-kjpaw_psl.1.0.0.UPF
     MD5 check sum: c432291d3e53af55f19d5e8866385beb
     Pseudo is Projector augmented-wave + core cor, Zval = 10.0
     Generated using "atomic" code by A. Dal Corso  v.5.1
     Shape of augmentation charge: PSQ
     Using radial grid of 1251 points,  7 beta functions with:
                l(1) =   0
                l(2) =   0
                l(3) =   0
                l(4) =   1
                l(5) =   1
                l(6) =   2
                l(7) =   2
     Q(r) pseudized with 0 coefficients

     PseudoPot. # 2 for Nb read from file:
     /home/pragov/projects/rrg-bengioy-ad/pragov/crystal_structure_design/SSSP/Nb.pbe-spn-kjpaw_psl.0.3.0.UPF
     MD5 check sum: 411d72ad547312f8017e2943ceca08cc
     Pseudo is Projector augmented-wave + core cor, Zval = 13.0
     Generated using "atomic" code by A. Dal Corso  v.5.0.99 svn rev. 10869
     Shape of augmentation charge: PSQ
     Using radial grid of 1227 points,  6 beta functions with:
                l(1) =   0
                l(2) =   0
                l(3) =   1
                l(4) =   1
                l(5) =   2
                l(6) =   2
     Q(r) pseudized with 0 coefficients

     PseudoPot. # 3 for Co read from file:
     /home/pragov/projects/rrg-bengioy-ad/pragov/crystal_structure_design/SSSP/Co_pbe_v1.2.uspp.F.UPF
     MD5 check sum: 5f91765df6ddd3222702df6e7b74a16d
     Pseudo is Ultrasoft + core correction, Zval = 17.0
     Generated by new atomic code, or converted to UPF format
     Using radial grid of  863 points,  6 beta functions with:
                l(1) =   0
                l(2) =   0
                l(3) =   1
                l(4) =   1
                l(5) =   2
                l(6) =   2
     Q(r) pseudized with  8 coefficients,  rinner =    1.200   1.200   1.200
                                                       1.200   1.200

     PseudoPot. # 4 for O  read from file:
     /home/pragov/projects/rrg-bengioy-ad/pragov/crystal_structure_design/SSSP/O.pbe-n-kjpaw_psl.0.1.UPF
     MD5 check sum: 0234752ac141de4415c5fc33072bef88
     Pseudo is Projector augmented-wave + core cor, Zval =  6.0
     Generated using "atomic" code by A. Dal Corso  v.5.0.99 svn rev. 10869
     Shape of augmentation charge: BESSEL
     Using radial grid of 1095 points,  4 beta functions with:
                l(1) =   0
                l(2) =   0
                l(3) =   1
                l(4) =   1
     Q(r) pseudized with 0 coefficients

     atomic species   valence    mass     pseudopotential
        Ba            10.00   137.32700     Ba( 1.00)
        Nb            13.00    92.90637     Nb( 1.00)
        Co            17.00    58.93319     Co( 1.00)
        O              6.00    15.99900     O ( 1.00)

      2 Sym. Ops., with inversion, found

                                    s                        frac. trans.

      isym =  1     identity

 cryst.   s( 1) = (     1          0          0      )
                  (     0          1          0      )
                  (     0          0          1      )

 cart.    s( 1) = (  1.0000000  0.0000000 -0.0000000 )
                  (  0.0000000  1.0000000 -0.0000000 )
                  (  0.0000000  0.0000000  1.0000000 )

      isym =  2     inversion

 cryst.   s( 2) = (    -1          0          0      )
                  (     0         -1          0      )
                  (     0          0         -1      )

 cart.    s( 2) = ( -1.0000000 -0.0000000  0.0000000 )
                  (  0.0000000 -1.0000000  0.0000000 )
                  (  0.0000000  0.0000000 -1.0000000 )

   Cartesian axes

     site n.     atom                  positions (alat units)
         1           Ba  tau(   1) = (   0.0000000   0.0000000   0.0000000  )
         2           Ba  tau(   2) = (   0.0005828   0.5768297   0.8147528  )
         3           Ba  tau(   3) = (   0.5010400   0.2895091   0.4103970  )
         4           Nb  tau(   4) = (   0.0009186   0.5764407   0.2178537  )
         5           Nb  tau(   5) = (   0.5007042   0.2898981   1.0072962  )
         6           Co  tau(   6) = (   0.0001539   0.0012795   0.6125749  )
         7           O   tau(   7) = (   0.2506575   0.4318899   0.0000000  )
         8           O   tau(   8) = (   0.5000000   0.0000000   0.0000000  )
         9           O   tau(   9) = (   0.7506575   0.4318899   0.0000000  )
        10           O   tau(  10) = (  -0.2419996   0.7160014   0.3984616  )
        11           O   tau(  11) = (   0.0002345   0.2961862   0.3996721  )
        12           O   tau(  12) = (   0.2438342   0.7159283   0.3982080  )
        13           O   tau(  13) = (   0.7436224   0.1503374   0.8266883  )
        14           O   tau(  14) = (   0.5013893   0.5701526   0.8254778  )
        15           O   tau(  15) = (   0.2577886   0.1504105   0.8269419  )

   Crystallographic axes

     site n.     atom                  positions (cryst. coord.)
         1           Ba  tau(   1) = (  0.0000000  0.0000000  0.0000000  )
         2           Ba  tau(   2) = (  0.3324160  0.6658270  0.6650230  )
         3           Ba  tau(   3) = (  0.6675840  0.3341730  0.3349770  )
         4           Nb  tau(   4) = (  0.3333970  0.6668200  0.1778180  )
         5           Nb  tau(   5) = (  0.6666030  0.3331800  0.8221820  )
         6           Co  tau(   6) = ( -0.0000000  0.0000000  0.5000000  )
         7           O   tau(   7) = (  0.5000000  0.5000000  0.0000000  )
         8           O   tau(   8) = (  0.5000000  0.0000000  0.0000000  )
         9           O   tau(   9) = (  1.0000000  0.5000000  0.0000000  )
        10           O   tau(  10) = (  0.1707880  0.8279530  0.3252350  )
        11           O   tau(  11) = (  0.1706490  0.3419290  0.3262230  )
        12           O   tau(  12) = (  0.6565800  0.8278690  0.3250280  )
        13           O   tau(  13) = (  0.8292120  0.1720470  0.6747650  )
        14           O   tau(  14) = (  0.8293520  0.6580710  0.6737770  )
        15           O   tau(  15) = (  0.3434200  0.1721310  0.6749720  )

     number of k points=     1  Methfessel-Paxton smearing, width (Ry)=  0.0010
                       cart. coord. in units 2pi/alat
        k(    1) = (   0.0000000   0.0000000   0.0000000), wk =   2.0000000

                       cryst. coord.
        k(    1) = (   0.0000000   0.0000000   0.0000000), wk =   2.0000000

     Check: negative core charge=   -0.000016

     Initial potential from superposition of free atoms

     starting charge     125.9447, renormalised to     127.0000
     Starting wfcs are   84 randomized atomic wfcs
     Checking if some PAW data can be deallocated...

     Self-consistent Calculation

     iteration #  1     ecut=    30.00 Ry     beta= 0.70
     Davidson diagonalization with overlap

     ethr =  1.00E-02,  avg # of iterations =  5.0

     negative rho (up, down):  2.519E-02 0.000E+00

     total energy              =   -2647.38005174 Ry
     estimated scf accuracy    <       6.93908133 Ry

[...]

     negative rho (up, down):  1.540E-03 0.000E+00

[...]

     total energy              =   -2651.06002910 Ry
     estimated scf accuracy    <       0.00000534 Ry

     iteration # 34     ecut=    30.00 Ry     beta= 0.70
     Davidson diagonalization with overlap

     ethr =  1.88E-09,  avg # of iterations =  4.0

     End of self-consistent calculation

          k = 0.0000 0.0000 0.0000 (  2022 PWs)   bands (ev):

   -84.3479 -47.6196 -47.5683 -47.5363 -44.6868 -44.6852 -20.8658 -20.8343
   -20.8326 -20.8322 -20.8060 -20.8051 -15.6320 -15.5416 -15.3889  -6.8165
    -6.4932  -6.3159  -6.3109  -6.2788  -6.2748  -5.9127  -5.6403  -5.6276
    -1.0474  -1.0403  -0.9766  -0.9733  -0.7730  -0.7485  -0.6989  -0.6964
    -0.5705   5.9392   5.9622   5.9673   6.1862   6.6280   6.6606   6.7489
     6.8351   7.0669   7.0754   7.2344   7.2517   7.8522   7.8811   7.8842
     8.9600   9.0102   9.0158   9.1457   9.1676   9.4929   9.6226   9.6271
     9.6486   9.8380   9.8411   9.8444   9.8546   9.8698  10.0036  11.0782
    11.0790  12.8393  13.0038  13.0067  14.3051  14.3128  14.3755  14.5631
    14.5905  15.8251  16.6249  16.8317  16.8560

     occupation numbers
     1.0000   1.0000   1.0000   1.0000   1.0000   1.0000   1.0000   1.0000
     1.0000   1.0000   1.0000   1.0000   1.0000   1.0000   1.0000   1.0000
     1.0000   1.0000   1.0000   1.0000   1.0000   1.0000   1.0000   1.0000
     1.0000   1.0000   1.0000   1.0000   1.0000   1.0000   1.0000   1.0000
     1.0000   1.0000   1.0000   1.0000   1.0000   1.0000   1.0000   1.0000
     1.0000   1.0000   1.0000   1.0000   1.0000   1.0000   1.0000   1.0000
     1.0000   1.0000   1.0000   1.0000   1.0000   1.0000   1.0000   1.0000
     1.0000   1.0000   1.0000   1.0000   1.0000   1.0000   1.0000   0.2709
     0.2291  -0.0000  -0.0000  -0.0000  -0.0000  -0.0000  -0.0000  -0.0000
    -0.0000  -0.0000  -0.0000  -0.0000  -0.0000

     the Fermi energy is    11.0744 ev

!    total energy              =   -2651.06002888 Ry
     estimated scf accuracy    <       0.00000093 Ry
     smearing contrib. (-TS)   =      -0.00041140 Ry
     internal energy E=F+TS    =   -2651.05961748 Ry

     The total energy is F=E-TS. E is the sum of the following terms:
     one-electron contribution =    -397.96399998 Ry
     hartree contribution      =     279.64960541 Ry
     xc contribution           =    -218.48820409 Ry
     ewald contribution        =    -686.73960529 Ry
     one-center paw contrib.   =   -1627.51741353 Ry
      -> PAW hartree energy AE =     483.51443856 Ry
      -> PAW hartree energy PS =    -481.44849314 Ry
      -> PAW xc energy AE      =   -1808.32656013 Ry
      -> PAW xc energy PS      =     178.74320119 Ry
      -> total E_H with PAW    =     281.71555082 Ry
      -> total E_XC with PAW   =   -1848.07156303 Ry

     convergence has been achieved in  34 iterations

     Forces acting on atoms (cartesian axes, Ry/au):

     atom    1 type  1   force =     0.00000000    0.00000000    0.00000000
     atom    2 type  1   force =    -0.00042537   -0.00088519   -0.00059551
     atom    3 type  1   force =     0.00042537    0.00088519    0.00059551
     atom    4 type  2   force =     0.00017982   -0.00132118    0.00592440
     atom    5 type  2   force =    -0.00017982    0.00132118   -0.00592440
     atom    6 type  3   force =     0.00000000    0.00000000    0.00000000
     atom    7 type  4   force =     0.00000000    0.00000000    0.00000000
     atom    8 type  4   force =     0.00000000    0.00000000    0.00000000
     atom    9 type  4   force =     0.00000000    0.00000000    0.00000000
     atom   10 type  4   force =    -0.00936977    0.00615086   -0.00372884
     atom   11 type  4   force =     0.00014909   -0.01312751   -0.00303378
     atom   12 type  4   force =     0.00798762    0.00505990   -0.00410718
     atom   13 type  4   force =     0.00936977   -0.00615086    0.00372884
     atom   14 type  4   force =    -0.00014909    0.01312751    0.00303378
     atom   15 type  4   force =    -0.00798762   -0.00505990    0.00410718
     The non-local contrib.  to forces
     atom    1 type  1   force =     0.00000000    0.00000000    0.00000000
     atom    2 type  1   force =     0.00082926    0.00143557    0.00694563
     atom    3 type  1   force =    -0.00082926   -0.00143557   -0.00694563
     atom    4 type  2   force =     0.00046674    0.00171129    0.04319264
     atom    5 type  2   force =    -0.00046674   -0.00171129   -0.04319264
     atom    6 type  3   force =     0.00000000    0.00000000    0.00000000
     atom    7 type  4   force =     0.00000000    0.00000000    0.00000000
     atom    8 type  4   force =     0.00000000    0.00000000    0.00000000
     atom    9 type  4   force =     0.00000000    0.00000000    0.00000000
     atom   10 type  4   force =     0.14292422   -0.07959561    0.02309247
     atom   11 type  4   force =     0.00077632    0.14389411    0.03035060
     atom   12 type  4   force =    -0.14893261   -0.08293862    0.01979358
     atom   13 type  4   force =    -0.14292422    0.07959561   -0.02309247
     atom   14 type  4   force =    -0.00077632   -0.14389411   -0.03035060
     atom   15 type  4   force =     0.14893261    0.08293862   -0.01979358
     The ionic contribution  to forces
     atom    1 type  1   force =    -0.00000432   -0.00000000    0.00000001
     atom    2 type  1   force =     0.05540174    0.09270243    1.47144115
     atom    3 type  1   force =    -0.05537401   -0.09270242   -1.47144115
     atom    4 type  2   force =     0.00676673   -0.05314987   -3.69882418
     atom    5 type  2   force =    -0.00678910    0.05315003    3.69882406
     atom    6 type  3   force =    -0.00002532   -0.00000001   -0.00000002
     atom    7 type  4   force =     0.00000099    0.00000205   -0.00000483
     atom    8 type  4   force =     0.00000183    0.00000000   -0.00000001
     atom    9 type  4   force =     0.00000096   -0.00000205    0.00000484
     atom   10 type  4   force =    -0.53097949    0.33787843   -0.53111735
     atom   11 type  4   force =     0.01486434   -0.46368743   -0.65593271
     atom   12 type  4   force =     0.58481591    0.34654221   -0.47232333
     atom   13 type  4   force =     0.53098195   -0.33788706    0.53111364
     atom   14 type  4   force =    -0.01484883    0.46368728    0.65593284
     atom   15 type  4   force =    -0.58481337   -0.34653360    0.47232702
     The local contribution  to forces
     atom    1 type  1   force =     0.00068613   -0.00025794   -0.00048668
     atom    2 type  1   force =    -0.05691701   -0.09514006   -1.47743021
     atom    3 type  1   force =     0.05631273    0.09467444    1.47838717
     atom    4 type  2   force =    -0.00710196    0.05057721    3.66948892
     atom    5 type  2   force =     0.00712819   -0.05058094   -3.66950516
     atom    6 type  3   force =     0.00001964    0.00000120    0.00000346
     atom    7 type  4   force =    -0.00000189   -0.00000625   -0.00000289
     atom    8 type  4   force =    -0.00000541    0.00000464   -0.00000581
     atom    9 type  4   force =    -0.00000348    0.00000114   -0.00001437
     atom   10 type  4   force =     0.37856822   -0.25199354    0.50613523
     atom   11 type  4   force =    -0.01550071    0.30650030    0.62429670
     atom   12 type  4   force =    -0.42798686   -0.25850276    0.45011386
     atom   13 type  4   force =    -0.37857724    0.25201040   -0.50612819
     atom   14 type  4   force =     0.01549236   -0.30650672   -0.62429626
     atom   15 type  4   force =     0.42798954    0.25850245   -0.45010840
     The core correction contribution to forces
     atom    1 type  1   force =     0.00001412   -0.00000642   -0.00000734
     atom    2 type  1   force =    -0.00005005   -0.00006502   -0.00115262
     atom    3 type  1   force =     0.00003674    0.00005526    0.00116821
     atom    4 type  2   force =    -0.00006095   -0.00028201   -0.00771185
     atom    5 type  2   force =     0.00006096    0.00028182    0.00771174
     atom    6 type  3   force =     0.00000005   -0.00000002    0.00000001
     atom    7 type  4   force =    -0.00000006   -0.00000001    0.00000001
     atom    8 type  4   force =    -0.00000003   -0.00000003   -0.00000000
     atom    9 type  4   force =     0.00000001    0.00000002   -0.00000002
     atom   10 type  4   force =     0.00010880   -0.00010972   -0.00176212
     atom   11 type  4   force =    -0.00001245    0.00033794   -0.00182314
     atom   12 type  4   force =    -0.00005022   -0.00007075   -0.00172715
     atom   13 type  4   force =    -0.00010878    0.00010972    0.00176210
     atom   14 type  4   force =     0.00001256   -0.00033787    0.00182310
     atom   15 type  4   force =     0.00005020    0.00007068    0.00172715
     The Hubbard contrib.    to forces
     atom    1 type  1   force =     0.00000000    0.00000000    0.00000000
     atom    2 type  1   force =     0.00000000    0.00000000    0.00000000
     atom    3 type  1   force =     0.00000000    0.00000000    0.00000000
     atom    4 type  2   force =     0.00000000    0.00000000    0.00000000
     atom    5 type  2   force =     0.00000000    0.00000000    0.00000000
     atom    6 type  3   force =     0.00000000    0.00000000    0.00000000
     atom    7 type  4   force =     0.00000000    0.00000000    0.00000000
     atom    8 type  4   force =     0.00000000    0.00000000    0.00000000
     atom    9 type  4   force =     0.00000000    0.00000000    0.00000000
     atom   10 type  4   force =     0.00000000    0.00000000    0.00000000
     atom   11 type  4   force =     0.00000000    0.00000000    0.00000000
     atom   12 type  4   force =     0.00000000    0.00000000    0.00000000
     atom   13 type  4   force =     0.00000000    0.00000000    0.00000000
     atom   14 type  4   force =     0.00000000    0.00000000    0.00000000
     atom   15 type  4   force =     0.00000000    0.00000000    0.00000000
     The SCF correction term to forces
     atom    1 type  1   force =    -0.00009086    0.00003598    0.00006574
     atom    2 type  1   force =     0.00004965   -0.00002201    0.00002034
     atom    3 type  1   force =     0.00001812    0.00008959   -0.00015328
     atom    4 type  2   force =     0.00010915   -0.00017920   -0.00022145
     atom    5 type  2   force =    -0.00011324    0.00018016    0.00023728
     atom    6 type  3   force =     0.00001110   -0.00000147   -0.00000163
     atom    7 type  4   force =    -0.00000145    0.00000416    0.00000728
     atom    8 type  4   force =     0.00000159   -0.00000649    0.00000504
     atom    9 type  4   force =     0.00000296    0.00000289    0.00000867
     atom   10 type  4   force =     0.00000865   -0.00002899   -0.00007764
     atom   11 type  4   force =     0.00002552   -0.00017000    0.00007419
     atom   12 type  4   force =     0.00014093    0.00002771    0.00003611
     atom   13 type  4   force =    -0.00000177    0.00002016    0.00007318
     atom   14 type  4   force =    -0.00002496    0.00018137   -0.00007591
     atom   15 type  4   force =    -0.00014707   -0.00004016   -0.00004474

     Total force =     0.030514     Total SCF correction =     0.000615

     Computing stress (Cartesian axis) and pressure

          total   stress  (Ry/bohr**3)                   (kbar)     P=     -321.43
  -0.00173684  -0.00000909   0.00000892         -255.50       -1.34        1.31
  -0.00000909  -0.00171437   0.00000172           -1.34     -252.19        0.25
   0.00000892   0.00000172  -0.00310388            1.31        0.25     -456.60

     kinetic stress (kbar)  22961.31      0.26      2.78
                                0.26  22951.22      7.90
                                2.78      7.90  22611.11

     local   stress (kbar) -11727.57     25.38     38.71
                               25.38 -11870.47    107.86
                               38.71    107.86 -11082.48

     nonloc. stress (kbar)   7760.20      0.49      1.12
                                0.49   7755.65      3.13
                                1.12      3.13   7760.51

     hartree stress (kbar)   9535.40    -11.07    -16.09
                              -11.07   9601.78    -44.07
                              -16.09    -44.07   9349.13

     exc-cor stress (kbar)   2124.61      0.01     -0.02
                                0.01   2124.51     -0.03
                               -0.02     -0.03   2126.22

     corecor stress (kbar)  -7664.61     -0.01     -0.02
                               -0.01  -7664.52     -0.06
                               -0.02     -0.06  -7662.04

     ewald   stress (kbar) -23244.84    -16.39    -25.17
                              -16.39 -23150.36    -74.47
                              -25.17    -74.47 -23559.05

     hubbard stress (kbar)      0.00      0.00      0.00
                                0.00      0.00      0.00
                                0.00      0.00      0.00

     DFT-D   stress (kbar)      0.00      0.00      0.00
                                0.00      0.00      0.00
                                0.00      0.00      0.00

     XDM     stress (kbar)      0.00      0.00      0.00
                                0.00      0.00      0.00
                                0.00      0.00      0.00

     dft-nl  stress (kbar)      0.00      0.00      0.00
                                0.00      0.00      0.00
                                0.00      0.00      0.00

     TS-vdW  stress (kbar)      0.00      0.00      0.00
                                0.00      0.00      0.00
                                0.00      0.00      0.00

[...]

                                0.00      0.00      0.00

     Writing all to output data dir new_calculations/myprefix.save/

     General routines

     Parallel routines

     PAW routines

   This run was terminated on:   8:52:27  21May2023

   JOB DONE.