     Program PWSCF v.7.0 starts on 20May2023 at 14:33:33

     Reading input from espresso_2495.pwi
Warning: card &CELL ignored
Warning: card / ignored

     Current dimensions of program PWSCF are:
     Max number of different atomic species (ntypx) = 10
     Max number of k-points (npk) =  40000
     Max angular momentum in pseudopotentials (lmaxx) =  4
     file O.pbe-n-kjpaw_psl.0.1.UPF: wavefunction(s)  2P renormalized

     gamma-point specific algorithms are used
     Message from routine setup:
     using ibrav=0 with symmetry is DISCOURAGED, use correct ibrav instead

     Subspace diagonalization in iterative solution of the eigenvalue problem:
     a serial algorithm will be used

     Using Slab Decomposition

     bravais-lattice index     =            0
     lattice parameter (alat)  =       9.9201  a.u.
     unit-cell volume          =    1680.9388 (a.u.)^3
     number of atoms/cell      =           18
     number of atomic types    =            4
     number of electrons       =       134.00
     number of Kohn-Sham states=           80
     kinetic-energy cutoff     =      30.0000  Ry
     charge density cutoff     =     240.0000  Ry
     scf convergence threshold =      1.0E-06
     mixing beta               =       0.7000
     number of iterations used =            8  plain     mixing
     Exchange-correlation= SLA  PW   PBX  PBC
                           (   1   4   3   4   0   0   0)

     celldm(1)=   9.920092  celldm(2)=   0.000000  celldm(3)=   0.000000
     celldm(4)=   0.000000  celldm(5)=   0.000000  celldm(6)=   0.000000

     crystal axes: (cart. coord. in units of alat)
               a(1) = (   1.000000   0.000000   0.000000 )
               a(2) = (  -0.500046   0.866079   0.000000 )
               a(3) = (   0.000027   0.000212   1.988143 )

     reciprocal axes: (cart. coord. in units 2 pi/alat)
               b(1) = (  1.000000  0.577368 -0.000075 )
               b(2) = (  0.000000  1.154630 -0.000123 )
               b(3) = (  0.000000  0.000000  0.502982 )

     PseudoPot. # 1 for La read from file:
     /home/pragov/projects/rrg-bengioy-ad/pragov/crystal_structure_design/SSSP/La.GGA-PBE-paw-v1.0.UPF
     MD5 check sum: 436541e95c1ad8901025bd0b0ed42ae2
     Pseudo is Projector augmented-wave + core cor, Zval = 11.0
     Generated using ATOMPAW code
     Shape of augmentation charge: BESSEL
     Using radial grid of 1101 points,  8 beta functions with:
                l(1) =   0
                l(2) =   0
                l(3) =   1
                l(4) =   1
                l(5) =   2
                l(6) =   2
                l(7) =   3
                l(8) =   3
     Q(r) pseudized with 0 coefficients

     PseudoPot. # 2 for Cr read from file:
     /home/pragov/projects/rrg-bengioy-ad/pragov/crystal_structure_design/SSSP/cr_pbe_v1.5.uspp.F.UPF
     MD5 check sum: 0d52af634a40206e4dee301ad30da4bf
     Pseudo is Ultrasoft + core correction, Zval = 14.0
     Generated by new atomic code, or converted to UPF format
     Using radial grid of  857 points,  6 beta functions with:
                l(1) =   0
                l(2) =   0
                l(3) =   1
                l(4) =   1
                l(5) =   2
                l(6) =   2
     Q(r) pseudized with  8 coefficients,  rinner =    0.950   0.950   0.950
                                                       0.950   0.950

     PseudoPot. # 3 for Te read from file:
     /home/pragov/projects/rrg-bengioy-ad/pragov/crystal_structure_design/SSSP/Te_pbe_v1.uspp.F.UPF
     MD5 check sum: c319670d6894cc26e93307826a071b75
     Pseudo is Ultrasoft + core correction, Zval =  6.0
     Generated by new atomic code, or converted to UPF format
     Using radial grid of  891 points,  5 beta functions with:
                l(1) =   0
                l(2) =   0
                l(3) =   1
                l(4) =   1
                l(5) =   2
     Q(r) pseudized with  6 coefficients,  rinner =    1.800   1.800   1.800
                                                       1.800   1.800

     PseudoPot. # 4 for O  read from file:
     /home/pragov/projects/rrg-bengioy-ad/pragov/crystal_structure_design/SSSP/O.pbe-n-kjpaw_psl.0.1.UPF
     MD5 check sum: 0234752ac141de4415c5fc33072bef88
     Pseudo is Projector augmented-wave + core cor, Zval =  6.0
     Generated using "atomic" code by A. Dal Corso  v.5.0.99 svn rev. 10869
     Shape of augmentation charge: BESSEL
     Using radial grid of 1095 points,  4 beta functions with:
                l(1) =   0
                l(2) =   0
                l(3) =   1
                l(4) =   1
     Q(r) pseudized with 0 coefficients

     atomic species   valence    mass     pseudopotential
        La            11.00   138.90547     La( 1.00)
        Cr            14.00    51.99610     Cr( 1.00)
        Te             6.00   127.60000     Te( 1.00)
        O              6.00    15.99900     O ( 1.00)

      2 Sym. Ops., with inversion, found

                                    s                        frac. trans.

      isym =  1     identity

 cryst.   s( 1) = (     1          0          0      )
                  (     0          1          0      )
                  (     0          0          1      )

 cart.    s( 1) = (  1.0000000 -0.0000000  0.0000000 )
                  (  0.0000000  1.0000000 -0.0000000 )
                  (  0.0000000  0.0000000  1.0000000 )

      isym =  2     inversion

 cryst.   s( 2) = (    -1          0          0      )
                  (     0         -1          0      )
                  (     0          0         -1      )

 cart.    s( 2) = ( -1.0000000  0.0000000 -0.0000000 )
                  (  0.0000000 -1.0000000  0.0000000 )
                  (  0.0000000  0.0000000 -1.0000000 )

   Cartesian axes

     site n.     atom                  positions (alat units)
         1           La  tau(   1) = (   0.0000000   0.0000000   0.0000000  )
         2           La  tau(   2) = (   0.0000133   0.0001060   0.9940713  )
         3           Cr  tau(   3) = (  -0.0000499   0.5774381   0.4970039  )
         4           Cr  tau(   4) = (   0.5000307   0.2888525   1.4911388  )
         5           Te  tau(   5) = (   0.0000229   0.5775346   1.4911030  )
         6           Te  tau(   6) = (   0.4999579   0.2887560   0.4970396  )
         7           O   tau(   7) = (   0.1923396   0.3160377   0.2879129  )
         8           O   tau(   8) = (   0.6301959   0.0087478   0.2878910  )
         9           O   tau(   9) = (   0.6774002   0.5416243   0.2878970  )
        10           O   tau(  10) = (   0.3076412   0.5502529   1.7002298  )
        11           O   tau(  11) = (  -0.1302151   0.8575428   1.7002517  )
        12           O   tau(  12) = (  -0.1774194   0.3246663   1.7002457  )
        13           O   tau(  13) = (   0.3225298   0.5415823   0.7061207  )
        14           O   tau(  14) = (   0.3697685   0.0087006   0.7060670  )
        15           O   tau(  15) = (   0.8076157   0.3160277   0.7060630  )
        16           O   tau(  16) = (   0.1774510   0.3247083   1.2820220  )
        17           O   tau(  17) = (   0.1302123   0.8575900   1.2820757  )
        18           O   tau(  18) = (  -0.3076349   0.5502629   1.2820796  )

   Crystallographic axes

     site n.     atom                  positions (cryst. coord.)
         1           La  tau(   1) = (  0.0000000  0.0000000  0.0000000  )
         2           La  tau(   2) = (  0.0000000 -0.0000000  0.5000000  )
         3           Cr  tau(   3) = (  0.3333070  0.6666660  0.2499840  )
         4           Cr  tau(   4) = (  0.6666930  0.3333340  0.7500160  )
         5           Te  tau(   5) = (  0.3333610  0.6666550  0.7499980  )
         6           Te  tau(   6) = (  0.6666390  0.3333450  0.2500020  )
         7           O   tau(   7) = (  0.3747880  0.3648710  0.1448150  )
         8           O   tau(   8) = (  0.6352250  0.0100650  0.1448040  )
         9           O   tau(   9) = (  0.9900950  0.6253400  0.1448070  )
        10           O   tau(  10) = (  0.6252120  0.6351290  0.8551850  )
        11           O   tau(  11) = (  0.3647750  0.9899350  0.8551960  )
        12           O   tau(  12) = (  0.0099050  0.3746600  0.8551930  )
        13           O   tau(  13) = (  0.6351690  0.6252400  0.3551660  )
        14           O   tau(  14) = (  0.3747390  0.0099590  0.3551390  )
        15           O   tau(  15) = (  0.9900270  0.3648080  0.3551370  )
        16           O   tau(  16) = (  0.3648310  0.3747600  0.6448340  )
        17           O   tau(  17) = (  0.6252610  0.9900410  0.6448610  )
        18           O   tau(  18) = (  0.0099730  0.6351920  0.6448630  )

     number of k points=     1  Methfessel-Paxton smearing, width (Ry)=  0.0010
                       cart. coord. in units 2pi/alat
        k(    1) = (   0.0000000   0.0000000   0.0000000), wk =   2.0000000

                       cryst. coord.
        k(    1) = (   0.0000000   0.0000000   0.0000000), wk =   2.0000000

     Check: negative core charge=   -0.000011

     Initial potential from superposition of free atoms

     starting charge     131.9825, renormalised to     134.0000

     negative rho (up, down):  6.297E-04 0.000E+00
     Starting wfcs are  140 randomized atomic wfcs
     Checking if some PAW data can be deallocated...

     Self-consistent Calculation

     iteration #  1     ecut=    30.00 Ry     beta= 0.70
     Davidson diagonalization with overlap

     ethr =  1.00E-02,  avg # of iterations =  2.0

     negative rho (up, down):  2.152E-03 0.000E+00

     total energy              =   -1818.61609521 Ry
     estimated scf accuracy    <       3.50782219 Ry

[...]

     c_bands:  4 eigenvalues not converged
     ethr =  2.67E-06,  avg # of iterations = 20.0

[...]

     c_bands:  1 eigenvalues not converged
     ethr =  2.53E-07,  avg # of iterations = 20.0

[...]

     total energy              =   -1820.34048480 Ry
     estimated scf accuracy    <       0.00000719 Ry

     iteration # 38     ecut=    30.00 Ry     beta= 0.70
     Davidson diagonalization with overlap

     ethr =  2.63E-09,  avg # of iterations =  1.0

[...]

     End of self-consistent calculation

          k = 0.0000 0.0000 0.0000 (  2355 PWs)   bands (ev):

   -63.3962 -63.3960 -34.9637 -34.9633 -34.9620 -34.9615 -34.1666 -34.1646
   -22.9781 -22.9739 -12.3473 -12.2122 -10.3226 -10.2972 -10.2966 -10.1519
   -10.1514  -9.9990  -9.6552  -9.6543  -9.4036  -9.4029  -6.6859  -6.5103
    -6.5100  -6.2983  -6.2977  -6.2379  -2.1346  -1.7701   1.5863   1.5869
     2.1994   2.2001   2.4166   2.4375   3.2612   3.5904   3.5909   3.6818
     4.2460   4.2462   4.3647   4.3650   4.6158   4.6161   4.8952   4.9278
     4.9284   5.3278   5.6030   5.9135   5.9143   5.9420   5.9465   5.9469
     6.1042   6.1053   6.3625   6.3627   6.3827   6.4826   6.6177   6.6178
     8.9862   8.9888   9.1637   9.1637   9.2361   9.2362  10.7318  11.0960
    11.1686  11.1694  11.3289  11.3298  11.9191  11.9257  11.9365  12.0003

     occupation numbers
     1.0000   1.0000   1.0000   1.0000   1.0000   1.0000   1.0000   1.0000
     1.0000   1.0000   1.0000   1.0000   1.0000   1.0000   1.0000   1.0000
     1.0000   1.0000   1.0000   1.0000   1.0000   1.0000   1.0000   1.0000
     1.0000   1.0000   1.0000   1.0000   1.0000   1.0000   1.0000   1.0000
     1.0000   1.0000   1.0000   1.0000   1.0000   1.0000   1.0000   1.0000
     1.0000   1.0000   1.0000   1.0000   1.0000   1.0000   1.0000   1.0000
     1.0000   1.0000   1.0000   1.0000   1.0000   1.0000   1.0000   1.0000
     1.0000   1.0000   1.0000   1.0000   1.0000   1.0000   1.0000   1.0000
     1.0000   1.0000   0.5014   0.4986  -0.0000  -0.0000  -0.0000  -0.0000
    -0.0000  -0.0000  -0.0000  -0.0000  -0.0000  -0.0000  -0.0000  -0.0000

     the Fermi energy is     9.1637 ev

!    total energy              =   -1820.34048472 Ry
     estimated scf accuracy    <       0.00000046 Ry
     smearing contrib. (-TS)   =      -0.00056418 Ry
     internal energy E=F+TS    =   -1820.33992054 Ry

     The total energy is F=E-TS. E is the sum of the following terms:
     one-electron contribution =    -404.55382791 Ry
     hartree contribution      =     279.27819444 Ry
     xc contribution           =    -180.62527392 Ry
     ewald contribution        =    -603.93714554 Ry
     one-center paw contrib.   =    -910.50186761 Ry
      -> PAW hartree energy AE =     422.77312644 Ry
      -> PAW hartree energy PS =    -421.64972065 Ry
      -> PAW xc energy AE      =   -1016.40882722 Ry
      -> PAW xc energy PS      =     104.78355383 Ry
      -> total E_H with PAW    =     280.40160023 Ry
      -> total E_XC with PAW   =   -1092.25054731 Ry

     convergence has been achieved in  38 iterations

     negative rho (up, down):  1.546E-03 0.000E+00

     Forces acting on atoms (cartesian axes, Ry/au):

     atom    1 type  1   force =     0.00000000    0.00000000    0.00000000
     atom    2 type  1   force =     0.00000000    0.00000000    0.00000000
     atom    3 type  2   force =     0.00000768    0.00002225   -0.00018353
     atom    4 type  2   force =    -0.00000768   -0.00002225    0.00018353
     atom    5 type  3   force =    -0.00009618   -0.00027330    0.00044804
     atom    6 type  3   force =     0.00009618    0.00027330   -0.00044804
     atom    7 type  4   force =    -0.08759847    0.03545688   -0.01524326
     atom    8 type  4   force =     0.01314224   -0.09351270   -0.01524313
     atom    9 type  4   force =     0.07426452    0.05785315   -0.01502140
     atom   10 type  4   force =     0.08759847   -0.03545688    0.01524326
     atom   11 type  4   force =    -0.01314224    0.09351270    0.01524313
     atom   12 type  4   force =    -0.07426452   -0.05785315    0.01502140
     atom   13 type  4   force =    -0.07432415    0.05812020    0.01536977
     atom   14 type  4   force =    -0.01321847   -0.09360915    0.01552666
     atom   15 type  4   force =     0.08767280    0.03537949    0.01545080
     atom   16 type  4   force =     0.07432415   -0.05812020   -0.01536977
     atom   17 type  4   force =     0.01321847    0.09360915   -0.01552666
     atom   18 type  4   force =    -0.08767280   -0.03537949   -0.01545080
     The non-local contrib.  to forces
     atom    1 type  1   force =     0.00000000    0.00000000    0.00000000
     atom    2 type  1   force =     0.00000000    0.00000000    0.00000000
     atom    3 type  2   force =     0.00003959   -0.00002064    0.00011382
     atom    4 type  2   force =    -0.00003959    0.00002064   -0.00011382
     atom    5 type  3   force =     0.00008413    0.00019670   -0.00018457
     atom    6 type  3   force =    -0.00008413   -0.00019670    0.00018457
     atom    7 type  4   force =     0.46220577    0.11916754    0.80614151
     atom    8 type  4   force =    -0.33418029    0.34075681    0.80598561
     atom    9 type  4   force =    -0.12764853   -0.45965870    0.80570714
     atom   10 type  4   force =    -0.46220577   -0.11916754   -0.80614151
     atom   11 type  4   force =     0.33418029   -0.34075681   -0.80598561
     atom   12 type  4   force =     0.12764853    0.45965870   -0.80570714
     atom   13 type  4   force =     0.12819593   -0.46005143   -0.80548051
     atom   14 type  4   force =     0.33443795    0.34144708   -0.80534473
     atom   15 type  4   force =    -0.46259885    0.11924151   -0.80549589
     atom   16 type  4   force =    -0.12819593    0.46005143    0.80548051
     atom   17 type  4   force =    -0.33443795   -0.34144708    0.80534473
     atom   18 type  4   force =     0.46259885   -0.11924151    0.80549589
     The ionic contribution  to forces
     atom    1 type  1   force =     0.00000000   -0.00000000   -0.00000000
     atom    2 type  1   force =    -0.00000000    0.00000000   -0.00000000
     atom    3 type  2   force =     0.00491972    0.00416014    0.00753608
     atom    4 type  2   force =    -0.00491972   -0.00416014   -0.00753608
     atom    5 type  3   force =    -0.00008946   -0.00138300   -0.00379654
     atom    6 type  3   force =     0.00008946    0.00138300    0.00379654
     atom    7 type  4   force =     1.19957339   -3.66938054   -7.45464991
     atom    8 type  4   force =     2.57660586    2.87124892   -7.45084172
     atom    9 type  4   force =    -3.77957078    0.79398155   -7.45214069
     atom   10 type  4   force =    -1.19957339    3.66938054    7.45464991
     atom   11 type  4   force =    -2.57660586   -2.87124892    7.45084172
     atom   12 type  4   force =     3.77957078   -0.79398155    7.45214069
     atom   13 type  4   force =     3.77781858    0.79755633    7.46028591
     atom   14 type  4   force =    -2.57861267    2.87176113    7.45990119
     atom   15 type  4   force =    -1.19975389   -3.67251406    7.46228116
     atom   16 type  4   force =    -3.77781858   -0.79755633   -7.46028591
     atom   17 type  4   force =     2.57861267   -2.87176113   -7.45990119
     atom   18 type  4   force =     1.19975389    3.67251406   -7.46228116
     The local contribution  to forces
     atom    1 type  1   force =     0.00001935    0.00003121    0.00055894
     atom    2 type  1   force =    -0.00000808    0.00005074   -0.00059305
     atom    3 type  2   force =    -0.00494636   -0.00408038   -0.00790054
     atom    4 type  2   force =     0.00492581    0.00399757    0.00798456
     atom    5 type  3   force =    -0.00006776    0.00092237    0.00450941
     atom    6 type  3   force =     0.00010508   -0.00090088   -0.00447818
     atom    7 type  4   force =    -1.74526781    3.58725350    6.64169701
     atom    8 type  4   force =    -2.23279581   -3.30277973    6.63804278
     atom    9 type  4   force =     3.98091561   -0.28079279    6.63982630
     atom   10 type  4   force =     1.74508263   -3.58696899   -6.64114079
     atom   11 type  4   force =     2.23268089    3.30245271   -6.63742480
     atom   12 type  4   force =    -3.98058381    0.28083486   -6.63924450
     atom   13 type  4   force =    -3.97977259   -0.28375312   -6.64792939
     atom   14 type  4   force =     2.23445887   -3.30401513   -6.64751673
     atom   15 type  4   force =     1.74596472    3.59025005   -6.64983406
     atom   16 type  4   force =     3.97942568    0.28380690    6.64731146
     atom   17 type  4   force =    -2.23428200    3.30372528    6.64694185
     atom   18 type  4   force =    -1.74576874   -3.58996260    6.64927420
     The core correction contribution to forces
     atom    1 type  1   force =     0.00000000    0.00000001   -0.00000000
     atom    2 type  1   force =     0.00000000    0.00000001    0.00000001
     atom    3 type  2   force =     0.00000117    0.00000471   -0.00000045
     atom    4 type  2   force =    -0.00000217   -0.00000521    0.00000076
     atom    5 type  3   force =     0.00000601    0.00001631   -0.00002076
     atom    6 type  3   force =    -0.00001031   -0.00001988    0.00002066
     atom    7 type  4   force =    -0.00420608   -0.00151194   -0.00818455
     atom    8 type  4   force =     0.00341319   -0.00288596   -0.00818463
     atom    9 type  4   force =     0.00079026    0.00440042   -0.00818320
     atom   10 type  4   force =     0.00420681    0.00151231    0.00818411
     atom   11 type  4   force =    -0.00341272    0.00288566    0.00818484
     atom   12 type  4   force =    -0.00079022   -0.00440068    0.00818336
     atom   13 type  4   force =    -0.00079596    0.00440126    0.00817853
     atom   14 type  4   force =    -0.00341355   -0.00289319    0.00817497
     atom   15 type  4   force =     0.00420926   -0.00151354    0.00817692
     atom   16 type  4   force =     0.00079608   -0.00440085   -0.00817913
     atom   17 type  4   force =     0.00341429    0.00289373   -0.00817496
     atom   18 type  4   force =    -0.00421001    0.00151413   -0.00817730
     The Hubbard contrib.    to forces
     atom    1 type  1   force =     0.00000000    0.00000000    0.00000000
     atom    2 type  1   force =     0.00000000    0.00000000    0.00000000
     atom    3 type  2   force =     0.00000000    0.00000000    0.00000000
     atom    4 type  2   force =     0.00000000    0.00000000    0.00000000
     atom    5 type  3   force =     0.00000000    0.00000000    0.00000000
     atom    6 type  3   force =     0.00000000    0.00000000    0.00000000
     atom    7 type  4   force =     0.00000000    0.00000000    0.00000000
     atom    8 type  4   force =     0.00000000    0.00000000    0.00000000
     atom    9 type  4   force =     0.00000000    0.00000000    0.00000000
     atom   10 type  4   force =     0.00000000    0.00000000    0.00000000
     atom   11 type  4   force =     0.00000000    0.00000000    0.00000000
     atom   12 type  4   force =     0.00000000    0.00000000    0.00000000
     atom   13 type  4   force =     0.00000000    0.00000000    0.00000000
     atom   14 type  4   force =     0.00000000    0.00000000    0.00000000
     atom   15 type  4   force =     0.00000000    0.00000000    0.00000000
     atom   16 type  4   force =     0.00000000    0.00000000    0.00000000
     atom   17 type  4   force =     0.00000000    0.00000000    0.00000000
     atom   18 type  4   force =     0.00000000    0.00000000    0.00000000
     The SCF correction term to forces
     atom    1 type  1   force =    -0.00000912   -0.00002230   -0.00056869
     atom    2 type  1   force =     0.00000565   -0.00003845    0.00059931
     atom    3 type  2   force =    -0.00001100   -0.00003950    0.00006776
     atom    4 type  2   force =     0.00002345    0.00012696   -0.00015169
     atom    5 type  3   force =    -0.00000996   -0.00001094   -0.00005754
     atom    6 type  3   force =     0.00001521    0.00002247    0.00003034
     atom    7 type  4   force =     0.00011413   -0.00005715   -0.00027019
     atom    8 type  4   force =     0.00011114    0.00014243   -0.00023015
     atom    9 type  4   force =    -0.00022064   -0.00008399   -0.00023343
     atom   10 type  4   force =     0.00010605   -0.00019867   -0.00033132
     atom   11 type  4   force =     0.00002699    0.00017523   -0.00035799
     atom   12 type  4   force =    -0.00010839    0.00002887   -0.00035349
     atom   13 type  4   force =     0.00023585   -0.00001694    0.00030218
     atom   14 type  4   force =    -0.00006404    0.00009913    0.00032439
     atom   15 type  4   force =    -0.00016900   -0.00006773    0.00032335
     atom   16 type  4   force =     0.00012286   -0.00000546    0.00029027
     atom   17 type  4   force =    -0.00006350    0.00020654    0.00027532
     atom   18 type  4   force =    -0.00006734   -0.00018682    0.00023826

     Total force =     0.331345     Total SCF correction =     0.001483

     Computing stress (Cartesian axis) and pressure

     negative rho (up, down):  1.546E-03 0.000E+00
          total   stress  (Ry/bohr**3)                   (kbar)     P=     -297.00
  -0.00201909   0.00000038   0.00000006         -297.02        0.06        0.01
   0.00000038  -0.00202142  -0.00000062            0.06     -297.36       -0.09
   0.00000006  -0.00000062  -0.00201630            0.01       -0.09     -296.61

     kinetic stress (kbar)  19027.82      0.05      0.29
                                0.05  19027.51     -0.23
                                0.29     -0.23  19424.25

     local   stress (kbar) -14298.64      1.70     -2.62
                                1.70 -14296.87      2.65
                               -2.62      2.65   -343.52

     nonloc. stress (kbar)   4138.25      0.06      0.13
                                0.06   4138.23     -0.15
                                0.13     -0.15   4205.04

     hartree stress (kbar)  10116.16     -0.49      0.94
                               -0.49  10115.59     -0.96
                                0.94     -0.96   4208.90

     exc-cor stress (kbar)  -1685.13     -0.00      0.01
                               -0.00  -1685.13     -0.00
                                0.01     -0.00  -1686.71

     corecor stress (kbar)  -2814.20      0.00     -0.01
                                0.00  -2814.20      0.00
                               -0.01      0.00  -2815.58

     ewald   stress (kbar) -14781.28     -1.25      1.27
                               -1.25 -14782.48     -1.40
                                1.27     -1.40 -23288.98

     hubbard stress (kbar)      0.00      0.00      0.00
                                0.00      0.00      0.00
                                0.00      0.00      0.00

     DFT-D   stress (kbar)      0.00      0.00      0.00
                                0.00      0.00      0.00
                                0.00      0.00      0.00

     XDM     stress (kbar)      0.00      0.00      0.00
                                0.00      0.00      0.00
                                0.00      0.00      0.00

     dft-nl  stress (kbar)      0.00      0.00      0.00
                                0.00      0.00      0.00
                                0.00      0.00      0.00

     TS-vdW  stress (kbar)      0.00      0.00      0.00
                                0.00      0.00      0.00
                                0.00      0.00      0.00

[...]

                                0.00      0.00      0.00

     Writing all to output data dir new_calculations/myprefix.save/

     General routines

     Parallel routines

     PAW routines

   This run was terminated on:  14:35:21  20May2023

   JOB DONE.