     Program PWSCF v.7.0 starts on 21May2023 at 11: 1:12

     Reading input from espresso_20571.pwi
Warning: card &CELL ignored
Warning: card / ignored

     Current dimensions of program PWSCF are:
     Max number of different atomic species (ntypx) = 10
     Max number of k-points (npk) =  40000
     Max angular momentum in pseudopotentials (lmaxx) =  4

     gamma-point specific algorithms are used
     Message from routine setup:
     using ibrav=0 with symmetry is DISCOURAGED, use correct ibrav instead

     Subspace diagonalization in iterative solution of the eigenvalue problem:
     a serial algorithm will be used

     Using Slab Decomposition

     bravais-lattice index     =            0
     lattice parameter (alat)  =       6.8347  a.u.
     unit-cell volume          =     765.8795 (a.u.)^3
     number of atoms/cell      =            6
     number of atomic types    =            3
     number of electrons       =        44.00
     number of Kohn-Sham states=           26
     kinetic-energy cutoff     =      30.0000  Ry
     charge density cutoff     =     240.0000  Ry
     scf convergence threshold =      1.0E-06
     mixing beta               =       0.7000
     number of iterations used =            8  plain     mixing
     Exchange-correlation= SLA  PW   PBE  PBE
                           (   1   4   3   4   0   0   0)

     celldm(1)=   6.834705  celldm(2)=   0.000000  celldm(3)=   0.000000
     celldm(4)=   0.000000  celldm(5)=   0.000000  celldm(6)=   0.000000

     crystal axes: (cart. coord. in units of alat)
               a(1) = (   1.000000   0.000000   0.000000 )
               a(2) = (   0.000000   1.000000   0.000000 )
               a(3) = (   0.000000   0.000000   2.398839 )

     reciprocal axes: (cart. coord. in units 2 pi/alat)
               b(1) = (  1.000000  0.000000  0.000000 )
               b(2) = (  0.000000  1.000000  0.000000 )
               b(3) = (  0.000000  0.000000  0.416868 )

     PseudoPot. # 1 for Zr read from file:
     /home/pragov/projects/rrg-bengioy-ad/pragov/crystal_structure_design/SSSP/Zr_pbe_v1.uspp.F.UPF
     MD5 check sum: 5db81b1e868ab7776c4564c113de050b
     Pseudo is Ultrasoft + core correction, Zval = 12.0
     Generated by new atomic code, or converted to UPF format
     Using radial grid of  887 points,  6 beta functions with:
                l(1) =   0
                l(2) =   0
                l(3) =   1
                l(4) =   1
                l(5) =   2
                l(6) =   2
     Q(r) pseudized with  6 coefficients,  rinner =    1.200   1.200   1.200
                                                       1.200   1.200

     PseudoPot. # 2 for Si read from file:
     /home/pragov/projects/rrg-bengioy-ad/pragov/crystal_structure_design/SSSP/Si.pbe-n-rrkjus_psl.1.0.0.UPF
     MD5 check sum: 0b0bb1205258b0d07b9f9672cf965d36
     Pseudo is Ultrasoft + core correction, Zval =  4.0
     Generated using "atomic" code by A. Dal Corso  v.5.1
     Using radial grid of 1141 points,  6 beta functions with:
                l(1) =   0
                l(2) =   0
                l(3) =   1
                l(4) =   1
                l(5) =   2
                l(6) =   2
     Q(r) pseudized with 0 coefficients

     PseudoPot. # 3 for Se read from file:
     /home/pragov/projects/rrg-bengioy-ad/pragov/crystal_structure_design/SSSP/Se_pbe_v1.uspp.F.UPF
     MD5 check sum: 1b3568f3a8ae88f9a2a0ad0698632c85
     Pseudo is Ultrasoft + core correction, Zval =  6.0
     Generated by new atomic code, or converted to UPF format
     Using radial grid of  877 points,  6 beta functions with:
                l(1) =   0
                l(2) =   0
                l(3) =   1
                l(4) =   1
                l(5) =   2
                l(6) =   2
     Q(r) pseudized with  8 coefficients,  rinner =    1.300   1.300   1.300
                                                       1.300   1.300

     atomic species   valence    mass     pseudopotential
        Zr            12.00    91.22400     Zr( 1.00)
        Si             4.00    28.08500     Si( 1.00)
        Se             6.00    78.97100     Se( 1.00)

     16 Sym. Ops., with inversion, found ( 8 have fractional translation)

                                    s                        frac. trans.

      isym =  1     identity

 cryst.   s( 1) = (     1          0          0      )
                  (     0          1          0      )
                  (     0          0          1      )

 cart.    s( 1) = (  1.0000000  0.0000000  0.0000000 )
                  (  0.0000000  1.0000000  0.0000000 )
                  (  0.0000000  0.0000000  1.0000000 )

      isym =  2     180 deg rotation - cart. axis [0,0,1]

[...]

 cryst.   s( 3) = (    -1          0          0      )    f =(  0.5000000 )
                  (     0          1          0      )       (  0.5000000 )
                  (     0          0         -1      )       ( -0.0000000 )

 cart.    s( 3) = ( -1.0000000  0.0000000  0.0000000 )    f =(  0.5000000 )
                  (  0.0000000  1.0000000  0.0000000 )       (  0.5000000 )
                  (  0.0000000  0.0000000 -1.0000000 )       ( -0.0000000 )

[...]

 cryst.   s( 6) = (     0         -1          0      )
                  (    -1          0          0      )
                  (     0          0         -1      )

 cart.    s( 6) = (  0.0000000 -1.0000000  0.0000000 )
                  ( -1.0000000  0.0000000  0.0000000 )
                  (  0.0000000  0.0000000 -1.0000000 )

[...]

      isym =  8      90 deg rotation - cart. axis [0,0,1]

[...]

      isym =  9     inversion

 cryst.   s( 9) = (    -1          0          0      )    f =(  0.5000000 )
                  (     0         -1          0      )       (  0.5000000 )
                  (     0          0         -1      )       ( -0.0000000 )

 cart.    s( 9) = ( -1.0000000  0.0000000  0.0000000 )    f =(  0.5000000 )
                  (  0.0000000 -1.0000000  0.0000000 )       (  0.5000000 )
                  (  0.0000000  0.0000000 -1.0000000 )       ( -0.0000000 )

      isym = 10     inv. 180 deg rotation - cart. axis [0,0,1]

 cryst.   s(10) = (     1          0          0      )    f =( -0.5000000 )
                  (     0          1          0      )       (  0.5000000 )
                  (     0          0         -1      )       ( -0.0000000 )

 cart.    s(10) = (  1.0000000  0.0000000  0.0000000 )    f =( -0.5000000 )
                  (  0.0000000  1.0000000  0.0000000 )       (  0.5000000 )
                  (  0.0000000  0.0000000 -1.0000000 )       ( -0.0000000 )

[...]

 cryst.   s(11) = (     1          0          0      )
                  (     0         -1          0      )
                  (     0          0          1      )

 cart.    s(11) = (  1.0000000  0.0000000  0.0000000 )
                  (  0.0000000 -1.0000000  0.0000000 )
                  (  0.0000000  0.0000000  1.0000000 )

[...]

 cryst.   s(14) = (     0          1          0      )    f =( -0.5000000 )
                  (     1          0          0      )       (  0.5000000 )
                  (     0          0          1      )       (  0.0000000 )

 cart.    s(14) = (  0.0000000  1.0000000  0.0000000 )    f =( -0.5000000 )
                  (  1.0000000  0.0000000  0.0000000 )       (  0.5000000 )
                  (  0.0000000  0.0000000  1.0000000 )       (  0.0000000 )

[...]

      isym = 16     inv.  90 deg rotation - cart. axis [0,0,1]

 cryst.   s(16) = (     0         -1          0      )
                  (     1          0          0      )
                  (     0          0         -1      )

 cart.    s(16) = (  0.0000000  1.0000000  0.0000000 )
                  ( -1.0000000  0.0000000  0.0000000 )
                  (  0.0000000  0.0000000 -1.0000000 )

   Cartesian axes

     site n.     atom                  positions (alat units)
         1           Zr  tau(   1) = (   0.0000000   0.5000000   1.8010270  )
         2           Zr  tau(   2) = (   0.5000000   0.0000000   0.5978123  )
         3           Si  tau(   3) = (   0.0000000   0.0000000   0.0000000  )
         4           Si  tau(   4) = (   0.5000000   0.5000000   0.0000000  )
         5           Se  tau(   5) = (   0.5000000   0.0000000   1.5056243  )
         6           Se  tau(   6) = (   0.0000000   0.5000000   0.8932150  )

   Crystallographic axes

     site n.     atom                  positions (cryst. coord.)
         1           Zr  tau(   1) = (  0.0000000  0.5000000  0.7507910  )
         2           Zr  tau(   2) = (  0.5000000  0.0000000  0.2492090  )
         3           Si  tau(   3) = (  0.0000000  0.0000000  0.0000000  )
         4           Si  tau(   4) = (  0.5000000  0.5000000  0.0000000  )
         5           Se  tau(   5) = (  0.5000000  0.0000000  0.6276470  )
         6           Se  tau(   6) = (  0.0000000  0.5000000  0.3723530  )

     number of k points=     1  Methfessel-Paxton smearing, width (Ry)=  0.0010
                       cart. coord. in units 2pi/alat
        k(    1) = (   0.0000000   0.0000000   0.0000000), wk =   2.0000000

                       cryst. coord.
        k(    1) = (   0.0000000   0.0000000   0.0000000), wk =   2.0000000

     Check: negative core charge=   -0.000001

     Initial potential from superposition of free atoms

     starting charge      43.9944, renormalised to      44.0000

     negative rho (up, down):  1.199E-01 0.000E+00
     Starting wfcs are   42 randomized atomic wfcs

     Self-consistent Calculation

     iteration #  1     ecut=    30.00 Ry     beta= 0.70
     Davidson diagonalization with overlap

     ethr =  1.00E-02,  avg # of iterations =  3.0

     Threshold (ethr) on eigenvalues was too large:
     Diagonalizing with lowered threshold

     Davidson diagonalization with overlap

[...]

     negative rho (up, down):  1.202E-01 0.000E+00

     total energy              =    -307.86673790 Ry
     estimated scf accuracy    <       0.26921798 Ry

[...]

     total energy              =    -307.95635621 Ry
     estimated scf accuracy    <       0.00000317 Ry

     iteration # 10     ecut=    30.00 Ry     beta= 0.70
     Davidson diagonalization with overlap

     ethr =  7.20E-09,  avg # of iterations =  3.0

[...]

     End of self-consistent calculation

          k = 0.0000 0.0000 0.0000 (  1065 PWs)   bands (ev):

   -37.1601 -37.1577 -15.3813 -15.3523 -15.1219 -15.1218 -15.1187 -15.1186
    -2.4850  -1.2380   0.1276   6.5510   6.8833   8.7015   8.7219   8.7219
     9.4394   9.4395   9.9772  10.5056  10.5057  10.5370  12.1815  12.7629
    13.4870  13.4871

     occupation numbers
     1.0000   1.0000   1.0000   1.0000   1.0000   1.0000   1.0000   1.0000
     1.0000   1.0000   1.0000   1.0000   1.0000   1.0000   1.0000   1.0000
     1.0000   1.0000   1.0000   1.0000   1.0000   1.0000  -0.0000  -0.0000
    -0.0000  -0.0000

     the Fermi energy is    12.0319 ev

!    total energy              =    -307.95635599 Ry
     estimated scf accuracy    <       0.00000099 Ry
     smearing contrib. (-TS)   =       0.00000000 Ry
     internal energy E=F+TS    =    -307.95635599 Ry

     The total energy is F=E-TS. E is the sum of the following terms:
     one-electron contribution =     -36.89757394 Ry
     hartree contribution      =      39.66947589 Ry
     xc contribution           =    -107.89514037 Ry
     ewald contribution        =    -202.83311757 Ry

     convergence has been achieved in  10 iterations

     negative rho (up, down):  1.205E-01 0.000E+00

     Forces acting on atoms (cartesian axes, Ry/au):

     atom    1 type  1   force =     0.00000000    0.00000000    0.11606058
     atom    2 type  1   force =     0.00000000    0.00000000   -0.11606058
     atom    3 type  2   force =     0.00000000    0.00000000   -0.00000000
     atom    4 type  2   force =     0.00000000    0.00000000    0.00000000
     atom    5 type  3   force =     0.00000000    0.00000000    0.04437130
     atom    6 type  3   force =     0.00000000    0.00000000   -0.04437130
     The non-local contrib.  to forces
     atom    1 type  1   force =     0.00000000    0.00000000   -0.31373351
     atom    2 type  1   force =     0.00000000    0.00000000    0.31373351
     atom    3 type  2   force =     0.00000000    0.00000000   -0.00000000
     atom    4 type  2   force =     0.00000000    0.00000000    0.00000000
     atom    5 type  3   force =     0.00000000    0.00000000    0.28257767
     atom    6 type  3   force =     0.00000000    0.00000000   -0.28257767
     The ionic contribution  to forces
     atom    1 type  1   force =     0.00000000   -0.00000000    0.30400953
     atom    2 type  1   force =    -0.00000000    0.00000000   -0.30400953
     atom    3 type  2   force =     0.00000000    0.00000000    0.00000000
     atom    4 type  2   force =    -0.00000000   -0.00000000    0.00000000
     atom    5 type  3   force =     0.00000000    0.00000000   -2.14493174
     atom    6 type  3   force =     0.00000000   -0.00000000    2.14493174
     The local contribution  to forces
     atom    1 type  1   force =     0.00006564    0.00024043    0.10851843
     atom    2 type  1   force =    -0.00002831   -0.00012412   -0.10895163
     atom    3 type  2   force =    -0.00001442    0.00000392   -0.00070491
     atom    4 type  2   force =     0.00001304    0.00000195   -0.00060487
     atom    5 type  3   force =    -0.00005956   -0.00012663    1.94072703
     atom    6 type  3   force =     0.00002314    0.00009509   -1.93908469
     The core correction contribution to forces
     atom    1 type  1   force =     0.00000132    0.00000315    0.01507559
     atom    2 type  1   force =     0.00000036   -0.00000172   -0.01509085
     atom    3 type  2   force =    -0.00000083    0.00000047    0.00000623
     atom    4 type  2   force =     0.00000062   -0.00000014    0.00001263
     atom    5 type  3   force =    -0.00000456   -0.00000827   -0.03376236
     atom    6 type  3   force =    -0.00000057    0.00000703    0.03375881
     The Hubbard contrib.    to forces
     atom    1 type  1   force =     0.00000000    0.00000000    0.00000000
     atom    2 type  1   force =     0.00000000    0.00000000    0.00000000
     atom    3 type  2   force =     0.00000000    0.00000000    0.00000000
     atom    4 type  2   force =     0.00000000    0.00000000    0.00000000
     atom    5 type  3   force =     0.00000000    0.00000000    0.00000000
     atom    6 type  3   force =     0.00000000    0.00000000    0.00000000
     The SCF correction term to forces
     atom    1 type  1   force =    -0.00005347   -0.00020427    0.00211638
     atom    2 type  1   force =     0.00003913    0.00009630   -0.00181625
     atom    3 type  2   force =     0.00000835    0.00000252    0.00072967
     atom    4 type  2   force =    -0.00000809   -0.00000489    0.00068628
     atom    5 type  3   force =     0.00003491    0.00008739   -0.00022138
     atom    6 type  3   force =    -0.00001867   -0.00004837   -0.00138157

     Total force =     0.175721     Total SCF correction =     0.003287

     Computing stress (Cartesian axis) and pressure

     negative rho (up, down):  1.205E-01 0.000E+00
          total   stress  (Ry/bohr**3)                   (kbar)     P=      161.90
   0.00138626   0.00000000   0.00000000          203.93        0.00        0.00
   0.00000000   0.00138626   0.00000000            0.00      203.93        0.00
   0.00000000   0.00000000   0.00052922            0.00        0.00       77.85

     kinetic stress (kbar)   9855.79      0.00      0.00
                                0.00   9855.79      0.00
                                0.00      0.00   9482.38

     local   stress (kbar)  -6225.24     -0.00      0.01
                               -0.00  -6225.40      0.04
                                0.01      0.04   -527.49

     nonloc. stress (kbar)   8358.72      0.00      0.00
                                0.00   8358.72      0.00
                                0.00      0.00   8208.94

     hartree stress (kbar)   3275.18      0.00     -0.01
                                0.00   3275.27     -0.01
                               -0.01     -0.01   1069.00

     exc-cor stress (kbar)  10363.70     -0.00     -0.00
                               -0.00  10363.70     -0.00
                               -0.00     -0.00  10352.91

     corecor stress (kbar) -13475.85      0.00     -0.00
                                0.00 -13475.85      0.00
                               -0.00      0.00 -13445.73

     ewald   stress (kbar) -11948.34     -0.00     -0.00
                               -0.00 -11948.34      0.00
                               -0.00      0.00 -15062.17

     hubbard stress (kbar)      0.00      0.00      0.00
                                0.00      0.00      0.00
                                0.00      0.00      0.00

     DFT-D   stress (kbar)      0.00      0.00      0.00
                                0.00      0.00      0.00
                                0.00      0.00      0.00

     XDM     stress (kbar)      0.00      0.00      0.00
                                0.00      0.00      0.00
                                0.00      0.00      0.00

     dft-nl  stress (kbar)      0.00      0.00      0.00
                                0.00      0.00      0.00
                                0.00      0.00      0.00

     TS-vdW  stress (kbar)      0.00      0.00      0.00
                                0.00      0.00      0.00
                                0.00      0.00      0.00

[...]

                                0.00      0.00      0.00

     Writing all to output data dir new_calculations/myprefix.save/

     General routines

     Parallel routines

   This run was terminated on:  11: 1:23  21May2023

   JOB DONE.