     Program PWSCF v.7.0 starts on 20May2023 at 18:39:31

     Reading input from espresso_4577.pwi
Warning: card &CELL ignored
Warning: card / ignored

     Current dimensions of program PWSCF are:
     Max number of different atomic species (ntypx) = 10
     Max number of k-points (npk) =  40000
     Max angular momentum in pseudopotentials (lmaxx) =  4

     gamma-point specific algorithms are used
     Message from routine setup:
     using ibrav=0 with symmetry is DISCOURAGED, use correct ibrav instead

     Subspace diagonalization in iterative solution of the eigenvalue problem:
     a serial algorithm will be used

     Using Slab Decomposition

     bravais-lattice index     =            0
     lattice parameter (alat)  =      11.9561  a.u.
     unit-cell volume          =     434.4366 (a.u.)^3
     number of atoms/cell      =            3
     number of atomic types    =            2
     number of electrons       =        43.00
     number of Kohn-Sham states=           26
     kinetic-energy cutoff     =      30.0000  Ry
     charge density cutoff     =     240.0000  Ry
     scf convergence threshold =      1.0E-06
     mixing beta               =       0.7000
     number of iterations used =            8  plain     mixing
     Exchange-correlation= PBE
                           (   1   4   3   4   0   0   0)

     celldm(1)=  11.956146  celldm(2)=   0.000000  celldm(3)=   0.000000
     celldm(4)=   0.000000  celldm(5)=   0.000000  celldm(6)=   0.000000

     crystal axes: (cart. coord. in units of alat)
               a(1) = (   1.000000   0.000000   0.000000 )
               a(2) = (   0.726413   0.687258   0.000000 )
               a(3) = (  -0.863206  -0.343629   0.369856 )

     reciprocal axes: (cart. coord. in units 2 pi/alat)
               b(1) = (  1.000000 -1.056972  1.351877 )
               b(2) = (  0.000000  1.455057  1.351877 )
               b(3) = (  0.000000  0.000000  2.703754 )

     PseudoPot. # 1 for Zr read from file:
     /home/pragov/projects/rrg-bengioy-ad/pragov/crystal_structure_design/SSSP/Zr_pbe_v1.uspp.F.UPF
     MD5 check sum: 5db81b1e868ab7776c4564c113de050b
     Pseudo is Ultrasoft + core correction, Zval = 12.0
     Generated by new atomic code, or converted to UPF format
     Using radial grid of  887 points,  6 beta functions with:
                l(1) =   0
                l(2) =   0
                l(3) =   1
                l(4) =   1
                l(5) =   2
                l(6) =   2
     Q(r) pseudized with  6 coefficients,  rinner =    1.200   1.200   1.200
                                                       1.200   1.200

     PseudoPot. # 2 for Au read from file:
     /home/pragov/projects/rrg-bengioy-ad/pragov/crystal_structure_design/SSSP/Au_ONCV_PBE-1.0.oncvpsp.upf
     MD5 check sum: d14007822ba0e19f0206237467fc06c2
     Pseudo is Norm-conserving, Zval = 19.0
     Generated using ONCVPSP code by D. R. Hamann
     Using radial grid of 1278 points,  8 beta functions with:
                l(1) =   0
                l(2) =   0
                l(3) =   1
                l(4) =   1
                l(5) =   2
                l(6) =   2
                l(7) =   3
                l(8) =   3

     atomic species   valence    mass     pseudopotential
        Zr            12.00    91.22400     Zr( 1.00)
        Au            19.00   196.96657     Au( 1.00)

      4 Sym. Ops., with inversion, found

                                    s                        frac. trans.

      isym =  1     identity

 cryst.   s( 1) = (     1          0          0      )
                  (     0          1          0      )
                  (     0          0          1      )

 cart.    s( 1) = (  1.0000000  0.0000000  0.0000000 )
                  (  0.0000000  1.0000000  0.0000000 )
                  (  0.0000000  0.0000000  1.0000000 )

      isym =  2     180 deg rotation - cart. axis [0,0,1]

[...]

      isym =  3     inversion

[...]

      isym =  4     inv. 180 deg rotation - cart. axis [0,0,1]

 cryst.   s( 4) = (     1          0          0      )
                  (     0          1          0      )
                  (    -1         -1         -1      )

 cart.    s( 4) = (  1.0000000  0.0000000 -0.0000000 )
                  (  0.0000000  1.0000000 -0.0000000 )
                  (  0.0000000  0.0000000 -1.0000000 )

   Cartesian axes

     site n.     atom                  positions (alat units)
         1           Zr  tau(   1) = (   1.1404253   0.4539858   0.0000000  )
         2           Zr  tau(   2) = (   0.5859877   0.2332727   0.0000000  )
         3           Au  tau(   3) = (   0.0000000   0.0000000   0.0000000  )

   Crystallographic axes

     site n.     atom                  positions (cryst. coord.)
         1           Zr  tau(   1) = (  0.6605750  0.6605750  0.0000000  )
         2           Zr  tau(   2) = (  0.3394250  0.3394250  0.0000000  )
         3           Au  tau(   3) = (  0.0000000  0.0000000  0.0000000  )

     number of k points=     1  Methfessel-Paxton smearing, width (Ry)=  0.0010
                       cart. coord. in units 2pi/alat
        k(    1) = (   0.0000000   0.0000000   0.0000000), wk =   2.0000000

                       cryst. coord.
        k(    1) = (   0.0000000   0.0000000   0.0000000), wk =   2.0000000

     Check: negative core charge=   -0.000004

     Initial potential from superposition of free atoms

     starting charge      42.9956, renormalised to      43.0000

     negative rho (up, down):  1.215E-01 0.000E+00
     Starting wfcs are   36 randomized atomic wfcs

     Self-consistent Calculation

     iteration #  1     ecut=    30.00 Ry     beta= 0.70
     Davidson diagonalization with overlap

     ethr =  1.00E-02,  avg # of iterations =  3.0

     Threshold (ethr) on eigenvalues was too large:
     Diagonalizing with lowered threshold

     Davidson diagonalization with overlap

[...]

     negative rho (up, down):  1.075E-01 0.000E+00

     total energy              =    -473.94122415 Ry
     estimated scf accuracy    <       0.28504022 Ry

[...]

     total energy              =    -473.98886147 Ry
     estimated scf accuracy    <       0.00000116 Ry

     iteration #  8     ecut=    30.00 Ry     beta= 0.70
     Davidson diagonalization with overlap

     ethr =  2.71E-09,  avg # of iterations =  5.0

[...]

     End of self-consistent calculation

          k = 0.0000 0.0000 0.0000 (   616 PWs)   bands (ev):

   -90.7813 -42.1944 -42.0225 -41.6514 -33.7831 -32.7231 -12.2854 -11.5102
   -11.4268 -10.9868 -10.5568 -10.2737   8.0686  10.1638  10.6684  11.6373
    11.7064  11.8835  12.5375  14.2819  15.3499  17.0724  17.4591  17.5293
    17.8446  18.1186

     occupation numbers
     1.0000   1.0000   1.0000   1.0000   1.0000   1.0000   1.0000   1.0000
     1.0000   1.0000   1.0000   1.0000   1.0000   1.0000   1.0000   1.0000
     1.0000   1.0000   1.0000   1.0000   1.0000   0.5000  -0.0000  -0.0000
    -0.0000  -0.0000

     the Fermi energy is    17.0724 ev

!    total energy              =    -473.98886168 Ry
     estimated scf accuracy    <       0.00000055 Ry
     smearing contrib. (-TS)   =      -0.00028209 Ry
     internal energy E=F+TS    =    -473.98857958 Ry

     The total energy is F=E-TS. E is the sum of the following terms:
     one-electron contribution =    -169.48320240 Ry
     hartree contribution      =     100.39632891 Ry
     xc contribution           =     -61.16006651 Ry
     ewald contribution        =    -343.74163958 Ry

     convergence has been achieved in   8 iterations

     negative rho (up, down):  1.017E-01 0.000E+00

     Forces acting on atoms (cartesian axes, Ry/au):

     atom    1 type  1   force =    -0.09307783   -0.17702403    0.00000000
     atom    2 type  1   force =     0.09307783    0.17702403   -0.00000000
     atom    3 type  2   force =     0.00000000    0.00000000    0.00000000
     The non-local contrib.  to forces
     atom    1 type  1   force =    -0.34711647   -0.17992544    0.00000000
     atom    2 type  1   force =     0.34711647    0.17992544   -0.00000000
     atom    3 type  2   force =     0.00000000    0.00000000    0.00000000
     The ionic contribution  to forces
     atom    1 type  1   force =     8.85307067    3.52427129   -0.00000000
     atom    2 type  1   force =    -8.85307067   -3.52427129    0.00000000
     atom    3 type  2   force =     0.00000000   -0.00000000   -0.00000000
     The local contribution  to forces
     atom    1 type  1   force =    -8.60411119   -3.51302103    0.00944629
     atom    2 type  1   force =     8.60606924    3.51375864   -0.00937533
     atom    3 type  2   force =    -0.00589523   -0.00268408    0.00042373
     The core correction contribution to forces
     atom    1 type  1   force =     0.00663736   -0.00805627   -0.00711178
     atom    2 type  1   force =    -0.00664576    0.00804995    0.00711754
     atom    3 type  2   force =     0.00000000    0.00000000    0.00000000
     The Hubbard contrib.    to forces
     atom    1 type  1   force =     0.00000000    0.00000000    0.00000000
     atom    2 type  1   force =     0.00000000    0.00000000    0.00000000
     atom    3 type  2   force =     0.00000000    0.00000000    0.00000000
     The SCF correction term to forces
     atom    1 type  1   force =    -0.00159002   -0.00032424    0.00003197
     atom    2 type  1   force =    -0.00042326   -0.00047039   -0.00001936
     atom    3 type  2   force =     0.00622453    0.00282649   -0.00044828

     Total force =     0.282846     Total SCF correction =     0.007069

     Computing stress (Cartesian axis) and pressure

     negative rho (up, down):  1.017E-01 0.000E+00
          total   stress  (Ry/bohr**3)                   (kbar)     P=       18.64
   0.00080730   0.00074383  -0.00000000          118.76      109.42       -0.00
   0.00074383  -0.00055320  -0.00000000          109.42      -81.38       -0.00
  -0.00000000  -0.00000000   0.00012611           -0.00       -0.00       18.55

     kinetic stress (kbar)  31263.17   -299.23     -0.00
                             -299.23  31765.16     -0.00
                               -0.00     -0.00  32055.37

     local   stress (kbar)  -1642.36   5296.90    -19.25
                             5296.90 -12593.74     62.62
                              -19.25     62.62 -14707.30

     nonloc. stress (kbar)  11778.35    122.02     -0.00
                              122.02  11452.51     -0.00
                               -0.00     -0.00  11398.80

     hartree stress (kbar)   7586.01  -2439.63     12.19
                            -2439.63  12723.96     -0.34
                               12.19     -0.34  13685.34

     exc-cor stress (kbar)  -1823.86     -7.93      0.17
                               -7.93  -1808.40     -0.07
                                0.17     -0.07  -1806.18

     corecor stress (kbar)  -4302.07     -6.11     -0.15
                               -6.11  -4284.87      3.68
                               -0.15      3.68  -4289.23

     ewald   stress (kbar) -42740.49  -2556.59     -0.00
                            -2556.59 -37336.00     -0.00
                               -0.00     -0.00 -36318.26

     hubbard stress (kbar)      0.00      0.00      0.00
                                0.00      0.00      0.00
                                0.00      0.00      0.00

     DFT-D   stress (kbar)      0.00      0.00      0.00
                                0.00      0.00      0.00
                                0.00      0.00      0.00

     XDM     stress (kbar)      0.00      0.00      0.00
                                0.00      0.00      0.00
                                0.00      0.00      0.00

     dft-nl  stress (kbar)      0.00      0.00      0.00
                                0.00      0.00      0.00
                                0.00      0.00      0.00

     TS-vdW  stress (kbar)      0.00      0.00      0.00
                                0.00      0.00      0.00
                                0.00      0.00      0.00

[...]

                                0.00      0.00      0.00

     Writing all to output data dir new_calculations/myprefix.save/

     General routines

     Parallel routines

   This run was terminated on:  18:39:36  20May2023

   JOB DONE.