     Program PWSCF v.7.0 starts on 21May2023 at  4:19:13

     Reading input from espresso_26418.pwi
Warning: card &CELL ignored
Warning: card / ignored

     Current dimensions of program PWSCF are:
     Max number of different atomic species (ntypx) = 10
     Max number of k-points (npk) =  40000
     Max angular momentum in pseudopotentials (lmaxx) =  4
     file Pb.pbe-dn-kjpaw_psl.0.2.2.UPF: wavefunction(s)  6S renormalized
     file O.pbe-n-kjpaw_psl.0.1.UPF: wavefunction(s)  2P renormalized

     gamma-point specific algorithms are used

     Subspace diagonalization in iterative solution of the eigenvalue problem:
     a serial algorithm will be used

     Using Slab Decomposition

     bravais-lattice index     =            0
     lattice parameter (alat)  =       7.9251  a.u.
     unit-cell volume          =     956.3547 (a.u.)^3
     number of atoms/cell      =           10
     number of atomic types    =            4
     number of electrons       =        88.00
     number of Kohn-Sham states=           53
     kinetic-energy cutoff     =      30.0000  Ry
     charge density cutoff     =     240.0000  Ry
     scf convergence threshold =      1.0E-06
     mixing beta               =       0.7000
     number of iterations used =            8  plain     mixing
     Exchange-correlation= SLA  PW   PBX  PBC
                           (   1   4   3   4   0   0   0)

     celldm(1)=   7.925065  celldm(2)=   0.000000  celldm(3)=   0.000000
     celldm(4)=   0.000000  celldm(5)=   0.000000  celldm(6)=   0.000000

     crystal axes: (cart. coord. in units of alat)
               a(1) = (   1.000000   0.000000   0.000000 )
               a(2) = (   0.016873   1.377029   0.000000 )
               a(3) = (   0.026646   0.035699   1.395299 )

     reciprocal axes: (cart. coord. in units 2 pi/alat)
               b(1) = (  1.000000 -0.012253 -0.018784 )
               b(2) = (  0.000000  0.726201 -0.018580 )
               b(3) = (  0.000000  0.000000  0.716692 )

     PseudoPot. # 1 for Zr read from file:
     /home/pragov/projects/rrg-bengioy-ad/pragov/crystal_structure_design/SSSP/Zr_pbe_v1.uspp.F.UPF
     MD5 check sum: 5db81b1e868ab7776c4564c113de050b
     Pseudo is Ultrasoft + core correction, Zval = 12.0
     Generated by new atomic code, or converted to UPF format
     Using radial grid of  887 points,  6 beta functions with:
                l(1) =   0
                l(2) =   0
                l(3) =   1
                l(4) =   1
                l(5) =   2
                l(6) =   2
     Q(r) pseudized with  6 coefficients,  rinner =    1.200   1.200   1.200
                                                       1.200   1.200

     PseudoPot. # 2 for Ti read from file:
     /home/pragov/projects/rrg-bengioy-ad/pragov/crystal_structure_design/SSSP/ti_pbe_v1.4.uspp.F.UPF
     MD5 check sum: 88a00a6731bd790ddea75d31a80cb452
     Pseudo is Ultrasoft + core correction, Zval = 12.0
     Generated by new atomic code, or converted to UPF format
     Using radial grid of  851 points,  6 beta functions with:
                l(1) =   0
                l(2) =   0
                l(3) =   1
                l(4) =   1
                l(5) =   2
                l(6) =   2
     Q(r) pseudized with  6 coefficients,  rinner =    1.000   1.000   1.000
                                                       1.000   1.000

     PseudoPot. # 3 for Pb read from file:
     /home/pragov/projects/rrg-bengioy-ad/pragov/crystal_structure_design/SSSP/Pb.pbe-dn-kjpaw_psl.0.2.2.UPF
     MD5 check sum: 9d431e6316058b74ade52399a6cf67da
     Pseudo is Projector augmented-wave + core cor, Zval = 14.0
     Generated using "atomic" code by A. Dal Corso  v.5.0.99 svn rev. 10869
     Shape of augmentation charge: PSQ
     Using radial grid of 1281 points,  6 beta functions with:
                l(1) =   0
                l(2) =   0
                l(3) =   1
                l(4) =   1
                l(5) =   2
                l(6) =   2
     Q(r) pseudized with 0 coefficients

     PseudoPot. # 4 for O  read from file:
     /home/pragov/projects/rrg-bengioy-ad/pragov/crystal_structure_design/SSSP/O.pbe-n-kjpaw_psl.0.1.UPF
     MD5 check sum: 0234752ac141de4415c5fc33072bef88
     Pseudo is Projector augmented-wave + core cor, Zval =  6.0
     Generated using "atomic" code by A. Dal Corso  v.5.0.99 svn rev. 10869
     Shape of augmentation charge: BESSEL
     Using radial grid of 1095 points,  4 beta functions with:
                l(1) =   0
                l(2) =   0
                l(3) =   1
                l(4) =   1
     Q(r) pseudized with 0 coefficients

     atomic species   valence    mass     pseudopotential
        Zr            12.00    91.22400     Zr( 1.00)
        Ti            12.00    47.86700     Ti( 1.00)
        Pb            14.00   207.20000     Pb( 1.00)
        O              6.00    15.99900     O ( 1.00)

     No symmetry found

                                    s                        frac. trans.

      isym =  1     identity

 cryst.   s( 1) = (     1          0          0      )
                  (     0          1          0      )
                  (     0          0          1      )

 cart.    s( 1) = (  1.0000000 -0.0000000  0.0000000 )
                  (  0.0000000  1.0000000  0.0000000 )
                  (  0.0000000  0.0000000  1.0000000 )

   Cartesian axes

     site n.     atom                  positions (alat units)
         1           Zr  tau(   1) = (   0.8071787   0.9181609   1.2817161  )
         2           Ti  tau(   2) = (   0.7581645   0.2042574   0.5737274  )
         3           Pb  tau(   3) = (   0.2448645   0.8705459   0.5370981  )
         4           Pb  tau(   4) = (   0.2546892   0.2176820   1.2027855  )
         5           O   tau(   5) = (   0.8359689   0.5639405   0.9563017  )
         6           O   tau(   6) = (   0.8202844   1.2543227   0.2831801  )
         7           O   tau(   7) = (   0.3199711   0.9415821   1.3398178  )
         8           O   tau(   8) = (   0.3242229   0.2315097   0.6216127  )
         9           O   tau(   9) = (   0.8185924   0.5643274   0.2923110  )
        10           O   tau(  10) = (   0.8437088   1.2930224   0.9581365  )

   Crystallographic axes

     site n.     atom                  positions (cryst. coord.)
         1           Zr  tau(   1) = (  0.7718530  0.6429550  0.9185960  )
         2           Ti  tau(   2) = (  0.7448850  0.1376720  0.4111860  )
         3           Pb  tau(   3) = (  0.2241090  0.6222120  0.3849340  )
         4           Pb  tau(   4) = (  0.2294290  0.1357330  0.8620270  )
         5           O   tau(   5) = (  0.8110960  0.3917660  0.6853740  )
         6           O   tau(   6) = (  0.7995960  0.9056290  0.2029530  )
         7           O   tau(   7) = (  0.2832670  0.6588840  0.9602370  )
         8           O   tau(   8) = (  0.3097100  0.1565730  0.4455050  )
         9           O   tau(   9) = (  0.8061870  0.4043840  0.2094970  )
        10           O   tau(  10) = (  0.8098680  0.9211920  0.6866890  )

     number of k points=     1  Methfessel-Paxton smearing, width (Ry)=  0.0010
                       cart. coord. in units 2pi/alat
        k(    1) = (   0.0000000   0.0000000   0.0000000), wk =   2.0000000

                       cryst. coord.
        k(    1) = (   0.0000000   0.0000000   0.0000000), wk =   2.0000000

     Check: negative core charge=   -0.000011

     Initial potential from superposition of free atoms

     starting charge      86.9931, renormalised to      88.0000

     negative rho (up, down):  6.206E-02 0.000E+00
     Starting wfcs are   65 randomized atomic wfcs
     Checking if some PAW data can be deallocated...

     Self-consistent Calculation

     iteration #  1     ecut=    30.00 Ry     beta= 0.70
     Davidson diagonalization with overlap

     ethr =  1.00E-02,  avg # of iterations =  2.0

     negative rho (up, down):  6.395E-02 0.000E+00

     total energy              =   -2208.00464336 Ry
     estimated scf accuracy    <       3.34680425 Ry

[...]

     total energy              =   -2209.74491935 Ry
     estimated scf accuracy    <       0.00000151 Ry

     iteration # 14     ecut=    30.00 Ry     beta= 0.70
     Davidson diagonalization with overlap

     ethr =  1.72E-09,  avg # of iterations =  5.0

[...]

     End of self-consistent calculation

          k = 0.0000 0.0000 0.0000 (  1324 PWs)   bands (ev):

   -47.1118 -38.8176 -23.4610 -23.3829 -23.3380 -16.9921 -16.9765 -16.9350
    -8.0258  -7.7177  -7.3451  -7.0423  -6.9598  -6.6240  -6.0675  -6.0352
    -6.0229  -5.9690  -5.9601  -5.9042  -5.8356  -5.7856  -5.7107  -5.6016
     2.2409   3.3353   5.1919   5.6222   6.3189   6.3320   6.4066   6.5397
     6.7855   6.8428   7.1067   7.7371   7.9287   8.0189   8.1073   8.1322
     8.2337   8.4088   8.5593   9.3235  12.0992  12.4728  12.5697  13.3796
    13.6951  13.8264  14.1692  14.2751  14.4647

     occupation numbers
     1.0000   1.0000   1.0000   1.0000   1.0000   1.0000   1.0000   1.0000
     1.0000   1.0000   1.0000   1.0000   1.0000   1.0000   1.0000   1.0000
     1.0000   1.0000   1.0000   1.0000   1.0000   1.0000   1.0000   1.0000
     1.0000   1.0000   1.0000   1.0000   1.0000   1.0000   1.0000   1.0000
     1.0000   1.0000   1.0000   1.0000   1.0000   1.0000   1.0000   1.0000
     1.0000   1.0000   1.0000   1.0000  -0.0000  -0.0000  -0.0000  -0.0000
    -0.0000  -0.0000  -0.0000  -0.0000  -0.0000

     the Fermi energy is    10.7352 ev

!    total energy              =   -2209.74491967 Ry
     estimated scf accuracy    <       0.00000004 Ry
     smearing contrib. (-TS)   =       0.00000000 Ry
     internal energy E=F+TS    =   -2209.74491967 Ry

     The total energy is F=E-TS. E is the sum of the following terms:
     one-electron contribution =    -166.51114852 Ry
     hartree contribution      =     144.01362256 Ry
     xc contribution           =    -169.28339754 Ry
     ewald contribution        =    -503.86860971 Ry
     one-center paw contrib.   =   -1514.09538646 Ry
      -> PAW hartree energy AE =     370.03057981 Ry
      -> PAW hartree energy PS =    -368.98803663 Ry
      -> PAW xc energy AE      =   -1647.66154394 Ry
      -> PAW xc energy PS      =     132.52361429 Ry
      -> total E_H with PAW    =     145.05616575 Ry
      -> total E_XC with PAW   =   -1684.42132719 Ry

     convergence has been achieved in  14 iterations

     negative rho (up, down):  6.655E-02 0.000E+00

     Forces acting on atoms (cartesian axes, Ry/au):

     atom    1 type  1   force =    -0.08003338   -0.10693805   -0.25377044
     atom    2 type  2   force =    -0.10373102   -0.08444880   -0.17201786
     atom    3 type  3   force =     0.01615695    0.01162264    0.01186254
     atom    4 type  3   force =     0.00953504    0.00983161    0.01408112
     atom    5 type  4   force =     0.02003488    0.03874728    0.06531902
     atom    6 type  4   force =     0.02448458    0.02227500    0.04854390
     atom    7 type  4   force =     0.03672697    0.04811691    0.12742155
     atom    8 type  4   force =     0.02435331    0.03793107    0.07200294
     atom    9 type  4   force =     0.02690692    0.02302683    0.03426578
     atom   10 type  4   force =     0.02556575   -0.00016448    0.05229146
     The non-local contrib.  to forces
     atom    1 type  1   force =     0.04020203    0.05783186    0.16191167
     atom    2 type  2   force =     0.06793257    0.01454816    0.02427332
     atom    3 type  3   force =    -0.18686988   -0.07515579   -0.15608071
     atom    4 type  3   force =    -0.17957843   -0.03820710   -0.19876071
     atom    5 type  4   force =     0.09463098    0.21652310    0.23118254
     atom    6 type  4   force =     0.04647023    0.23567800    0.19147907
     atom    7 type  4   force =     0.10855098   -0.09383624   -0.12714092
     atom    8 type  4   force =     0.55104199   -0.05309275    0.01677672
     atom    9 type  4   force =     0.07861046   -0.14213083   -0.01232676
     atom   10 type  4   force =     0.07700291   -0.10784609    0.01275556
     The ionic contribution  to forces
     atom    1 type  1   force =    -1.64753437   -0.07639568   -1.00925408
     atom    2 type  2   force =     1.00536062   -0.41973986   -1.36883381
     atom    3 type  3   force =     3.95159600    2.81052176    4.07131861
     atom    4 type  3   force =     3.81830913    1.08920220    6.83704862
     atom    5 type  4   force =    -1.24072806    0.84054327   -0.11392378
     atom    6 type  4   force =    -0.47367961   -2.06009954   -3.21814279
     atom    7 type  4   force =     0.20137681   -0.12121375   -1.30500676
     atom    8 type  4   force =    -3.98518499   -0.64552510   -1.88587749
     atom    9 type  4   force =    -0.75748669    0.72088478   -2.64071510
     atom   10 type  4   force =    -0.87202883   -2.13817809    0.63338658
     The local contribution  to forces
     atom    1 type  1   force =     1.52867163   -0.08618145    0.60181124
     atom    2 type  2   force =    -1.18463001    0.32082588    1.17314071
     atom    3 type  3   force =    -3.75819940   -2.72829885   -3.91030432
     atom    4 type  3   force =    -3.63727787   -1.04333818   -6.63264402
     atom    5 type  4   force =     1.16710322   -1.01657314   -0.05046723
     atom    6 type  4   force =     0.45239036    1.84849590    3.07641119
     atom    7 type  4   force =    -0.27246307    0.26185792    1.55777143
     atom    8 type  4   force =     3.46294302    0.73585666    1.94082596
     atom    9 type  4   force =     0.70671161   -0.55732093    2.68674246
     atom   10 type  4   force =     0.82145466    2.24464989   -0.59437770
     The core correction contribution to forces
     atom    1 type  1   force =    -0.00136539   -0.00239961   -0.00803125
     atom    2 type  2   force =     0.00753333    0.00012526   -0.00074751
     atom    3 type  3   force =     0.00960794    0.00422457    0.00679840
     atom    4 type  3   force =     0.00822590    0.00234265    0.00850928
     atom    5 type  4   force =    -0.00098953   -0.00168963   -0.00153445
     atom    6 type  4   force =    -0.00071466   -0.00181903   -0.00112876
     atom    7 type  4   force =    -0.00074606    0.00118934    0.00186850
     atom    8 type  4   force =    -0.00443799    0.00076341    0.00021623
     atom    9 type  4   force =    -0.00093322    0.00163779    0.00065507
     atom   10 type  4   force =    -0.00086280    0.00118978    0.00044309
     The Hubbard contrib.    to forces
     atom    1 type  1   force =     0.00000000    0.00000000    0.00000000
     atom    2 type  2   force =     0.00000000    0.00000000    0.00000000
     atom    3 type  3   force =     0.00000000    0.00000000    0.00000000
     atom    4 type  3   force =     0.00000000    0.00000000    0.00000000
     atom    5 type  4   force =     0.00000000    0.00000000    0.00000000
     atom    6 type  4   force =     0.00000000    0.00000000    0.00000000
     atom    7 type  4   force =     0.00000000    0.00000000    0.00000000
     atom    8 type  4   force =     0.00000000    0.00000000    0.00000000
     atom    9 type  4   force =     0.00000000    0.00000000    0.00000000
     atom   10 type  4   force =     0.00000000    0.00000000    0.00000000
     The SCF correction term to forces
     atom    1 type  1   force =    -0.00000721    0.00020203   -0.00019992
     atom    2 type  2   force =     0.00007256   -0.00021303    0.00015753
     atom    3 type  3   force =     0.00002237    0.00032615    0.00013866
     atom    4 type  3   force =    -0.00014360   -0.00017275   -0.00006394
     atom    5 type  4   force =     0.00001835   -0.00006111    0.00007004
     atom    6 type  4   force =     0.00001833    0.00001488   -0.00006670
     atom    7 type  4   force =     0.00000840    0.00011484   -0.00006261
     atom    8 type  4   force =    -0.00000864   -0.00007594    0.00006962
     atom    9 type  4   force =     0.00000483   -0.00004878   -0.00008179
     atom   10 type  4   force =    -0.00000011    0.00001523    0.00009204

     Total force =     0.416173     Total SCF correction =     0.000630

     Computing stress (Cartesian axis) and pressure

     negative rho (up, down):  6.655E-02 0.000E+00
          total   stress  (Ry/bohr**3)                   (kbar)     P=     -285.66
  -0.00021270   0.00001545   0.00000597          -31.29        2.27        0.88
   0.00001545  -0.00278964   0.00012029            2.27     -410.37       17.70
   0.00000597   0.00012029  -0.00282320            0.88       17.70     -415.31

     kinetic stress (kbar)  22658.45    -10.06    -39.81
                              -10.06  22424.19     67.79
                              -39.81     67.79  22367.60

     local   stress (kbar)  -3308.92    272.78    302.42
                              272.78  -3442.28   1330.24
                              302.42   1330.24  -3509.30

     nonloc. stress (kbar)   5340.39      3.07      6.48
                                3.07   5320.41      0.93
                                6.48      0.93   5333.45

     hartree stress (kbar)   7333.31   -101.52   -115.94
                             -101.52   7424.95   -548.51
                             -115.94   -548.51   7393.71

     exc-cor stress (kbar)   4506.45     -0.38     -0.57
                               -0.38   4513.63     -0.20
                               -0.57     -0.20   4513.77

     corecor stress (kbar) -10742.37     -0.19     -0.40
                               -0.19 -10739.92     -0.37
                               -0.40     -0.37 -10740.14

     ewald   stress (kbar) -25818.59   -161.43   -151.31
                             -161.43 -25911.34   -832.19
                             -151.31   -832.19 -25774.40

     hubbard stress (kbar)      0.00      0.00      0.00
                                0.00      0.00      0.00
                                0.00      0.00      0.00

     DFT-D   stress (kbar)      0.00      0.00      0.00
                                0.00      0.00      0.00
                                0.00      0.00      0.00

     XDM     stress (kbar)      0.00      0.00      0.00
                                0.00      0.00      0.00
                                0.00      0.00      0.00

     dft-nl  stress (kbar)      0.00      0.00      0.00
                                0.00      0.00      0.00
                                0.00      0.00      0.00

     TS-vdW  stress (kbar)      0.00      0.00      0.00
                                0.00      0.00      0.00
                                0.00      0.00      0.00

[...]

                                0.00      0.00      0.00

     Writing all to output data dir new_calculations/myprefix.save/

     General routines

     Parallel routines

     PAW routines

   This run was terminated on:   4:19:33  21May2023

   JOB DONE.