     Program PWSCF v.7.0 starts on 21May2023 at  7:38: 3

     Reading input from espresso_11953.pwi
Warning: card &CELL ignored
Warning: card / ignored

     Current dimensions of program PWSCF are:
     Max number of different atomic species (ntypx) = 10
     Max number of k-points (npk) =  40000
     Max angular momentum in pseudopotentials (lmaxx) =  4
     file C.pbe-n-kjpaw_psl.1.0.0.UPF: wavefunction(s)  2S 2P renormalized
     file O.pbe-n-kjpaw_psl.0.1.UPF: wavefunction(s)  2P renormalized

     gamma-point specific algorithms are used

     Subspace diagonalization in iterative solution of the eigenvalue problem:
     a serial algorithm will be used

     Using Slab Decomposition

     bravais-lattice index     =            0
     lattice parameter (alat)  =      12.2924  a.u.
     unit-cell volume          =    1734.0005 (a.u.)^3
     number of atoms/cell      =           20
     number of atomic types    =            4
     number of electrons       =       124.00
     number of Kohn-Sham states=           74
     kinetic-energy cutoff     =      30.0000  Ry
     charge density cutoff     =     240.0000  Ry
     scf convergence threshold =      1.0E-06
     mixing beta               =       0.7000
     number of iterations used =            8  plain     mixing
     Exchange-correlation= SLA  PW   PBX  PBC
                           (   1   4   3   4   0   0   0)

     celldm(1)=  12.292421  celldm(2)=   0.000000  celldm(3)=   0.000000
     celldm(4)=   0.000000  celldm(5)=   0.000000  celldm(6)=   0.000000

     crystal axes: (cart. coord. in units of alat)
               a(1) = (   1.000000   0.000000   0.000000 )
               a(2) = (  -0.655797   0.754938   0.000000 )
               a(3) = (   0.155018   0.340000   1.236590 )

     reciprocal axes: (cart. coord. in units 2 pi/alat)
               b(1) = (  1.000000  0.868677 -0.364202 )
               b(2) = (  0.000000  1.324613 -0.364202 )
               b(3) = (  0.000000  0.000000  0.808675 )

     PseudoPot. # 1 for Li read from file:
     /home/pragov/projects/rrg-bengioy-ad/pragov/crystal_structure_design/SSSP/li_pbe_v1.4.uspp.F.UPF
     MD5 check sum: e912e257baa3777c20ea3d68f190483c
     Pseudo is Ultrasoft, Zval =  3.0
     Generated by new atomic code, or converted to UPF format
     Using radial grid of  751 points,  5 beta functions with:
                l(1) =   0
                l(2) =   0
                l(3) =   0
                l(4) =   1
                l(5) =   1
     Q(r) pseudized with 10 coefficients,  rinner =    1.150   1.150   1.150

     PseudoPot. # 2 for Mn read from file:
     /home/pragov/projects/rrg-bengioy-ad/pragov/crystal_structure_design/SSSP/mn_pbe_v1.5.uspp.F.UPF
     MD5 check sum: 82ef2b46521d7a7d9e736dc3972e4928
     Pseudo is Ultrasoft + core correction, Zval = 15.0
     Generated by new atomic code, or converted to UPF format
     Using radial grid of  859 points,  6 beta functions with:
                l(1) =   0
                l(2) =   0
                l(3) =   1
                l(4) =   1
                l(5) =   2
                l(6) =   2
     Q(r) pseudized with  8 coefficients,  rinner =    0.950   0.950   0.950
                                                       0.950   0.950

     PseudoPot. # 3 for C  read from file:
     /home/pragov/projects/rrg-bengioy-ad/pragov/crystal_structure_design/SSSP/C.pbe-n-kjpaw_psl.1.0.0.UPF
     MD5 check sum: 5d2aebdfa2cae82b50a7e79e9516da0f
     Pseudo is Projector augmented-wave + core cor, Zval =  4.0
     Generated using "atomic" code by A. Dal Corso  v.5.1
     Shape of augmentation charge: PSQ
     Using radial grid of 1073 points,  4 beta functions with:
                l(1) =   0
                l(2) =   0
                l(3) =   1
                l(4) =   1
     Q(r) pseudized with 0 coefficients

     PseudoPot. # 4 for O  read from file:
     /home/pragov/projects/rrg-bengioy-ad/pragov/crystal_structure_design/SSSP/O.pbe-n-kjpaw_psl.0.1.UPF
     MD5 check sum: 0234752ac141de4415c5fc33072bef88
     Pseudo is Projector augmented-wave + core cor, Zval =  6.0
     Generated using "atomic" code by A. Dal Corso  v.5.0.99 svn rev. 10869
     Shape of augmentation charge: BESSEL
     Using radial grid of 1095 points,  4 beta functions with:
                l(1) =   0
                l(2) =   0
                l(3) =   1
                l(4) =   1
     Q(r) pseudized with 0 coefficients

     atomic species   valence    mass     pseudopotential
        Li             3.00     6.94000     Li( 1.00)
        Mn            15.00    54.93804     Mn( 1.00)
        C              4.00    12.01100     C ( 1.00)
        O              6.00    15.99900     O ( 1.00)

     No symmetry found

                                    s                        frac. trans.

      isym =  1     identity

 cryst.   s( 1) = (     1          0          0      )
                  (     0          1          0      )
                  (     0          0          1      )

 cart.    s( 1) = (  1.0000000  0.0000000  0.0000000 )
                  (  0.0000000  1.0000000  0.0000000 )
                  (  0.0000000  0.0000000  1.0000000 )

   Cartesian axes

     site n.     atom                  positions (alat units)
         1           Li  tau(   1) = (   0.1307774   0.8006152   0.8058229  )
         2           Li  tau(   2) = (   0.4411419   0.4537695   0.1875277  )
         3           Mn  tau(   3) = (  -0.3621258   0.8321476   0.6219172  )
         4           Mn  tau(   4) = (   0.7881912   0.1023372   0.0036220  )
         5           C   tau(   5) = (   0.6727797   0.7353238   0.9785301  )
         6           C   tau(   6) = (   0.0078544   0.3595557   0.8744661  )
         7           C   tau(   7) = (   0.0364078   0.8201296   0.3602349  )
         8           C   tau(   8) = (   0.1887820   0.0717250   0.2561708  )
         9           O   tau(   9) = (   0.6957230   0.6750198   1.1627042  )
        10           O   tau(  10) = (   0.2517587   1.0033370   1.0141662  )
        11           O   tau(  11) = (   0.5675914   0.6309818   0.8409916  )
        12           O   tau(  12) = (  -0.2458803   0.9035600   0.9051471  )
        13           O   tau(  13) = (   0.0630675   0.5393003   0.9384361  )
        14           O   tau(  14) = (   0.0369918   0.2823417   0.6977326  )
        15           O   tau(  15) = (  -0.0241641   0.7979031   0.5444089  )
        16           O   tau(  16) = (   0.7658691   0.2369281   0.2868519  )
        17           O   tau(  17) = (   0.5148452   0.6780471   0.3958709  )
        18           O   tau(  18) = (   0.2882694   0.2312833   0.3201409  )
        19           O   tau(  19) = (   0.0266182   0.6722919   0.2226963  )
        20           O   tau(  20) = (   0.1113821   0.0430852   0.0794373  )

   Crystallographic axes

     site n.     atom                  positions (cryst. coord.)
         1           Li  tau(   1) = (  0.5327710  0.7670230  0.6516490  )
         2           Li  tau(   2) = (  0.7670230  0.5327710  0.1516490  )
         3           Mn  tau(   3) = (  0.1342380  0.8757700  0.5029290  )
         4           Mn  tau(   4) = (  0.8757700  0.1342380  0.0029290  )
         5           C   tau(   5) = (  0.9551560  0.6176370  0.7913130  )
         6           C   tau(   6) = (  0.0017100  0.1577900  0.7071590  )
         7           C   tau(   7) = (  0.6176370  0.9551560  0.2913130  )
         8           C   tau(   8) = (  0.1577900  0.0017100  0.2071590  )
         9           O   tau(   9) = (  0.8586380  0.4706810  0.9402500  )
        10           O   tau(  10) = (  0.7539730  0.9596720  0.8201310  )
        11           O   tau(  11) = (  0.8094200  0.5295160  0.6800890  )
        12           O   tau(  12) = (  0.2093650  0.8672110  0.7319700  )
        13           O   tau(  13) = (  0.1897650  0.3725840  0.7588900  )
        14           O   tau(  14) = (  0.0281400  0.1198780  0.5642390  )
        15           O   tau(  15) = (  0.4706810  0.8586380  0.4402500  )
        16           O   tau(  16) = (  0.8672110  0.2093660  0.2319700  )
        17           O   tau(  17) = (  0.9596720  0.7539730  0.3201310  )
        18           O   tau(  18) = (  0.3725840  0.1897650  0.2588900  )
        19           O   tau(  19) = (  0.5295160  0.8094200  0.1800890  )
        20           O   tau(  20) = (  0.1198780  0.0281400  0.0642390  )

     number of k points=     1  Methfessel-Paxton smearing, width (Ry)=  0.0010
                       cart. coord. in units 2pi/alat
        k(    1) = (   0.0000000   0.0000000   0.0000000), wk =   2.0000000

                       cryst. coord.
        k(    1) = (   0.0000000   0.0000000   0.0000000), wk =   2.0000000

     Check: negative core charge=   -0.000024

     Initial potential from superposition of free atoms

     starting charge     122.0982, renormalised to     124.0000
     Starting wfcs are  100 randomized atomic wfcs
     Checking if some PAW data can be deallocated...

     Self-consistent Calculation

     iteration #  1     ecut=    30.00 Ry     beta= 0.70
     Davidson diagonalization with overlap

     ethr =  1.00E-02,  avg # of iterations =  2.0

     total energy              =   -1021.77228678 Ry
     estimated scf accuracy    <       4.52177891 Ry

[...]

     ethr =  1.71E-04,  avg # of iterations =  1.0
     Minimization algorithm failed to find Fermi energy: reverting to bisection
     Possible cause: smearing is larger than the electronic band-gap.

[...]

     total energy              =   -1024.44734269 Ry
     estimated scf accuracy    <       0.00000782 Ry

     iteration # 33     ecut=    30.00 Ry     beta= 0.70
     Davidson diagonalization with overlap

     ethr =  1.64E-09,  avg # of iterations =  1.0

     End of self-consistent calculation

          k = 0.0000 0.0000 0.0000 (  2413 PWs)   bands (ev):

   -76.2961 -76.2957 -45.0724 -45.0709 -45.0207 -45.0185 -44.9813 -44.9812
   -41.5422 -41.5416 -20.3038 -20.1910 -19.9727 -19.9548 -17.5184 -17.3788
   -17.2826 -17.2419 -16.8264 -16.8244 -16.5283 -16.5269  -6.2058  -5.9176
    -5.7451  -5.4851  -4.6833  -4.5277  -4.3716  -4.3511  -4.2482  -4.1767
    -4.1730  -3.9303  -3.9180  -3.7775  -3.1069  -2.9858  -1.8907  -1.4308
    -0.7927  -0.7815  -0.5149  -0.3385  -0.2468  -0.2074  -0.0569  -0.0095
     0.2731   0.3246   0.4256   0.5037   0.5986   0.6003   0.7289   0.7376
     1.1171   1.2383   3.0187   3.0554   3.1641   3.1894   3.2007   3.3404
     3.8752   4.1574   5.0551   5.0607   7.4126   7.4716   7.7647   7.8140
     7.8854   9.7581

     occupation numbers
     1.0000   1.0000   1.0000   1.0000   1.0000   1.0000   1.0000   1.0000
     1.0000   1.0000   1.0000   1.0000   1.0000   1.0000   1.0000   1.0000
     1.0000   1.0000   1.0000   1.0000   1.0000   1.0000   1.0000   1.0000
     1.0000   1.0000   1.0000   1.0000   1.0000   1.0000   1.0000   1.0000
     1.0000   1.0000   1.0000   1.0000   1.0000   1.0000   1.0000   1.0000
     1.0000   1.0000   1.0000   1.0000   1.0000   1.0000   1.0000   1.0000
     1.0000   1.0000   1.0000   1.0000   1.0000   1.0000   1.0000   1.0000
     1.0000   1.0000   1.0000   1.0000   1.0030   0.8187   0.1783  -0.0000
    -0.0000  -0.0000  -0.0000  -0.0000  -0.0000  -0.0000  -0.0000  -0.0000
    -0.0000  -0.0000

     the Fermi energy is     3.1950 ev

!    total energy              =   -1024.44734274 Ry
     estimated scf accuracy    <       0.00000020 Ry
     smearing contrib. (-TS)   =      -0.00029591 Ry
     internal energy E=F+TS    =   -1024.44704683 Ry

     The total energy is F=E-TS. E is the sum of the following terms:
     one-electron contribution =    -699.12507795 Ry
     hartree contribution      =     393.03669417 Ry
     xc contribution           =    -166.93554232 Ry
     ewald contribution        =    -412.49874953 Ry
     one-center paw contrib.   =    -138.92437120 Ry
      -> PAW hartree energy AE =     404.09985317 Ry
      -> PAW hartree energy PS =    -402.79348216 Ry
      -> PAW xc energy AE      =    -250.21566174 Ry
      -> PAW xc energy PS      =     109.98491953 Ry
      -> total E_H with PAW    =     394.34306519 Ry
      -> total E_XC with PAW   =    -307.16628454 Ry

     convergence has been achieved in  33 iterations

     Forces acting on atoms (cartesian axes, Ry/au):

     atom    1 type  1   force =    -0.00788303   -0.00337108    0.00745121
     atom    2 type  1   force =     0.00262545   -0.00816098    0.00743477
     atom    3 type  2   force =    -0.00977511    0.02256698    0.01567601
     atom    4 type  2   force =     0.02344074    0.00737928    0.01563505
     atom    5 type  3   force =     0.00407430    0.01291195   -0.03996129
     atom    6 type  3   force =    -0.00313028    0.01062768    0.03885126
     atom    7 type  3   force =     0.00707095    0.01153923   -0.03997408
     atom    8 type  3   force =     0.01007510    0.00459861    0.03884783
     atom    9 type  4   force =     0.03228614   -0.03189911    0.03907813
     atom   10 type  4   force =     0.01536457    0.02106926    0.00387860
     atom   11 type  4   force =     0.02016412    0.03444344   -0.02083908
     atom   12 type  4   force =    -0.00792573   -0.03572198   -0.01636223
     atom   13 type  4   force =    -0.01710660   -0.03388254   -0.00053260
     atom   14 type  4   force =     0.04938680   -0.03110677   -0.02722911
     atom   15 type  4   force =    -0.04527061    0.00346871    0.03906217
     atom   16 type  4   force =    -0.02176399   -0.02937262   -0.01633234
     atom   17 type  4   force =     0.00583902    0.02543337    0.00389547
     atom   18 type  4   force =    -0.01437096   -0.03515983   -0.00050119
     atom   19 type  4   force =     0.01275885    0.03776830   -0.02081710
     atom   20 type  4   force =    -0.05585975    0.01686808   -0.02726149
     The non-local contrib.  to forces
     atom    1 type  1   force =     0.03492031    0.02413464    0.00856515
     atom    2 type  1   force =    -0.00467996    0.04218822    0.00856932
     atom    3 type  2   force =     0.08879599    0.04059623    0.02622594
     atom    4 type  2   force =    -0.02756516    0.09372108    0.02619998
     atom    5 type  3   force =    -0.02346243   -0.00106991   -0.03858417
     atom    6 type  3   force =    -0.05143354   -0.00822677    0.08313216
     atom    7 type  3   force =     0.01458548   -0.01841897   -0.03857456
     atom    8 type  3   force =     0.02750788   -0.04422596    0.08314833
     atom    9 type  4   force =     0.01626099    0.39348677   -1.89489883
     atom   10 type  4   force =     0.97859854    1.44924103   -0.93073481
     atom   11 type  4   force =     1.29085238    1.65678396    0.87288847
     atom   12 type  4   force =    -1.14648036   -1.95897528    0.15514275
     atom   13 type  4   force =    -0.80147825   -1.86668155   -0.39949198
     atom   14 type  4   force =     0.03950605    0.38495717    2.08871820
     atom   15 type  4   force =     0.28636759    0.27032382   -1.89493083
     atom   16 type  4   force =    -0.72704481   -2.15018066    0.15516234
     atom   17 type  4   force =     0.45236847    1.68920821   -0.93068542
     atom   18 type  4   force =    -0.88363513   -1.82926027   -0.39946992
     atom   19 type  4   force =     0.40420709    2.06096508    0.87291926
     atom   20 type  4   force =     0.26473429    0.28227138    2.08869539
     The ionic contribution  to forces
     atom    1 type  1   force =     0.42752391   -0.28925340    0.04680137
     atom    2 type  1   force =    -0.49874365    0.13306644    0.04680012
     atom    3 type  2   force =     2.55964758    2.75568069   -1.51510461
     atom    4 type  2   force =     0.40177230    3.73953808   -1.51506836
     atom    5 type  3   force =    -0.90416599   -0.43996007    3.17732995
     atom    6 type  3   force =    -0.06637880    0.46754119   -2.94901772
     atom    7 type  3   force =     0.26084895   -0.97110008    3.17731351
     atom    8 type  3   force =     0.39648791    0.25650266   -2.94901752
     atom    9 type  4   force =    -3.74178304    0.89442744    7.64233086
     atom   10 type  4   force =    -7.23433833  -11.90275888    0.37684781
     atom   11 type  4   force =    -8.74989809  -13.38123303    0.02678094
     atom   12 type  4   force =     8.46611179   11.97385396    5.05587646
     atom   13 type  4   force =     7.29592454   10.18044117   -2.68594658
     atom   14 type  4   force =    -3.90447758    2.40931983   -9.17590606
     atom   15 type  4   force =     3.12909375   -2.23825121    7.64233369
     atom   16 type  4   force =     3.48743058   14.24376453    5.05586123
     atom   17 type  4   force =    -4.24159326  -13.26725548    0.37684689
     atom   18 type  4   force =     2.90094500   12.18426551   -2.68594706
     atom   19 type  4   force =    -4.36382887  -15.38098195    0.02678418
     atom   20 type  4   force =     4.37942130   -1.36760740   -9.17589911
     The local contribution  to forces
     atom    1 type  1   force =    -0.47033243    0.26173392   -0.04784370
     atom    2 type  1   force =     0.50604912   -0.18342667   -0.04797109
     atom    3 type  2   force =    -2.65609258   -2.77564169    1.50849718
     atom    4 type  2   force =    -0.35363862   -3.82556930    1.50851990
     atom    5 type  3   force =     0.93075437    0.45370206   -3.18001261
     atom    6 type  3   force =     0.11328079   -0.44927719    2.90766697
     atom    7 type  3   force =    -0.26782305    1.00018635   -3.18039240
     atom    8 type  3   force =    -0.41354830   -0.20913063    2.90731569
     atom    9 type  4   force =     3.75885293   -1.31746135   -5.72497142
     atom   10 type  4   force =     6.28001124   10.48844971    0.55001401
     atom   11 type  4   force =     7.49126025   11.77467774   -0.91282795
     atom   12 type  4   force =    -7.33851100  -10.06848518   -5.22646101
     atom   13 type  4   force =    -6.51916427   -8.36460187    3.08219738
     atom   14 type  4   force =     3.91551182   -2.82284486    7.07873378
     atom   15 type  4   force =    -3.45931495    1.97369329   -5.72519170
     atom   16 type  4   force =    -2.78841190  -12.14311423   -5.22700913
     atom   17 type  4   force =     3.79949022   11.61913176    0.54939149
     atom   18 type  4   force =    -2.03950860  -10.40692229    3.08164446
     atom   19 type  4   force =     3.97653962   13.37748921   -0.91341085
     atom   20 type  4   force =    -4.69919449    1.10482734    7.07851638
     The core correction contribution to forces
     atom    1 type  1   force =     0.00000000    0.00000000    0.00000000
     atom    2 type  1   force =     0.00000000    0.00000000    0.00000000
     atom    3 type  2   force =    -0.00211105    0.00193719   -0.00394662
     atom    4 type  2   force =     0.00284474   -0.00033112   -0.00394728
     atom    5 type  3   force =     0.00097849    0.00019948    0.00152642
     atom    6 type  3   force =     0.00136570    0.00061749   -0.00275467
     atom    7 type  3   force =    -0.00049136    0.00086955    0.00152623
     atom    8 type  3   force =    -0.00042911    0.00143604   -0.00275503
     atom    9 type  4   force =    -0.00095412   -0.00245357    0.01675854
     atom   10 type  4   force =    -0.00891625   -0.01378204    0.00802085
     atom   11 type  4   force =    -0.01212100   -0.01597447   -0.00732654
     atom   12 type  4   force =     0.01105167    0.01792024   -0.00057398
     atom   13 type  4   force =     0.00757968    0.01693198    0.00296627
     atom   14 type  4   force =    -0.00133452   -0.00243219   -0.01865651
     atom   15 type  4   force =    -0.00122638   -0.00232921    0.01675874
     atom   16 type  4   force =     0.00628120    0.02009556   -0.00057388
     atom   17 type  4   force =    -0.00455774   -0.01576920    0.00802031
     atom   18 type  4   force =     0.00781197    0.01682621    0.00296634
     atom   19 type  4   force =    -0.00411072   -0.01962646   -0.00732680
     atom   20 type  4   force =    -0.00096110   -0.00260254   -0.01865663
     The Hubbard contrib.    to forces
     atom    1 type  1   force =     0.00000000    0.00000000    0.00000000
     atom    2 type  1   force =     0.00000000    0.00000000    0.00000000
     atom    3 type  2   force =     0.00000000    0.00000000    0.00000000
     atom    4 type  2   force =     0.00000000    0.00000000    0.00000000
     atom    5 type  3   force =     0.00000000    0.00000000    0.00000000
     atom    6 type  3   force =     0.00000000    0.00000000    0.00000000
     atom    7 type  3   force =     0.00000000    0.00000000    0.00000000
     atom    8 type  3   force =     0.00000000    0.00000000    0.00000000
     atom    9 type  4   force =     0.00000000    0.00000000    0.00000000
     atom   10 type  4   force =     0.00000000    0.00000000    0.00000000
     atom   11 type  4   force =     0.00000000    0.00000000    0.00000000
     atom   12 type  4   force =     0.00000000    0.00000000    0.00000000
     atom   13 type  4   force =     0.00000000    0.00000000    0.00000000
     atom   14 type  4   force =     0.00000000    0.00000000    0.00000000
     atom   15 type  4   force =     0.00000000    0.00000000    0.00000000
     atom   16 type  4   force =     0.00000000    0.00000000    0.00000000
     atom   17 type  4   force =     0.00000000    0.00000000    0.00000000
     atom   18 type  4   force =     0.00000000    0.00000000    0.00000000
     atom   19 type  4   force =     0.00000000    0.00000000    0.00000000
     atom   20 type  4   force =     0.00000000    0.00000000    0.00000000
     The SCF correction term to forces
     atom    1 type  1   force =     0.00000088    0.00000275   -0.00005342
     atom    2 type  1   force =    -0.00000437    0.00000003    0.00005462
     atom    3 type  2   force =    -0.00001935   -0.00001646    0.00002231
     atom    4 type  2   force =     0.00002317    0.00000954   -0.00005099
     atom    5 type  3   force =    -0.00003445    0.00002939   -0.00020268
     atom    6 type  3   force =     0.00003127   -0.00003805   -0.00015729
     atom    7 type  3   force =    -0.00005337   -0.00000862    0.00017133
     atom    8 type  3   force =     0.00005241    0.00000549    0.00017457
     atom    9 type  4   force =    -0.00009493    0.00009060   -0.00012282
     atom   10 type  4   force =     0.00000506   -0.00009157   -0.00025107
     atom   11 type  4   force =     0.00006628    0.00017824   -0.00033581
     atom   12 type  4   force =    -0.00010213   -0.00004673   -0.00032826
     atom   13 type  4   force =     0.00002739    0.00001674   -0.00023949
     atom   14 type  4   force =     0.00017672   -0.00011774   -0.00010031
     atom   15 type  4   force =    -0.00019492    0.00002101    0.00011046
     atom   16 type  4   force =    -0.00002336    0.00005119    0.00024530
     atom   17 type  4   force =     0.00012703    0.00010707    0.00034040
     atom   18 type  4   force =     0.00001150   -0.00008000    0.00032319
     atom   19 type  4   force =    -0.00005257   -0.00008858    0.00023530
     atom   20 type  4   force =     0.00013594   -0.00003170    0.00010067

     Total force =     0.189175     Total SCF correction =     0.001047

     Computing stress (Cartesian axis) and pressure

          total   stress  (Ry/bohr**3)                   (kbar)     P=     -406.52
  -0.00289508   0.00014038   0.00002841         -425.88       20.65        4.18
   0.00014038  -0.00265106   0.00006219           20.65     -389.98        9.15
   0.00002841   0.00006219  -0.00274435            4.18        9.15     -403.71

     kinetic stress (kbar)  18726.14   -175.12     -8.95
                             -175.12  18421.81    -19.58
                               -8.95    -19.58  17891.55

     local   stress (kbar)  -9552.81   1389.32    357.74
                             1389.32  -7138.95    784.39
                              357.74    784.39 -39512.20

     nonloc. stress (kbar)   4884.59    -13.24     -1.27
                              -13.24   4861.54     -2.71
                               -1.27     -2.71   4881.28

     hartree stress (kbar)   8199.46  -1348.08   -173.39
                            -1348.08   5857.36   -380.20
                             -173.39   -380.20  19286.72

     exc-cor stress (kbar)  -2948.37     13.80      0.28
                               13.80  -2924.39      0.61
                                0.28      0.61  -2906.41

     corecor stress (kbar)  -1414.78     -2.28      0.03
                               -2.28  -1418.75      0.06
                                0.03      0.06  -1418.75

     ewald   stress (kbar) -18320.11    156.25   -170.26
                              156.25 -18048.60   -373.42
                             -170.26   -373.42   1374.10

     hubbard stress (kbar)      0.00      0.00      0.00
                                0.00      0.00      0.00
                                0.00      0.00      0.00

     DFT-D   stress (kbar)      0.00      0.00      0.00
                                0.00      0.00      0.00
                                0.00      0.00      0.00

     XDM     stress (kbar)      0.00      0.00      0.00
                                0.00      0.00      0.00
                                0.00      0.00      0.00

     dft-nl  stress (kbar)      0.00      0.00      0.00
                                0.00      0.00      0.00
                                0.00      0.00      0.00

     TS-vdW  stress (kbar)      0.00      0.00      0.00
                                0.00      0.00      0.00
                                0.00      0.00      0.00

[...]

                                0.00      0.00      0.00

     Writing all to output data dir new_calculations/myprefix.save/

     General routines

     Parallel routines

     PAW routines

   This run was terminated on:   7:38:50  21May2023

   JOB DONE.