     Program PWSCF v.7.0 starts on 20May2023 at  4:22:58

     Reading input from espresso_15042.pwi
Warning: card &CELL ignored
Warning: card / ignored

     Current dimensions of program PWSCF are:
     Max number of different atomic species (ntypx) = 10
     Max number of k-points (npk) =  40000
     Max angular momentum in pseudopotentials (lmaxx) =  4
     file Pb.pbe-dn-kjpaw_psl.0.2.2.UPF: wavefunction(s)  6S renormalized

     gamma-point specific algorithms are used
     Message from routine setup:
     using ibrav=0 with symmetry is DISCOURAGED, use correct ibrav instead

     Subspace diagonalization in iterative solution of the eigenvalue problem:
     a serial algorithm will be used

     Using Slab Decomposition

     bravais-lattice index     =            0
     lattice parameter (alat)  =       8.1789  a.u.
     unit-cell volume          =    2497.4769 (a.u.)^3
     number of atoms/cell      =           18
     number of atomic types    =            3
     number of electrons       =       168.00
     number of Kohn-Sham states=          101
     kinetic-energy cutoff     =      30.0000  Ry
     charge density cutoff     =     240.0000  Ry
     scf convergence threshold =      1.0E-06
     mixing beta               =       0.7000
     number of iterations used =            8  plain     mixing
     Exchange-correlation=  SLA  PW   PBX  PBC
                           (   1   4   3   4   0   0   0)

     celldm(1)=   8.178932  celldm(2)=   0.000000  celldm(3)=   0.000000
     celldm(4)=   0.000000  celldm(5)=   0.000000  celldm(6)=   0.000000

     crystal axes: (cart. coord. in units of alat)
               a(1) = (   1.000000   0.000000   0.000000 )
               a(2) = (  -0.504185   0.863595   0.000000 )
               a(3) = (   0.000000   0.000000   5.285685 )

     reciprocal axes: (cart. coord. in units 2 pi/alat)
               b(1) = (  1.000000  0.583821  0.000000 )
               b(2) = (  0.000000  1.157950  0.000000 )
               b(3) = (  0.000000  0.000000  0.189190 )

     PseudoPot. # 1 for Pb read from file:
     /home/pragov/projects/rrg-bengioy-ad/pragov/crystal_structure_design/SSSP/Pb.pbe-dn-kjpaw_psl.0.2.2.UPF
     MD5 check sum: 9d431e6316058b74ade52399a6cf67da
     Pseudo is Projector augmented-wave + core cor, Zval = 14.0
     Generated using "atomic" code by A. Dal Corso  v.5.0.99 svn rev. 10869
     Shape of augmentation charge: PSQ
     Using radial grid of 1281 points,  6 beta functions with:
                l(1) =   0
                l(2) =   0
                l(3) =   1
                l(4) =   1
                l(5) =   2
                l(6) =   2
     Q(r) pseudized with 0 coefficients

     PseudoPot. # 2 for I  read from file:
     /home/pragov/projects/rrg-bengioy-ad/pragov/crystal_structure_design/SSSP/I.pbe-n-kjpaw_psl.0.2.UPF
     MD5 check sum: d4ef18d9c8f18dc85e5843bca1e50dc0
     Pseudo is Projector augmented-wave + core cor, Zval =  7.0
     Generated using "atomic" code by A. Dal Corso  v.5.0.99 svn rev. 10869
     Shape of augmentation charge: PSQ
     Using radial grid of 1247 points,  4 beta functions with:
                l(1) =   0
                l(2) =   0
                l(3) =   1
                l(4) =   1
     Q(r) pseudized with 0 coefficients

     PseudoPot. # 3 for F  read from file:
     /home/pragov/projects/rrg-bengioy-ad/pragov/crystal_structure_design/SSSP/f_pbe_v1.4.uspp.F.UPF
     MD5 check sum: 4c38b6a325caf53ec0e86aed9459de46
     Pseudo is Ultrasoft, Zval =  7.0
     Generated by new atomic code, or converted to UPF format
     Using radial grid of  799 points,  4 beta functions with:
                l(1) =   0
                l(2) =   0
                l(3) =   1
                l(4) =   1
     Q(r) pseudized with  8 coefficients,  rinner =    0.950   0.950   0.950

     atomic species   valence    mass     pseudopotential
        Pb            14.00   207.20000     Pb( 1.00)
        I              7.00   126.90447     I ( 1.00)
        F              7.00    18.99840     F ( 1.00)

      2 Sym. Ops. (no inversion) found ( 1 have fractional translation)

                                    s                        frac. trans.

      isym =  1     identity

 cryst.   s( 1) = (     1          0          0      )
                  (     0          1          0      )
                  (     0          0          1      )

 cart.    s( 1) = (  1.0000000 -0.0000000  0.0000000 )
                  (  0.0000000  1.0000000  0.0000000 )
                  (  0.0000000  0.0000000  1.0000000 )

      isym =  2     180 deg rotation - cart. axis [0,0,1]

 cryst.   s( 2) = (    -1          0          0      )    f =(  0.0000000 )
                  (     0         -1          0      )       ( -0.0000000 )
                  (     0          0          1      )       (  0.5000000 )

 cart.    s( 2) = ( -1.0000000  0.0000000  0.0000000 )    f =(  0.0000000 )
                  (  0.0000000 -1.0000000  0.0000000 )       ( -0.0000000 )
                  (  0.0000000  0.0000000  1.0000000 )       (  2.6428426 )

   Cartesian axes

     site n.     atom                  positions (alat units)
         1           Pb  tau(   1) = (  -0.0158756   0.5832430   3.3571395  )
         2           Pb  tau(   2) = (   0.5084774   0.2821971   1.8708313  )
         3           Pb  tau(   3) = (  -0.0126627   0.5813984   4.5136739  )
         4           Pb  tau(   4) = (   0.5116903   0.2803525   0.7142969  )
         5           Pb  tau(   5) = (   0.9944857   0.0031659   2.6916612  )
         6           Pb  tau(   6) = (  -0.4986710   0.8604296   0.0488186  )
         7           I   tau(   7) = (   0.0097271   0.5685438   1.3467133  )
         8           I   tau(   8) = (   0.4860876   0.2950517   3.9895559  )
         9           F   tau(   9) = (  -0.0030554   0.5758826   2.7932785  )
        10           F   tau(  10) = (   0.5048147   0.2843000   2.4110230  )
        11           F   tau(  11) = (  -0.0090000   0.5792955   5.0538656  )
        12           F   tau(  12) = (   0.4988701   0.2877129   0.1504359  )
        13           F   tau(  13) = (   0.9952287   0.0027393   3.3059054  )
        14           F   tau(  14) = (  -0.4953001   0.8584942   2.0124982  )
        15           F   tau(  15) = (   0.9911148   0.0051013   4.6553408  )
        16           F   tau(  16) = (  -0.4994140   0.8608562   0.6630628  )
        17           F   tau(  17) = (   0.4997967   0.2871809   3.0979718  )
        18           F   tau(  18) = (  -0.0039820   0.5764146   0.4551292  )

   Crystallographic axes

     site n.     atom                  positions (cryst. coord.)
         1           Pb  tau(   1) = (  0.3246340  0.6753660  0.6351380  )
         2           Pb  tau(   2) = (  0.6732300  0.3267700  0.3539430  )
         3           Pb  tau(   3) = (  0.3267700  0.6732300  0.8539430  )
         4           Pb  tau(   4) = (  0.6753660  0.3246340  0.1351380  )
         5           Pb  tau(   5) = (  0.9963340  0.0036660  0.5092360  )
         6           Pb  tau(   6) = (  0.0036660  0.9963340  0.0092360  )
         7           I   tau(   7) = (  0.3416550  0.6583450  0.2547850  )
         8           I   tau(   8) = (  0.6583450  0.3416550  0.7547850  )
         9           F   tau(   9) = (  0.3331570  0.6668430  0.5284610  )
        10           F   tau(  10) = (  0.6707950  0.3292050  0.4561420  )
        11           F   tau(  11) = (  0.3292050  0.6707950  0.9561420  )
        12           F   tau(  12) = (  0.6668430  0.3331570  0.0284610  )
        13           F   tau(  13) = (  0.9968280  0.0031720  0.6254450  )
        14           F   tau(  14) = (  0.0059070  0.9940930  0.3807450  )
        15           F   tau(  15) = (  0.9940930  0.0059070  0.8807450  )
        16           F   tau(  16) = (  0.0031720  0.9968280  0.1254450  )
        17           F   tau(  17) = (  0.6674590  0.3325410  0.5861060  )
        18           F   tau(  18) = (  0.3325410  0.6674590  0.0861060  )

     number of k points=     1  Methfessel-Paxton smearing, width (Ry)=  0.0010
                       cart. coord. in units 2pi/alat
        k(    1) = (   0.0000000   0.0000000   0.0000000), wk =   2.0000000

                       cryst. coord.
        k(    1) = (   0.0000000   0.0000000   0.0000000), wk =   2.0000000

     Check: negative core charge=   -0.000001

     Initial potential from superposition of free atoms

     starting charge     167.9857, renormalised to     168.0000
     Starting wfcs are  102 randomized atomic wfcs
     Checking if some PAW data can be deallocated...

     Self-consistent Calculation

     iteration #  1     ecut=    30.00 Ry     beta= 0.70
     Davidson diagonalization with overlap

     ethr =  1.00E-02,  avg # of iterations =  2.0

     negative rho (up, down):  1.298E-04 0.000E+00

     total energy              =   -6466.02649455 Ry
     estimated scf accuracy    <       3.27279133 Ry

[...]

     total energy              =   -6467.67820816 Ry
     estimated scf accuracy    <       0.00000207 Ry

     iteration # 12     ecut=    30.00 Ry     beta= 0.70
     Davidson diagonalization with overlap

     ethr =  1.23E-09,  avg # of iterations =  5.0

[...]

     End of self-consistent calculation

          k = 0.0000 0.0000 0.0000 (  3467 PWs)   bands (ev):

   -16.2420 -16.2415 -16.0277 -16.0260 -15.9354 -15.9335 -15.3761 -15.3751
   -14.1676 -14.1662 -10.6699 -10.6687 -10.6684 -10.6671 -10.5686 -10.5671
   -10.5666 -10.5650 -10.4820 -10.4804  -9.8603  -9.8598  -9.8592  -9.8587
    -9.8416  -9.8410  -9.8376  -9.8371  -9.8356  -9.8351  -9.4808  -9.4798
    -9.4792  -9.4782  -9.4450  -9.4434  -9.4383  -9.4367  -9.4360  -9.4344
    -5.1152  -5.1131  -1.4457  -1.4011  -0.5750  -0.4246  -0.1418  -0.0446
     1.8843   1.9041   2.1697   2.1719   2.1951   2.1963   2.2312   2.2340
     2.2366   2.2385   2.2430   2.3267   2.4347   2.4381   2.5371   2.5396
     3.1420   3.1912   3.2156   3.2180   3.2930   3.2945   3.7658   3.7920
     4.0860   4.0872   4.1967   4.1982   4.7864   4.7966   5.6512   5.6840
     6.0539   6.0564   6.0875   6.0900   9.3102   9.4055  10.0533  10.2307
    10.2356  10.2423  10.2456  10.5009  11.0825  11.5602  11.5858  11.5870
    11.6089  11.6092  12.0867  12.0962  12.1029

     occupation numbers
     1.0000   1.0000   1.0000   1.0000   1.0000   1.0000   1.0000   1.0000
     1.0000   1.0000   1.0000   1.0000   1.0000   1.0000   1.0000   1.0000
     1.0000   1.0000   1.0000   1.0000   1.0000   1.0000   1.0000   1.0000
     1.0000   1.0000   1.0000   1.0000   1.0000   1.0000   1.0000   1.0000
     1.0000   1.0000   1.0000   1.0000   1.0000   1.0000   1.0000   1.0000
     1.0000   1.0000   1.0000   1.0000   1.0000   1.0000   1.0000   1.0000
     1.0000   1.0000   1.0000   1.0000   1.0000   1.0000   1.0000   1.0000
     1.0000   1.0000   1.0000   1.0000   1.0000   1.0000   1.0000   1.0000
     1.0000   1.0000   1.0000   1.0000   1.0000   1.0000   1.0000   1.0000
     1.0000   1.0000   1.0000   1.0000   1.0000   1.0000   1.0000   1.0000
     1.0000   1.0000   1.0000   1.0000  -0.0000  -0.0000  -0.0000  -0.0000
    -0.0000  -0.0000  -0.0000  -0.0000  -0.0000  -0.0000  -0.0000  -0.0000
    -0.0000  -0.0000  -0.0000  -0.0000  -0.0000

     the Fermi energy is     8.6619 ev

!    total energy              =   -6467.67820891 Ry
     estimated scf accuracy    <       0.00000033 Ry
     smearing contrib. (-TS)   =       0.00000000 Ry
     internal energy E=F+TS    =   -6467.67820891 Ry

     The total energy is F=E-TS. E is the sum of the following terms:
     one-electron contribution =    -785.15049101 Ry
     hartree contribution      =     517.67499135 Ry
     xc contribution           =    -443.81673684 Ry
     ewald contribution        =    -744.42589413 Ry
     one-center paw contrib.   =   -5011.96007828 Ry
      -> PAW hartree energy AE =     589.32467436 Ry
      -> PAW hartree energy PS =    -588.21393713 Ry
      -> PAW xc energy AE      =   -5355.85785720 Ry
      -> PAW xc energy PS      =     342.78704169 Ry
      -> total E_H with PAW    =     518.78572858 Ry
      -> total E_XC with PAW   =   -5456.88755235 Ry

     convergence has been achieved in  12 iterations

     negative rho (up, down):  5.330E-04 0.000E+00

     Forces acting on atoms (cartesian axes, Ry/au):

     atom    1 type  1   force =    -0.00250241    0.00143759   -0.05762616
     atom    2 type  1   force =    -0.00008550    0.00006340    0.07659124
     atom    3 type  1   force =     0.00008550   -0.00006340    0.07659124
     atom    4 type  1   force =     0.00250241   -0.00143759   -0.05762616
     atom    5 type  1   force =    -0.00203747    0.00117099    0.01723337
     atom    6 type  1   force =     0.00203747   -0.00117099    0.01723337
     atom    7 type  2   force =    -0.00025396    0.00014628   -0.00463637
     atom    8 type  2   force =     0.00025396   -0.00014628   -0.00463637
     atom    9 type  3   force =     0.00060509   -0.00034611   -0.03444252
     atom   10 type  3   force =     0.00103516   -0.00059496    0.01641738
     atom   11 type  3   force =    -0.00103516    0.00059496    0.01641738
     atom   12 type  3   force =    -0.00060509    0.00034611   -0.03444252
     atom   13 type  3   force =     0.00307804   -0.00176880    0.00489839
     atom   14 type  3   force =    -0.00102346    0.00058692   -0.03719432
     atom   15 type  3   force =     0.00102346   -0.00058692   -0.03719432
     atom   16 type  3   force =    -0.00307804    0.00176880    0.00489839
     atom   17 type  3   force =     0.00041286   -0.00023951    0.01875899
     atom   18 type  3   force =    -0.00041286    0.00023951    0.01875899
     The non-local contrib.  to forces
     atom    1 type  1   force =    -0.01527508    0.00877133   -0.06086600
     atom    2 type  1   force =    -0.00281999    0.00163887   -0.04374180
     atom    3 type  1   force =     0.00281999   -0.00163887   -0.04374180
     atom    4 type  1   force =     0.01527508   -0.00877133   -0.06086600
     atom    5 type  1   force =    -0.01415628    0.00812999    0.07396651
     atom    6 type  1   force =     0.01415628   -0.00812999    0.07396651
     atom    7 type  2   force =    -0.00080442    0.00046288    0.03020077
     atom    8 type  2   force =     0.00080442   -0.00046288    0.03020077
     atom    9 type  3   force =     0.01193671   -0.00685202    0.35186732
     atom   10 type  3   force =     0.02073903   -0.01190674   -0.48354175
     atom   11 type  3   force =    -0.02073903    0.01190674   -0.48354175
     atom   12 type  3   force =    -0.01193671    0.00685202    0.35186732
     atom   13 type  3   force =     0.01922639   -0.01103803   -0.26058139
     atom   14 type  3   force =    -0.00277230    0.00159161    0.09393591
     atom   15 type  3   force =     0.00277230   -0.00159161    0.09393591
     atom   16 type  3   force =    -0.01922639    0.01103803   -0.26058139
     atom   17 type  3   force =     0.03071903   -0.01764168   -0.01822500
     atom   18 type  3   force =    -0.03071903    0.01764168   -0.01822500
     The ionic contribution  to forces
     atom    1 type  1   force =     0.41966163   -0.24093966   37.48061271
     atom    2 type  1   force =     0.06000246   -0.03444911  -27.05773637
     atom    3 type  1   force =    -0.06000246    0.03444911  -27.05773637
     atom    4 type  1   force =    -0.41966163    0.24093966   37.48061271
     atom    5 type  1   force =     0.37673129   -0.21629213  -12.60125382
     atom    6 type  1   force =    -0.37673129    0.21629213  -12.60125382
     atom    7 type  2   force =     0.00086252   -0.00049520    1.69629416
     atom    8 type  2   force =    -0.00086252    0.00049520    1.69629416
     atom    9 type  3   force =    -0.05557311    0.03190610   -5.29782523
     atom   10 type  3   force =    -0.22132596    0.12706952   -8.37612390
     atom   11 type  3   force =     0.22132596   -0.12706952   -8.37612390
     atom   12 type  3   force =     0.05557311   -0.03190610   -5.29782523
     atom   13 type  3   force =    -0.14989080    0.08605657   17.57604897
     atom   14 type  3   force =    -0.01300373    0.00746581  -11.46168546
     atom   15 type  3   force =     0.01300372   -0.00746581  -11.46168546
     atom   16 type  3   force =     0.14989080   -0.08605657   17.57604897
     atom   17 type  3   force =    -0.40909257    0.23487166    8.04166893
     atom   18 type  3   force =     0.40909257   -0.23487166    8.04166893
     The local contribution  to forces
     atom    1 type  1   force =    -0.40713413    0.23374859  -37.48088701
     atom    2 type  1   force =    -0.05752405    0.03300377   27.17603447
     atom    3 type  1   force =     0.05748539   -0.03301245   27.17519944
     atom    4 type  1   force =     0.40712922   -0.23374370  -37.48231579
     atom    5 type  1   force =    -0.36495171    0.20953983   12.54722127
     atom    6 type  1   force =     0.36498738   -0.20954125   12.54517424
     atom    7 type  2   force =    -0.00046659    0.00026874   -1.74457061
     atom    8 type  2   force =     0.00047863   -0.00027018   -1.74454811
     atom    9 type  3   force =     0.04422253   -0.02539259    4.91164957
     atom   10 type  3   force =     0.20161076   -0.11576058    8.87603898
     atom   11 type  3   force =    -0.20163445    0.11575899    8.87570444
     atom   12 type  3   force =    -0.04423721    0.02538959    4.91102302
     atom   13 type  3   force =     0.13378336   -0.07681211  -17.31012267
     atom   14 type  3   force =     0.01476724   -0.00847353   11.33045979
     atom   15 type  3   force =    -0.01475676    0.00847363   11.33023684
     atom   16 type  3   force =    -0.13377304    0.07680448  -17.31061462
     atom   17 type  3   force =     0.37877497   -0.21746593   -8.00430690
     atom   18 type  3   force =    -0.37879303    0.21748092   -8.00486686
     The core correction contribution to forces
     atom    1 type  1   force =     0.00016845   -0.00009649    0.00491041
     atom    2 type  1   force =     0.00018806   -0.00010930    0.00197654
     atom    3 type  1   force =    -0.00018919    0.00010827    0.00196849
     atom    4 type  1   force =    -0.00016776    0.00009639    0.00489407
     atom    5 type  1   force =     0.00039429   -0.00022570   -0.00204261
     atom    6 type  1   force =    -0.00039295    0.00022565   -0.00207312
     atom    7 type  2   force =     0.00016404   -0.00009387    0.01369968
     atom    8 type  2   force =    -0.00016247    0.00009423    0.01370333
     atom    9 type  3   force =     0.00000000    0.00000000    0.00000000
     atom   10 type  3   force =     0.00000000    0.00000000    0.00000000
     atom   11 type  3   force =     0.00000000    0.00000000    0.00000000
     atom   12 type  3   force =     0.00000000    0.00000000    0.00000000
     atom   13 type  3   force =     0.00000000    0.00000000    0.00000000
     atom   14 type  3   force =     0.00000000    0.00000000    0.00000000
     atom   15 type  3   force =     0.00000000    0.00000000    0.00000000
     atom   16 type  3   force =     0.00000000    0.00000000    0.00000000
     atom   17 type  3   force =     0.00000000    0.00000000    0.00000000
     atom   18 type  3   force =     0.00000000    0.00000000    0.00000000
     The Hubbard contrib.    to forces
     atom    1 type  1   force =     0.00000000    0.00000000    0.00000000
     atom    2 type  1   force =     0.00000000    0.00000000    0.00000000
     atom    3 type  1   force =     0.00000000    0.00000000    0.00000000
     atom    4 type  1   force =     0.00000000    0.00000000    0.00000000
     atom    5 type  1   force =     0.00000000    0.00000000    0.00000000
     atom    6 type  1   force =     0.00000000    0.00000000    0.00000000
     atom    7 type  2   force =     0.00000000    0.00000000    0.00000000
     atom    8 type  2   force =     0.00000000    0.00000000    0.00000000
     atom    9 type  3   force =     0.00000000    0.00000000    0.00000000
     atom   10 type  3   force =     0.00000000    0.00000000    0.00000000
     atom   11 type  3   force =     0.00000000    0.00000000    0.00000000
     atom   12 type  3   force =     0.00000000    0.00000000    0.00000000
     atom   13 type  3   force =     0.00000000    0.00000000    0.00000000
     atom   14 type  3   force =     0.00000000    0.00000000    0.00000000
     atom   15 type  3   force =     0.00000000    0.00000000    0.00000000
     atom   16 type  3   force =     0.00000000    0.00000000    0.00000000
     atom   17 type  3   force =     0.00000000    0.00000000    0.00000000
     atom   18 type  3   force =     0.00000000    0.00000000    0.00000000
     The SCF correction term to forces
     atom    1 type  1   force =     0.00008040   -0.00004741   -0.00141545
     atom    2 type  1   force =     0.00006957   -0.00001942    0.00005860
     atom    3 type  1   force =    -0.00002669    0.00003194    0.00093899
     atom    4 type  1   force =    -0.00006884    0.00004016    0.00010572
     atom    5 type  1   force =    -0.00005698    0.00001874   -0.00069559
     atom    6 type  1   force =     0.00001611   -0.00001779    0.00149486
     atom    7 type  2   force =    -0.00000873    0.00000392   -0.00024408
     atom    8 type  2   force =    -0.00000333   -0.00000246   -0.00026511
     atom    9 type  3   force =     0.00001771   -0.00000757   -0.00021735
     atom   10 type  3   force =     0.00000750    0.00000028   -0.00000869
     atom   11 type  3   force =     0.00000852   -0.00000380    0.00046903
     atom   12 type  3   force =    -0.00000554    0.00001064    0.00061325
     atom   13 type  3   force =    -0.00004092    0.00002269   -0.00050483
     atom   14 type  3   force =    -0.00001354    0.00000039    0.00008071
     atom   15 type  3   force =     0.00000534   -0.00000577    0.00037081
     atom   16 type  3   force =     0.00003056   -0.00001923    0.00014142
     atom   17 type  3   force =     0.00001420   -0.00000085   -0.00047239
     atom   18 type  3   force =     0.00000939   -0.00000872    0.00031397

     Total force =     0.159692     Total SCF correction =     0.002676

     Computing stress (Cartesian axis) and pressure

     negative rho (up, down):  5.330E-04 0.000E+00
          total   stress  (Ry/bohr**3)                   (kbar)     P=      -12.89
   0.00005981  -0.00000235   0.00000000            8.80       -0.35        0.00
  -0.00000235   0.00005708   0.00000000           -0.35        8.40        0.00
   0.00000000   0.00000000  -0.00037968            0.00        0.00      -55.85

     kinetic stress (kbar)  15171.40      0.92      0.00
                                0.92  15172.48      0.00
                                0.00      0.00  15020.86

     local   stress (kbar) -22203.11     85.68     -0.00
                               85.68 -22103.07      0.00
                               -0.00      0.00  24995.14

     nonloc. stress (kbar)    632.81     -0.51      0.00
                               -0.51    632.20      0.00
                                0.00      0.00    710.65

     hartree stress (kbar)  17886.86    -33.16      0.00
                              -33.16  17848.15     -0.00
                                0.00     -0.00  -5243.19

     exc-cor stress (kbar)   9534.33     -0.07     -0.00
                               -0.07   9534.25      0.00
                               -0.00      0.00   9533.00

     corecor stress (kbar) -14440.41     -0.05      0.00
                               -0.05 -14440.47     -0.00
                                0.00     -0.00 -14432.75

     ewald   stress (kbar)  -6573.07    -53.16     -0.00
                              -53.16  -6635.14     -0.00
                               -0.00     -0.00 -30639.57

     hubbard stress (kbar)      0.00      0.00      0.00
                                0.00      0.00      0.00
                                0.00      0.00      0.00

     DFT-D   stress (kbar)      0.00      0.00      0.00
                                0.00      0.00      0.00
                                0.00      0.00      0.00

     XDM     stress (kbar)      0.00      0.00      0.00
                                0.00      0.00      0.00
                                0.00      0.00      0.00

     dft-nl  stress (kbar)      0.00      0.00      0.00
                                0.00      0.00      0.00
                                0.00      0.00      0.00

     TS-vdW  stress (kbar)      0.00      0.00      0.00
                                0.00      0.00      0.00
                                0.00      0.00      0.00

[...]

                                0.00      0.00      0.00

     Writing all to output data dir new_calculations/myprefix.save/

     General routines

     Parallel routines

     PAW routines

   This run was terminated on:   4:24:14  20May2023

   JOB DONE.