     Program PWSCF v.7.0 starts on 21May2023 at 20:34:35

     Reading input from espresso_26028.pwi
Warning: card &CELL ignored
Warning: card / ignored

     Current dimensions of program PWSCF are:
     Max number of different atomic species (ntypx) = 10
     Max number of k-points (npk) =  40000
     Max angular momentum in pseudopotentials (lmaxx) =  4

     gamma-point specific algorithms are used
     Message from routine setup:
     no reason to have ecutrho>4*ecutwfc
     Message from routine setup:
     using ibrav=0 with symmetry is DISCOURAGED, use correct ibrav instead

     Subspace diagonalization in iterative solution of the eigenvalue problem:
     a serial algorithm will be used

     Using Slab Decomposition

     bravais-lattice index     =            0
     lattice parameter (alat)  =       9.6399  a.u.
     unit-cell volume          =     380.1938 (a.u.)^3
     number of atoms/cell      =            3
     number of atomic types    =            2
     number of electrons       =        49.00
     number of Kohn-Sham states=           30
     kinetic-energy cutoff     =      30.0000  Ry
     charge density cutoff     =     240.0000  Ry
     scf convergence threshold =      1.0E-06
     mixing beta               =       0.7000
     number of iterations used =            8  plain     mixing
     Exchange-correlation= PBE
                           (   1   4   3   4   0   0   0)

     celldm(1)=   9.639867  celldm(2)=   0.000000  celldm(3)=   0.000000
     celldm(4)=   0.000000  celldm(5)=   0.000000  celldm(6)=   0.000000

     crystal axes: (cart. coord. in units of alat)
               a(1) = (   1.000000   0.000000   0.000000 )
               a(2) = (   0.511851   0.859074   0.000000 )
               a(3) = (  -0.755925  -0.429537   0.494039 )

     reciprocal axes: (cart. coord. in units 2 pi/alat)
               b(1) = (  1.000000 -0.595817  1.012066 )
               b(2) = (  0.000000  1.164044  1.012066 )
               b(3) = (  0.000000  0.000000  2.024132 )

     PseudoPot. # 1 for Sc read from file:
     /home/pragov/projects/rrg-bengioy-ad/pragov/crystal_structure_design/SSSP/Sc_ONCV_PBE-1.0.oncvpsp.upf
     MD5 check sum: e21af8023abb52e52cb7cd3133e4a229
     Pseudo is Norm-conserving, Zval = 11.0
     Generated using ONCVPSP code by D. R. Hamann
     Using radial grid of 1662 points,  6 beta functions with:
                l(1) =   0
                l(2) =   0
                l(3) =   1
                l(4) =   1
                l(5) =   2
                l(6) =   2

     PseudoPot. # 2 for Au read from file:
     /home/pragov/projects/rrg-bengioy-ad/pragov/crystal_structure_design/SSSP/Au_ONCV_PBE-1.0.oncvpsp.upf
     MD5 check sum: d14007822ba0e19f0206237467fc06c2
     Pseudo is Norm-conserving, Zval = 19.0
     Generated using ONCVPSP code by D. R. Hamann
     Using radial grid of 1278 points,  8 beta functions with:
                l(1) =   0
                l(2) =   0
                l(3) =   1
                l(4) =   1
                l(5) =   2
                l(6) =   2
                l(7) =   3
                l(8) =   3

     atomic species   valence    mass     pseudopotential
        Sc            11.00    44.95591     Sc( 1.00)
        Au            19.00   196.96657     Au( 1.00)

      4 Sym. Ops., with inversion, found

                                    s                        frac. trans.

      isym =  1     identity

 cryst.   s( 1) = (     1          0          0      )
                  (     0          1          0      )
                  (     0          0          1      )

 cart.    s( 1) = (  1.0000000  0.0000000  0.0000000 )
                  (  0.0000000  1.0000000 -0.0000000 )
                  (  0.0000000  0.0000000  1.0000000 )

      isym =  2     180 deg rotation - cart. axis [0,0,1]

[...]

      isym =  3     inversion

[...]

      isym =  4     inv. 180 deg rotation - cart. axis [0,0,1]

 cryst.   s( 4) = (     1          0          0      )
                  (     0          1          0      )
                  (    -1         -1         -1      )

 cart.    s( 4) = (  1.0000000  0.0000000 -0.0000000 )
                  (  0.0000000  1.0000000 -0.0000000 )
                  (  0.0000000  0.0000000 -1.0000000 )

   Cartesian axes

     site n.     atom                  positions (alat units)
         1           Sc  tau(   1) = (   0.0000000   0.0000000   0.0000000  )
         2           Au  tau(   2) = (   1.0023874   0.5695835   0.0000000  )
         3           Au  tau(   3) = (   0.5094635   0.2894909   0.0000000  )

   Crystallographic axes

     site n.     atom                  positions (cryst. coord.)
         1           Sc  tau(   1) = (  0.0000000  0.0000000  0.0000000  )
         2           Au  tau(   2) = (  0.6630200  0.6630200  0.0000000  )
         3           Au  tau(   3) = (  0.3369800  0.3369800  0.0000000  )

     number of k points=     1  Methfessel-Paxton smearing, width (Ry)=  0.0010
                       cart. coord. in units 2pi/alat
        k(    1) = (   0.0000000   0.0000000   0.0000000), wk =   2.0000000

                       cryst. coord.
        k(    1) = (   0.0000000   0.0000000   0.0000000), wk =   2.0000000

     Initial potential from superposition of free atoms

     starting charge      48.9972, renormalised to      49.0000
     Starting wfcs are   30 randomized atomic wfcs

     Self-consistent Calculation

     iteration #  1     ecut=    30.00 Ry     beta= 0.70
     Davidson diagonalization with overlap

     ethr =  1.00E-02,  avg # of iterations =  3.0

     Threshold (ethr) on eigenvalues was too large:
     Diagonalizing with lowered threshold

     Davidson diagonalization with overlap

[...]

     total energy              =    -641.31197445 Ry
     estimated scf accuracy    <       0.19741362 Ry

[...]

     negative rho (up, down):  4.216E-04 0.000E+00

[...]

     ethr =  8.61E-06,  avg # of iterations =  1.0
     Minimization algorithm failed to find Fermi energy: reverting to bisection
     Possible cause: smearing is larger than the electronic band-gap.

[...]

     ethr =  3.36E-08,  avg # of iterations =  1.0

[...]

     total energy              =    -641.40321244 Ry
     estimated scf accuracy    <       0.00001025 Ry

     iteration # 62     ecut=    30.00 Ry     beta= 0.70
     Davidson diagonalization with overlap

     ethr =  2.09E-08,  avg # of iterations =  1.0
     Minimization algorithm failed to find Fermi energy: reverting to bisection
     Possible cause: smearing is larger than the electronic band-gap.

     End of self-consistent calculation

          k = 0.0000 0.0000 0.0000 (   528 PWs)   bands (ev):

   -90.0640 -89.9240 -41.5855 -41.4412 -41.3194 -41.1305 -41.0096 -40.9504
   -31.6470 -10.4294 -10.1960 -10.1616   8.2240  10.9355  11.4608  11.6523
    11.8313  12.1243  12.3243  12.3418  12.5604  12.5715  13.5639  16.4664
    19.0194  19.0219  19.0276  19.0408  21.4897  23.1490

     occupation numbers
     1.0000   1.0000   1.0000   1.0000   1.0000   1.0000   1.0000   1.0000
     1.0000   1.0000   1.0000   1.0000   1.0000   1.0000   1.0000   1.0000
     1.0000   1.0000   1.0000   1.0000   1.0000   1.0000   1.0000   1.0000
     0.3235   0.1869   0.0045  -0.0149  -0.0000  -0.0000

     the Fermi energy is    19.0164 ev

!    total energy              =    -641.40321225 Ry
     estimated scf accuracy    <       0.00000040 Ry
     smearing contrib. (-TS)   =      -0.00029350 Ry
     internal energy E=F+TS    =    -641.40291875 Ry

     The total energy is F=E-TS. E is the sum of the following terms:
     one-electron contribution =    -245.01067715 Ry
     hartree contribution      =     138.84363935 Ry
     xc contribution           =     -62.71264298 Ry
     ewald contribution        =    -472.52323798 Ry

     convergence has been achieved in  62 iterations

     Forces acting on atoms (cartesian axes, Ry/au):

     atom    1 type  1   force =     0.00000000    0.00000000   -0.00000000
     atom    2 type  2   force =    -0.12513043   -0.06683411    0.00000000
     atom    3 type  2   force =     0.12513043    0.06683411   -0.00000000
     The non-local contrib.  to forces
     atom    1 type  1   force =     0.00000000    0.00000000    0.00000000
     atom    2 type  2   force =     0.06995579    0.04248020   -0.00000000
     atom    3 type  2   force =    -0.06995579   -0.04248020    0.00000000
     The ionic contribution  to forces
     atom    1 type  1   force =     0.00000000    0.00000000   -0.00000000
     atom    2 type  2   force =    -2.52312337   -1.43370654    0.00000000
     atom    3 type  2   force =     2.52312337    1.43370654   -0.00000000
     The local contribution  to forces
     atom    1 type  1   force =    -0.00019327    0.00028059    0.00016045
     atom    2 type  2   force =     2.32893854    1.32340704   -0.00396928
     atom    3 type  2   force =    -2.32769653   -1.32543746    0.00276099
     The core correction contribution to forces
     atom    1 type  1   force =     0.00000000    0.00000000    0.00000000
     atom    2 type  2   force =     0.00000000    0.00000000    0.00000000
     atom    3 type  2   force =     0.00000000    0.00000000    0.00000000
     The Hubbard contrib.    to forces
     atom    1 type  1   force =     0.00000000    0.00000000    0.00000000
     atom    2 type  2   force =     0.00000000    0.00000000    0.00000000
     atom    3 type  2   force =     0.00000000    0.00000000    0.00000000
     The SCF correction term to forces
     atom    1 type  1   force =     0.00018988   -0.00027155   -0.00015712
     atom    2 type  2   force =    -0.00073213    0.00067612    0.00051780
     atom    3 type  2   force =    -0.00017137    0.00073618    0.00034746

     Total force =     0.200621     Total SCF correction =     0.001445

     Computing stress (Cartesian axis) and pressure

          total   stress  (Ry/bohr**3)                   (kbar)     P=     -672.72
  -0.00385055   0.00124190   0.00000000         -566.44      182.69        0.00
   0.00124190  -0.00455595   0.00000000          182.69     -670.20        0.00
   0.00000000   0.00000000  -0.00531276            0.00        0.00     -781.53

     kinetic stress (kbar)  51279.68    196.21     -0.00
                              196.21  51579.53     -0.00
                               -0.00     -0.00  51473.33

     local   stress (kbar)  -6136.90  -3009.79    -28.67
                            -3009.79  -2831.96    -26.57
                              -28.67    -26.57  -1046.52

     nonloc. stress (kbar)   2150.64     49.89     -0.00
                               49.89   1844.12     -0.00
                               -0.00     -0.00   1717.71

     hartree stress (kbar)  18822.71   1005.40     11.26
                             1005.40  17730.39      7.32
                               11.26      7.32  17168.45

     exc-cor stress (kbar)  -7647.34      1.76      0.15
                                1.76  -7646.22      0.28
                                0.15      0.28  -7646.52

     corecor stress (kbar)      0.00      0.00      0.00
                                0.00      0.00      0.00
                                0.00      0.00      0.00

     ewald   stress (kbar) -59035.23   1939.22     -0.00
                             1939.22 -61346.07     -0.00
                               -0.00     -0.00 -62447.98

     hubbard stress (kbar)      0.00      0.00      0.00
                                0.00      0.00      0.00
                                0.00      0.00      0.00

     DFT-D   stress (kbar)      0.00      0.00      0.00
                                0.00      0.00      0.00
                                0.00      0.00      0.00

     XDM     stress (kbar)      0.00      0.00      0.00
                                0.00      0.00      0.00
                                0.00      0.00      0.00

     dft-nl  stress (kbar)      0.00      0.00      0.00
                                0.00      0.00      0.00
                                0.00      0.00      0.00

     TS-vdW  stress (kbar)      0.00      0.00      0.00
                                0.00      0.00      0.00
                                0.00      0.00      0.00

[...]

                                0.00      0.00      0.00

     Writing all to output data dir new_calculations/myprefix.save/

     General routines

     Parallel routines

   This run was terminated on:  20:34:49  21May2023

   JOB DONE.