     Program PWSCF v.7.0 starts on 20May2023 at 19:41:42

     Reading input from espresso_15301.pwi
Warning: card &CELL ignored
Warning: card / ignored

     Current dimensions of program PWSCF are:
     Max number of different atomic species (ntypx) = 10
     Max number of k-points (npk) =  40000
     Max angular momentum in pseudopotentials (lmaxx) =  4
     file Ga.pbe-dn-kjpaw_psl.1.0.0.UPF: wavefunction(s)  4S renormalized

     gamma-point specific algorithms are used
     Message from routine setup:
     using ibrav=0 with symmetry is DISCOURAGED, use correct ibrav instead

     Subspace diagonalization in iterative solution of the eigenvalue problem:
     a serial algorithm will be used

     Using Slab Decomposition

     bravais-lattice index     =            0
     lattice parameter (alat)  =       7.9862  a.u.
     unit-cell volume          =    1315.7993 (a.u.)^3
     number of atoms/cell      =           11
     number of atomic types    =            3
     number of electrons       =       171.00
     number of Kohn-Sham states=          103
     kinetic-energy cutoff     =      30.0000  Ry
     charge density cutoff     =     240.0000  Ry
     scf convergence threshold =      1.0E-06
     mixing beta               =       0.7000
     number of iterations used =            8  plain     mixing
     Exchange-correlation= SLA  PW   PBE  PBE
                           (   1   4   3   4   0   0   0)

     celldm(1)=   7.986189  celldm(2)=   0.000000  celldm(3)=   0.000000
     celldm(4)=   0.000000  celldm(5)=   0.000000  celldm(6)=   0.000000

     crystal axes: (cart. coord. in units of alat)
               a(1) = (   1.000000   0.000000   0.000000 )
               a(2) = (   0.000000   1.000000   0.000000 )
               a(3) = (   0.000000   0.000000   2.583277 )

     reciprocal axes: (cart. coord. in units 2 pi/alat)
               b(1) = (  1.000000  0.000000  0.000000 )
               b(2) = (  0.000000  1.000000  0.000000 )
               b(3) = (  0.000000  0.000000  0.387105 )

     PseudoPot. # 1 for Lu read from file:
     /home/pragov/projects/rrg-bengioy-ad/pragov/crystal_structure_design/SSSP/Lu.GGA-PBE-paw-v1.0.UPF
     MD5 check sum: 9ceca61ee0c17e9380a83635bfffa61d
     Pseudo is Projector augmented-wave + core cor, Zval = 25.0
     Generated using ATOMPAW code
     Shape of augmentation charge: BESSEL
     Using radial grid of 1118 points,  8 beta functions with:
                l(1) =   0
                l(2) =   0
                l(3) =   1
                l(4) =   1
                l(5) =   2
                l(6) =   2
                l(7) =   3
                l(8) =   3
     Q(r) pseudized with 0 coefficients

     PseudoPot. # 2 for Ga read from file:
     /home/pragov/projects/rrg-bengioy-ad/pragov/crystal_structure_design/SSSP/Ga.pbe-dn-kjpaw_psl.1.0.0.UPF
     MD5 check sum: a27b4342b1af7e5f338de752e9ed7044
     Pseudo is Projector augmented-wave + core cor, Zval = 13.0
     Generated using "atomic" code by A. Dal Corso  v.5.1
     Shape of augmentation charge: PSQ
     Using radial grid of 1205 points,  6 beta functions with:
                l(1) =   0
                l(2) =   0
                l(3) =   1
                l(4) =   1
                l(5) =   2
                l(6) =   2
     Q(r) pseudized with 0 coefficients

     PseudoPot. # 3 for Co read from file:
     /home/pragov/projects/rrg-bengioy-ad/pragov/crystal_structure_design/SSSP/Co_pbe_v1.2.uspp.F.UPF
     MD5 check sum: 5f91765df6ddd3222702df6e7b74a16d
     Pseudo is Ultrasoft + core correction, Zval = 17.0
     Generated by new atomic code, or converted to UPF format
     Using radial grid of  863 points,  6 beta functions with:
                l(1) =   0
                l(2) =   0
                l(3) =   1
                l(4) =   1
                l(5) =   2
                l(6) =   2
     Q(r) pseudized with  8 coefficients,  rinner =    1.200   1.200   1.200
                                                       1.200   1.200

     atomic species   valence    mass     pseudopotential
        Lu            25.00   174.96680     Lu( 1.00)
        Ga            13.00    69.72300     Ga( 1.00)
        Co            17.00    58.93319     Co( 1.00)

     16 Sym. Ops., with inversion, found

                                    s                        frac. trans.

      isym =  1     identity

 cryst.   s( 1) = (     1          0          0      )
                  (     0          1          0      )
                  (     0          0          1      )

 cart.    s( 1) = (  1.0000000  0.0000000  0.0000000 )
                  (  0.0000000  1.0000000  0.0000000 )
                  (  0.0000000  0.0000000  1.0000000 )

      isym =  2     180 deg rotation - cart. axis [0,0,1]

[...]

      isym =  8      90 deg rotation - cart. axis [0,0,1]

[...]

      isym =  9     inversion

 cryst.   s( 9) = (    -1          0          0      )
                  (     0         -1          0      )
                  (     0          0         -1      )

 cart.    s( 9) = ( -1.0000000  0.0000000  0.0000000 )
                  (  0.0000000 -1.0000000  0.0000000 )
                  (  0.0000000  0.0000000 -1.0000000 )

      isym = 10     inv. 180 deg rotation - cart. axis [0,0,1]

 cryst.   s(10) = (     1          0          0      )
                  (     0          1          0      )
                  (     0          0         -1      )

 cart.    s(10) = (  1.0000000  0.0000000  0.0000000 )
                  (  0.0000000  1.0000000  0.0000000 )
                  (  0.0000000  0.0000000 -1.0000000 )

[...]

      isym = 16     inv.  90 deg rotation - cart. axis [0,0,1]

 cryst.   s(16) = (     0         -1          0      )
                  (     1          0          0      )
                  (     0          0         -1      )

 cart.    s(16) = (  0.0000000  1.0000000  0.0000000 )
                  ( -1.0000000  0.0000000  0.0000000 )
                  (  0.0000000  0.0000000 -1.0000000 )

   Cartesian axes

     site n.     atom                  positions (alat units)
         1           Lu  tau(   1) = (   0.0000000   0.0000000   1.7923757  )
         2           Lu  tau(   2) = (   0.0000000   0.0000000   0.7909012  )
         3           Ga  tau(   3) = (   0.5000000   0.0000000   2.2791658  )
         4           Ga  tau(   4) = (   0.0000000   0.5000000   2.2791658  )
         5           Ga  tau(   5) = (   0.5000000   0.0000000   0.3041111  )
         6           Ga  tau(   6) = (   0.0000000   0.5000000   0.3041111  )
         7           Ga  tau(   7) = (   0.5000000   0.0000000   1.2916385  )
         8           Ga  tau(   8) = (   0.0000000   0.5000000   1.2916385  )
         9           Ga  tau(   9) = (   0.5000000   0.5000000   1.8065863  )
        10           Ga  tau(  10) = (   0.5000000   0.5000000   0.7766906  )
        11           Co  tau(  11) = (   0.0000000   0.0000000   0.0000000  )

   Crystallographic axes

     site n.     atom                  positions (cryst. coord.)
         1           Lu  tau(   1) = (  0.0000000  0.0000000  0.6938380  )
         2           Lu  tau(   2) = (  0.0000000  0.0000000  0.3061620  )
         3           Ga  tau(   3) = (  0.5000000  0.0000000  0.8822770  )
         4           Ga  tau(   4) = (  0.0000000  0.5000000  0.8822770  )
         5           Ga  tau(   5) = (  0.5000000  0.0000000  0.1177230  )
         6           Ga  tau(   6) = (  0.0000000  0.5000000  0.1177230  )
         7           Ga  tau(   7) = (  0.5000000  0.0000000  0.5000000  )
         8           Ga  tau(   8) = (  0.0000000  0.5000000  0.5000000  )
         9           Ga  tau(   9) = (  0.5000000  0.5000000  0.6993390  )
        10           Ga  tau(  10) = (  0.5000000  0.5000000  0.3006610  )
        11           Co  tau(  11) = (  0.0000000  0.0000000  0.0000000  )

     number of k points=     1  Methfessel-Paxton smearing, width (Ry)=  0.0010
                       cart. coord. in units 2pi/alat
        k(    1) = (   0.0000000   0.0000000   0.0000000), wk =   2.0000000

                       cryst. coord.
        k(    1) = (   0.0000000   0.0000000   0.0000000), wk =   2.0000000

     Check: negative core charge=   -0.000004

     Initial potential from superposition of free atoms

     starting charge     169.9688, renormalised to     171.0000
     Starting wfcs are  149 randomized atomic wfcs
     Checking if some PAW data can be deallocated...

     Self-consistent Calculation

     iteration #  1     ecut=    30.00 Ry     beta= 0.70
     Davidson diagonalization with overlap

     ethr =  1.00E-02,  avg # of iterations =  3.0

     total energy              =   -4645.94099228 Ry
     estimated scf accuracy    <      42.82306027 Ry

[...]

     total energy              =   -4681.29623223 Ry
     estimated scf accuracy    <       0.00000139 Ry

     iteration # 23     ecut=    30.00 Ry     beta= 0.70
     Davidson diagonalization with overlap

     ethr =  8.13E-10,  avg # of iterations =  2.0

     End of self-consistent calculation

          k = 0.0000 0.0000 0.0000 (  1818 PWs)   bands (ev):

   -81.7332 -45.1146 -44.9859 -44.9856 -43.1199 -43.1194 -13.8749 -13.8749
   -13.8732 -13.8732 -13.6970 -13.6766  -2.2529  -2.2522  -2.2388  -2.2320
    -2.1729  -2.1729  -2.1712  -2.1711  -2.1635  -2.1524  -1.8360  -1.7645
    -1.7483  -1.7237  -1.7220  -1.7198  -1.7198  -1.6854  -1.6214  -1.6214
    -1.5557  -1.5556  -1.5437  -1.5087  -1.5042  -1.4893  -1.4892  -1.4007
    -1.3905  -1.3628  -0.5688  -0.5427  -0.5159  -0.5026  -0.5026  -0.4159
    -0.4129  -0.4129  -0.3147  -0.2247   2.2003   3.6228   4.0111   7.4526
     7.6057   8.0244   8.1257   8.1257   8.1287   8.1287   8.1817   8.1818
     8.1825   8.2231   8.2231   8.2341   8.2341   8.2532   8.2554   8.2627
    10.4325  10.4325  10.6362  10.7732  10.7732  10.7999  10.8966  11.7431
    12.1081  12.1081  13.0210  13.0302  13.2477  13.3505  13.3506  14.5240
    15.0714  15.4802  15.4803  15.7881  15.7882  16.0466  16.0725  16.3517
    16.4113  17.3653  17.5627  18.0214  18.0214  18.3387  18.7274

     occupation numbers
     1.0000   1.0000   1.0000   1.0000   1.0000   1.0000   1.0000   1.0000
     1.0000   1.0000   1.0000   1.0000   1.0000   1.0000   1.0000   1.0000
     1.0000   1.0000   1.0000   1.0000   1.0000   1.0000   1.0000   1.0000
     1.0000   1.0000   1.0000   1.0000   1.0000   1.0000   1.0000   1.0000
     1.0000   1.0000   1.0000   1.0000   1.0000   1.0000   1.0000   1.0000
     1.0000   1.0000   1.0000   1.0000   1.0000   1.0000   1.0000   1.0000
     1.0000   1.0000   1.0000   1.0000   1.0000   1.0000   1.0000   1.0000
     1.0000   1.0000   1.0000   1.0000   1.0000   1.0000   1.0000   1.0000
     1.0000   1.0000   1.0000   1.0000   1.0000   1.0000   1.0000   1.0000
     1.0000   1.0000   1.0000   1.0000   1.0000   1.0000   1.0000   1.0000
     1.0000   1.0000   1.0000   1.0000   1.0000   0.2520   0.2480  -0.0000
    -0.0000  -0.0000  -0.0000  -0.0000  -0.0000  -0.0000  -0.0000  -0.0000
    -0.0000  -0.0000  -0.0000  -0.0000  -0.0000  -0.0000  -0.0000

     the Fermi energy is    13.3463 ev

!    total energy              =   -4681.29623211 Ry
     estimated scf accuracy    <       0.00000064 Ry
     smearing contrib. (-TS)   =      -0.00041260 Ry
     internal energy E=F+TS    =   -4681.29581951 Ry

     The total energy is F=E-TS. E is the sum of the following terms:
     one-electron contribution =   -1741.54458773 Ry
     hartree contribution      =     949.12882505 Ry
     xc contribution           =    -420.77123432 Ry
     ewald contribution        =   -1598.87608775 Ry
     one-center paw contrib.   =   -1869.23273475 Ry
      -> PAW hartree energy AE =    2122.63620848 Ry
      -> PAW hartree energy PS =   -1968.00896744 Ry
      -> PAW xc energy AE      =   -2405.80817527 Ry
      -> PAW xc energy PS      =     381.94819948 Ry
      -> total E_H with PAW    =    1103.75606609 Ry
      -> total E_XC with PAW   =   -2444.63121012 Ry

     convergence has been achieved in  23 iterations

     Forces acting on atoms (cartesian axes, Ry/au):

     atom    1 type  1   force =     0.00000000    0.00000000    0.03407961
     atom    2 type  1   force =     0.00000000    0.00000000   -0.03407961
     atom    3 type  2   force =     0.00000000    0.00000000   -0.02818907
     atom    4 type  2   force =     0.00000000    0.00000000   -0.02818907
     atom    5 type  2   force =     0.00000000    0.00000000    0.02818907
     atom    6 type  2   force =     0.00000000    0.00000000    0.02818907
     atom    7 type  2   force =     0.00000000    0.00000000    0.00000000
     atom    8 type  2   force =     0.00000000    0.00000000    0.00000000
     atom    9 type  2   force =     0.00000000    0.00000000   -0.04761707
     atom   10 type  2   force =     0.00000000    0.00000000    0.04761707
     atom   11 type  3   force =     0.00000000    0.00000000    0.00000000
     The non-local contrib.  to forces
     atom    1 type  1   force =     0.00000000    0.00000000    0.04737630
     atom    2 type  1   force =     0.00000000    0.00000000   -0.04737630
     atom    3 type  2   force =     0.00000000    0.00000000    0.43287881
     atom    4 type  2   force =     0.00000000    0.00000000    0.43287881
     atom    5 type  2   force =     0.00000000    0.00000000   -0.43287881
     atom    6 type  2   force =     0.00000000    0.00000000   -0.43287881
     atom    7 type  2   force =     0.00000000    0.00000000    0.00000000
     atom    8 type  2   force =     0.00000000    0.00000000    0.00000000
     atom    9 type  2   force =     0.00000000    0.00000000    0.00020593
     atom   10 type  2   force =     0.00000000    0.00000000   -0.00020593
     atom   11 type  3   force =     0.00000000    0.00000000    0.00000000
     The ionic contribution  to forces
     atom    1 type  1   force =    -0.00000000   -0.00000000  -15.12975087
     atom    2 type  1   force =     0.00000000    0.00000000   15.12975087
     atom    3 type  2   force =    -0.00000000   -0.00000000   -4.90220346
     atom    4 type  2   force =    -0.00000000   -0.00000000   -4.90220346
     atom    5 type  2   force =    -0.00000000    0.00000000    4.90220346
     atom    6 type  2   force =     0.00000000   -0.00000000    4.90220346
     atom    7 type  2   force =     0.00000000   -0.00000000    0.00000000
     atom    8 type  2   force =    -0.00000000    0.00000000    0.00000000
     atom    9 type  2   force =     0.00000000    0.00000000   -6.36002664
     atom   10 type  2   force =     0.00000000    0.00000000    6.36002664
     atom   11 type  3   force =    -0.00000000   -0.00000000   -0.00000000
     The local contribution  to forces
     atom    1 type  1   force =     0.00007771   -0.00001832   15.11801713
     atom    2 type  1   force =    -0.00004386    0.00008643  -15.11604849
     atom    3 type  2   force =    -0.00001788   -0.00000191    4.44808423
     atom    4 type  2   force =     0.00004840   -0.00003424    4.44710371
     atom    5 type  2   force =     0.00002004    0.00000139   -4.44824623
     atom    6 type  2   force =    -0.00003147   -0.00001097   -4.44732077
     atom    7 type  2   force =    -0.00000187    0.00001751   -0.00039595
     atom    8 type  2   force =     0.00000611    0.00000410   -0.00039383
     atom    9 type  2   force =     0.00004381   -0.00002610    6.31069685
     atom   10 type  2   force =    -0.00003949    0.00004608   -6.31002770
     atom   11 type  3   force =     0.00000202   -0.00002284   -0.00071992
     The core correction contribution to forces
     atom    1 type  1   force =     0.00000000    0.00000000    0.00000477
     atom    2 type  1   force =    -0.00000000    0.00000000   -0.00000476
     atom    3 type  2   force =     0.00000027    0.00000033   -0.00607527
     atom    4 type  2   force =     0.00000095   -0.00000144   -0.00608073
     atom    5 type  2   force =    -0.00000004   -0.00000017    0.00607554
     atom    6 type  2   force =    -0.00000049    0.00000021    0.00607923
     atom    7 type  2   force =    -0.00000022    0.00000028   -0.00000091
     atom    8 type  2   force =     0.00000018    0.00000033   -0.00000063
     atom    9 type  2   force =     0.00000122   -0.00000054    0.00242571
     atom   10 type  2   force =    -0.00000097    0.00000108   -0.00242465
     atom   11 type  3   force =     0.00000034   -0.00000053   -0.00000222
     The Hubbard contrib.    to forces
     atom    1 type  1   force =     0.00000000    0.00000000    0.00000000
     atom    2 type  1   force =     0.00000000    0.00000000    0.00000000
     atom    3 type  2   force =     0.00000000    0.00000000    0.00000000
     atom    4 type  2   force =     0.00000000    0.00000000    0.00000000
     atom    5 type  2   force =     0.00000000    0.00000000    0.00000000
     atom    6 type  2   force =     0.00000000    0.00000000    0.00000000
     atom    7 type  2   force =     0.00000000    0.00000000    0.00000000
     atom    8 type  2   force =     0.00000000    0.00000000    0.00000000
     atom    9 type  2   force =     0.00000000    0.00000000    0.00000000
     atom   10 type  2   force =     0.00000000    0.00000000    0.00000000
     atom   11 type  3   force =     0.00000000    0.00000000    0.00000000
     The SCF correction term to forces
     atom    1 type  1   force =    -0.00008139    0.00001905   -0.00172858
     atom    2 type  1   force =     0.00004118   -0.00008502   -0.00056178
     atom    3 type  2   force =    -0.00000215   -0.00000778   -0.00079386
     atom    4 type  2   force =    -0.00007460    0.00007878    0.00007842
     atom    5 type  2   force =    -0.00001865    0.00000637    0.00098656
     atom    6 type  2   force =     0.00002327    0.00000974    0.00019988
     atom    7 type  2   force =     0.00001736   -0.00002521    0.00046624
     atom    8 type  2   force =    -0.00000826   -0.00002123    0.00042827
     atom    9 type  2   force =    -0.00005283    0.00002009   -0.00098806
     atom   10 type  2   force =     0.00002323   -0.00003723    0.00017958
     atom   11 type  3   force =     0.00000748    0.00002621    0.00076856

     Total force =     0.100180     Total SCF correction =     0.002644

     Computing stress (Cartesian axis) and pressure

          total   stress  (Ry/bohr**3)                   (kbar)     P=       80.80
   0.00076933   0.00000000   0.00000000          113.17        0.00        0.00
   0.00000000   0.00076933   0.00000000            0.00      113.17        0.00
   0.00000000   0.00000000   0.00010914            0.00        0.00       16.06

     kinetic stress (kbar)  15927.84      0.00      0.00
                                0.00  15927.84      0.00
                                0.00      0.00  15930.37

     local   stress (kbar)  10934.41     -0.34      0.01
                               -0.34  10936.78     -0.02
                                0.01     -0.02   2280.04

     nonloc. stress (kbar)  11403.79      0.00      0.00
                                0.00  11403.79      0.00
                                0.00      0.00  11424.26

     hartree stress (kbar)  34069.61      0.17     -0.01
                                0.17  34068.86      0.01
                               -0.01      0.01  37973.21

     exc-cor stress (kbar)   2141.54      0.00     -0.00
                                0.00   2141.51      0.00
                               -0.00      0.00   2147.15

     corecor stress (kbar) -13238.87     -0.00      0.00
                               -0.00 -13238.84     -0.00
                                0.00     -0.00 -13238.10

     ewald   stress (kbar) -61125.95     -0.00     -0.00
                               -0.00 -61125.95     -0.00
                               -0.00     -0.00 -56500.88

     hubbard stress (kbar)      0.00      0.00      0.00
                                0.00      0.00      0.00
                                0.00      0.00      0.00

     DFT-D   stress (kbar)      0.00      0.00      0.00
                                0.00      0.00      0.00
                                0.00      0.00      0.00

     XDM     stress (kbar)      0.00      0.00      0.00
                                0.00      0.00      0.00
                                0.00      0.00      0.00

     dft-nl  stress (kbar)      0.00      0.00      0.00
                                0.00      0.00      0.00
                                0.00      0.00      0.00

     TS-vdW  stress (kbar)      0.00      0.00      0.00
                                0.00      0.00      0.00
                                0.00      0.00      0.00

[...]

                                0.00      0.00      0.00

     Writing all to output data dir new_calculations/myprefix.save/

     General routines

     Parallel routines

     PAW routines

   This run was terminated on:  19:43:45  20May2023

   JOB DONE.