     Program PWSCF v.7.0 starts on 20May2023 at 14:56:18

     Reading input from espresso_11418.pwi
Warning: card &CELL ignored
Warning: card / ignored

     Current dimensions of program PWSCF are:
     Max number of different atomic species (ntypx) = 10
     Max number of k-points (npk) =  40000
     Max angular momentum in pseudopotentials (lmaxx) =  4

     gamma-point specific algorithms are used
     Message from routine setup:
     using ibrav=0 with symmetry is DISCOURAGED, use correct ibrav instead

     Subspace diagonalization in iterative solution of the eigenvalue problem:
     a serial algorithm will be used

     Using Slab Decomposition

     bravais-lattice index     =            0
     lattice parameter (alat)  =      10.6167  a.u.
     unit-cell volume          =    1195.7364 (a.u.)^3
     number of atoms/cell      =            8
     number of atomic types    =            4
     number of electrons       =        94.00
     number of Kohn-Sham states=           56
     kinetic-energy cutoff     =      30.0000  Ry
     charge density cutoff     =     240.0000  Ry
     scf convergence threshold =      1.0E-06
     mixing beta               =       0.7000
     number of iterations used =            8  plain     mixing
     Exchange-correlation=  SLA  PW   PBX  PBC
                           (   1   4   3   4   0   0   0)

     celldm(1)=  10.616714  celldm(2)=   0.000000  celldm(3)=   0.000000
     celldm(4)=   0.000000  celldm(5)=   0.000000  celldm(6)=   0.000000

     crystal axes: (cart. coord. in units of alat)
               a(1) = (   1.000000   0.000000   0.000000 )
               a(2) = (  -0.019551   0.999809   0.000000 )
               a(3) = (   0.000000   0.000000   0.999420 )

     reciprocal axes: (cart. coord. in units 2 pi/alat)
               b(1) = (  1.000000  0.019555  0.000000 )
               b(2) = (  0.000000  1.000191  0.000000 )
               b(3) = (  0.000000  0.000000  1.000580 )

     PseudoPot. # 1 for Ta read from file:
     /home/pragov/projects/rrg-bengioy-ad/pragov/crystal_structure_design/SSSP/Ta_pbe_v1.uspp.F.UPF
     MD5 check sum: f8bbe9446314a3b8ea5d9f3e3836c939
     Pseudo is Ultrasoft + core correction, Zval = 13.0
     Generated by new atomic code, or converted to UPF format
     Using radial grid of  921 points,  7 beta functions with:
                l(1) =   0
                l(2) =   0
                l(3) =   1
                l(4) =   1
                l(5) =   2
                l(6) =   2
                l(7) =   3
     Q(r) pseudized with  6 coefficients,  rinner =    1.300   1.300   1.300
                                                       1.300   1.300   1.300
                                                       1.300

     PseudoPot. # 2 for Cu read from file:
     /home/pragov/projects/rrg-bengioy-ad/pragov/crystal_structure_design/SSSP/Cu_pbe_v1.2.uspp.F.UPF
     MD5 check sum: 6e991ff952a84172a2a52a1c1e996048
     Pseudo is Ultrasoft + core correction, Zval = 19.0
     Generated by new atomic code, or converted to UPF format
     Using radial grid of  867 points,  6 beta functions with:
                l(1) =   0
                l(2) =   0
                l(3) =   1
                l(4) =   1
                l(5) =   2
                l(6) =   2
     Q(r) pseudized with  8 coefficients,  rinner =    1.150   1.150   1.150
                                                       1.150   1.150

     PseudoPot. # 3 for Se read from file:
     /home/pragov/projects/rrg-bengioy-ad/pragov/crystal_structure_design/SSSP/Se_pbe_v1.uspp.F.UPF
     MD5 check sum: 1b3568f3a8ae88f9a2a0ad0698632c85
     Pseudo is Ultrasoft + core correction, Zval =  6.0
     Generated by new atomic code, or converted to UPF format
     Using radial grid of  877 points,  6 beta functions with:
                l(1) =   0
                l(2) =   0
                l(3) =   1
                l(4) =   1
                l(5) =   2
                l(6) =   2
     Q(r) pseudized with  8 coefficients,  rinner =    1.300   1.300   1.300
                                                       1.300   1.300

     PseudoPot. # 4 for S  read from file:
     /home/pragov/projects/rrg-bengioy-ad/pragov/crystal_structure_design/SSSP/s_pbe_v1.4.uspp.F.UPF
     MD5 check sum: 88d86576ff6df21479756cfb9bdac1df
     Pseudo is Ultrasoft + core correction, Zval =  6.0
     Generated by new atomic code, or converted to UPF format
     Using radial grid of  907 points,  6 beta functions with:
                l(1) =   0
                l(2) =   0
                l(3) =   1
                l(4) =   1
                l(5) =   2
                l(6) =   2
     Q(r) pseudized with  8 coefficients,  rinner =    1.300   1.300   1.300
                                                       1.300   1.300

     atomic species   valence    mass     pseudopotential
        Ta            13.00   180.94788     Ta( 1.00)
        Cu            19.00    63.54600     Cu( 1.00)
        Se             6.00    78.97100     Se( 1.00)
        S              6.00    32.06000     S ( 1.00)

      2 Sym. Ops. (no inversion) found

                                    s                        frac. trans.

      isym =  1     identity

 cryst.   s( 1) = (     1          0          0      )
                  (     0          1          0      )
                  (     0          0          1      )

 cart.    s( 1) = (  1.0000000  0.0000000  0.0000000 )
                  (  0.0000000  1.0000000  0.0000000 )
                  (  0.0000000  0.0000000  1.0000000 )

      isym =  2     180 deg rotation - cart. axis [0,0,1]

 cryst.   s( 2) = (    -1          0          0      )
                  (     0         -1          0      )
                  (     0          0          1      )

 cart.    s( 2) = ( -1.0000000 -0.0000000  0.0000000 )
                  (  0.0000000 -1.0000000  0.0000000 )
                  (  0.0000000  0.0000000  1.0000000 )

   Cartesian axes

     site n.     atom                  positions (alat units)
         1           Ta  tau(   1) = (   0.0000000   0.0000000   0.9988716  )
         2           Cu  tau(   2) = (   0.5000000   0.0000000   0.0137360  )
         3           Cu  tau(   3) = (  -0.0097755   0.4999044   0.0137360  )
         4           Cu  tau(   4) = (   0.0000000   0.0000000   0.4936127  )
         5           Se  tau(   5) = (   0.7290629   0.7434589   0.7480241  )
         6           Se  tau(   6) = (   0.2513862   0.2563500   0.7480241  )
         7           S   tau(   7) = (   0.2209571   0.7639580   0.2409832  )
         8           S   tau(   8) = (   0.7594920   0.2358509   0.2409832  )

   Crystallographic axes

     site n.     atom                  positions (cryst. coord.)
         1           Ta  tau(   1) = (  0.0000000  0.0000000  0.9994510  )
         2           Cu  tau(   2) = (  0.5000000  0.0000000  0.0137440  )
         3           Cu  tau(   3) = ( -0.0000000  0.5000000  0.0137440  )
         4           Cu  tau(   4) = (  0.0000000  0.0000000  0.4938990  )
         5           Se  tau(   5) = (  0.7436010  0.7436010  0.7484580  )
         6           Se  tau(   6) = (  0.2563990  0.2563990  0.7484580  )
         7           S   tau(   7) = (  0.2358960  0.7641040  0.2411230  )
         8           S   tau(   8) = (  0.7641040  0.2358960  0.2411230  )

     number of k points=     1  Methfessel-Paxton smearing, width (Ry)=  0.0010
                       cart. coord. in units 2pi/alat
        k(    1) = (   0.0000000   0.0000000   0.0000000), wk =   2.0000000

                       cryst. coord.
        k(    1) = (   0.0000000   0.0000000   0.0000000), wk =   2.0000000

     Check: negative core charge=   -0.000002

     Initial potential from superposition of free atoms

     starting charge      90.9987, renormalised to      94.0000

     negative rho (up, down):  9.574E-02 0.000E+00
     Starting wfcs are   68 randomized atomic wfcs

     Self-consistent Calculation

     iteration #  1     ecut=    30.00 Ry     beta= 0.70
     Davidson diagonalization with overlap

     ethr =  1.00E-02,  avg # of iterations =  3.0

     negative rho (up, down):  9.313E-02 0.000E+00

     total energy              =   -1487.49686377 Ry
     estimated scf accuracy    <       1.81268374 Ry

[...]

     total energy              =   -1488.51033634 Ry
     estimated scf accuracy    <       0.00000192 Ry

     iteration # 12     ecut=    30.00 Ry     beta= 0.70
     Davidson diagonalization with overlap

     ethr =  2.04E-09,  avg # of iterations =  1.0

[...]

     End of self-consistent calculation

          k = 0.0000 0.0000 0.0000 (  1654 PWs)   bands (ev):

  -105.1740-105.1651-105.1629 -62.5733 -62.5685 -62.5668 -62.5565 -62.5439
   -62.5413 -62.5360 -62.5289 -62.5275 -60.9313 -27.5205 -27.5002 -27.4786
    -6.5195  -5.5069  -5.4089  -5.3045   1.3779   1.3880   1.9179   2.9089
     3.0573   3.1194   3.7165   3.7878   3.9019   4.2087   4.2098   4.2466
     4.2760   4.3131   4.8525   4.8896   4.8904   4.9600   4.9690   5.1383
     5.4724   5.4930   5.5929   5.6933   6.5725   6.6024   6.6779   9.0228
     9.0809   9.0822   9.0844   9.2550   9.2673  12.6230  12.6829  12.6839

     occupation numbers
     1.0000   1.0000   1.0000   1.0000   1.0000   1.0000   1.0000   1.0000
     1.0000   1.0000   1.0000   1.0000   1.0000   1.0000   1.0000   1.0000
     1.0000   1.0000   1.0000   1.0000   1.0000   1.0000   1.0000   1.0000
     1.0000   1.0000   1.0000   1.0000   1.0000   1.0000   1.0000   1.0000
     1.0000   1.0000   1.0000   1.0000   1.0000   1.0000   1.0000   1.0000
     1.0000   1.0000   1.0000   1.0000   1.0000   1.0000   1.0000  -0.0000
    -0.0000  -0.0000  -0.0000  -0.0000  -0.0000  -0.0000  -0.0000  -0.0000

     the Fermi energy is     7.2826 ev

!    total energy              =   -1488.51033634 Ry
     estimated scf accuracy    <       0.00000025 Ry
     smearing contrib. (-TS)   =       0.00000000 Ry
     internal energy E=F+TS    =   -1488.51033634 Ry

     The total energy is F=E-TS. E is the sum of the following terms:
     one-electron contribution =   -1390.98889894 Ry
     hartree contribution      =     725.71088954 Ry
     xc contribution           =    -235.08632127 Ry
     ewald contribution        =    -588.14600567 Ry

     convergence has been achieved in  12 iterations

     negative rho (up, down):  9.425E-02 0.000E+00

     Forces acting on atoms (cartesian axes, Ry/au):

     atom    1 type  1   force =     0.00000000    0.00000000   -0.01427802
     atom    2 type  2   force =     0.00000000    0.00000000    0.00312907
     atom    3 type  2   force =     0.00000000    0.00000000    0.00313354
     atom    4 type  2   force =     0.00000000    0.00000000   -0.00311068
     atom    5 type  3   force =     0.02553097    0.02604876    0.02980180
     atom    6 type  3   force =    -0.02553097   -0.02604876    0.02980180
     atom    7 type  4   force =    -0.02695279    0.02645097   -0.02423875
     atom    8 type  4   force =     0.02695279   -0.02645097   -0.02423875
     The non-local contrib.  to forces
     atom    1 type  1   force =     0.00000000    0.00000000   -0.01302931
     atom    2 type  2   force =     0.00000000    0.00000000   -0.01018916
     atom    3 type  2   force =     0.00000000    0.00000000   -0.01017119
     atom    4 type  2   force =     0.00000000    0.00000000    0.02730239
     atom    5 type  3   force =     0.13479260    0.13743157    0.12866077
     atom    6 type  3   force =    -0.13479260   -0.13743157    0.12866077
     atom    7 type  4   force =    -0.06237654    0.06113559   -0.06814675
     atom    8 type  4   force =     0.06237654   -0.06113559   -0.06814675
     The ionic contribution  to forces
     atom    1 type  1   force =     0.00000000    0.00000000   -3.29290352
     atom    2 type  2   force =    -0.00000000    0.00000000   -1.36719727
     atom    3 type  2   force =    -0.00000000   -0.00000000   -1.36719727
     atom    4 type  2   force =     0.00000000   -0.00000000    4.44261779
     atom    5 type  3   force =    -7.85742991   -8.01258150   -7.71394963
     atom    6 type  3   force =     7.85742991    8.01258150   -7.71394963
     atom    7 type  4   force =     8.47227794   -8.30822502    8.50628977
     atom    8 type  4   force =    -8.47227794    8.30822502    8.50628977
     The local contribution  to forces
     atom    1 type  1   force =     0.00001071   -0.00000811    3.29002663
     atom    2 type  2   force =    -0.00001402   -0.00005558    1.38049664
     atom    3 type  2   force =     0.00004570    0.00001783    1.38047090
     atom    4 type  2   force =     0.00001862   -0.00005454   -4.47315217
     atom    5 type  3   force =     7.76148364    7.91472973    7.62778766
     atom    6 type  3   force =    -7.76150278   -7.91472289    7.62779465
     atom    7 type  4   force =    -8.43945300    8.27602111   -8.46529159
     atom    8 type  4   force =     8.43946949   -8.27603325   -8.46531406
     The core correction contribution to forces
     atom    1 type  1   force =     0.00000033    0.00000080    0.00174643
     atom    2 type  2   force =    -0.00000000    0.00000002    0.00004175
     atom    3 type  2   force =    -0.00000004   -0.00000004    0.00004175
     atom    4 type  2   force =    -0.00000004   -0.00000001   -0.00011513
     atom    5 type  3   force =    -0.01330385   -0.01356257   -0.01261254
     atom    6 type  3   force =     0.01330253    0.01356298   -0.01261322
     atom    7 type  4   force =     0.00256673   -0.00251470    0.00284214
     atom    8 type  4   force =    -0.00256623    0.00251450    0.00284147
     The Hubbard contrib.    to forces
     atom    1 type  1   force =     0.00000000    0.00000000    0.00000000
     atom    2 type  2   force =     0.00000000    0.00000000    0.00000000
     atom    3 type  2   force =     0.00000000    0.00000000    0.00000000
     atom    4 type  2   force =     0.00000000    0.00000000    0.00000000
     atom    5 type  3   force =     0.00000000    0.00000000    0.00000000
     atom    6 type  3   force =     0.00000000    0.00000000    0.00000000
     atom    7 type  4   force =     0.00000000    0.00000000    0.00000000
     atom    8 type  4   force =     0.00000000    0.00000000    0.00000000
     The SCF correction term to forces
     atom    1 type  1   force =    -0.00001714    0.00000118   -0.00010231
     atom    2 type  2   force =     0.00001246    0.00006750   -0.00000696
     atom    3 type  2   force =    -0.00003506    0.00000660    0.00000530
     atom    4 type  2   force =    -0.00002780    0.00009833    0.00025240
     atom    5 type  3   force =    -0.00001656    0.00003332   -0.00006821
     atom    6 type  3   force =     0.00002694   -0.00003699   -0.00007513
     atom    7 type  4   force =     0.00003653    0.00003270    0.00008890
     atom    8 type  4   force =    -0.00004464   -0.00002295    0.00010151

     Total force =     0.093260     Total SCF correction =     0.000358

     Computing stress (Cartesian axis) and pressure

     negative rho (up, down):  9.425E-02 0.000E+00
          total   stress  (Ry/bohr**3)                   (kbar)     P=     -214.26
  -0.00144630  -0.00004612   0.00000000         -212.76       -6.78        0.00
  -0.00004612  -0.00144832   0.00000000           -6.78     -213.06        0.00
   0.00000000   0.00000000  -0.00147490            0.00        0.00     -216.96

     kinetic stress (kbar)  15952.10    -26.38      0.00
                              -26.38  15951.08      0.00
                                0.00      0.00  15954.44

     local   stress (kbar) -23099.49   -842.80      0.01
                             -842.80 -23132.65     -0.01
                                0.01     -0.01 -22890.77

     nonloc. stress (kbar)   7690.36      1.67      0.00
                                1.67   7690.42      0.00
                                0.00      0.00   7687.04

     hartree stress (kbar)  29791.35    320.17     -0.01
                              320.17  29804.05      0.01
                               -0.01      0.01  29684.94

     exc-cor stress (kbar)   4367.61      0.99     -0.00
                                0.99   4367.65      0.00
                               -0.00      0.00   4367.56

     corecor stress (kbar) -10823.93     -0.89      0.00
                               -0.89 -10823.97     -0.00
                                0.00     -0.00 -10824.11

     ewald   stress (kbar) -24090.77    540.46      0.00
                              540.46 -24069.63     -0.00
                                0.00     -0.00 -24196.07

     hubbard stress (kbar)      0.00      0.00      0.00
                                0.00      0.00      0.00
                                0.00      0.00      0.00

     DFT-D   stress (kbar)      0.00      0.00      0.00
                                0.00      0.00      0.00
                                0.00      0.00      0.00

     XDM     stress (kbar)      0.00      0.00      0.00
                                0.00      0.00      0.00
                                0.00      0.00      0.00

     dft-nl  stress (kbar)      0.00      0.00      0.00
                                0.00      0.00      0.00
                                0.00      0.00      0.00

     TS-vdW  stress (kbar)      0.00      0.00      0.00
                                0.00      0.00      0.00
                                0.00      0.00      0.00

[...]

                                0.00      0.00      0.00

     Writing all to output data dir new_calculations/myprefix.save/

     General routines

     Parallel routines

   This run was terminated on:  14:56:40  20May2023

   JOB DONE.