     Program PWSCF v.7.0 starts on 21May2023 at 10:46:27

     Reading input from espresso_25496.pwi
Warning: card &CELL ignored
Warning: card / ignored

     Current dimensions of program PWSCF are:
     Max number of different atomic species (ntypx) = 10
     Max number of k-points (npk) =  40000
     Max angular momentum in pseudopotentials (lmaxx) =  4
     file Al.pbe-n-kjpaw_psl.1.0.0.UPF: wavefunction(s)  3S 3P renormalized
     file O.pbe-n-kjpaw_psl.0.1.UPF: wavefunction(s)  2P renormalized

     gamma-point specific algorithms are used
     Message from routine setup:
     using ibrav=0 with symmetry is DISCOURAGED, use correct ibrav instead

     Subspace diagonalization in iterative solution of the eigenvalue problem:
     a serial algorithm will be used

     Using Slab Decomposition

     bravais-lattice index     =            0
     lattice parameter (alat)  =      10.3116  a.u.
     unit-cell volume          =    1251.6977 (a.u.)^3
     number of atoms/cell      =           16
     number of atomic types    =            5
     number of electrons       =        96.00
     number of Kohn-Sham states=           58
     kinetic-energy cutoff     =      30.0000  Ry
     charge density cutoff     =     240.0000  Ry
     scf convergence threshold =      1.0E-06
     mixing beta               =       0.7000
     number of iterations used =            8  plain     mixing
     Exchange-correlation=  SLA  PW   PBX  PBC
                           (   1   4   3   4   0   0   0)

     celldm(1)=  10.311580  celldm(2)=   0.000000  celldm(3)=   0.000000
     celldm(4)=   0.000000  celldm(5)=   0.000000  celldm(6)=   0.000000

     crystal axes: (cart. coord. in units of alat)
               a(1) = (   1.000000   0.000000   0.000000 )
               a(2) = (  -0.247692   0.968839   0.000000 )
               a(3) = (   0.349153   0.449647   1.178345 )

     reciprocal axes: (cart. coord. in units 2 pi/alat)
               b(1) = (  1.000000  0.255658 -0.393866 )
               b(2) = (  0.000000  1.032163 -0.393866 )
               b(3) = (  0.000000  0.000000  0.848648 )

     PseudoPot. # 1 for Na read from file:
     /home/pragov/projects/rrg-bengioy-ad/pragov/crystal_structure_design/SSSP/na_pbe_v1.5.uspp.F.UPF
     MD5 check sum: 44600605ef58000f06b90626533354dc
     Pseudo is Ultrasoft, Zval =  9.0
     Generated by new atomic code, or converted to UPF format
     Using radial grid of  819 points,  5 beta functions with:
                l(1) =   0
                l(2) =   0
                l(3) =   1
                l(4) =   1
                l(5) =   2
     Q(r) pseudized with  8 coefficients,  rinner =    1.250   1.250   1.250
                                                       1.250   1.250

     PseudoPot. # 2 for Al read from file:
     /home/pragov/projects/rrg-bengioy-ad/pragov/crystal_structure_design/SSSP/Al.pbe-n-kjpaw_psl.1.0.0.UPF
     MD5 check sum: cfc449ca30b5f3223ec38ddd88ac046d
     Pseudo is Projector augmented-wave + core cor, Zval =  3.0
     Generated using "atomic" code by A. Dal Corso  v.5.1
     Shape of augmentation charge: PSQ
     Using radial grid of 1135 points,  6 beta functions with:
                l(1) =   0
                l(2) =   0
                l(3) =   1
                l(4) =   1
                l(5) =   2
                l(6) =   2
     Q(r) pseudized with 0 coefficients

     PseudoPot. # 3 for As read from file:
     /home/pragov/projects/rrg-bengioy-ad/pragov/crystal_structure_design/SSSP/As.pbe-n-rrkjus_psl.0.2.UPF
     MD5 check sum: 767315de957beeeb34f87d97bf945c8f
     Pseudo is Ultrasoft + core correction, Zval =  5.0
     Generated using "atomic" code by A. Dal Corso  v.5.0.99 svn rev. 10869
     Using radial grid of 1209 points,  4 beta functions with:
                l(1) =   0
                l(2) =   0
                l(3) =   1
                l(4) =   1
     Q(r) pseudized with 0 coefficients

     PseudoPot. # 4 for O  read from file:
     /home/pragov/projects/rrg-bengioy-ad/pragov/crystal_structure_design/SSSP/O.pbe-n-kjpaw_psl.0.1.UPF
     MD5 check sum: 0234752ac141de4415c5fc33072bef88
     Pseudo is Projector augmented-wave + core cor, Zval =  6.0
     Generated using "atomic" code by A. Dal Corso  v.5.0.99 svn rev. 10869
     Shape of augmentation charge: BESSEL
     Using radial grid of 1095 points,  4 beta functions with:
                l(1) =   0
                l(2) =   0
                l(3) =   1
                l(4) =   1
     Q(r) pseudized with 0 coefficients

     PseudoPot. # 5 for F  read from file:
     /home/pragov/projects/rrg-bengioy-ad/pragov/crystal_structure_design/SSSP/f_pbe_v1.4.uspp.F.UPF
     MD5 check sum: 4c38b6a325caf53ec0e86aed9459de46
     Pseudo is Ultrasoft, Zval =  7.0
     Generated by new atomic code, or converted to UPF format
     Using radial grid of  799 points,  4 beta functions with:
                l(1) =   0
                l(2) =   0
                l(3) =   1
                l(4) =   1
     Q(r) pseudized with  8 coefficients,  rinner =    0.950   0.950   0.950

     atomic species   valence    mass     pseudopotential
        Na             9.00    22.98977     Na( 1.00)
        Al             3.00    26.98154     Al( 1.00)
        As             5.00    74.92159     As( 1.00)
        O              6.00    15.99900     O ( 1.00)
        F              7.00    18.99840     F ( 1.00)

      2 Sym. Ops., with inversion, found

                                    s                        frac. trans.

      isym =  1     identity

 cryst.   s( 1) = (     1          0          0      )
                  (     0          1          0      )
                  (     0          0          1      )

 cart.    s( 1) = (  1.0000000  0.0000000 -0.0000000 )
                  (  0.0000000  1.0000000 -0.0000000 )
                  (  0.0000000  0.0000000  1.0000000 )

      isym =  2     inversion

 cryst.   s( 2) = (    -1          0          0      )
                  (     0         -1          0      )
                  (     0          0         -1      )

 cart.    s( 2) = ( -1.0000000 -0.0000000  0.0000000 )
                  (  0.0000000 -1.0000000  0.0000000 )
                  (  0.0000000  0.0000000 -1.0000000 )

   Cartesian axes

     site n.     atom                  positions (alat units)
         1           Na  tau(   1) = (   0.4241374   0.9877353   0.8837584  )
         2           Na  tau(   2) = (   0.6773243   0.4307510   0.2945861  )
         3           Al  tau(   3) = (   0.0000000   0.0000000   0.0000000  )
         4           Al  tau(   4) = (   0.1745767   0.2248237   0.5891723  )
         5           As  tau(   5) = (   0.2307680   0.7775043   0.2945861  )
         6           As  tau(   6) = (   0.8706938   0.6409820   0.8837584  )
         7           O   tau(   7) = (   0.2170830   1.0466848   0.4596380  )
         8           O   tau(   8) = (  -0.0334143   0.7240890   0.1295342  )
         9           O   tau(   9) = (   0.8843787   0.3718015   0.7187065  )
        10           O   tau(  10) = (   1.1348760   0.6943973   1.0488103  )
        11           O   tau(  11) = (   0.8098324   0.8808782   0.6902636  )
        12           O   tau(  12) = (   0.2916294   0.5376081   0.4880809  )
        13           O   tau(  13) = (   0.6231982   0.6405266   1.0772532  )
        14           O   tau(  14) = (   0.4782636   0.7779596   0.1010914  )
        15           F   tau(  15) = (   0.0954755   1.2429430   0.8837584  )
        16           F   tau(  16) = (   1.0059863   0.1755433   0.2945861  )

   Crystallographic axes

     site n.     atom                  positions (cryst. coord.)
         1           Na  tau(   1) = (  0.3285780  0.6714220  0.7500000  )
         2           Na  tau(   2) = (  0.6714220  0.3285780  0.2500000  )
         3           Al  tau(   3) = (  0.0000000  0.0000000  0.0000000  )
         4           Al  tau(   4) = (  0.0000000 -0.0000000  0.5000000  )
         5           As  tau(   5) = (  0.3135160  0.6864840  0.2500000  )
         6           As  tau(   6) = (  0.6864840  0.3135160  0.7500000  )
         7           O   tau(   7) = (  0.3036410  0.8993140  0.3900710  )
         8           O   tau(   8) = (  0.1006860  0.6963590  0.1099290  )
         9           O   tau(   9) = (  0.6963590  0.1006860  0.6099290  )
        10           O   tau(  10) = (  0.8993140  0.3036410  0.8900710  )
        11           O   tau(  11) = (  0.7631650  0.6373390  0.5857910  )
        12           O   tau(  12) = (  0.2368350  0.3626610  0.4142090  )
        13           O   tau(  13) = (  0.3626610  0.2368350  0.9142090  )
        14           O   tau(  14) = (  0.6373390  0.7631650  0.0857910  )
        15           F   tau(  15) = (  0.0651620  0.9348380  0.7500000  )
        16           F   tau(  16) = (  0.9348380  0.0651620  0.2500000  )

     number of k points=     1  Methfessel-Paxton smearing, width (Ry)=  0.0010
                       cart. coord. in units 2pi/alat
        k(    1) = (   0.0000000   0.0000000   0.0000000), wk =   2.0000000

                       cryst. coord.
        k(    1) = (   0.0000000   0.0000000   0.0000000), wk =   2.0000000

     Check: negative core charge=   -0.000008

     Initial potential from superposition of free atoms

     starting charge      95.9824, renormalised to      96.0000
     Starting wfcs are   66 randomized atomic wfcs
     Checking if some PAW data can be deallocated...

     Self-consistent Calculation

     iteration #  1     ecut=    30.00 Ry     beta= 0.70
     Davidson diagonalization with overlap

     ethr =  1.00E-02,  avg # of iterations =  3.0

     total energy              =    -735.41895748 Ry
     estimated scf accuracy    <       3.32223286 Ry

[...]

     total energy              =    -736.91222219 Ry
     estimated scf accuracy    <       0.00000102 Ry

     iteration #  9     ecut=    30.00 Ry     beta= 0.70
     Davidson diagonalization with overlap

     ethr =  1.06E-09,  avg # of iterations =  4.0

     End of self-consistent calculation

          k = 0.0000 0.0000 0.0000 (  1717 PWs)   bands (ev):

   -44.4567 -44.4562 -18.6151 -18.5015 -16.4075 -16.4018 -16.3817 -16.3802
   -16.3717 -16.3538 -15.1367 -14.7603 -13.2947 -13.0289 -12.9990 -12.7472
   -12.7164 -12.6627  -4.9551  -4.5170  -2.9860  -1.6485  -1.2162  -1.1694
    -0.5895  -0.4968  -0.2959  -0.2355   0.3375   0.5752   0.5798   1.0994
     1.7107   1.8113   1.9761   2.1647   2.5604   2.7438   2.9129   2.9313
     3.3099   3.4010   3.4041   3.4342   3.6865   3.8421   4.0463   4.3438
     7.7567   9.0095  11.4628  12.1271  12.3027  12.3159  12.4025  12.6266
    12.8933  14.2926

     occupation numbers
     1.0000   1.0000   1.0000   1.0000   1.0000   1.0000   1.0000   1.0000
     1.0000   1.0000   1.0000   1.0000   1.0000   1.0000   1.0000   1.0000
     1.0000   1.0000   1.0000   1.0000   1.0000   1.0000   1.0000   1.0000
     1.0000   1.0000   1.0000   1.0000   1.0000   1.0000   1.0000   1.0000
     1.0000   1.0000   1.0000   1.0000   1.0000   1.0000   1.0000   1.0000
     1.0000   1.0000   1.0000   1.0000   1.0000   1.0000   1.0000   1.0000
    -0.0000  -0.0000  -0.0000  -0.0000  -0.0000  -0.0000  -0.0000  -0.0000
    -0.0000  -0.0000

     the Fermi energy is     7.0509 ev

!    total energy              =    -736.91222231 Ry
     estimated scf accuracy    <       0.00000036 Ry
     smearing contrib. (-TS)   =       0.00000000 Ry
     internal energy E=F+TS    =    -736.91222231 Ry

     The total energy is F=E-TS. E is the sum of the following terms:
     one-electron contribution =    -268.96529969 Ry
     hartree contribution      =     188.68344765 Ry
     xc contribution           =    -131.61554496 Ry
     ewald contribution        =    -379.62878847 Ry
     one-center paw contrib.   =    -145.38603684 Ry
      -> PAW hartree energy AE =     249.94197679 Ry
      -> PAW hartree energy PS =    -249.05344118 Ry
      -> PAW xc energy AE      =    -212.24202293 Ry
      -> PAW xc energy PS      =      65.96745048 Ry
      -> total E_H with PAW    =     189.57198326 Ry
      -> total E_XC with PAW   =    -277.89011740 Ry

     convergence has been achieved in   9 iterations

     Forces acting on atoms (cartesian axes, Ry/au):

     atom    1 type  1   force =    -0.00012445    0.00011722   -0.00007128
     atom    2 type  1   force =     0.00012445   -0.00011722    0.00007128
     atom    3 type  2   force =     0.00000000    0.00000000    0.00000000
     atom    4 type  2   force =     0.00000000    0.00000000    0.00000000
     atom    5 type  3   force =    -0.00545707    0.00423269    0.00001036
     atom    6 type  3   force =     0.00545707   -0.00423269   -0.00001036
     atom    7 type  4   force =     0.02248677   -0.01247028   -0.00608335
     atom    8 type  4   force =     0.01759988   -0.01870995    0.00604839
     atom    9 type  4   force =    -0.02248677    0.01247028    0.00608335
     atom   10 type  4   force =    -0.01759988    0.01870995   -0.00604839
     atom   11 type  4   force =     0.02151585   -0.00783255   -0.01506145
     atom   12 type  4   force =    -0.02151585    0.00783255    0.01506145
     atom   13 type  4   force =     0.01287206   -0.01889593    0.01510076
     atom   14 type  4   force =    -0.01287206    0.01889593   -0.01510076
     atom   15 type  5   force =     0.00187044   -0.00143900   -0.00003710
     atom   16 type  5   force =    -0.00187044    0.00143900    0.00003710
     The non-local contrib.  to forces
     atom    1 type  1   force =     0.01105250   -0.00859034    0.00001618
     atom    2 type  1   force =    -0.01105250    0.00859034   -0.00001618
     atom    3 type  2   force =     0.00000000    0.00000000    0.00000000
     atom    4 type  2   force =     0.00000000    0.00000000    0.00000000
     atom    5 type  3   force =     0.03523691   -0.02736846   -0.00006908
     atom    6 type  3   force =    -0.03523691    0.02736846    0.00006908
     atom    7 type  4   force =    -0.58971879   -1.26069656   -0.61895197
     atom    8 type  4   force =     1.07522464    0.88354101    0.61880747
     atom    9 type  4   force =     0.58971879    1.26069656    0.61895197
     atom   10 type  4   force =    -1.07522464   -0.88354101   -0.61880747
     atom   11 type  4   force =     0.63800890   -0.68587766    1.00979037
     atom   12 type  4   force =    -0.63800890    0.68587766   -1.00979037
     atom   13 type  4   force =     0.82247475   -0.44823387   -1.00962784
     atom   14 type  4   force =    -0.82247475    0.44823387    1.00962784
     atom   15 type  5   force =    -0.34480880    0.26775662    0.00000433
     atom   16 type  5   force =     0.34480880   -0.26775662   -0.00000433
     The ionic contribution  to forces
     atom    1 type  1   force =     1.58640575   -1.23185206   -0.00000000
     atom    2 type  1   force =    -1.58640575    1.23185206   -0.00000000
     atom    3 type  2   force =     0.00000000   -0.00000000    0.00000000
     atom    4 type  2   force =     0.00000000    0.00000000    0.00000000
     atom    5 type  3   force =    -0.08590794    0.06670795    0.00000000
     atom    6 type  3   force =     0.08590794   -0.06670795   -0.00000000
     atom    7 type  4   force =     1.15068636    0.92703644    0.57141716
     atom    8 type  4   force =    -0.61313350   -1.34444894   -0.57141716
     atom    9 type  4   force =    -1.15068636   -0.92703644   -0.57141716
     atom   10 type  4   force =     0.61313350    1.34444894    0.57141716
     atom   11 type  4   force =    -1.00768989   -0.09915898   -2.32516026
     atom   12 type  4   force =     1.00768989    0.09915898    2.32516026
     atom   13 type  4   force =    -0.15352735    1.00085002    2.32516026
     atom   14 type  4   force =     0.15352735   -1.00085002   -2.32516026
     atom   15 type  5   force =    -0.55822483    0.43346440   -0.00000000
     atom   16 type  5   force =     0.55822483   -0.43346440    0.00000000
     The local contribution  to forces
     atom    1 type  1   force =    -1.59760312    1.24048864    0.00014884
     atom    2 type  1   force =     1.59760672   -1.24048546   -0.00015827
     atom    3 type  2   force =    -0.00000955   -0.00000383    0.00000366
     atom    4 type  2   force =    -0.00000817   -0.00000073    0.00000213
     atom    5 type  3   force =     0.04412824   -0.03429263   -0.00010172
     atom    6 type  3   force =    -0.04411896    0.03428617    0.00010015
     atom    7 type  4   force =    -0.54464499    0.30765848    0.03491476
     atom    8 type  4   force =    -0.43297196    0.45149371   -0.03496937
     atom    9 type  4   force =     0.54464202   -0.30766015   -0.03492118
     atom   10 type  4   force =     0.43294232   -0.45149185    0.03498901
     atom   11 type  4   force =     0.39794640    0.76984234    1.31111060
     atom   12 type  4   force =    -0.39795053   -0.76982759   -1.31109980
     atom   13 type  4   force =    -0.64731792   -0.57620233   -1.31107434
     atom   14 type  4   force =     0.64732779    0.57620922    1.31109178
     atom   15 type  5   force =     0.90482424   -0.70262952    0.00016708
     atom   16 type  5   force =    -0.90484097    0.70262687   -0.00015493
     The core correction contribution to forces
     atom    1 type  1   force =     0.00000000    0.00000000    0.00000000
     atom    2 type  1   force =     0.00000000    0.00000000    0.00000000
     atom    3 type  2   force =     0.00000043   -0.00000018   -0.00000001
     atom    4 type  2   force =     0.00000017   -0.00000011    0.00000001
     atom    5 type  3   force =     0.00109211   -0.00084893    0.00001022
     atom    6 type  3   force =    -0.00109526    0.00084904   -0.00000797
     atom    7 type  4   force =     0.00608205    0.01346061    0.00645959
     atom    8 type  4   force =    -0.01153317   -0.00922588   -0.00645762
     atom    9 type  4   force =    -0.00608220   -0.01346036   -0.00645945
     atom   10 type  4   force =     0.01153294    0.00922590    0.00645764
     atom   11 type  4   force =    -0.00667464    0.00730649   -0.01058154
     atom   12 type  4   force =     0.00667463   -0.00730647    0.01058182
     atom   13 type  4   force =    -0.00873147    0.00465700    0.01057971
     atom   14 type  4   force =     0.00873122   -0.00465691   -0.01057945
     atom   15 type  5   force =     0.00000000    0.00000000    0.00000000
     atom   16 type  5   force =     0.00000000    0.00000000    0.00000000
     The Hubbard contrib.    to forces
     atom    1 type  1   force =     0.00000000    0.00000000    0.00000000
     atom    2 type  1   force =     0.00000000    0.00000000    0.00000000
     atom    3 type  2   force =     0.00000000    0.00000000    0.00000000
     atom    4 type  2   force =     0.00000000    0.00000000    0.00000000
     atom    5 type  3   force =     0.00000000    0.00000000    0.00000000
     atom    6 type  3   force =     0.00000000    0.00000000    0.00000000
     atom    7 type  4   force =     0.00000000    0.00000000    0.00000000
     atom    8 type  4   force =     0.00000000    0.00000000    0.00000000
     atom    9 type  4   force =     0.00000000    0.00000000    0.00000000
     atom   10 type  4   force =     0.00000000    0.00000000    0.00000000
     atom   11 type  4   force =     0.00000000    0.00000000    0.00000000
     atom   12 type  4   force =     0.00000000    0.00000000    0.00000000
     atom   13 type  4   force =     0.00000000    0.00000000    0.00000000
     atom   14 type  4   force =     0.00000000    0.00000000    0.00000000
     atom   15 type  5   force =     0.00000000    0.00000000    0.00000000
     atom   16 type  5   force =     0.00000000    0.00000000    0.00000000
     The SCF correction term to forces
     atom    1 type  1   force =     0.00001591    0.00006618   -0.00024169
     atom    2 type  1   force =    -0.00002854   -0.00007898    0.00024034
     atom    3 type  2   force =     0.00001182    0.00000195   -0.00000437
     atom    4 type  2   force =     0.00000894   -0.00000042   -0.00000141
     atom    5 type  3   force =    -0.00001819    0.00003632    0.00017829
     atom    6 type  3   force =    -0.00001154   -0.00002686   -0.00016428
     atom    7 type  4   force =     0.00007826    0.00007638    0.00008231
     atom    8 type  4   force =     0.00001105   -0.00006984    0.00008317
     atom    9 type  4   force =    -0.00008293   -0.00006369   -0.00006562
     atom   10 type  4   force =     0.00001319    0.00006798   -0.00010663
     atom   11 type  4   force =    -0.00007637    0.00005619   -0.00021171
     atom   12 type  4   force =     0.00007762   -0.00006909    0.00021845
     atom   13 type  4   force =    -0.00003266    0.00003615    0.00006716
     atom   14 type  4   force =     0.00000960   -0.00003734   -0.00007646
     atom   15 type  5   force =     0.00008538   -0.00003116   -0.00021103
     atom   16 type  5   force =    -0.00005754    0.00003248    0.00019385

     Total force =     0.076809     Total SCF correction =     0.000688

     Computing stress (Cartesian axis) and pressure

          total   stress  (Ry/bohr**3)                   (kbar)     P=     -332.15
  -0.00221082  -0.00013942  -0.00002085         -325.22      -20.51       -3.07
  -0.00013942  -0.00228167  -0.00002682          -20.51     -335.64       -3.95
  -0.00002085  -0.00002682  -0.00228116           -3.07       -3.95     -335.57

     kinetic stress (kbar)  17415.05     10.59    -53.84
                               10.59  17420.47    -69.33
                              -53.84    -69.33  17352.15

     local   stress (kbar)   -112.98   2367.43   1320.77
                             2367.43   1097.57   1700.93
                             1320.77   1700.93   3120.84

     nonloc. stress (kbar)  -7096.92     -9.86    -20.30
                               -9.86  -7101.94    -26.14
                              -20.30    -26.14  -7128.31

     hartree stress (kbar)   7956.51   -912.11   -618.82
                             -912.11   7490.13   -796.94
                             -618.82   -796.94   6728.29

     exc-cor stress (kbar)  -2460.55     -1.50     -0.88
                               -1.50  -2461.32     -1.13
                               -0.88     -1.13  -2464.68

     corecor stress (kbar)  -2047.65      2.20      0.32
                                2.20  -2046.53      0.41
                                0.32      0.41  -2040.91

     ewald   stress (kbar) -13978.68  -1477.27   -630.32
                            -1477.27 -14734.03   -811.74
                             -630.32   -811.74 -15902.95

     hubbard stress (kbar)      0.00      0.00      0.00
                                0.00      0.00      0.00
                                0.00      0.00      0.00

     DFT-D   stress (kbar)      0.00      0.00      0.00
                                0.00      0.00      0.00
                                0.00      0.00      0.00

     XDM     stress (kbar)      0.00      0.00      0.00
                                0.00      0.00      0.00
                                0.00      0.00      0.00

     dft-nl  stress (kbar)      0.00      0.00      0.00
                                0.00      0.00      0.00
                                0.00      0.00      0.00

     TS-vdW  stress (kbar)      0.00      0.00      0.00
                                0.00      0.00      0.00
                                0.00      0.00      0.00

[...]

                                0.00      0.00      0.00

     Writing all to output data dir new_calculations/myprefix.save/

     General routines

     Parallel routines

     PAW routines

   This run was terminated on:  10:46:59  21May2023

   JOB DONE.