     Program PWSCF v.7.0 starts on 20May2023 at 16:42:27

     Reading input from espresso_18455.pwi
Warning: card &CELL ignored
Warning: card / ignored

     Current dimensions of program PWSCF are:
     Max number of different atomic species (ntypx) = 10
     Max number of k-points (npk) =  40000
     Max angular momentum in pseudopotentials (lmaxx) =  4

     gamma-point specific algorithms are used
     Message from routine setup:
     using ibrav=0 with symmetry is DISCOURAGED, use correct ibrav instead

     Subspace diagonalization in iterative solution of the eigenvalue problem:
     a serial algorithm will be used

     Using Slab Decomposition

     bravais-lattice index     =            0
     lattice parameter (alat)  =      14.3533  a.u.
     unit-cell volume          =    1407.3983 (a.u.)^3
     number of atoms/cell      =            9
     number of atomic types    =            3
     number of electrons       =       126.00
     number of Kohn-Sham states=           76
     kinetic-energy cutoff     =      30.0000  Ry
     charge density cutoff     =     240.0000  Ry
     scf convergence threshold =      1.0E-06
     mixing beta               =       0.7000
     number of iterations used =            8  plain     mixing
     Exchange-correlation=  SLA  PW   PBX  PBC
                           (   1   4   3   4   0   0   0)

     celldm(1)=  14.353256  celldm(2)=   0.000000  celldm(3)=   0.000000
     celldm(4)=   0.000000  celldm(5)=   0.000000  celldm(6)=   0.000000

     crystal axes: (cart. coord. in units of alat)
               a(1) = (   1.000000   0.000000   0.000000 )
               a(2) = (  -0.500000   0.866025   0.000000 )
               a(3) = (   0.000000   0.000000   0.549585 )

     reciprocal axes: (cart. coord. in units 2 pi/alat)
               b(1) = (  1.000000  0.577350  0.000000 )
               b(2) = (  0.000000  1.154701  0.000000 )
               b(3) = (  0.000000  0.000000  1.819554 )

     PseudoPot. # 1 for Ce read from file:
     /home/pragov/projects/rrg-bengioy-ad/pragov/crystal_structure_design/SSSP/Ce.GGA-PBE-paw-v1.0.UPF
     MD5 check sum: f2b950f613061344c13339c8d844425d
     Pseudo is Projector augmented-wave + core cor, Zval = 12.0
     Generated using ATOMPAW code
     Shape of augmentation charge: BESSEL
     Using radial grid of 1102 points,  8 beta functions with:
                l(1) =   0
                l(2) =   0
                l(3) =   1
                l(4) =   1
                l(5) =   2
                l(6) =   2
                l(7) =   3
                l(8) =   3
     Q(r) pseudized with 0 coefficients

     PseudoPot. # 2 for Sn read from file:
     /home/pragov/projects/rrg-bengioy-ad/pragov/crystal_structure_design/SSSP/Sn_pbe_v1.uspp.F.UPF
     MD5 check sum: 4cf58ce39ec5d5d420df3dd08604eb00
     Pseudo is Ultrasoft + core correction, Zval = 14.0
     Generated by new atomic code, or converted to UPF format
     Using radial grid of  891 points,  6 beta functions with:
                l(1) =   0
                l(2) =   0
                l(3) =   1
                l(4) =   1
                l(5) =   2
                l(6) =   2
     Q(r) pseudized with  6 coefficients,  rinner =    1.200   1.200   1.200
                                                       1.200   1.200

     PseudoPot. # 3 for Pt read from file:
     /home/pragov/projects/rrg-bengioy-ad/pragov/crystal_structure_design/SSSP/pt_pbe_v1.4.uspp.F.UPF
     MD5 check sum: f09d6de1a584b5a045c4fc126da2d0c4
     Pseudo is Ultrasoft + core correction, Zval = 16.0
     Generated by new atomic code, or converted to UPF format
     Using radial grid of  985 points,  6 beta functions with:
                l(1) =   0
                l(2) =   0
                l(3) =   1
                l(4) =   1
                l(5) =   2
                l(6) =   2
     Q(r) pseudized with  8 coefficients,  rinner =    1.300   1.300   1.300
                                                       1.300   1.300

     atomic species   valence    mass     pseudopotential
        Ce            12.00   140.11600     Ce( 1.00)
        Sn            14.00   118.71000     Sn( 1.00)
        Pt            16.00   195.08400     Pt( 1.00)

     12 Sym. Ops. (no inversion) found

                                    s                        frac. trans.

      isym =  1     identity

 cryst.   s( 1) = (     1          0          0      )
                  (     0          1          0      )
                  (     0          0          1      )

 cart.    s( 1) = (  1.0000000  0.0000000  0.0000000 )
                  (  0.0000000  1.0000000  0.0000000 )
                  (  0.0000000  0.0000000  1.0000000 )

      isym =  2     180 deg rotation - cart. axis [1,0,0]

[...]

      isym =  3     120 deg rotation - cryst. axis [0,0,1]

[...]

      isym =  6     180 deg rotation - cryst. axis [1,1,0]

[...]

      isym =  7     inv. 180 deg rotation - cart. axis [0,0,1]

[...]

      isym =  8     inv. 180 deg rotation - cart. axis [0,1,0]

[...]

      isym =  9     inv.  60 deg rotation - cryst. axis [0,0,1]

 cryst.   s( 9) = (    -1         -1          0      )
                  (     1          0          0      )
                  (     0          0         -1      )

 cart.    s( 9) = ( -0.5000000  0.8660254  0.0000000 )
                  ( -0.8660254 -0.5000000  0.0000000 )
                  (  0.0000000  0.0000000 -1.0000000 )

[...]

 cryst.   s(10) = (     0          1          0      )
                  (    -1         -1          0      )
                  (     0          0         -1      )

 cart.    s(10) = ( -0.5000000 -0.8660254  0.0000000 )
                  (  0.8660254 -0.5000000  0.0000000 )
                  (  0.0000000  0.0000000 -1.0000000 )

[...]

      isym = 12     inv. 180 deg rotation - cryst. axis [2,1,0]

 cryst.   s(12) = (    -1         -1          0      )
                  (     0          1          0      )
                  (     0          0          1      )

 cart.    s(12) = ( -0.5000000 -0.8660254  0.0000000 )
                  ( -0.8660254  0.5000000  0.0000000 )
                  (  0.0000000  0.0000000  1.0000000 )

   Cartesian axes

     site n.     atom                  positions (alat units)
         1           Ce  tau(   1) = (   0.2061810   0.3571160   0.0000000  )
         2           Ce  tau(   2) = (   0.5876380   0.0000000   0.0000000  )
         3           Ce  tau(   3) = (   0.7061810   0.5089094   0.0000000  )
         4           Sn  tau(   4) = (   0.8739555   0.2183155   0.2747927  )
         5           Sn  tau(   5) = (   0.3739555   0.6477099   0.2747927  )
         6           Sn  tau(   6) = (   0.2520890   0.0000000   0.2747927  )
         7           Pt  tau(   7) = (  -0.0000005   0.5773506   0.2747927  )
         8           Pt  tau(   8) = (   0.0000000   0.0000000   0.0000000  )
         9           Pt  tau(   9) = (   0.5000005   0.2886749   0.2747927  )

   Crystallographic axes

     site n.     atom                  positions (cryst. coord.)
         1           Ce  tau(   1) = (  0.4123620  0.4123620  0.0000000  )
         2           Ce  tau(   2) = (  0.5876380  0.0000000  0.0000000  )
         3           Ce  tau(   3) = (  1.0000000  0.5876380  0.0000000  )
         4           Sn  tau(   4) = (  1.0000000  0.2520890  0.5000000  )
         5           Sn  tau(   5) = (  0.7479110  0.7479110  0.5000000  )
         6           Sn  tau(   6) = (  0.2520890  0.0000000  0.5000000  )
         7           Pt  tau(   7) = (  0.3333330  0.6666670  0.5000000  )
         8           Pt  tau(   8) = (  0.0000000  0.0000000  0.0000000  )
         9           Pt  tau(   9) = (  0.6666670  0.3333330  0.5000000  )

     number of k points=     1  Methfessel-Paxton smearing, width (Ry)=  0.0010
                       cart. coord. in units 2pi/alat
        k(    1) = (   0.0000000   0.0000000   0.0000000), wk =   2.0000000

                       cryst. coord.
        k(    1) = (   0.0000000   0.0000000   0.0000000), wk =   2.0000000

     Initial potential from superposition of free atoms

     starting charge     121.4789, renormalised to     126.0000

     negative rho (up, down):  5.595E-01 0.000E+00
     Starting wfcs are  159 randomized atomic wfcs
     Checking if some PAW data can be deallocated...

     Self-consistent Calculation

     iteration #  1     ecut=    30.00 Ry     beta= 0.70
     Davidson diagonalization with overlap

     ethr =  1.00E-02,  avg # of iterations =  2.0

     negative rho (up, down):  4.702E-01 0.000E+00

     total energy              =   -2552.58242394 Ry
     estimated scf accuracy    <      22.23648988 Ry

[...]

     ethr =  9.29E-06,  avg # of iterations =  1.0
     Minimization algorithm failed to find Fermi energy: reverting to bisection
     Possible cause: smearing is larger than the electronic band-gap.

[...]

     total energy              =   -2568.38892778 Ry
     estimated scf accuracy    <       0.00000186 Ry

     iteration # 56     ecut=    30.00 Ry     beta= 0.70
     Davidson diagonalization with overlap

     ethr =  1.47E-09,  avg # of iterations =  2.0

[...]

     End of self-consistent calculation

          k = 0.0000 0.0000 0.0000 (  1957 PWs)   bands (ev):

   -38.3343 -37.9863 -37.9863 -37.7326 -37.7322 -37.5474 -37.5474 -37.5467
   -37.5467 -18.8376 -18.7929 -18.7929  -6.2968  -6.2748  -6.2746  -6.2733
    -6.2733  -6.2720  -6.2593  -6.2440  -6.2371  -6.2370  -6.2285  -6.2285
    -6.1764  -6.1763  -6.1500  -1.9806  -1.9806  -1.9309  -1.7679  -1.6463
    -1.5900  -1.5900  -1.4002  -1.4001   5.1351   7.8872   7.8873   9.4160
    10.8217  10.8218  11.0282  11.1925  11.1925  11.3263  11.7126  11.7380
    11.7380  11.7425  11.7425  12.2058  12.2744  12.2744  12.4609  12.4609
    12.6363  12.6363  14.5919  15.5956  15.5956  15.6586  15.9650  15.9807
    15.9807  15.9865  16.0359  16.0360  16.1876  16.3080  16.3233  16.3233
    16.4194  16.4212  16.4295  16.4507

     occupation numbers
     1.0000   1.0000   1.0000   1.0000   1.0000   1.0000   1.0000   1.0000
     1.0000   1.0000   1.0000   1.0000   1.0000   1.0000   1.0000   1.0000
     1.0000   1.0000   1.0000   1.0000   1.0000   1.0000   1.0000   1.0000
     1.0000   1.0000   1.0000   1.0000   1.0000   1.0000   1.0000   1.0000
     1.0000   1.0000   1.0000   1.0000   1.0000   1.0000   1.0000   1.0000
     1.0000   1.0000   1.0000   1.0000   1.0000   1.0000   1.0000   1.0000
     1.0000   1.0000   1.0000   1.0000   1.0000   1.0000   1.0000   1.0000
     1.0000   1.0000   1.0000   1.0000   1.0000   1.0000   0.8880   0.0706
     0.0705  -0.0291  -0.0000  -0.0000  -0.0000  -0.0000  -0.0000  -0.0000
    -0.0000  -0.0000  -0.0000  -0.0000

     the Fermi energy is    15.9723 ev

!    total energy              =   -2568.38892751 Ry
     estimated scf accuracy    <       0.00000044 Ry
     smearing contrib. (-TS)   =      -0.00006666 Ry
     internal energy E=F+TS    =   -2568.38886085 Ry

     The total energy is F=E-TS. E is the sum of the following terms:
     one-electron contribution =    -313.41214811 Ry
     hartree contribution      =     252.18320067 Ry
     xc contribution           =    -344.68228604 Ry
     ewald contribution        =    -937.42683509 Ry
     one-center paw contrib.   =   -1225.05079229 Ry
      -> PAW hartree energy AE =     133.22060776 Ry
      -> PAW hartree energy PS =    -132.39658585 Ry
      -> PAW xc energy AE      =   -1251.71466125 Ry
      -> PAW xc energy PS      =      25.83984706 Ry
      -> total E_H with PAW    =     253.00722258 Ry
      -> total E_XC with PAW   =   -1570.55710023 Ry

     convergence has been achieved in  56 iterations

     negative rho (up, down):  5.094E-01 0.000E+00

     Forces acting on atoms (cartesian axes, Ry/au):

     atom    1 type  1   force =    -0.01032221   -0.01787859    0.00000000
     atom    2 type  1   force =     0.02064442   -0.00000000    0.00000000
     atom    3 type  1   force =    -0.01032221    0.01787859   -0.00000000
     atom    4 type  2   force =    -0.00881419    0.01526663    0.00000000
     atom    5 type  2   force =    -0.00881419   -0.01526663   -0.00000000
     atom    6 type  2   force =     0.01762839   -0.00000000    0.00000000
     atom    7 type  3   force =     0.00000000    0.00000000   -0.00000000
     atom    8 type  3   force =     0.00000000    0.00000000    0.00000000
     atom    9 type  3   force =     0.00000000   -0.00000000    0.00000000
     The non-local contrib.  to forces
     atom    1 type  1   force =    -0.00426848   -0.00739323    0.00000000
     atom    2 type  1   force =     0.00853696   -0.00000000    0.00000000
     atom    3 type  1   force =    -0.00426848    0.00739323    0.00000000
     atom    4 type  2   force =     0.06748255   -0.11688320    0.00000000
     atom    5 type  2   force =     0.06748255    0.11688320    0.00000000
     atom    6 type  2   force =    -0.13496510    0.00000000    0.00000000
     atom    7 type  3   force =     0.00000000    0.00000000   -0.00000000
     atom    8 type  3   force =    -0.00000000    0.00000000    0.00000000
     atom    9 type  3   force =     0.00000000    0.00000000    0.00000000
     The ionic contribution  to forces
     atom    1 type  1   force =     0.78156254    1.35370599   -0.00000000
     atom    2 type  1   force =    -1.56307859   -0.00002714    0.00000000
     atom    3 type  1   force =     0.78151576   -1.35367936   -0.00000000
     atom    4 type  2   force =    -2.55708059    4.42913016    0.00000000
     atom    5 type  2   force =    -2.55719829   -4.42919722    0.00000000
     atom    6 type  2   force =     5.11427953    0.00006819    0.00000000
     atom    7 type  3   force =     0.00011773   -0.00006833    0.00000000
     atom    8 type  3   force =    -0.00000004   -0.00000008    0.00000000
     atom    9 type  3   force =    -0.00011805    0.00006779    0.00000000
     The local contribution  to forces
     atom    1 type  1   force =    -0.78827940   -1.36524599   -0.00000630
     atom    2 type  1   force =     1.57432695    0.00018492    0.00001510
     atom    3 type  1   force =    -0.78788727    1.36445171   -0.00000304
     atom    4 type  2   force =     2.48245714   -4.29945111   -0.00000953
     atom    5 type  2   force =     2.48325117    4.30003558    0.00000236
     atom    6 type  2   force =    -4.96481199   -0.00030177    0.00000440
     atom    7 type  3   force =    -0.00101836    0.00013401    0.00000524
     atom    8 type  3   force =     0.00028789   -0.00007141    0.00000245
     atom    9 type  3   force =     0.00069225   -0.00011728   -0.00000892
     The core correction contribution to forces
     atom    1 type  1   force =    -0.00000101   -0.00000158   -0.00000001
     atom    2 type  1   force =     0.00000074    0.00000000    0.00000001
     atom    3 type  1   force =    -0.00000088    0.00000116   -0.00000000
     atom    4 type  2   force =    -0.00140614    0.00244874   -0.00000031
     atom    5 type  2   force =    -0.00140661   -0.00244511    0.00000007
     atom    6 type  2   force =     0.00282205    0.00000165    0.00000005
     atom    7 type  3   force =    -0.00001539   -0.00002427   -0.00000094
     atom    8 type  3   force =     0.00000165    0.00000045    0.00000064
     atom    9 type  3   force =    -0.00001551    0.00001028    0.00000011
     The Hubbard contrib.    to forces
     atom    1 type  1   force =     0.00000000    0.00000000    0.00000000
     atom    2 type  1   force =     0.00000000    0.00000000    0.00000000
     atom    3 type  1   force =     0.00000000    0.00000000    0.00000000
     atom    4 type  2   force =     0.00000000    0.00000000    0.00000000
     atom    5 type  2   force =     0.00000000    0.00000000    0.00000000
     atom    6 type  2   force =     0.00000000    0.00000000    0.00000000
     atom    7 type  3   force =     0.00000000    0.00000000    0.00000000
     atom    8 type  3   force =     0.00000000    0.00000000    0.00000000
     atom    9 type  3   force =     0.00000000    0.00000000    0.00000000
     The SCF correction term to forces
     atom    1 type  1   force =     0.00033835    0.00069124    0.00000668
     atom    2 type  1   force =     0.00033085   -0.00016706   -0.00000758
     atom    3 type  1   force =     0.00014677   -0.00033135    0.00000153
     atom    4 type  2   force =    -0.00022785    0.00007382    0.00000684
     atom    5 type  2   force =    -0.00088678   -0.00054080   -0.00000546
     atom    6 type  2   force =     0.00030882    0.00022312   -0.00000876
     atom    7 type  3   force =     0.00088512   -0.00001745   -0.00000465
     atom    8 type  3   force =    -0.00030787    0.00007269    0.00000127
     atom    9 type  3   force =    -0.00055940    0.00003452    0.00001260

     Total force =     0.047020     Total SCF correction =     0.001828

     Computing stress (Cartesian axis) and pressure

     negative rho (up, down):  5.094E-01 0.000E+00
          total   stress  (Ry/bohr**3)                   (kbar)     P=      -16.03
  -0.00011409   0.00000000   0.00000000          -16.78        0.00        0.00
   0.00000000  -0.00011409   0.00000000            0.00      -16.78        0.00
   0.00000000   0.00000000  -0.00009863            0.00        0.00      -14.51

     kinetic stress (kbar)  20767.93     -0.00      0.00
                               -0.00  20767.93     -0.00
                                0.00      0.00  20605.47

     local   stress (kbar)   2140.79      0.10      0.00
                                0.10   2140.92     -0.00
                                0.00     -0.00   4967.11

     nonloc. stress (kbar)   7117.95     -0.00      0.00
                               -0.00   7117.95      0.00
                                0.00      0.00   6897.34

     hartree stress (kbar)   9168.91     -0.06     -0.00
                               -0.06   9168.98      0.00
                               -0.00      0.00   8020.98

     exc-cor stress (kbar)  14151.62      0.00     -0.00
                                0.00  14151.62     -0.00
                               -0.00     -0.00  14150.09

     corecor stress (kbar) -21136.95     -0.00      0.00
                               -0.00 -21136.95      0.00
                                0.00      0.00 -21127.38

     ewald   stress (kbar) -32227.13     -0.01      0.00
                               -0.01 -32227.15      0.00
                                0.00      0.00 -33528.11

     hubbard stress (kbar)      0.00      0.00      0.00
                                0.00      0.00      0.00
                                0.00      0.00      0.00

     DFT-D   stress (kbar)      0.00      0.00      0.00
                                0.00      0.00      0.00
                                0.00      0.00      0.00

     XDM     stress (kbar)      0.00      0.00      0.00
                                0.00      0.00      0.00
                                0.00      0.00      0.00

     dft-nl  stress (kbar)      0.00      0.00      0.00
                                0.00      0.00      0.00
                                0.00      0.00      0.00

     TS-vdW  stress (kbar)      0.00      0.00      0.00
                                0.00      0.00      0.00
                                0.00      0.00      0.00

[...]

                                0.00      0.00      0.00

     Writing all to output data dir new_calculations/myprefix.save/

     General routines

     Parallel routines

     PAW routines

   This run was terminated on:  16:45:14  20May2023

   JOB DONE.