     Program PWSCF v.7.0 starts on 20May2023 at 11:48:50

     Reading input from espresso_17318.pwi
Warning: card &CELL ignored
Warning: card / ignored

     Current dimensions of program PWSCF are:
     Max number of different atomic species (ntypx) = 10
     Max number of k-points (npk) =  40000
     Max angular momentum in pseudopotentials (lmaxx) =  4
     file Mg.pbe-n-kjpaw_psl.0.3.0.UPF: wavefunction(s)  3S renormalized
     file O.pbe-n-kjpaw_psl.0.1.UPF: wavefunction(s)  2P renormalized

     gamma-point specific algorithms are used
     Message from routine setup:
     using ibrav=0 with symmetry is DISCOURAGED, use correct ibrav instead

     Subspace diagonalization in iterative solution of the eigenvalue problem:
     a serial algorithm will be used

     Using Slab Decomposition

     bravais-lattice index     =            0
     lattice parameter (alat)  =      11.5754  a.u.
     unit-cell volume          =    1096.7103 (a.u.)^3
     number of atoms/cell      =           14
     number of atomic types    =            3
     number of electrons       =       120.00
     number of Kohn-Sham states=           72
     kinetic-energy cutoff     =      30.0000  Ry
     charge density cutoff     =     240.0000  Ry
     scf convergence threshold =      1.0E-06
     mixing beta               =       0.7000
     number of iterations used =            8  plain     mixing
     Exchange-correlation= SLA  PW   PBX  PBC
                           (   1   4   3   4   0   0   0)

     celldm(1)=  11.575390  celldm(2)=   0.000000  celldm(3)=   0.000000
     celldm(4)=   0.000000  celldm(5)=   0.000000  celldm(6)=   0.000000

     crystal axes: (cart. coord. in units of alat)
               a(1) = (   1.000000   0.000000   0.000000 )
               a(2) = (   0.500000   0.866025   0.000000 )
               a(3) = (   0.500000   0.288675   0.816497 )

     reciprocal axes: (cart. coord. in units 2 pi/alat)
               b(1) = (  1.000000 -0.577350 -0.408248 )
               b(2) = (  0.000000  1.154701 -0.408248 )
               b(3) = (  0.000000  0.000000  1.224745 )

     PseudoPot. # 1 for Mg read from file:
     /home/pragov/projects/rrg-bengioy-ad/pragov/crystal_structure_design/SSSP/Mg.pbe-n-kjpaw_psl.0.3.0.UPF
     MD5 check sum: 24ecedc7f3e3cbe212e682f4413594e4
     Pseudo is Projector augmented-wave + core cor, Zval =  2.0
     Generated using "atomic" code by A. Dal Corso  v.5.0.99 svn rev. 10869
     Shape of augmentation charge: PSQ
     Using radial grid of 1129 points,  4 beta functions with:
                l(1) =   0
                l(2) =   0
                l(3) =   1
                l(4) =   1
     Q(r) pseudized with 0 coefficients

     PseudoPot. # 2 for Rh read from file:
     /home/pragov/projects/rrg-bengioy-ad/pragov/crystal_structure_design/SSSP/Rh_ONCV_PBE-1.0.oncvpsp.upf
     MD5 check sum: ba07c69523b14cacd10683cd4c4284c1
     Pseudo is Norm-conserving, Zval = 17.0
     Generated using ONCVPSP code by D. R. Hamann
     Using radial grid of 1442 points,  6 beta functions with:
                l(1) =   0
                l(2) =   0
                l(3) =   1
                l(4) =   1
                l(5) =   2
                l(6) =   2

     PseudoPot. # 3 for O  read from file:
     /home/pragov/projects/rrg-bengioy-ad/pragov/crystal_structure_design/SSSP/O.pbe-n-kjpaw_psl.0.1.UPF
     MD5 check sum: 0234752ac141de4415c5fc33072bef88
     Pseudo is Projector augmented-wave + core cor, Zval =  6.0
     Generated using "atomic" code by A. Dal Corso  v.5.0.99 svn rev. 10869
     Shape of augmentation charge: BESSEL
     Using radial grid of 1095 points,  4 beta functions with:
                l(1) =   0
                l(2) =   0
                l(3) =   1
                l(4) =   1
     Q(r) pseudized with 0 coefficients

     atomic species   valence    mass     pseudopotential
        Mg             2.00    24.30500     Mg( 1.00)
        Rh            17.00   102.90550     Rh( 1.00)
        O              6.00    15.99900     O ( 1.00)

     12 Sym. Ops., with inversion, found ( 6 have fractional translation)

                                    s                        frac. trans.

      isym =  1     identity

 cryst.   s( 1) = (     1          0          0      )
                  (     0          1          0      )
                  (     0          0          1      )

 cart.    s( 1) = (  1.0000000  0.0000000  0.0000000 )
                  (  0.0000000  1.0000000 -0.0000000 )
                  (  0.0000000  0.0000000  1.0000000 )

      isym =  2     180 deg rotation - cart. axis [1,0,0]

 cryst.   s( 2) = (     1          0          0      )    f =( -0.2500000 )
                  (     1         -1          0      )       ( -0.2500000 )
                  (     1          0         -1      )       ( -0.2500000 )

 cart.    s( 2) = (  1.0000000  0.0000000  0.0000000 )    f =( -0.5000000 )
                  (  0.0000000 -1.0000000  0.0000000 )       ( -0.2886751 )
                  (  0.0000000  0.0000000 -1.0000000 )       ( -0.2041241 )

      isym =  3     120 deg rotation - cryst. axis [0,0,1]

[...]

      isym =  6     180 deg rotation - cryst. axis [1,1,0]

[...]

      isym =  7     inversion

[...]

      isym =  8     inv. 180 deg rotation - cart. axis [1,0,0]

 cryst.   s( 8) = (    -1          0          0      )
                  (    -1          1          0      )
                  (    -1          0          1      )

 cart.    s( 8) = ( -1.0000000  0.0000000 -0.0000000 )
                  (  0.0000000  1.0000000 -0.0000000 )
                  (  0.0000000  0.0000000  1.0000000 )

      isym =  9     inv. 120 deg rotation - cryst. axis [0,0,1]

 cryst.   s( 9) = (     1         -1          0      )    f =( -0.2500000 )
                  (     1          0          0      )       ( -0.2500000 )
                  (     1          0         -1      )       ( -0.2500000 )

 cart.    s( 9) = (  0.5000000  0.8660254 -0.0000000 )    f =( -0.5000000 )
                  ( -0.8660254  0.5000000 -0.0000000 )       ( -0.2886751 )
                  (  0.0000000  0.0000000 -1.0000000 )       ( -0.2041241 )

[...]

 cryst.   s(10) = (     0          1          0      )    f =( -0.2500000 )
                  (    -1          1          0      )       ( -0.2500000 )
                  (     0          1         -1      )       ( -0.2500000 )

 cart.    s(10) = (  0.5000000 -0.8660254  0.0000000 )    f =( -0.5000000 )
                  (  0.8660254  0.5000000 -0.0000000 )       ( -0.2886751 )
                  (  0.0000000  0.0000000 -1.0000000 )       ( -0.2041241 )

[...]

 cryst.   s(11) = (     0          1          0      )
                  (     1          0          0      )
                  (     0          0          1      )

 cart.    s(11) = (  0.5000000  0.8660254 -0.0000000 )
                  (  0.8660254 -0.5000000  0.0000000 )
                  (  0.0000000  0.0000000  1.0000000 )

      isym = 12     inv. 180 deg rotation - cryst. axis [1,1,0]

 cryst.   s(12) = (     1         -1          0      )
                  (     0         -1          0      )
                  (     0         -1          1      )

 cart.    s(12) = (  0.5000000 -0.8660254  0.0000000 )
                  ( -0.8660254 -0.5000000  0.0000000 )
                  (  0.0000000  0.0000000  1.0000000 )

   Cartesian axes

     site n.     atom                  positions (alat units)
         1           Mg  tau(   1) = (   1.5000000   0.8660254   0.6123724  )
         2           Mg  tau(   2) = (   1.0000000   0.5773503   0.4082483  )
         3           Rh  tau(   3) = (   0.5000000   0.2886751   0.5103104  )
         4           Rh  tau(   4) = (   0.5000000   0.5773503   0.1020621  )
         5           Rh  tau(   5) = (   0.7500000   0.1443376   0.1020621  )
         6           Rh  tau(   6) = (   0.2500000   0.1443376   0.1020621  )
         7           O   tau(   7) = (   1.5000005   0.5539777   0.7226983  )
         8           O   tau(   8) = (   0.9999995   0.5773500   0.7392250  )
         9           O   tau(   9) = (   0.7297580   0.4213260   0.2979225  )
        10           O   tau(  10) = (   1.2702410   0.4213260   0.2979225  )
        11           O   tau(  11) = (   1.7702420   1.0220497   0.7226983  )
        12           O   tau(  12) = (   1.2297590   1.0220497   0.7226983  )
        13           O   tau(  13) = (   0.9999995   0.8893980   0.2979225  )
        14           O   tau(  14) = (   1.5000005   0.8660257   0.2813957  )

   Crystallographic axes

     site n.     atom                  positions (cryst. coord.)
         1           Mg  tau(   1) = (  0.7500000  0.7500000  0.7500000  )
         2           Mg  tau(   2) = (  0.5000000  0.5000000  0.5000000  )
         3           Rh  tau(   3) = (  0.1250000  0.1250000  0.6250000  )
         4           Rh  tau(   4) = (  0.1250000  0.6250000  0.1250000  )
         5           Rh  tau(   5) = (  0.6250000  0.1250000  0.1250000  )
         6           Rh  tau(   6) = (  0.1250000  0.1250000  0.1250000  )
         7           O   tau(   7) = (  0.8851210  0.3446380  0.8851210  )
         8           O   tau(   8) = (  0.3648790  0.3648790  0.9053620  )
         9           O   tau(   9) = (  0.3648790  0.3648790  0.3648790  )
        10           O   tau(  10) = (  0.9053620  0.3648790  0.3648790  )
        11           O   tau(  11) = (  0.8851210  0.8851210  0.8851210  )
        12           O   tau(  12) = (  0.3446380  0.8851210  0.8851210  )
        13           O   tau(  13) = (  0.3648790  0.9053620  0.3648790  )
        14           O   tau(  14) = (  0.8851210  0.8851210  0.3446380  )

     number of k points=     1  Methfessel-Paxton smearing, width (Ry)=  0.0010
                       cart. coord. in units 2pi/alat
        k(    1) = (   0.0000000   0.0000000   0.0000000), wk =   2.0000000

                       cryst. coord.
        k(    1) = (   0.0000000   0.0000000   0.0000000), wk =   2.0000000

     Check: negative core charge=   -0.000011

     Initial potential from superposition of free atoms

     starting charge     119.9964, renormalised to     120.0000
     Starting wfcs are   80 randomized atomic wfcs
     Checking if some PAW data can be deallocated...

     Self-consistent Calculation

     iteration #  1     ecut=    30.00 Ry     beta= 0.70
     Davidson diagonalization with overlap

     ethr =  1.00E-02,  avg # of iterations =  2.0

     total energy              =   -1267.39799400 Ry
     estimated scf accuracy    <       1.52078793 Ry

[...]

     total energy              =   -1267.93169468 Ry
     estimated scf accuracy    <       0.00000349 Ry

     iteration #  9     ecut=    30.00 Ry     beta= 0.70
     Davidson diagonalization with overlap

     ethr =  2.91E-09,  avg # of iterations =  2.0

     End of self-consistent calculation

          k = 0.0000 0.0000 0.0000 (  1536 PWs)   bands (ev):

   -67.1568 -67.1427 -67.1425 -67.1424 -35.2029 -35.0919 -35.0918 -35.0918
   -35.0390 -35.0390 -34.9889 -34.9888 -34.9888 -34.9824 -34.9824 -34.9823
    -8.5412  -7.7122  -7.7114  -7.7104  -7.4674  -7.3530  -7.3522  -7.3512
     3.4161   4.2771   4.2772   4.2773   5.2072   5.2072   5.3053   5.7595
     5.7598   5.7601   5.8634   5.8634   6.1241   6.1245   6.1250   7.2311
     7.2317   7.2323   7.7356   7.7360   7.7364   8.3906   8.3908   8.3910
     8.9909   8.9909  10.1540  10.1540  10.1541  10.1670  10.8853  10.8853
    10.8854  11.1606  11.1606  11.1607  13.4513  13.4516  13.4519  13.6584
    13.6584  13.7086  13.7783  13.7786  13.7788  17.6832  17.6833  17.6835

     occupation numbers
     1.0000   1.0000   1.0000   1.0000   1.0000   1.0000   1.0000   1.0000
     1.0000   1.0000   1.0000   1.0000   1.0000   1.0000   1.0000   1.0000
     1.0000   1.0000   1.0000   1.0000   1.0000   1.0000   1.0000   1.0000
     1.0000   1.0000   1.0000   1.0000   1.0000   1.0000   1.0000   1.0000
     1.0000   1.0000   1.0000   1.0000   1.0000   1.0000   1.0000   1.0000
     1.0000   1.0000   1.0000   1.0000   1.0000   1.0000   1.0000   1.0000
     1.0000   1.0000   1.0000   1.0000   1.0000   1.0000   1.0000   1.0000
     1.0000   1.0000   1.0000   1.0000  -0.0000  -0.0000  -0.0000  -0.0000
    -0.0000  -0.0000  -0.0000  -0.0000  -0.0000  -0.0000  -0.0000  -0.0000

     the Fermi energy is    12.5000 ev

!    total energy              =   -1267.93169477 Ry
     estimated scf accuracy    <       0.00000063 Ry
     smearing contrib. (-TS)   =       0.00000000 Ry
     internal energy E=F+TS    =   -1267.93169477 Ry

     The total energy is F=E-TS. E is the sum of the following terms:
     one-electron contribution =    -649.27068440 Ry
     hartree contribution      =     385.95433673 Ry
     xc contribution           =    -150.55639097 Ry
     ewald contribution        =    -715.33561624 Ry
     one-center paw contrib.   =    -138.72333989 Ry
      -> PAW hartree energy AE =     232.84675633 Ry
      -> PAW hartree energy PS =    -232.00661359 Ry
      -> PAW xc energy AE      =    -201.66525582 Ry
      -> PAW xc energy PS      =      62.10177320 Ry
      -> total E_H with PAW    =     386.79447946 Ry
      -> total E_XC with PAW   =    -290.11987359 Ry

     convergence has been achieved in   9 iterations

     Forces acting on atoms (cartesian axes, Ry/au):

     atom    1 type  1   force =     0.00000000    0.00000000    0.00001836
     atom    2 type  1   force =     0.00000000   -0.00000000   -0.00001836
     atom    3 type  2   force =     0.00000000    0.00000000    0.00000000
     atom    4 type  2   force =     0.00000000   -0.00000000   -0.00000000
     atom    5 type  2   force =     0.00000000    0.00000000    0.00000000
     atom    6 type  2   force =     0.00000000    0.00000000   -0.00000000
     atom    7 type  3   force =     0.00000000   -0.03876611    0.01369701
     atom    8 type  3   force =     0.00000000    0.00000000    0.04115042
     atom    9 type  3   force =    -0.03357243   -0.01938305   -0.01369701
     atom   10 type  3   force =     0.03357243   -0.01938305   -0.01369701
     atom   11 type  3   force =     0.03357243    0.01938305    0.01369701
     atom   12 type  3   force =    -0.03357243    0.01938305    0.01369701
     atom   13 type  3   force =     0.00000000    0.03876611   -0.01369701
     atom   14 type  3   force =     0.00000000    0.00000000   -0.04115042
     The non-local contrib.  to forces
     atom    1 type  1   force =     0.00000000    0.00000000    0.00002359
     atom    2 type  1   force =    -0.00000000   -0.00000000   -0.00002359
     atom    3 type  2   force =     0.00000000    0.00000000   -0.00000000
     atom    4 type  2   force =    -0.00000000    0.00000000    0.00000000
     atom    5 type  2   force =     0.00000000    0.00000000    0.00000000
     atom    6 type  2   force =    -0.00000000    0.00000000    0.00000000
     atom    7 type  3   force =     0.00000000   -0.49712847    0.17575395
     atom    8 type  3   force =     0.00000000    0.00000000    0.52737923
     atom    9 type  3   force =    -0.43052588   -0.24856423   -0.17575395
     atom   10 type  3   force =     0.43052588   -0.24856423   -0.17575395
     atom   11 type  3   force =     0.43052588    0.24856423    0.17575395
     atom   12 type  3   force =    -0.43052588    0.24856423    0.17575395
     atom   13 type  3   force =     0.00000000    0.49712847   -0.17575395
     atom   14 type  3   force =     0.00000000    0.00000000   -0.52737923
     The ionic contribution  to forces
     atom    1 type  1   force =    -0.00000000   -0.00000000   -0.00000000
     atom    2 type  1   force =     0.00000000    0.00000000   -0.00000000
     atom    3 type  2   force =     0.00000000   -0.00000000   -0.00000000
     atom    4 type  2   force =    -0.00000000    0.00000000    0.00000000
     atom    5 type  2   force =    -0.00000000   -0.00000000    0.00000000
     atom    6 type  2   force =     0.00000000   -0.00000000    0.00000000
     atom    7 type  3   force =    -0.00004484   16.38869468   -5.79430603
     atom    8 type  3   force =     0.00004484    0.00002589  -17.38284487
     atom    9 type  3   force =    14.19304114    8.19435613    5.79428478
     atom   10 type  3   force =   -14.19300350    8.19438617    5.79430603
     atom   11 type  3   force =   -14.19304114   -8.19435613   -5.79428478
     atom   12 type  3   force =    14.19300350   -8.19438617   -5.79430603
     atom   13 type  3   force =     0.00004484  -16.38869468    5.79430603
     atom   14 type  3   force =    -0.00004484   -0.00002589   17.38284486
     The local contribution  to forces
     atom    1 type  1   force =    -0.00002217    0.00002174    0.00004944
     atom    2 type  1   force =     0.00002406   -0.00001443   -0.00004634
     atom    3 type  2   force =     0.00000612   -0.00002463    0.00012990
     atom    4 type  2   force =     0.00002561    0.00006593   -0.00000752
     atom    5 type  2   force =    -0.00000517   -0.00008465   -0.00003942
     atom    6 type  2   force =    -0.00001101   -0.00002494   -0.00002030
     atom    7 type  3   force =     0.00006998  -15.93626543    5.63441024
     atom    8 type  3   force =    -0.00007248   -0.00008498   16.90298934
     atom    9 type  3   force =   -13.80115620   -7.96814136   -5.63434233
     atom   10 type  3   force =    13.80108975   -7.96818657   -5.63437463
     atom   11 type  3   force =    13.80117200    7.96813853    5.63433899
     atom   12 type  3   force =   -13.80112673    7.96819397    5.63437403
     atom   13 type  3   force =    -0.00007345   15.93621914   -5.63440978
     atom   14 type  3   force =     0.00007221    0.00008241  -16.90299529
     The core correction contribution to forces
     atom    1 type  1   force =     0.00000104   -0.00000055   -0.00000224
     atom    2 type  1   force =    -0.00000085    0.00000055    0.00000220
     atom    3 type  2   force =     0.00000000    0.00000000    0.00000000
     atom    4 type  2   force =     0.00000000    0.00000000    0.00000000
     atom    5 type  2   force =     0.00000000    0.00000000    0.00000000
     atom    6 type  2   force =     0.00000000    0.00000000    0.00000000
     atom    7 type  3   force =    -0.00000023    0.00591310   -0.00209054
     atom    8 type  3   force =     0.00000033    0.00000025   -0.00627254
     atom    9 type  3   force =     0.00512101    0.00295650    0.00209050
     atom   10 type  3   force =    -0.00512010    0.00295631    0.00209028
     atom   11 type  3   force =    -0.00512076   -0.00295660   -0.00209046
     atom   12 type  3   force =     0.00511981   -0.00295631   -0.00209024
     atom   13 type  3   force =     0.00000019   -0.00591307    0.00209051
     atom   14 type  3   force =    -0.00000024   -0.00000007    0.00627277
     The Hubbard contrib.    to forces
     atom    1 type  1   force =     0.00000000    0.00000000    0.00000000
     atom    2 type  1   force =     0.00000000    0.00000000    0.00000000
     atom    3 type  2   force =     0.00000000    0.00000000    0.00000000
     atom    4 type  2   force =     0.00000000    0.00000000    0.00000000
     atom    5 type  2   force =     0.00000000    0.00000000    0.00000000
     atom    6 type  2   force =     0.00000000    0.00000000    0.00000000
     atom    7 type  3   force =     0.00000000    0.00000000    0.00000000
     atom    8 type  3   force =     0.00000000    0.00000000    0.00000000
     atom    9 type  3   force =     0.00000000    0.00000000    0.00000000
     atom   10 type  3   force =     0.00000000    0.00000000    0.00000000
     atom   11 type  3   force =     0.00000000    0.00000000    0.00000000
     atom   12 type  3   force =     0.00000000    0.00000000    0.00000000
     atom   13 type  3   force =     0.00000000    0.00000000    0.00000000
     atom   14 type  3   force =     0.00000000    0.00000000    0.00000000
     The SCF correction term to forces
     atom    1 type  1   force =     0.00002434   -0.00002081   -0.00005236
     atom    2 type  1   force =    -0.00002499    0.00001478    0.00004946
     atom    3 type  2   force =    -0.00000443    0.00003465   -0.00012368
     atom    4 type  2   force =    -0.00001855   -0.00006638    0.00001233
     atom    5 type  2   force =     0.00001554    0.00008819    0.00003779
     atom    6 type  2   force =    -0.00000689    0.00002583    0.00001205
     atom    7 type  3   force =    -0.00004711    0.00003064   -0.00007896
     atom    8 type  3   force =     0.00004742    0.00007464   -0.00009779
     atom    9 type  3   force =    -0.00004041    0.00001171    0.00001661
     atom   10 type  3   force =     0.00010525    0.00002846    0.00003166
     atom   11 type  3   force =     0.00003263   -0.00001607   -0.00001812
     atom   12 type  3   force =    -0.00007366   -0.00004365   -0.00002999
     atom   13 type  3   force =     0.00004729    0.00001524    0.00008007
     atom   14 type  3   force =    -0.00004377   -0.00006055    0.00010944

     Total force =     0.116315     Total SCF correction =     0.000342

     Computing stress (Cartesian axis) and pressure

          total   stress  (Ry/bohr**3)                   (kbar)     P=     -381.50
  -0.00259354   0.00000000   0.00000000         -381.52        0.00        0.00
   0.00000000  -0.00259354   0.00000000            0.00     -381.52        0.00
   0.00000000   0.00000000  -0.00259309            0.00        0.00     -381.46

     kinetic stress (kbar)  37311.92      0.00      0.00
                                0.00  37311.92     -0.00
                                0.00     -0.00  37311.91

     local   stress (kbar) -22504.32     -0.11     -0.08
                               -0.11 -22504.08     -0.08
                               -0.08     -0.08 -22503.96

     nonloc. stress (kbar)   5829.08      0.00      0.00
                                0.00   5829.08     -0.00
                                0.00     -0.00   5829.09

     hartree stress (kbar)  17256.53      0.08      0.06
                                0.08  17256.37      0.06
                                0.06      0.06  17256.33

     exc-cor stress (kbar)  -5643.45     -0.00     -0.00
                               -0.00  -5643.45      0.00
                               -0.00      0.00  -5643.45

     corecor stress (kbar)   -647.96     -0.00     -0.00
                               -0.00   -647.96      0.00
                               -0.00      0.00   -647.96

     ewald   stress (kbar) -31983.34      0.04      0.03
                                0.04 -31983.39      0.02
                                0.03      0.02 -31983.40

     hubbard stress (kbar)      0.00      0.00      0.00
                                0.00      0.00      0.00
                                0.00      0.00      0.00

     DFT-D   stress (kbar)      0.00      0.00      0.00
                                0.00      0.00      0.00
                                0.00      0.00      0.00

     XDM     stress (kbar)      0.00      0.00      0.00
                                0.00      0.00      0.00
                                0.00      0.00      0.00

     dft-nl  stress (kbar)      0.00      0.00      0.00
                                0.00      0.00      0.00
                                0.00      0.00      0.00

     TS-vdW  stress (kbar)      0.00      0.00      0.00
                                0.00      0.00      0.00
                                0.00      0.00      0.00

[...]

                                0.00      0.00      0.00

     Writing all to output data dir new_calculations/myprefix.save/

     General routines

     Parallel routines

     PAW routines

   This run was terminated on:  11:49: 2  20May2023

   JOB DONE.