     Program PWSCF v.7.0 starts on 20May2023 at 11:42:33

     Reading input from espresso_16302.pwi
Warning: card &CELL ignored
Warning: card / ignored

     Current dimensions of program PWSCF are:
     Max number of different atomic species (ntypx) = 10
     Max number of k-points (npk) =  40000
     Max angular momentum in pseudopotentials (lmaxx) =  4
     file Pb.pbe-dn-kjpaw_psl.0.2.2.UPF: wavefunction(s)  6S renormalized

     gamma-point specific algorithms are used
     Message from routine setup:
     using ibrav=0 with symmetry is DISCOURAGED, use correct ibrav instead

     Subspace diagonalization in iterative solution of the eigenvalue problem:
     a serial algorithm will be used

     Using Slab Decomposition

     bravais-lattice index     =            0
     lattice parameter (alat)  =      14.7473  a.u.
     unit-cell volume          =    1430.9748 (a.u.)^3
     number of atoms/cell      =            9
     number of atomic types    =            3
     number of electrons       =       168.00
     number of Kohn-Sham states=          101
     kinetic-energy cutoff     =      30.0000  Ry
     charge density cutoff     =     240.0000  Ry
     scf convergence threshold =      1.0E-06
     mixing beta               =       0.7000
     number of iterations used =            8  plain     mixing
     Exchange-correlation= SLA  PW   PBX  PBC
                           (   1   4   3   4   0   0   0)

     celldm(1)=  14.747280  celldm(2)=   0.000000  celldm(3)=   0.000000
     celldm(4)=   0.000000  celldm(5)=   0.000000  celldm(6)=   0.000000

     crystal axes: (cart. coord. in units of alat)
               a(1) = (   1.000000   0.000000   0.000000 )
               a(2) = (  -0.500000   0.866025   0.000000 )
               a(3) = (   0.000000   0.000000   0.515188 )

     reciprocal axes: (cart. coord. in units 2 pi/alat)
               b(1) = (  1.000000  0.577350  0.000000 )
               b(2) = (  0.000000  1.154701  0.000000 )
               b(3) = (  0.000000  0.000000  1.941040 )

     PseudoPot. # 1 for Yb read from file:
     /home/pragov/projects/rrg-bengioy-ad/pragov/crystal_structure_design/SSSP/Yb.GGA-PBE-paw-v1.0.UPF
     MD5 check sum: 43b6465ad8021f06e3edb42ae292e187
     Pseudo is Projector augmented-wave + core cor, Zval = 24.0
     Generated using ATOMPAW code
     Shape of augmentation charge: BESSEL
     Using radial grid of 1117 points,  8 beta functions with:
                l(1) =   0
                l(2) =   0
                l(3) =   1
                l(4) =   1
                l(5) =   2
                l(6) =   2
                l(7) =   3
                l(8) =   3
     Q(r) pseudized with 0 coefficients

     PseudoPot. # 2 for Pd read from file:
     /home/pragov/projects/rrg-bengioy-ad/pragov/crystal_structure_design/SSSP/Pd_ONCV_PBE-1.0.oncvpsp.upf
     MD5 check sum: eb77f42b51d86fb18e25f68156a31cf1
     Pseudo is Norm-conserving, Zval = 18.0
     Generated using ONCVPSP code by D. R. Hamann
     Using radial grid of 1410 points,  6 beta functions with:
                l(1) =   0
                l(2) =   0
                l(3) =   1
                l(4) =   1
                l(5) =   2
                l(6) =   2

     PseudoPot. # 3 for Pb read from file:
     /home/pragov/projects/rrg-bengioy-ad/pragov/crystal_structure_design/SSSP/Pb.pbe-dn-kjpaw_psl.0.2.2.UPF
     MD5 check sum: 9d431e6316058b74ade52399a6cf67da
     Pseudo is Projector augmented-wave + core cor, Zval = 14.0
     Generated using "atomic" code by A. Dal Corso  v.5.0.99 svn rev. 10869
     Shape of augmentation charge: PSQ
     Using radial grid of 1281 points,  6 beta functions with:
                l(1) =   0
                l(2) =   0
                l(3) =   1
                l(4) =   1
                l(5) =   2
                l(6) =   2
     Q(r) pseudized with 0 coefficients

     atomic species   valence    mass     pseudopotential
        Yb            24.00   173.05400     Yb( 1.00)
        Pd            18.00   106.42000     Pd( 1.00)
        Pb            14.00   207.20000     Pb( 1.00)

     12 Sym. Ops. (no inversion) found

                                    s                        frac. trans.

      isym =  1     identity

 cryst.   s( 1) = (     1          0          0      )
                  (     0          1          0      )
                  (     0          0          1      )

 cart.    s( 1) = (  1.0000000 -0.0000000  0.0000000 )
                  (  0.0000000  1.0000000  0.0000000 )
                  (  0.0000000  0.0000000  1.0000000 )

      isym =  2     180 deg rotation - cart. axis [1,0,0]

[...]

      isym =  3     120 deg rotation - cryst. axis [0,0,1]

[...]

      isym =  6     180 deg rotation - cryst. axis [1,1,0]

[...]

      isym =  7     inv. 180 deg rotation - cart. axis [0,0,1]

[...]

      isym =  8     inv. 180 deg rotation - cart. axis [0,1,0]

[...]

      isym =  9     inv.  60 deg rotation - cryst. axis [0,0,1]

 cryst.   s( 9) = (    -1         -1          0      )
                  (     1          0          0      )
                  (     0          0         -1      )

 cart.    s( 9) = ( -0.4999999  0.8660254  0.0000000 )
                  ( -0.8660254 -0.5000001  0.0000000 )
                  (  0.0000000  0.0000000 -1.0000000 )

[...]

 cryst.   s(10) = (     0          1          0      )
                  (    -1         -1          0      )
                  (     0          0         -1      )

 cart.    s(10) = ( -0.5000001 -0.8660254  0.0000000 )
                  (  0.8660254 -0.4999999  0.0000000 )
                  (  0.0000000  0.0000000 -1.0000000 )

[...]

      isym = 12     inv. 180 deg rotation - cryst. axis [2,1,0]

 cryst.   s(12) = (    -1         -1          0      )
                  (     0          1          0      )
                  (     0          0          1      )

 cart.    s(12) = ( -0.4999999 -0.8660255  0.0000000 )
                  ( -0.8660254  0.4999999  0.0000000 )
                  (  0.0000000  0.0000000  1.0000000 )

   Cartesian axes

     site n.     atom                  positions (alat units)
         1           Yb  tau(   1) = (   0.2029160   0.3514608   0.2575939  )
         2           Yb  tau(   2) = (   0.5941680   0.0000000   0.2575939  )
         3           Yb  tau(   3) = (  -0.2970840   0.5145646   0.2575939  )
         4           Pd  tau(   4) = (   0.5000005   0.2886748   0.0000000  )
         5           Pd  tau(   5) = (  -0.0000005   0.5773505   0.0000000  )
         6           Pd  tau(   6) = (   0.0000000   0.0000000   0.2575939  )
         7           Pb  tau(   7) = (   0.3684330   0.6381446   0.0000000  )
         8           Pb  tau(   8) = (   0.2631340   0.0000000   0.0000000  )
         9           Pb  tau(   9) = (   0.8684330   0.2278807   0.0000000  )

   Crystallographic axes

     site n.     atom                  positions (cryst. coord.)
         1           Yb  tau(   1) = (  0.4058320  0.4058320  0.5000000  )
         2           Yb  tau(   2) = (  0.5941680  0.0000000  0.5000000  )
         3           Yb  tau(   3) = (  0.0000000  0.5941680  0.5000000  )
         4           Pd  tau(   4) = (  0.6666670  0.3333330  0.0000000  )
         5           Pd  tau(   5) = (  0.3333330  0.6666670  0.0000000  )
         6           Pd  tau(   6) = (  0.0000000  0.0000000  0.5000000  )
         7           Pb  tau(   7) = (  0.7368660  0.7368660  0.0000000  )
         8           Pb  tau(   8) = (  0.2631340  0.0000000  0.0000000  )
         9           Pb  tau(   9) = (  1.0000000  0.2631340  0.0000000  )

     number of k points=     1  Methfessel-Paxton smearing, width (Ry)=  0.0010
                       cart. coord. in units 2pi/alat
        k(    1) = (   0.0000000   0.0000000   0.0000000), wk =   2.0000000

                       cryst. coord.
        k(    1) = (   0.0000000   0.0000000   0.0000000), wk =   2.0000000

     Initial potential from superposition of free atoms

     starting charge     167.9799, renormalised to     168.0000
     Starting wfcs are  153 randomized atomic wfcs
     Checking if some PAW data can be deallocated...

     Self-consistent Calculation

     iteration #  1     ecut=    30.00 Ry     beta= 0.70
     Davidson diagonalization with overlap

     ethr =  1.00E-02,  avg # of iterations =  2.0

     total energy              =   -6402.16973190 Ry
     estimated scf accuracy    <       2.42100089 Ry

[...]

     total energy              =   -6404.32490486 Ry
     estimated scf accuracy    <       0.00000183 Ry

     iteration # 48     ecut=    30.00 Ry     beta= 0.70
     Davidson diagonalization with overlap

     ethr =  8.15E-10,  avg # of iterations =  1.0

     End of self-consistent calculation

          k = 0.0000 0.0000 0.0000 (  2008 PWs)   bands (ev):

   -70.6256 -70.3517 -70.3516 -36.2808 -36.2807 -36.2800 -36.1818 -35.9737
   -35.9737 -35.8243 -35.8236 -35.7227 -35.7227 -35.7201 -35.7201  -8.7348
    -8.7347  -8.7074  -8.6427  -8.5680  -8.5679  -8.5402  -8.5356  -8.5355
    -2.0188  -1.9778  -1.9777  -1.9274  -1.9132  -1.9132  -1.8903  -1.8860
    -1.8857  -1.8857  -1.8667  -1.8666  -1.8059  -1.8057  -1.7641   4.5075
     6.2108   6.2109  10.1105  11.1252  11.1252  11.5447  11.6314  11.6314
    11.8205  11.8205  11.9359  12.0043  12.2339  12.2339  12.2349  12.4082
    12.4082  12.4689  12.4689  12.5755  12.5755  15.1505  15.2249  15.3137
    15.3138  15.3313  15.3487  15.3487  15.3929  15.3929  15.4167  15.4167
    15.4342  15.4343  15.4467  15.4598  15.4598  15.5052  15.5053  15.5240
    15.5575  15.5577  16.0803  16.0896  16.0896  16.2112  17.0470  17.3100
    17.3101  17.6390  17.6390  17.6428  18.1699  18.8659  19.0191  19.4789
    19.4789  19.8846  19.8847  20.2150  20.2150

     occupation numbers
     1.0000   1.0000   1.0000   1.0000   1.0000   1.0000   1.0000   1.0000
     1.0000   1.0000   1.0000   1.0000   1.0000   1.0000   1.0000   1.0000
     1.0000   1.0000   1.0000   1.0000   1.0000   1.0000   1.0000   1.0000
     1.0000   1.0000   1.0000   1.0000   1.0000   1.0000   1.0000   1.0000
     1.0000   1.0000   1.0000   1.0000   1.0000   1.0000   1.0000   1.0000
     1.0000   1.0000   1.0000   1.0000   1.0000   1.0000   1.0000   1.0000
     1.0000   1.0000   1.0000   1.0000   1.0000   1.0000   1.0000   1.0000
     1.0000   1.0000   1.0000   1.0000   1.0000   1.0000   1.0000   1.0000
     1.0000   1.0000   1.0000   1.0000   1.0000   1.0000   1.0000   1.0000
     1.0000   1.0000   1.0000   1.0000   1.0000   1.0000   1.0000   1.0000
     1.0000   1.0000   0.9608   0.5205   0.5187  -0.0000  -0.0000  -0.0000
    -0.0000  -0.0000  -0.0000  -0.0000  -0.0000  -0.0000  -0.0000  -0.0000
    -0.0000  -0.0000  -0.0000  -0.0000  -0.0000

     the Fermi energy is    16.0899 ev

!    total energy              =   -6404.32490484 Ry
     estimated scf accuracy    <       0.00000018 Ry
     smearing contrib. (-TS)   =      -0.00056541 Ry
     internal energy E=F+TS    =   -6404.32433943 Ry

     The total energy is F=E-TS. E is the sum of the following terms:
     one-electron contribution =   -1485.03778093 Ry
     hartree contribution      =     747.57599556 Ry
     xc contribution           =    -322.46018167 Ry
     ewald contribution        =   -1706.22382453 Ry
     one-center paw contrib.   =   -3638.17854787 Ry
      -> PAW hartree energy AE =    1658.58812174 Ry
      -> PAW hartree energy PS =   -1467.76038487 Ry
      -> PAW xc energy AE      =   -4072.66002543 Ry
      -> PAW xc energy PS      =     243.65374068 Ry
      -> total E_H with PAW    =     938.40373243 Ry
      -> total E_XC with PAW   =   -4151.46646642 Ry

     convergence has been achieved in  48 iterations

     Forces acting on atoms (cartesian axes, Ry/au):

     atom    1 type  1   force =    -0.01459132   -0.02527291   -0.00000000
     atom    2 type  1   force =     0.02918264    0.00000000    0.00000000
     atom    3 type  1   force =    -0.01459132    0.02527291    0.00000000
     atom    4 type  2   force =     0.00000000    0.00000000    0.00000000
     atom    5 type  2   force =    -0.00000000   -0.00000000    0.00000000
     atom    6 type  2   force =    -0.00000000    0.00000000    0.00000000
     atom    7 type  3   force =    -0.00385462   -0.00667639   -0.00000000
     atom    8 type  3   force =     0.00770923    0.00000000    0.00000000
     atom    9 type  3   force =    -0.00385462    0.00667639    0.00000000
     The non-local contrib.  to forces
     atom    1 type  1   force =     0.01438773    0.02492029    0.00000000
     atom    2 type  1   force =    -0.02877547   -0.00000000    0.00000000
     atom    3 type  1   force =     0.01438773   -0.02492029   -0.00000000
     atom    4 type  2   force =     0.00000000    0.00000000   -0.00000000
     atom    5 type  2   force =     0.00000000   -0.00000000   -0.00000000
     atom    6 type  2   force =     0.00000000    0.00000000    0.00000000
     atom    7 type  3   force =    -0.03808176   -0.06595956    0.00000000
     atom    8 type  3   force =     0.07616353    0.00000001    0.00000000
     atom    9 type  3   force =    -0.03808176    0.06595955   -0.00000000
     The ionic contribution  to forces
     atom    1 type  1   force =    -1.31278142   -2.27380431   -0.00000000
     atom    2 type  1   force =     2.62568682   -0.00006911   -0.00000000
     atom    3 type  1   force =    -1.31290343    2.27387684   -0.00000000
     atom    4 type  2   force =    -0.00016061    0.00009222   -0.00000000
     atom    5 type  2   force =     0.00016017   -0.00009298   -0.00000000
     atom    6 type  2   force =    -0.00000053   -0.00000092   -0.00000000
     atom    7 type  3   force =     1.52619607    2.64344935   -0.00000000
     atom    8 type  3   force =    -3.05252715    0.00007657   -0.00000000
     atom    9 type  3   force =     1.52633008   -2.64352766    0.00000000
     The local contribution  to forces
     atom    1 type  1   force =     1.28349662    2.22370016    0.00002476
     atom    2 type  1   force =    -2.56816189    0.00060848   -0.00000776
     atom    3 type  1   force =     1.28500975   -2.22414503   -0.00001972
     atom    4 type  2   force =     0.00126995    0.00008483   -0.00000443
     atom    5 type  2   force =    -0.00066087    0.00092278   -0.00000117
     atom    6 type  2   force =    -0.00013510    0.00037526    0.00000088
     atom    7 type  3   force =    -1.49177667   -2.58374593   -0.00001893
     atom    8 type  3   force =     2.98369465   -0.00056304   -0.00000352
     atom    9 type  3   force =    -1.49231575    2.58369131    0.00000742
     The core correction contribution to forces
     atom    1 type  1   force =     0.00000002    0.00000004    0.00000000
     atom    2 type  1   force =    -0.00000005    0.00000000   -0.00000000
     atom    3 type  1   force =     0.00000003   -0.00000004   -0.00000000
     atom    4 type  2   force =     0.00000000    0.00000000    0.00000000
     atom    5 type  2   force =     0.00000000    0.00000000    0.00000000
     atom    6 type  2   force =     0.00000000    0.00000000    0.00000000
     atom    7 type  3   force =    -0.00037992   -0.00065661   -0.00000074
     atom    8 type  3   force =     0.00074466   -0.00000352   -0.00000035
     atom    9 type  3   force =    -0.00037574    0.00064190    0.00000017
     The Hubbard contrib.    to forces
     atom    1 type  1   force =     0.00000000    0.00000000    0.00000000
     atom    2 type  1   force =     0.00000000    0.00000000    0.00000000
     atom    3 type  1   force =     0.00000000    0.00000000    0.00000000
     atom    4 type  2   force =     0.00000000    0.00000000    0.00000000
     atom    5 type  2   force =     0.00000000    0.00000000    0.00000000
     atom    6 type  2   force =     0.00000000    0.00000000    0.00000000
     atom    7 type  3   force =     0.00000000    0.00000000    0.00000000
     atom    8 type  3   force =     0.00000000    0.00000000    0.00000000
     atom    9 type  3   force =     0.00000000    0.00000000    0.00000000
     The SCF correction term to forces
     atom    1 type  1   force =     0.00028868   -0.00012818   -0.00002548
     atom    2 type  1   force =     0.00043610   -0.00048320    0.00000683
     atom    3 type  1   force =    -0.00104945    0.00042992    0.00001578
     atom    4 type  2   force =    -0.00085721    0.00008556    0.00000317
     atom    5 type  2   force =     0.00051233   -0.00050809   -0.00000059
     atom    6 type  2   force =     0.00013122   -0.00026836   -0.00000251
     atom    7 type  3   force =     0.00016560    0.00017171    0.00001172
     atom    8 type  3   force =    -0.00040505    0.00045915    0.00000297
     atom    9 type  3   force =     0.00057276   -0.00013065   -0.00000553

     Total force =     0.052280     Total SCF correction =     0.001985

     Computing stress (Cartesian axis) and pressure

          total   stress  (Ry/bohr**3)                   (kbar)     P=     -371.18
  -0.00244686  -0.00000000   0.00000000         -359.95       -0.00        0.00
  -0.00000000  -0.00244686  -0.00000000           -0.00     -359.95       -0.00
   0.00000000   0.00000000  -0.00267596            0.00        0.00     -393.65

     kinetic stress (kbar)  28181.74      0.00      0.00
                                0.00  28181.74      0.00
                                0.00      0.00  27933.77

     local   stress (kbar)   2587.11      0.12      0.00
                                0.12   2587.21      0.02
                                0.00      0.02   3106.48

     nonloc. stress (kbar)  10259.40      0.00      0.00
                                0.00  10259.40      0.00
                                0.00      0.00  10262.36

     hartree stress (kbar)  25540.11     -0.01     -0.00
                               -0.01  25540.10     -0.01
                               -0.00     -0.01  25771.06

     exc-cor stress (kbar)    191.90     -0.00     -0.00
                               -0.00    191.90     -0.00
                               -0.00     -0.00    188.44

     corecor stress (kbar)  -8832.87      0.00      0.00
                                0.00  -8832.87      0.00
                                0.00      0.00  -8829.68

     ewald   stress (kbar) -58287.39      0.02     -0.00
                                0.02 -58287.37      0.00
                               -0.00      0.00 -58826.08

     hubbard stress (kbar)      0.00      0.00      0.00
                                0.00      0.00      0.00
                                0.00      0.00      0.00

     DFT-D   stress (kbar)      0.00      0.00      0.00
                                0.00      0.00      0.00
                                0.00      0.00      0.00

     XDM     stress (kbar)      0.00      0.00      0.00
                                0.00      0.00      0.00
                                0.00      0.00      0.00

     dft-nl  stress (kbar)      0.00      0.00      0.00
                                0.00      0.00      0.00
                                0.00      0.00      0.00

     TS-vdW  stress (kbar)      0.00      0.00      0.00
                                0.00      0.00      0.00
                                0.00      0.00      0.00

[...]

                                0.00      0.00      0.00

     Writing all to output data dir new_calculations/myprefix.save/

     General routines

     Parallel routines

     PAW routines

   This run was terminated on:  11:45: 7  20May2023

   JOB DONE.