     Program PWSCF v.7.0 starts on 20May2023 at 23:32:18

     Reading input from espresso_24206.pwi
Warning: card &CELL ignored
Warning: card / ignored

     Current dimensions of program PWSCF are:
     Max number of different atomic species (ntypx) = 10
     Max number of k-points (npk) =  40000
     Max angular momentum in pseudopotentials (lmaxx) =  4

     gamma-point specific algorithms are used
     Message from routine setup:
     using ibrav=0 with symmetry is DISCOURAGED, use correct ibrav instead

     Subspace diagonalization in iterative solution of the eigenvalue problem:
     a serial algorithm will be used

     Using Slab Decomposition

     bravais-lattice index     =            0
     lattice parameter (alat)  =      16.2197  a.u.
     unit-cell volume          =    3017.2469 (a.u.)^3
     number of atoms/cell      =           10
     number of atomic types    =            4
     number of electrons       =        94.00
     number of Kohn-Sham states=           56
     kinetic-energy cutoff     =      30.0000  Ry
     charge density cutoff     =     240.0000  Ry
     scf convergence threshold =      1.0E-06
     mixing beta               =       0.7000
     number of iterations used =            8  plain     mixing
     Exchange-correlation= SLA  PW   PBX  PBC
                           (   1   4   3   4   0   0   0)

     celldm(1)=  16.219668  celldm(2)=   0.000000  celldm(3)=   0.000000
     celldm(4)=   0.000000  celldm(5)=   0.000000  celldm(6)=   0.000000

     crystal axes: (cart. coord. in units of alat)
               a(1) = (   1.000000   0.000000   0.000000 )
               a(2) = (   0.500000   0.866025   0.000000 )
               a(3) = (   0.500000   0.288675   0.816497 )

     reciprocal axes: (cart. coord. in units 2 pi/alat)
               b(1) = (  1.000000 -0.577350 -0.408248 )
               b(2) = (  0.000000  1.154701 -0.408248 )
               b(3) = (  0.000000  0.000000  1.224745 )

     PseudoPot. # 1 for Cs read from file:
     /home/pragov/projects/rrg-bengioy-ad/pragov/crystal_structure_design/SSSP/Cs_pbe_v1.uspp.F.UPF
     MD5 check sum: 3476d69cb178dfad3ffaa59df4e07ca4
     Pseudo is Ultrasoft + core correction, Zval =  9.0
     Generated by new atomic code, or converted to UPF format
     Using radial grid of  905 points,  6 beta functions with:
                l(1) =   0
                l(2) =   0
                l(3) =   1
                l(4) =   1
                l(5) =   2
                l(6) =   2
     Q(r) pseudized with  6 coefficients,  rinner =    1.500   1.500   1.500
                                                       1.500   1.500

     PseudoPot. # 2 for Ag read from file:
     /home/pragov/projects/rrg-bengioy-ad/pragov/crystal_structure_design/SSSP/Ag_ONCV_PBE-1.0.oncvpsp.upf
     MD5 check sum: 94f47bd0669c641108e45594df92fabc
     Pseudo is Norm-conserving, Zval = 19.0
     Generated using ONCVPSP code by D. R. Hamann
     Using radial grid of 1398 points,  6 beta functions with:
                l(1) =   0
                l(2) =   0
                l(3) =   1
                l(4) =   1
                l(5) =   2
                l(6) =   2

     PseudoPot. # 3 for Sb read from file:
     /home/pragov/projects/rrg-bengioy-ad/pragov/crystal_structure_design/SSSP/sb_pbe_v1.4.uspp.F.UPF
     MD5 check sum: 9bc50dfb53373b713f5709b9110fe27f
     Pseudo is Ultrasoft + core correction, Zval = 15.0
     Generated by new atomic code, or converted to UPF format
     Using radial grid of  891 points,  6 beta functions with:
                l(1) =   0
                l(2) =   0
                l(3) =   1
                l(4) =   1
                l(5) =   2
                l(6) =   2
     Q(r) pseudized with  8 coefficients,  rinner =    1.350   1.350   1.350
                                                       1.350   1.350

     PseudoPot. # 4 for I  read from file:
     /home/pragov/projects/rrg-bengioy-ad/pragov/crystal_structure_design/SSSP/I.pbe-n-kjpaw_psl.0.2.UPF
     MD5 check sum: d4ef18d9c8f18dc85e5843bca1e50dc0
     Pseudo is Projector augmented-wave + core cor, Zval =  7.0
     Generated using "atomic" code by A. Dal Corso  v.5.0.99 svn rev. 10869
     Shape of augmentation charge: PSQ
     Using radial grid of 1247 points,  4 beta functions with:
                l(1) =   0
                l(2) =   0
                l(3) =   1
                l(4) =   1
     Q(r) pseudized with 0 coefficients

     atomic species   valence    mass     pseudopotential
        Cs             9.00   132.90545     Cs( 1.00)
        Ag            19.00   107.86820     Ag( 1.00)
        Sb            15.00   121.76000     Sb( 1.00)
        I              7.00   126.90447     I ( 1.00)

     12 Sym. Ops., with inversion, found

                                    s                        frac. trans.

      isym =  1     identity

 cryst.   s( 1) = (     1          0          0      )
                  (     0          1          0      )
                  (     0          0          1      )

 cart.    s( 1) = (  1.0000000  0.0000000  0.0000000 )
                  (  0.0000000  1.0000000 -0.0000000 )
                  (  0.0000000  0.0000000  1.0000000 )

      isym =  2     180 deg rotation - cart. axis [1,0,0]

[...]

      isym =  3     120 deg rotation - cryst. axis [0,0,1]

[...]

      isym =  6     180 deg rotation - cryst. axis [1,1,0]

[...]

      isym =  7     inversion

[...]

      isym =  8     inv. 180 deg rotation - cart. axis [1,0,0]

[...]

      isym =  9     inv. 120 deg rotation - cryst. axis [0,0,1]

 cryst.   s( 9) = (     1         -1          0      )
                  (     1          0          0      )
                  (     1          0         -1      )

 cart.    s( 9) = (  0.5000000  0.8660254 -0.0000000 )
                  ( -0.8660254  0.5000000  0.0000000 )
                  (  0.0000000  0.0000000 -1.0000000 )

[...]

 cryst.   s(10) = (     0          1          0      )
                  (    -1          1          0      )
                  (     0          1         -1      )

 cart.    s(10) = (  0.5000000 -0.8660254 -0.0000000 )
                  (  0.8660254  0.5000000 -0.0000000 )
                  (  0.0000000  0.0000000 -1.0000000 )

[...]

      isym = 12     inv. 180 deg rotation - cryst. axis [1,1,0]

 cryst.   s(12) = (     1         -1          0      )
                  (     0         -1          0      )
                  (     0         -1          1      )

 cart.    s(12) = (  0.5000000 -0.8660254  0.0000000 )
                  ( -0.8660254 -0.5000000  0.0000000 )
                  (  0.0000000  0.0000000  1.0000000 )

   Cartesian axes

     site n.     atom                  positions (alat units)
         1           Cs  tau(   1) = (   1.5000000   0.8660254   0.6123724  )
         2           Cs  tau(   2) = (   0.5000000   0.2886751   0.2041241  )
         3           Ag  tau(   3) = (   1.0000000   0.5773503   0.4082483  )
         4           Sb  tau(   4) = (   0.0000000   0.0000000   0.0000000  )
         5           I   tau(   5) = (   1.0000000   0.2895354   0.2047324  )
         6           I   tau(   6) = (   0.7507450   0.4334428   0.6117641  )
         7           I   tau(   7) = (   1.0000000   0.8651652   0.6117641  )
         8           I   tau(   8) = (   0.7507450   0.7212577   0.2047324  )
         9           I   tau(   9) = (   1.2492550   0.4334428   0.6117641  )
        10           I   tau(  10) = (   1.2492550   0.7212577   0.2047324  )

   Crystallographic axes

     site n.     atom                  positions (cryst. coord.)
         1           Cs  tau(   1) = (  0.7500000  0.7500000  0.7500000  )
         2           Cs  tau(   2) = (  0.2500000  0.2500000  0.2500000  )
         3           Ag  tau(   3) = (  0.5000000  0.5000000  0.5000000  )
         4           Sb  tau(   4) = (  0.0000000  0.0000000  0.0000000  )
         5           I   tau(   5) = (  0.7492550  0.2507450  0.2507450  )
         6           I   tau(   6) = (  0.2507450  0.2507450  0.7492550  )
         7           I   tau(   7) = (  0.2507450  0.7492550  0.7492550  )
         8           I   tau(   8) = (  0.2507450  0.7492550  0.2507450  )
         9           I   tau(   9) = (  0.7492550  0.2507450  0.7492550  )
        10           I   tau(  10) = (  0.7492550  0.7492550  0.2507450  )

     number of k points=     1  Methfessel-Paxton smearing, width (Ry)=  0.0010
                       cart. coord. in units 2pi/alat
        k(    1) = (   0.0000000   0.0000000   0.0000000), wk =   2.0000000

                       cryst. coord.
        k(    1) = (   0.0000000   0.0000000   0.0000000), wk =   2.0000000

     Check: negative core charge=   -0.000001

     Initial potential from superposition of free atoms

     starting charge      92.9205, renormalised to      94.0000
     Starting wfcs are   69 randomized atomic wfcs
     Checking if some PAW data can be deallocated...

     Self-consistent Calculation

     iteration #  1     ecut=    30.00 Ry     beta= 0.70
     Davidson diagonalization with overlap

     ethr =  1.00E-02,  avg # of iterations =  3.0

     Threshold (ethr) on eigenvalues was too large:
     Diagonalizing with lowered threshold

     Davidson diagonalization with overlap

[...]

     negative rho (up, down):  8.595E-05 0.000E+00

     total energy              =   -2871.66381838 Ry
     estimated scf accuracy    <       0.63166319 Ry

[...]

     total energy              =   -2871.94698367 Ry
     estimated scf accuracy    <       0.00000108 Ry

     iteration #  8     ecut=    30.00 Ry     beta= 0.70
     Davidson diagonalization with overlap

     ethr =  1.14E-09,  avg # of iterations =  5.0

[...]

     End of self-consistent calculation

          k = 0.0000 0.0000 0.0000 (  4182 PWs)   bands (ev):

   -88.0553 -51.1129 -51.1129 -51.1129 -26.1265 -26.1265 -26.1265 -26.1175
   -26.1175 -17.4737 -17.4720  -8.5345  -7.7811  -7.7810  -7.7810  -7.5716
    -7.5715  -5.1425  -4.3099  -4.3099  -4.3099  -4.2831  -4.2831  -4.2831
     0.0211   0.0211   0.0211   0.1567   0.1567   0.4849   0.4849   0.4849
     1.1189   1.8615   1.8615   1.8615   2.6676   2.6676   2.6676   2.8374
     2.8374   2.8374   3.3079   3.3079   3.3529   3.3529   3.3529   5.4208
     5.4208   5.4208   7.1935   7.9111   7.9226   7.9227   7.9259   8.4063

     occupation numbers
     1.0000   1.0000   1.0000   1.0000   1.0000   1.0000   1.0000   1.0000
     1.0000   1.0000   1.0000   1.0000   1.0000   1.0000   1.0000   1.0000
     1.0000   1.0000   1.0000   1.0000   1.0000   1.0000   1.0000   1.0000
     1.0000   1.0000   1.0000   1.0000   1.0000   1.0000   1.0000   1.0000
     1.0000   1.0000   1.0000   1.0000   1.0000   1.0000   1.0000   1.0000
     1.0000   1.0000   1.0000   1.0000   1.0000   1.0000   1.0000  -0.0000
    -0.0000  -0.0000  -0.0000  -0.0000  -0.0000  -0.0000  -0.0000  -0.0000

     the Fermi energy is     4.0080 ev

!    total energy              =   -2871.94698448 Ry
     estimated scf accuracy    <       0.00000004 Ry
     smearing contrib. (-TS)   =       0.00000000 Ry
     internal energy E=F+TS    =   -2871.94698448 Ry

     The total energy is F=E-TS. E is the sum of the following terms:
     one-electron contribution =    -438.36763401 Ry
     hartree contribution      =     251.84333768 Ry
     xc contribution           =    -382.38103286 Ry
     ewald contribution        =    -379.87462276 Ry
     one-center paw contrib.   =   -1923.16703253 Ry
      -> PAW hartree energy AE =      59.03411113 Ry
      -> PAW hartree energy PS =     -59.40984492 Ry
      -> PAW xc energy AE      =   -2165.90430107 Ry
      -> PAW xc energy PS      =     243.11300233 Ry
      -> total E_H with PAW    =     251.46760389 Ry
      -> total E_XC with PAW   =   -2305.17233160 Ry

     convergence has been achieved in   8 iterations

     negative rho (up, down):  4.878E-06 0.000E+00

     Forces acting on atoms (cartesian axes, Ry/au):

     atom    1 type  1   force =     0.00000000    0.00000000    0.00000609
     atom    2 type  1   force =     0.00000000    0.00000000   -0.00000609
     atom    3 type  2   force =     0.00000000   -0.00000000   -0.00000000
     atom    4 type  3   force =     0.00000000   -0.00000000   -0.00000000
     atom    5 type  4   force =     0.00000000   -0.02390140   -0.01690198
     atom    6 type  4   force =    -0.02069922   -0.01195070    0.01690198
     atom    7 type  4   force =     0.00000000    0.02390140    0.01690198
     atom    8 type  4   force =    -0.02069922    0.01195070   -0.01690198
     atom    9 type  4   force =     0.02069922   -0.01195070    0.01690198
     atom   10 type  4   force =     0.02069922    0.01195070   -0.01690198
     The non-local contrib.  to forces
     atom    1 type  1   force =     0.00000000    0.00000000   -0.00001025
     atom    2 type  1   force =     0.00000000    0.00000000    0.00001025
     atom    3 type  2   force =     0.00000000    0.00000000    0.00000000
     atom    4 type  3   force =    -0.00000000    0.00000000    0.00000000
     atom    5 type  4   force =     0.00000000   -0.05213360   -0.03686476
     atom    6 type  4   force =    -0.04514902   -0.02606680    0.03686476
     atom    7 type  4   force =     0.00000000    0.05213360    0.03686476
     atom    8 type  4   force =    -0.04514902    0.02606680   -0.03686476
     atom    9 type  4   force =     0.04514902   -0.02606680    0.03686476
     atom   10 type  4   force =     0.04514902    0.02606680   -0.03686476
     The ionic contribution  to forces
     atom    1 type  1   force =     0.00000000   -0.00000000   -0.00000000
     atom    2 type  1   force =     0.00000000   -0.00000000    0.00000000
     atom    3 type  2   force =    -0.00000000    0.00000000   -0.00000000
     atom    4 type  3   force =     0.00000000    0.00000000    0.00000000
     atom    5 type  4   force =    -0.00000000   -1.19315840   -0.84369039
     atom    6 type  4   force =    -1.03330548   -0.59657920    0.84369039
     atom    7 type  4   force =     0.00000000    1.19315840    0.84369039
     atom    8 type  4   force =    -1.03330548    0.59657920   -0.84369039
     atom    9 type  4   force =     1.03330548   -0.59657920    0.84369039
     atom   10 type  4   force =     1.03330548    0.59657920   -0.84369039
     The local contribution  to forces
     atom    1 type  1   force =     0.00001703    0.00004811    0.00003767
     atom    2 type  1   force =     0.00001665    0.00002119   -0.00002040
     atom    3 type  2   force =    -0.00045270    0.00000268   -0.00006315
     atom    4 type  3   force =     0.00002011   -0.00002762   -0.00001532
     atom    5 type  4   force =    -0.00002989    1.20930364    0.85510333
     atom    6 type  4   force =     1.04730625    0.60465223   -0.85513772
     atom    7 type  4   force =    -0.00000781   -1.20928518   -0.85509486
     atom    8 type  4   force =     1.04733490   -0.60468670    0.85514020
     atom    9 type  4   force =    -1.04729870    0.60464574   -0.85509118
     atom   10 type  4   force =    -1.04728407   -0.60463685    0.85507792
     The core correction contribution to forces
     atom    1 type  1   force =     0.00000123    0.00000288    0.00000132
     atom    2 type  1   force =     0.00000003    0.00000210   -0.00000169
     atom    3 type  2   force =     0.00000000    0.00000000    0.00000000
     atom    4 type  3   force =     0.00000029   -0.00000064   -0.00000034
     atom    5 type  4   force =    -0.00000216    0.01194116    0.00844393
     atom    6 type  4   force =     0.01034398    0.00596993   -0.00844697
     atom    7 type  4   force =     0.00000063   -0.01193958   -0.00844285
     atom    8 type  4   force =     0.01034876   -0.00597368    0.00844866
     atom    9 type  4   force =    -0.01034701    0.00597390   -0.00844658
     atom   10 type  4   force =    -0.01034261   -0.00597048    0.00844312
     The Hubbard contrib.    to forces
     atom    1 type  1   force =     0.00000000    0.00000000    0.00000000
     atom    2 type  1   force =     0.00000000    0.00000000    0.00000000
     atom    3 type  2   force =     0.00000000    0.00000000    0.00000000
     atom    4 type  3   force =     0.00000000    0.00000000    0.00000000
     atom    5 type  4   force =     0.00000000    0.00000000    0.00000000
     atom    6 type  4   force =     0.00000000    0.00000000    0.00000000
     atom    7 type  4   force =     0.00000000    0.00000000    0.00000000
     atom    8 type  4   force =     0.00000000    0.00000000    0.00000000
     atom    9 type  4   force =     0.00000000    0.00000000    0.00000000
     atom   10 type  4   force =     0.00000000    0.00000000    0.00000000
     The SCF correction term to forces
     atom    1 type  1   force =    -0.00000690   -0.00002313   -0.00001888
     atom    2 type  1   force =    -0.00001869   -0.00000639    0.00000953
     atom    3 type  2   force =     0.00051890    0.00000297    0.00008035
     atom    4 type  3   force =    -0.00002541    0.00003067    0.00001411
     atom    5 type  4   force =     0.00003313    0.00014250    0.00010531
     atom    6 type  4   force =     0.00010649    0.00007213   -0.00006711
     atom    7 type  4   force =     0.00000888   -0.00016311   -0.00011366
     atom    8 type  4   force =     0.00007791   -0.00003520    0.00006627
     atom    9 type  4   force =    -0.00011147    0.00007908   -0.00011848
     atom   10 type  4   force =    -0.00012444   -0.00008786    0.00013084

     Total force =     0.071706     Total SCF correction =     0.000676

     Computing stress (Cartesian axis) and pressure

     negative rho (up, down):  4.878E-06 0.000E+00
          total   stress  (Ry/bohr**3)                   (kbar)     P=      -51.59
  -0.00035073  -0.00000000  -0.00000000          -51.59       -0.00       -0.00
  -0.00000000  -0.00035073  -0.00000000           -0.00      -51.59       -0.00
  -0.00000000  -0.00000000  -0.00035073           -0.00       -0.00      -51.59

     kinetic stress (kbar)   6284.91     -0.00     -0.00
                               -0.00   6284.91      0.00
                               -0.00     -0.00   6284.92

     local   stress (kbar)  -3016.78      0.00     -0.00
                                0.00  -3016.77      0.00
                               -0.00      0.00  -3016.77

     nonloc. stress (kbar)    666.60     -0.00     -0.00
                               -0.00    666.60      0.00
                               -0.00      0.00    666.60

     hartree stress (kbar)   4092.85     -0.00      0.00
                               -0.00   4092.85     -0.00
                                0.00     -0.00   4092.85

     exc-cor stress (kbar)  12239.79     -0.00     -0.00
                               -0.00  12239.79     -0.00
                               -0.00     -0.00  12239.79

     corecor stress (kbar) -14145.42      0.00     -0.00
                                0.00 -14145.42      0.00
                               -0.00      0.00 -14145.42

     ewald   stress (kbar)  -6173.56     -0.00      0.00
                               -0.00  -6173.56     -0.00
                                0.00     -0.00  -6173.56

     hubbard stress (kbar)      0.00      0.00      0.00
                                0.00      0.00      0.00
                                0.00      0.00      0.00

     DFT-D   stress (kbar)      0.00      0.00      0.00
                                0.00      0.00      0.00
                                0.00      0.00      0.00

     XDM     stress (kbar)      0.00      0.00      0.00
                                0.00      0.00      0.00
                                0.00      0.00      0.00

     dft-nl  stress (kbar)      0.00      0.00      0.00
                                0.00      0.00      0.00
                                0.00      0.00      0.00

     TS-vdW  stress (kbar)      0.00      0.00      0.00
                                0.00      0.00      0.00
                                0.00      0.00      0.00

[...]

                                0.00      0.00      0.00

     Writing all to output data dir new_calculations/myprefix.save/

     General routines

     Parallel routines

     PAW routines

   This run was terminated on:  23:32:49  20May2023

   JOB DONE.