     Program PWSCF v.7.0 starts on 20May2023 at 10:13: 1

     Reading input from espresso_16252.pwi
Warning: card &CELL ignored
Warning: card / ignored

     Current dimensions of program PWSCF are:
     Max number of different atomic species (ntypx) = 10
     Max number of k-points (npk) =  40000
     Max angular momentum in pseudopotentials (lmaxx) =  4
     file Ba.pbe-spn-kjpaw_psl.1.0.0.UPF: wavefunction(s)  5S 6S renormalized

     gamma-point specific algorithms are used

     Subspace diagonalization in iterative solution of the eigenvalue problem:
     a serial algorithm will be used

     Using Slab Decomposition

     bravais-lattice index     =            0
     lattice parameter (alat)  =      14.7261  a.u.
     unit-cell volume          =    1347.6541 (a.u.)^3
     number of atoms/cell      =           11
     number of atomic types    =            3
     number of electrons       =        88.00
     number of Kohn-Sham states=           53
     kinetic-energy cutoff     =      30.0000  Ry
     charge density cutoff     =     240.0000  Ry
     scf convergence threshold =      1.0E-06
     mixing beta               =       0.7000
     number of iterations used =            8  plain     mixing
     Exchange-correlation=  SLA  PW   PBX  PBC
                           (   1   4   3   4   0   0   0)

     celldm(1)=  14.726130  celldm(2)=   0.000000  celldm(3)=   0.000000
     celldm(4)=   0.000000  celldm(5)=   0.000000  celldm(6)=   0.000000

     crystal axes: (cart. coord. in units of alat)
               a(1) = (   1.000000   0.000000   0.000000 )
               a(2) = (   0.515160   0.857094   0.000000 )
               a(3) = (  -0.757580  -0.428547   0.492362 )

     reciprocal axes: (cart. coord. in units 2 pi/alat)
               b(1) = (  1.000000 -0.601054  1.015514 )
               b(2) = (  0.000000  1.166733  1.015514 )
               b(3) = (  0.000000  0.000000  2.031028 )

     PseudoPot. # 1 for Ba read from file:
     /home/pragov/projects/rrg-bengioy-ad/pragov/crystal_structure_design/SSSP/Ba.pbe-spn-kjpaw_psl.1.0.0.UPF
     MD5 check sum: c432291d3e53af55f19d5e8866385beb
     Pseudo is Projector augmented-wave + core cor, Zval = 10.0
     Generated using "atomic" code by A. Dal Corso  v.5.1
     Shape of augmentation charge: PSQ
     Using radial grid of 1251 points,  7 beta functions with:
                l(1) =   0
                l(2) =   0
                l(3) =   0
                l(4) =   1
                l(5) =   1
                l(6) =   2
                l(7) =   2
     Q(r) pseudized with 0 coefficients

     PseudoPot. # 2 for Y  read from file:
     /home/pragov/projects/rrg-bengioy-ad/pragov/crystal_structure_design/SSSP/Y_pbe_v1.uspp.F.UPF
     MD5 check sum: 2cf71db95cafeb975fc457bd7f14888e
     Pseudo is Ultrasoft + core correction, Zval = 11.0
     Generated by new atomic code, or converted to UPF format
     Using radial grid of  885 points,  6 beta functions with:
                l(1) =   0
                l(2) =   0
                l(3) =   1
                l(4) =   1
                l(5) =   2
                l(6) =   2
     Q(r) pseudized with  6 coefficients,  rinner =    1.200   1.200   1.200
                                                       1.200   1.200

     PseudoPot. # 3 for F  read from file:
     /home/pragov/projects/rrg-bengioy-ad/pragov/crystal_structure_design/SSSP/f_pbe_v1.4.uspp.F.UPF
     MD5 check sum: 4c38b6a325caf53ec0e86aed9459de46
     Pseudo is Ultrasoft, Zval =  7.0
     Generated by new atomic code, or converted to UPF format
     Using radial grid of  799 points,  4 beta functions with:
                l(1) =   0
                l(2) =   0
                l(3) =   1
                l(4) =   1
     Q(r) pseudized with  8 coefficients,  rinner =    0.950   0.950   0.950

     atomic species   valence    mass     pseudopotential
        Ba            10.00   137.32700     Ba( 1.00)
        Y             11.00    88.90584     Y ( 1.00)
        F              7.00    18.99840     F ( 1.00)

     No symmetry found

                                    s                        frac. trans.

      isym =  1     identity

 cryst.   s( 1) = (     1          0          0      )
                  (     0          1          0      )
                  (     0          0          1      )

 cart.    s( 1) = (  1.0000000 -0.0000000  0.0000000 )
                  (  0.0000000  1.0000000  0.0000000 )
                  (  0.0000000  0.0000000  1.0000000 )

   Cartesian axes

     site n.     atom                  positions (alat units)
         1           Ba  tau(   1) = (   0.0000000   0.0000000   0.0000000  )
         2           Y   tau(   2) = (   0.4756542   0.2690675   0.0000000  )
         3           Y   tau(   3) = (   1.0395059   0.5880264   0.0000000  )
         4           F   tau(   4) = (   0.9799405   0.3248000   0.0230179  )
         5           F   tau(   5) = (   0.2969852   0.1575784   0.2027043  )
         6           F   tau(   6) = (  -0.1126613  -0.0901761   0.2925795  )
         7           F   tau(   7) = (   0.6222520   0.3784408   0.1997821  )
         8           F   tau(   8) = (  -0.4351370   0.0866428   0.4832923  )
         9           F   tau(   9) = (   0.6076764   0.0109597   0.0090693  )
        10           F   tau(  10) = (   0.0256288   0.2440292   0.4693437  )
        11           F   tau(  11) = (   1.0456350   0.6019139   0.2896573  )

   Crystallographic axes

     site n.     atom                  positions (cryst. coord.)
         1           Ba  tau(   1) = (  0.0000000  0.0000000  0.0000000  )
         2           Y   tau(   2) = (  0.3139300  0.3139300  0.0000000  )
         3           Y   tau(   3) = (  0.6860700  0.6860700  0.0000000  )
         4           F   tau(   4) = (  0.8080930  0.4023300  0.0467500  )
         5           F   tau(   5) = (  0.4081210  0.3897010  0.4116980  )
         6           F   tau(   6) = (  0.2386580  0.1919070  0.5942370  )
         7           F   tau(   7) = (  0.5976700  0.6444210  0.4057630  )
         8           F   tau(   8) = (  0.0035760  0.5918790  0.9815800  )
         9           F   tau(   9) = (  0.6102990  0.0219970  0.0184200  )
        10           F   tau(  10) = (  0.3555790  0.7613420  0.9532500  )
        11           F   tau(  11) = (  0.9780030  0.9964240  0.5883020  )

     number of k points=     1  Methfessel-Paxton smearing, width (Ry)=  0.0010
                       cart. coord. in units 2pi/alat
        k(    1) = (   0.0000000   0.0000000   0.0000000), wk =   2.0000000

                       cryst. coord.
        k(    1) = (   0.0000000   0.0000000   0.0000000), wk =   2.0000000

     Check: negative core charge=   -0.000004

     Initial potential from superposition of free atoms

     starting charge      87.9741, renormalised to      88.0000

     negative rho (up, down):  8.768E-02 0.000E+00
     Starting wfcs are   63 randomized atomic wfcs
     Checking if some PAW data can be deallocated...

     Self-consistent Calculation

     iteration #  1     ecut=    30.00 Ry     beta= 0.70
     Davidson diagonalization with overlap

     ethr =  1.00E-02,  avg # of iterations =  4.0

     negative rho (up, down):  1.198E-01 0.000E+00

     total energy              =   -1001.30273393 Ry
     estimated scf accuracy    <       1.61008737 Ry

[...]

     total energy              =   -1001.99792378 Ry
     estimated scf accuracy    <       0.00000842 Ry

     iteration # 11     ecut=    30.00 Ry     beta= 0.70
     Davidson diagonalization with overlap

     ethr =  9.57E-09,  avg # of iterations =  2.0

[...]

     End of self-consistent calculation

          k = 0.0000 0.0000 0.0000 (  1840 PWs)   bands (ev):

   -36.7328 -36.7051 -21.1900 -19.4340 -19.0957 -18.8342 -18.8116 -18.4137
   -18.3828 -18.0599 -18.0307 -16.5095 -16.3786 -15.9751 -15.8641 -15.7741
   -15.6591  -6.5013  -6.4028  -6.3756  -0.7553  -0.6293  -0.2622  -0.1168
    -0.0636  -0.0522   0.0459   0.3445   0.3762   0.4932   0.5943   0.7820
     0.8054   0.8123   0.8494   1.0425   1.0678   1.2596   1.3346   1.3652
     1.4325   1.4745   1.5086   1.5343   8.5280   9.6560   9.6934   9.7712
     9.8119   9.8987   9.9418  10.5072  10.8148

     occupation numbers
     1.0000   1.0000   1.0000   1.0000   1.0000   1.0000   1.0000   1.0000
     1.0000   1.0000   1.0000   1.0000   1.0000   1.0000   1.0000   1.0000
     1.0000   1.0000   1.0000   1.0000   1.0000   1.0000   1.0000   1.0000
     1.0000   1.0000   1.0000   1.0000   1.0000   1.0000   1.0000   1.0000
     1.0000   1.0000   1.0000   1.0000   1.0000   1.0000   1.0000   1.0000
     1.0000   1.0000   1.0000   1.0000  -0.0000  -0.0000  -0.0000  -0.0000
    -0.0000  -0.0000  -0.0000  -0.0000  -0.0000

     the Fermi energy is     4.9734 ev

!    total energy              =   -1001.99792425 Ry
     estimated scf accuracy    <       0.00000064 Ry
     smearing contrib. (-TS)   =       0.00000000 Ry
     internal energy E=F+TS    =   -1001.99792425 Ry

     The total energy is F=E-TS. E is the sum of the following terms:
     one-electron contribution =    -300.24277617 Ry
     hartree contribution      =     194.10345745 Ry
     xc contribution           =    -139.52143522 Ry
     ewald contribution        =    -381.37184840 Ry
     one-center paw contrib.   =    -374.96532191 Ry
      -> PAW hartree energy AE =      28.82358434 Ry
      -> PAW hartree energy PS =     -28.69994969 Ry
      -> PAW xc energy AE      =    -394.25380702 Ry
      -> PAW xc energy PS      =      19.16485046 Ry
      -> total E_H with PAW    =     194.22709210 Ry
      -> total E_XC with PAW   =    -514.61039178 Ry

     convergence has been achieved in  11 iterations

     negative rho (up, down):  8.821E-02 0.000E+00

     Forces acting on atoms (cartesian axes, Ry/au):

     atom    1 type  1   force =    -0.00262855   -0.00182684    0.00067376
     atom    2 type  2   force =     0.00252126    0.00105810    0.00527077
     atom    3 type  2   force =    -0.00061676    0.00269093   -0.00426014
     atom    4 type  3   force =     0.00916117   -0.01099928   -0.01484610
     atom    5 type  3   force =    -0.00382517    0.01859340    0.00468013
     atom    6 type  3   force =    -0.00642008    0.00999186    0.02602563
     atom    7 type  3   force =     0.00182630   -0.01307554   -0.03097566
     atom    8 type  3   force =    -0.00781100    0.00273215    0.01912815
     atom    9 type  3   force =     0.00025223   -0.00905454   -0.01500148
     atom   10 type  3   force =    -0.00222377    0.01120795    0.01267997
     atom   11 type  3   force =     0.00976436   -0.01131819   -0.00337504
     The non-local contrib.  to forces
     atom    1 type  1   force =    -0.00053447   -0.00075240   -0.00037839
     atom    2 type  2   force =    -0.00942628   -0.00824290    0.00237523
     atom    3 type  2   force =     0.00709803    0.00813478   -0.00309699
     atom    4 type  3   force =     0.23996605    0.40476373   -0.11064474
     atom    5 type  3   force =     0.22319889    0.18353024    0.14737825
     atom    6 type  3   force =    -0.39224803   -0.10617052    0.24891303
     atom    7 type  3   force =    -0.29719485   -0.28675321   -0.25099954
     atom    8 type  3   force =    -0.18933893   -0.25029408    0.05019894
     atom    9 type  3   force =    -0.29741135   -0.02712863   -0.04626928
     atom   10 type  3   force =     0.45514476   -0.00198626    0.11463016
     atom   11 type  3   force =     0.27027540    0.10434921   -0.14433247
     The ionic contribution  to forces
     atom    1 type  1   force =    -0.00000564    0.00002164   -0.00001014
     atom    2 type  2   force =     1.22808421    0.69471107    0.00003285
     atom    3 type  2   force =    -1.22816592   -0.69460138   -0.00000260
     atom    4 type  3   force =    -3.22605459   -5.60682622    0.57459966
     atom    5 type  3   force =    -3.62051446   -2.49662797   -1.02530102
     atom    6 type  3   force =     5.12963612    2.24158042   -3.29169187
     atom    7 type  3   force =     4.56382738    3.24179740    3.29169430
     atom    8 type  3   force =     3.30802019    3.04915246   -0.39044693
     atom    9 type  3   force =     4.31755532    1.26439500    0.39044460
     atom   10 type  3   force =    -6.46737179    0.12336664   -0.57458804
     atom   11 type  3   force =    -4.00501080   -1.81696905    1.02526919
     The local contribution  to forces
     atom    1 type  1   force =    -0.00257171    0.00017231    0.00016720
     atom    2 type  2   force =    -1.21416167   -0.68406915    0.00273825
     atom    3 type  2   force =     1.21874442    0.69023559   -0.00324617
     atom    4 type  3   force =     2.99497199    5.19250972   -0.47960249
     atom    5 type  3   force =     3.39331155    2.33291725    0.88193852
     atom    6 type  3   force =    -4.74397164   -2.12415481    3.06819573
     atom    7 type  3   force =    -4.26499984   -2.96691322   -3.07268279
     atom    8 type  3   force =    -3.12664593   -2.79498595    0.35858306
     atom    9 type  3   force =    -4.02016477   -1.24502008   -0.35995768
     atom   10 type  3   force =     6.00988257   -0.10910757    0.47186882
     atom   11 type  3   force =     3.74432031    1.70253755   -0.88520326
     The core correction contribution to forces
     atom    1 type  1   force =     0.00031695    0.00005907    0.00011112
     atom    2 type  2   force =    -0.00186545    0.00005850   -0.00063756
     atom    3 type  2   force =     0.00122450   -0.00002480    0.00125727
     atom    4 type  3   force =     0.00000000    0.00000000    0.00000000
     atom    5 type  3   force =     0.00000000    0.00000000    0.00000000
     atom    6 type  3   force =     0.00000000    0.00000000    0.00000000
     atom    7 type  3   force =     0.00000000    0.00000000    0.00000000
     atom    8 type  3   force =     0.00000000    0.00000000    0.00000000
     atom    9 type  3   force =     0.00000000    0.00000000    0.00000000
     atom   10 type  3   force =     0.00000000    0.00000000    0.00000000
     atom   11 type  3   force =     0.00000000    0.00000000    0.00000000
     The Hubbard contrib.    to forces
     atom    1 type  1   force =     0.00000000    0.00000000    0.00000000
     atom    2 type  2   force =     0.00000000    0.00000000    0.00000000
     atom    3 type  2   force =     0.00000000    0.00000000    0.00000000
     atom    4 type  3   force =     0.00000000    0.00000000    0.00000000
     atom    5 type  3   force =     0.00000000    0.00000000    0.00000000
     atom    6 type  3   force =     0.00000000    0.00000000    0.00000000
     atom    7 type  3   force =     0.00000000    0.00000000    0.00000000
     atom    8 type  3   force =     0.00000000    0.00000000    0.00000000
     atom    9 type  3   force =     0.00000000    0.00000000    0.00000000
     atom   10 type  3   force =     0.00000000    0.00000000    0.00000000
     atom   11 type  3   force =     0.00000000    0.00000000    0.00000000
     The SCF correction term to forces
     atom    1 type  1   force =    -0.00002679   -0.00009772   -0.00000382
     atom    2 type  2   force =    -0.00030266   -0.00016967   -0.00002581
     atom    3 type  2   force =     0.00028909    0.00017648    0.00004056
     atom    4 type  3   force =     0.00008460   -0.00021677    0.00001368
     atom    5 type  3   force =    -0.00001426    0.00000362   -0.00012342
     atom    6 type  3   force =    -0.00002964   -0.00003350   -0.00017906
     atom    7 type  3   force =     0.00000050    0.00002323    0.00022458
     atom    8 type  3   force =    -0.00003945    0.00008946    0.00000528
     atom    9 type  3   force =     0.00007991   -0.00007109   -0.00000691
     atom   10 type  3   force =    -0.00007242    0.00016488   -0.00001876
     atom   11 type  3   force =    -0.00001366   -0.00000615    0.00010371

     Total force =     0.064024     Total SCF correction =     0.000684

     Computing stress (Cartesian axis) and pressure

     negative rho (up, down):  8.821E-02 0.000E+00
          total   stress  (Ry/bohr**3)                   (kbar)     P=     -109.46
  -0.00071454   0.00005836   0.00000795         -105.11        8.58        1.17
   0.00005836  -0.00087435   0.00008369            8.58     -128.62       12.31
   0.00000795   0.00008369  -0.00064344            1.17       12.31      -94.65

     kinetic stress (kbar)  15013.50    -12.39     -7.37
                              -12.39  15019.57     11.76
                               -7.37     11.76  15057.21

     local   stress (kbar)  -8252.62    554.88      6.77
                              554.88  -8939.13      7.28
                                6.77      7.28  -9235.26

     nonloc. stress (kbar)   4549.64     28.29      2.50
                               28.29   4535.83     -7.18
                                2.50     -7.18   4519.08

     hartree stress (kbar)   6739.28   -330.53     -1.46
                             -330.53   7133.21      0.80
                               -1.46      0.80   7315.15

     exc-cor stress (kbar)     46.00     -0.13     -0.06
                               -0.13     45.80      0.09
                               -0.06      0.09     46.23

     corecor stress (kbar)  -4095.72     -0.41      0.77
                               -0.41  -4096.53     -0.43
                                0.77     -0.43  -4100.44

     ewald   stress (kbar) -14105.19   -231.13      0.00
                             -231.13 -13827.37      0.01
                                0.00      0.01 -13696.62

     hubbard stress (kbar)      0.00      0.00      0.00
                                0.00      0.00      0.00
                                0.00      0.00      0.00

     DFT-D   stress (kbar)      0.00      0.00      0.00
                                0.00      0.00      0.00
                                0.00      0.00      0.00

     XDM     stress (kbar)      0.00      0.00      0.00
                                0.00      0.00      0.00
                                0.00      0.00      0.00

     dft-nl  stress (kbar)      0.00      0.00      0.00
                                0.00      0.00      0.00
                                0.00      0.00      0.00

     TS-vdW  stress (kbar)      0.00      0.00      0.00
                                0.00      0.00      0.00
                                0.00      0.00      0.00

[...]

                                0.00      0.00      0.00

     Writing all to output data dir new_calculations/myprefix.save/

     General routines

     Parallel routines

     PAW routines

   This run was terminated on:  10:13:29  20May2023

   JOB DONE.