     Program PWSCF v.7.0 starts on 21May2023 at  7:16:10

     Reading input from espresso_14173.pwi
Warning: card &CELL ignored
Warning: card / ignored

     Current dimensions of program PWSCF are:
     Max number of different atomic species (ntypx) = 10
     Max number of k-points (npk) =  40000
     Max angular momentum in pseudopotentials (lmaxx) =  4

     gamma-point specific algorithms are used
     Message from routine setup:
     using ibrav=0 with symmetry is DISCOURAGED, use correct ibrav instead

     Subspace diagonalization in iterative solution of the eigenvalue problem:
     a serial algorithm will be used

     Using Slab Decomposition

     bravais-lattice index     =            0
     lattice parameter (alat)  =      13.5464  a.u.
     unit-cell volume          =    5462.5049 (a.u.)^3
     number of atoms/cell      =           20
     number of atomic types    =            2
     number of electrons       =       160.00
     number of Kohn-Sham states=           96
     kinetic-energy cutoff     =      30.0000  Ry
     charge density cutoff     =     240.0000  Ry
     scf convergence threshold =      1.0E-06
     mixing beta               =       0.7000
     number of iterations used =            8  plain     mixing
     Exchange-correlation=  SLA  PW   PBX  PBC
                           (   1   4   3   4   0   0   0)

     celldm(1)=  13.546403  celldm(2)=   0.000000  celldm(3)=   0.000000
     celldm(4)=   0.000000  celldm(5)=   0.000000  celldm(6)=   0.000000

     crystal axes: (cart. coord. in units of alat)
               a(1) = (   1.000000   0.000000   0.000000 )
               a(2) = (   0.000000   1.498287   0.000000 )
               a(3) = (   0.000000   0.313192   1.466645 )

     reciprocal axes: (cart. coord. in units 2 pi/alat)
               b(1) = (  1.000000  0.000000  0.000000 )
               b(2) = (  0.000000  0.667429 -0.142525 )
               b(3) = (  0.000000  0.000000  0.681828 )

     PseudoPot. # 1 for Ti read from file:
     /home/pragov/projects/rrg-bengioy-ad/pragov/crystal_structure_design/SSSP/ti_pbe_v1.4.uspp.F.UPF
     MD5 check sum: 88a00a6731bd790ddea75d31a80cb452
     Pseudo is Ultrasoft + core correction, Zval = 12.0
     Generated by new atomic code, or converted to UPF format
     Using radial grid of  851 points,  6 beta functions with:
                l(1) =   0
                l(2) =   0
                l(3) =   1
                l(4) =   1
                l(5) =   2
                l(6) =   2
     Q(r) pseudized with  6 coefficients,  rinner =    1.000   1.000   1.000
                                                       1.000   1.000

     PseudoPot. # 2 for Cl read from file:
     /home/pragov/projects/rrg-bengioy-ad/pragov/crystal_structure_design/SSSP/cl_pbe_v1.4.uspp.F.UPF
     MD5 check sum: fc6f6913ecf08c9257cb748ef0700058
     Pseudo is Ultrasoft + core correction, Zval =  7.0
     Generated by new atomic code, or converted to UPF format
     Using radial grid of  909 points,  6 beta functions with:
                l(1) =   0
                l(2) =   0
                l(3) =   1
                l(4) =   1
                l(5) =   2
                l(6) =   2
     Q(r) pseudized with  8 coefficients,  rinner =    1.300   1.300   1.300
                                                       1.300   1.300

     atomic species   valence    mass     pseudopotential
        Ti            12.00    47.86700     Ti( 1.00)
        Cl             7.00    35.45000     Cl( 1.00)

      4 Sym. Ops., with inversion, found ( 2 have fractional translation)

                                    s                        frac. trans.

      isym =  1     identity

 cryst.   s( 1) = (     1          0          0      )
                  (     0          1          0      )
                  (     0          0          1      )

 cart.    s( 1) = (  1.0000000  0.0000000  0.0000000 )
                  (  0.0000000  1.0000000  0.0000000 )
                  (  0.0000000  0.0000000  1.0000000 )

      isym =  2     180 deg rotation - cart. axis [1,0,0]

 cryst.   s( 2) = (     1          0          0      )    f =(  0.5000000 )
                  (     0         -1          0      )       (  0.0000000 )
                  (     0          0         -1      )       (  0.5000000 )

 cart.    s( 2) = (  1.0000000  0.0000000  0.0000000 )    f =(  0.5000000 )
                  (  0.0000000 -1.0000000 -0.0000000 )       (  0.1565962 )
                  (  0.0000000  0.0000000 -1.0000000 )       (  0.7333223 )

      isym =  3     inversion

 cryst.   s( 3) = (    -1          0          0      )
                  (     0         -1          0      )
                  (     0          0         -1      )

 cart.    s( 3) = ( -1.0000000  0.0000000  0.0000000 )
                  (  0.0000000 -1.0000000 -0.0000000 )
                  (  0.0000000  0.0000000 -1.0000000 )

      isym =  4     inv. 180 deg rotation - cart. axis [1,0,0]

 cryst.   s( 4) = (    -1          0          0      )    f =(  0.5000000 )
                  (     0          1          0      )       ( -0.0000000 )
                  (     0          0          1      )       (  0.5000000 )

 cart.    s( 4) = ( -1.0000000  0.0000000  0.0000000 )    f =(  0.5000000 )
                  (  0.0000000  1.0000000  0.0000000 )       (  0.1565962 )
                  (  0.0000000  0.0000000  1.0000000 )       (  0.7333223 )

   Cartesian axes

     site n.     atom                  positions (alat units)
         1           Ti  tau(   1) = (   0.5766200   0.4909963   0.5373096  )
         2           Ti  tau(   2) = (   0.0766200   1.1638868   0.1960126  )
         3           Ti  tau(   3) = (   0.4233800   1.3204830   0.9293349  )
         4           Ti  tau(   4) = (   0.9233800   0.6475925   1.2706319  )
         5           Cl  tau(   5) = (   0.5752410   0.6867212   0.3037333  )
         6           Cl  tau(   6) = (   0.0752410   0.9681618   0.4295890  )
         7           Cl  tau(   7) = (   0.4247590   1.1247581   1.1629112  )
         8           Cl  tau(   8) = (   0.9247590   0.8433175   1.0370555  )
         9           Cl  tau(   9) = (   0.6361020   0.5800733   1.3467918  )
        10           Cl  tau(  10) = (   0.1361020   1.3880022   0.8531750  )
        11           Cl  tau(  11) = (   0.3638980   1.2314060   0.1198527  )
        12           Cl  tau(  12) = (   0.8638980   0.4234770   0.6134695  )
        13           Cl  tau(  13) = (   0.0690030   0.3930088   1.1875831  )
        14           Cl  tau(  14) = (   0.5690030   1.5750667   1.0123836  )
        15           Cl  tau(  15) = (   0.9309970   1.4184705   0.2790614  )
        16           Cl  tau(  16) = (   0.4309970   0.2364126   0.4542609  )
        17           Cl  tau(  17) = (   0.0657330   0.4611630   0.0417436  )
        18           Cl  tau(  18) = (   0.5657330   1.1937201   0.6915786  )
        19           Cl  tau(  19) = (   0.9342670   1.3503163   1.4249009  )
        20           Cl  tau(  20) = (   0.4342670   0.6177592   0.7750659  )

   Crystallographic axes

     site n.     atom                  positions (cryst. coord.)
         1           Ti  tau(   1) = (  0.5766200  0.2511250  0.3663530  )
         2           Ti  tau(   2) = (  0.0766200  0.7488750  0.1336470  )
         3           Ti  tau(   3) = (  0.4233800  0.7488750  0.6336470  )
         4           Ti  tau(   4) = (  0.9233800  0.2511250  0.8663530  )
         5           Cl  tau(   5) = (  0.5752410  0.4150480  0.2070940  )
         6           Cl  tau(   6) = (  0.0752410  0.5849520  0.2929060  )
         7           Cl  tau(   7) = (  0.4247590  0.5849520  0.7929060  )
         8           Cl  tau(   8) = (  0.9247590  0.4150480  0.7070940  )
         9           Cl  tau(   9) = (  0.6361020  0.1952060  0.9182810  )
        10           Cl  tau(  10) = (  0.1361020  0.8047940  0.5817190  )
        11           Cl  tau(  11) = (  0.3638980  0.8047940  0.0817190  )
        12           Cl  tau(  12) = (  0.8638980  0.1952060  0.4182810  )
        13           Cl  tau(  13) = (  0.0690030  0.0930450  0.8097280  )
        14           Cl  tau(  14) = (  0.5690030  0.9069550  0.6902720  )
        15           Cl  tau(  15) = (  0.9309970  0.9069550  0.1902720  )
        16           Cl  tau(  16) = (  0.4309970  0.0930450  0.3097280  )
        17           Cl  tau(  17) = (  0.0657330  0.3018440  0.0284620  )
        18           Cl  tau(  18) = (  0.5657330  0.6981560  0.4715380  )
        19           Cl  tau(  19) = (  0.9342670  0.6981560  0.9715380  )
        20           Cl  tau(  20) = (  0.4342670  0.3018440  0.5284620  )

     number of k points=     1  Methfessel-Paxton smearing, width (Ry)=  0.0010
                       cart. coord. in units 2pi/alat
        k(    1) = (   0.0000000   0.0000000   0.0000000), wk =   2.0000000

                       cryst. coord.
        k(    1) = (   0.0000000   0.0000000   0.0000000), wk =   2.0000000

     Check: negative core charge=   -0.000002

     Initial potential from superposition of free atoms

     starting charge     155.9997, renormalised to     160.0000

     negative rho (up, down):  2.521E-01 0.000E+00
     Starting wfcs are  104 randomized atomic wfcs

     Self-consistent Calculation

     iteration #  1     ecut=    30.00 Ry     beta= 0.70
     Davidson diagonalization with overlap

     ethr =  1.00E-02,  avg # of iterations =  2.0

     negative rho (up, down):  2.398E-01 0.000E+00

     total energy              =   -1010.62820651 Ry
     estimated scf accuracy    <       2.16137403 Ry

[...]

     total energy              =   -1012.03019129 Ry
     estimated scf accuracy    <       0.00000143 Ry

     iteration # 12     ecut=    30.00 Ry     beta= 0.70
     Davidson diagonalization with overlap

     ethr =  8.93E-10,  avg # of iterations =  5.0

[...]

     End of self-consistent calculation

          k = 0.0000 0.0000 0.0000 (  7594 PWs)   bands (ev):

   -57.9880 -57.9877 -57.9871 -57.9868 -34.2661 -34.2658 -34.2652 -34.2650
   -34.2544 -34.2541 -34.2535 -34.2531 -34.2531 -34.2529 -34.2523 -34.2520
   -15.0942 -15.0315 -15.0224 -15.0202 -14.7835 -14.7746 -14.7724 -14.7676
   -14.7604 -14.7509 -14.7485 -14.7481 -14.7468 -14.7382 -14.7371 -14.7336
    -4.2292  -4.2072  -4.2027  -4.1991  -3.9337  -3.9023  -3.8869  -3.8227
    -3.8137  -3.8110  -3.8076  -3.7855  -3.7816  -3.7794  -3.7692  -3.7622
    -3.5451  -3.5365  -3.5018  -3.4782  -3.4566  -3.4141  -3.3896  -3.3693
    -3.3497  -3.2733  -3.1862  -3.1532  -3.1509  -3.1374  -3.0953  -2.9668
    -2.9561  -2.9470  -2.9206  -2.9010  -2.4380  -2.4348  -2.3902  -2.3696
    -2.3346  -2.2891  -2.2836  -2.2635  -2.2566  -2.2300  -2.2267  -2.2250
     1.2987   1.3189   1.3256   1.3455   1.3552   1.3672   1.3729   1.3905
     2.0740   2.0989   2.1092   2.1142   2.1211   2.1212   2.1337   2.1418

     occupation numbers
     1.0000   1.0000   1.0000   1.0000   1.0000   1.0000   1.0000   1.0000
     1.0000   1.0000   1.0000   1.0000   1.0000   1.0000   1.0000   1.0000
     1.0000   1.0000   1.0000   1.0000   1.0000   1.0000   1.0000   1.0000
     1.0000   1.0000   1.0000   1.0000   1.0000   1.0000   1.0000   1.0000
     1.0000   1.0000   1.0000   1.0000   1.0000   1.0000   1.0000   1.0000
     1.0000   1.0000   1.0000   1.0000   1.0000   1.0000   1.0000   1.0000
     1.0000   1.0000   1.0000   1.0000   1.0000   1.0000   1.0000   1.0000
     1.0000   1.0000   1.0000   1.0000   1.0000   1.0000   1.0000   1.0000
     1.0000   1.0000   1.0000   1.0000   1.0000   1.0000   1.0000   1.0000
     1.0000   1.0000   1.0000   1.0000   1.0000   1.0000   1.0000   1.0000
    -0.0000  -0.0000  -0.0000  -0.0000  -0.0000  -0.0000  -0.0000  -0.0000
    -0.0000  -0.0000  -0.0000  -0.0000  -0.0000  -0.0000  -0.0000  -0.0000

     the Fermi energy is    -1.4972 ev

!    total energy              =   -1012.03019163 Ry
     estimated scf accuracy    <       0.00000035 Ry
     smearing contrib. (-TS)   =       0.00000000 Ry
     internal energy E=F+TS    =   -1012.03019163 Ry

     The total energy is F=E-TS. E is the sum of the following terms:
     one-electron contribution =    -739.48713936 Ry
     hartree contribution      =     394.81701168 Ry
     xc contribution           =    -222.24803683 Ry
     ewald contribution        =    -445.11202712 Ry

     convergence has been achieved in  12 iterations

     negative rho (up, down):  2.433E-01 0.000E+00

     Forces acting on atoms (cartesian axes, Ry/au):

     atom    1 type  1   force =     0.00048369   -0.00122905    0.00125739
     atom    2 type  1   force =     0.00048369    0.00122905   -0.00125739
     atom    3 type  1   force =    -0.00048369    0.00122905   -0.00125739
     atom    4 type  1   force =    -0.00048369   -0.00122905    0.00125739
     atom    5 type  2   force =     0.00012791   -0.00050413    0.00060382
     atom    6 type  2   force =     0.00012791    0.00050413   -0.00060382
     atom    7 type  2   force =    -0.00012791    0.00050413   -0.00060382
     atom    8 type  2   force =    -0.00012791   -0.00050413    0.00060382
     atom    9 type  2   force =    -0.00017452    0.00173499   -0.00183838
     atom   10 type  2   force =    -0.00017452   -0.00173499    0.00183838
     atom   11 type  2   force =     0.00017452   -0.00173499    0.00183838
     atom   12 type  2   force =     0.00017452    0.00173499   -0.00183838
     atom   13 type  2   force =     0.00068034    0.00061644    0.00021592
     atom   14 type  2   force =     0.00068034   -0.00061644   -0.00021592
     atom   15 type  2   force =    -0.00068034   -0.00061644   -0.00021592
     atom   16 type  2   force =    -0.00068034    0.00061644    0.00021592
     atom   17 type  2   force =     0.00039631   -0.00069063   -0.00086930
     atom   18 type  2   force =     0.00039631    0.00069063    0.00086930
     atom   19 type  2   force =    -0.00039631    0.00069063    0.00086930
     atom   20 type  2   force =    -0.00039631   -0.00069063   -0.00086930
     The non-local contrib.  to forces
     atom    1 type  1   force =     0.00436247    0.00050308   -0.00010219
     atom    2 type  1   force =     0.00436247   -0.00050308    0.00010219
     atom    3 type  1   force =    -0.00436247   -0.00050308    0.00010219
     atom    4 type  1   force =    -0.00436247    0.00050308   -0.00010219
     atom    5 type  2   force =    -0.00022678   -0.04611944    0.05681299
     atom    6 type  2   force =    -0.00022678    0.04611944   -0.05681299
     atom    7 type  2   force =     0.00022678    0.04611944   -0.05681299
     atom    8 type  2   force =     0.00022678   -0.04611944    0.05681299
     atom    9 type  2   force =     0.06813686    0.01234521   -0.01363632
     atom   10 type  2   force =     0.06813686   -0.01234521    0.01363632
     atom   11 type  2   force =    -0.06813686   -0.01234521    0.01363632
     atom   12 type  2   force =    -0.06813686    0.01234521   -0.01363632
     atom   13 type  2   force =    -0.03168841    0.06335079    0.02272656
     atom   14 type  2   force =    -0.03168841   -0.06335079   -0.02272656
     atom   15 type  2   force =     0.03168841   -0.06335079   -0.02272656
     atom   16 type  2   force =     0.03168841    0.06335079    0.02272656
     atom   17 type  2   force =    -0.03132483   -0.03087389   -0.05951115
     atom   18 type  2   force =    -0.03132483    0.03087389    0.05951115
     atom   19 type  2   force =     0.03132483    0.03087389    0.05951115
     atom   20 type  2   force =     0.03132483   -0.03087389   -0.05951115
     The ionic contribution  to forces
     atom    1 type  1   force =    -0.15511832    0.11623607   -0.16671576
     atom    2 type  1   force =    -0.15511832   -0.11623607    0.16671576
     atom    3 type  1   force =     0.15511832   -0.11623607    0.16671576
     atom    4 type  1   force =     0.15511832    0.11623607   -0.16671576
     atom    5 type  2   force =    -0.34469222    6.00810688   -7.22696478
     atom    6 type  2   force =    -0.34469222   -6.00810688    7.22696478
     atom    7 type  2   force =     0.34469222   -6.00810688    7.22696478
     atom    8 type  2   force =     0.34469222    6.00810688   -7.22696477
     atom    9 type  2   force =    -9.20997620   -2.38745823    2.22011368
     atom   10 type  2   force =    -9.20997620    2.38745823   -2.22011368
     atom   11 type  2   force =     9.20997620    2.38745823   -2.22011369
     atom   12 type  2   force =     9.20997620   -2.38745823    2.22011368
     atom   13 type  2   force =     4.66122103   -7.41151751   -3.16926482
     atom   14 type  2   force =     4.66122103    7.41151751    3.16926482
     atom   15 type  2   force =    -4.66122103    7.41151751    3.16926482
     atom   16 type  2   force =    -4.66122103   -7.41151751   -3.16926482
     atom   17 type  2   force =     4.83301390    3.79027924    7.05584131
     atom   18 type  2   force =     4.83301390   -3.79027924   -7.05584131
     atom   19 type  2   force =    -4.83301390   -3.79027924   -7.05584131
     atom   20 type  2   force =    -4.83301390    3.79027924    7.05584131
     The local contribution  to forces
     atom    1 type  1   force =     0.15174559   -0.11765923    0.16805579
     atom    2 type  1   force =     0.15168497    0.11748294   -0.16804585
     atom    3 type  1   force =    -0.15163398    0.11747781   -0.16754326
     atom    4 type  1   force =    -0.15157059   -0.11745165    0.16727034
     atom    5 type  2   force =     0.34512118   -5.96093789    7.16901848
     atom    6 type  2   force =     0.34507455    5.96140595   -7.16951450
     atom    7 type  2   force =    -0.34507466    5.96132746   -7.16948299
     atom    8 type  2   force =    -0.34501939   -5.96109822    7.16916380
     atom    9 type  2   force =     9.13974083    2.37635393   -2.20783854
     atom   10 type  2   force =     9.13994239   -2.37642691    2.20792104
     atom   11 type  2   force =    -9.13994246   -2.37646824    2.20765457
     atom   12 type  2   force =    -9.13961718    2.37634421   -2.20743696
     atom   13 type  2   force =    -4.62775651    7.34722589    3.14611051
     atom   14 type  2   force =    -4.62797464   -7.34749631   -3.14634815
     atom   15 type  2   force =     4.62798753   -7.34763750   -3.14652153
     atom   16 type  2   force =     4.62778974    7.34715741    3.14636542
     atom   17 type  2   force =    -4.80033356   -3.75920987   -6.99598649
     atom   18 type  2   force =    -4.80040922    3.75936745    6.99612321
     atom   19 type  2   force =     4.80038893    3.75932232    6.99580906
     atom   20 type  2   force =     4.80018302   -3.75920620   -6.99536571
     The core correction contribution to forces
     atom    1 type  1   force =    -0.00015239   -0.00024790    0.00027465
     atom    2 type  1   force =    -0.00015313    0.00024512   -0.00027634
     atom    3 type  1   force =     0.00015456    0.00024580   -0.00026689
     atom    4 type  1   force =     0.00015571   -0.00024549    0.00026088
     atom    5 type  2   force =     0.00002518   -0.00114385    0.00130560
     atom    6 type  2   force =     0.00002386    0.00114689   -0.00130934
     atom    7 type  2   force =    -0.00002386    0.00114561   -0.00130839
     atom    8 type  2   force =    -0.00002354   -0.00114539    0.00130691
     atom    9 type  2   force =     0.00171528    0.00053283   -0.00060443
     atom   10 type  2   force =     0.00171475   -0.00053298    0.00060535
     atom   11 type  2   force =    -0.00171524   -0.00053342    0.00060376
     atom   12 type  2   force =    -0.00171496    0.00053323   -0.00060208
     atom   13 type  2   force =    -0.00094901    0.00136542    0.00041688
     atom   14 type  2   force =    -0.00095063   -0.00136540   -0.00041899
     atom   15 type  2   force =     0.00095057   -0.00136740   -0.00042130
     atom   16 type  2   force =     0.00095027    0.00136494    0.00041896
     atom   17 type  2   force =    -0.00091912   -0.00071411   -0.00129357
     atom   18 type  2   force =    -0.00091809    0.00071430    0.00129338
     atom   19 type  2   force =     0.00091809    0.00071356    0.00129137
     atom   20 type  2   force =     0.00091788   -0.00071418   -0.00128826
     The Hubbard contrib.    to forces
     atom    1 type  1   force =     0.00000000    0.00000000    0.00000000
     atom    2 type  1   force =     0.00000000    0.00000000    0.00000000
     atom    3 type  1   force =     0.00000000    0.00000000    0.00000000
     atom    4 type  1   force =     0.00000000    0.00000000    0.00000000
     atom    5 type  2   force =     0.00000000    0.00000000    0.00000000
     atom    6 type  2   force =     0.00000000    0.00000000    0.00000000
     atom    7 type  2   force =     0.00000000    0.00000000    0.00000000
     atom    8 type  2   force =     0.00000000    0.00000000    0.00000000
     atom    9 type  2   force =     0.00000000    0.00000000    0.00000000
     atom   10 type  2   force =     0.00000000    0.00000000    0.00000000
     atom   11 type  2   force =     0.00000000    0.00000000    0.00000000
     atom   12 type  2   force =     0.00000000    0.00000000    0.00000000
     atom   13 type  2   force =     0.00000000    0.00000000    0.00000000
     atom   14 type  2   force =     0.00000000    0.00000000    0.00000000
     atom   15 type  2   force =     0.00000000    0.00000000    0.00000000
     atom   16 type  2   force =     0.00000000    0.00000000    0.00000000
     atom   17 type  2   force =     0.00000000    0.00000000    0.00000000
     atom   18 type  2   force =     0.00000000    0.00000000    0.00000000
     atom   19 type  2   force =     0.00000000    0.00000000    0.00000000
     atom   20 type  2   force =     0.00000000    0.00000000    0.00000000
     The SCF correction term to forces
     atom    1 type  1   force =    -0.00035827   -0.00005550   -0.00024510
     atom    2 type  1   force =    -0.00029323    0.00023750    0.00023007
     atom    3 type  1   force =     0.00023485    0.00024649   -0.00025805
     atom    4 type  1   force =     0.00017481   -0.00027737    0.00052452
     atom    5 type  2   force =    -0.00008314   -0.00037843    0.00038674
     atom    6 type  2   force =    -0.00005278   -0.00001772    0.00001395
     atom    7 type  2   force =     0.00005252    0.00002602    0.00001420
     atom    8 type  2   force =     0.00001015   -0.00022824    0.00025384
     atom    9 type  2   force =     0.00021206   -0.00004338    0.00012457
     atom   10 type  2   force =     0.00000919    0.00010836   -0.00018561
     atom   11 type  2   force =    -0.00000997    0.00014751    0.00005907
     atom   12 type  2   force =    -0.00032497   -0.00003445   -0.00024738
     atom   13 type  2   force =    -0.00011451    0.00016103    0.00018042
     atom   14 type  2   force =     0.00006415    0.00008301    0.00000931
     atom   15 type  2   force =    -0.00006747    0.00017742    0.00014073
     atom   16 type  2   force =     0.00011732    0.00025177   -0.00003538
     atom   17 type  2   force =    -0.00005830   -0.00017865    0.00003660
     atom   18 type  2   force =     0.00002595    0.00002586   -0.00017674
     atom   19 type  2   force =    -0.00002631    0.00004851    0.00008804
     atom   20 type  2   force =     0.00017706   -0.00016888   -0.00047207

     Total force =     0.007116     Total SCF correction =     0.001502
     SCF correction compared to forces is large: reduce conv_thr to get better values

     Computing stress (Cartesian axis) and pressure

     negative rho (up, down):  2.433E-01 0.000E+00
          total   stress  (Ry/bohr**3)                   (kbar)     P=       -4.10
  -0.00003413   0.00000000   0.00000000           -5.02        0.00        0.00
   0.00000000  -0.00002491   0.00000084            0.00       -3.66        0.12
   0.00000000   0.00000084  -0.00002459            0.00        0.12       -3.62

     kinetic stress (kbar)   5005.07      0.00      0.00
                                0.00   5004.94      0.39
                                0.00      0.39   5004.85

     local   stress (kbar)  -5971.37     -0.00      0.01
                               -0.00  -6868.93    214.79
                                0.01    214.79  -7215.31

     nonloc. stress (kbar)   3689.42      0.00      0.00
                                0.00   3689.93      0.14
                                0.00      0.14   3689.90

     hartree stress (kbar)   3214.94      0.00     -0.00
                                0.00   3630.83    -96.88
                               -0.00    -96.88   3786.64

     exc-cor stress (kbar)    451.41      0.00     -0.00
                                0.00    451.40     -0.00
                               -0.00     -0.00    451.43

     corecor stress (kbar)  -2013.53     -0.00      0.00
                               -0.00  -2013.54     -0.02
                                0.00     -0.02  -2013.54

     ewald   stress (kbar)  -4380.98     -0.00     -0.00
                               -0.00  -3898.28   -118.30
                               -0.00   -118.30  -3707.59

     hubbard stress (kbar)      0.00      0.00      0.00
                                0.00      0.00      0.00
                                0.00      0.00      0.00

     DFT-D   stress (kbar)      0.00      0.00      0.00
                                0.00      0.00      0.00
                                0.00      0.00      0.00

     XDM     stress (kbar)      0.00      0.00      0.00
                                0.00      0.00      0.00
                                0.00      0.00      0.00

     dft-nl  stress (kbar)      0.00      0.00      0.00
                                0.00      0.00      0.00
                                0.00      0.00      0.00

     TS-vdW  stress (kbar)      0.00      0.00      0.00
                                0.00      0.00      0.00
                                0.00      0.00      0.00

[...]

                                0.00      0.00      0.00

     Writing all to output data dir new_calculations/myprefix.save/

     General routines

     Parallel routines

   This run was terminated on:   7:17: 1  21May2023

   JOB DONE.