     Program PWSCF v.7.0 starts on 20May2023 at  7:12:35

     Reading input from espresso_17116.pwi
Warning: card &CELL ignored
Warning: card / ignored

     Current dimensions of program PWSCF are:
     Max number of different atomic species (ntypx) = 10
     Max number of k-points (npk) =  40000
     Max angular momentum in pseudopotentials (lmaxx) =  4
     file K.pbe-spn-kjpaw_psl.1.0.0.UPF: wavefunction(s)  3S renormalized

     gamma-point specific algorithms are used
     Message from routine setup:
     using ibrav=0 with symmetry is DISCOURAGED, use correct ibrav instead

     Subspace diagonalization in iterative solution of the eigenvalue problem:
     a serial algorithm will be used

     Using Slab Decomposition

     bravais-lattice index     =            0
     lattice parameter (alat)  =      24.8529  a.u.
     unit-cell volume          =    3557.2962 (a.u.)^3
     number of atoms/cell      =           18
     number of atomic types    =            4
     number of electrons       =       188.00
     number of Kohn-Sham states=          113
     kinetic-energy cutoff     =      30.0000  Ry
     charge density cutoff     =     240.0000  Ry
     scf convergence threshold =      1.0E-06
     mixing beta               =       0.7000
     number of iterations used =            8  plain     mixing
     Exchange-correlation= SLA  PW   PBE  PBE
                           (   1   4   3   4   0   0   0)

     celldm(1)=  24.852895  celldm(2)=   0.000000  celldm(3)=   0.000000
     celldm(4)=   0.000000  celldm(5)=   0.000000  celldm(6)=   0.000000

     crystal axes: (cart. coord. in units of alat)
               a(1) = (   1.000000   0.000000   0.000000 )
               a(2) = (   0.709667   0.520766   0.000000 )
               a(3) = (   0.290333  -0.270528   0.444986 )

     reciprocal axes: (cart. coord. in units 2 pi/alat)
               b(1) = (  1.000000 -1.362735 -1.480927 )
               b(2) = (  0.000000  1.920246  1.167410 )
               b(3) = (  0.000000  0.000000  2.247263 )

     PseudoPot. # 1 for K  read from file:
     /home/pragov/projects/rrg-bengioy-ad/pragov/crystal_structure_design/SSSP/K.pbe-spn-kjpaw_psl.1.0.0.UPF
     MD5 check sum: 7d58810084cac21f60fbe77ea2b688fd
     Pseudo is Projector augmented-wave + core cor, Zval =  9.0
     Generated using "atomic" code by A. Dal Corso  v.5.1
     Shape of augmentation charge: PSQ
     Using radial grid of 1165 points,  6 beta functions with:
                l(1) =   0
                l(2) =   0
                l(3) =   1
                l(4) =   1
                l(5) =   2
                l(6) =   2
     Q(r) pseudized with 0 coefficients

     PseudoPot. # 2 for Ag read from file:
     /home/pragov/projects/rrg-bengioy-ad/pragov/crystal_structure_design/SSSP/Ag_ONCV_PBE-1.0.oncvpsp.upf
     MD5 check sum: 94f47bd0669c641108e45594df92fabc
     Pseudo is Norm-conserving, Zval = 19.0
     Generated using ONCVPSP code by D. R. Hamann
     Using radial grid of 1398 points,  6 beta functions with:
                l(1) =   0
                l(2) =   0
                l(3) =   1
                l(4) =   1
                l(5) =   2
                l(6) =   2

     PseudoPot. # 3 for Ge read from file:
     /home/pragov/projects/rrg-bengioy-ad/pragov/crystal_structure_design/SSSP/ge_pbe_v1.4.uspp.F.UPF
     MD5 check sum: 9c9eaa91e581c3f09632fb3098b2c6b2
     Pseudo is Ultrasoft + core correction, Zval = 14.0
     Generated by new atomic code, or converted to UPF format
     Using radial grid of  873 points,  6 beta functions with:
                l(1) =   0
                l(2) =   0
                l(3) =   1
                l(4) =   1
                l(5) =   2
                l(6) =   2
     Q(r) pseudized with  8 coefficients,  rinner =    1.400   1.400   1.400
                                                       1.400   1.400

     PseudoPot. # 4 for Se read from file:
     /home/pragov/projects/rrg-bengioy-ad/pragov/crystal_structure_design/SSSP/Se_pbe_v1.uspp.F.UPF
     MD5 check sum: 1b3568f3a8ae88f9a2a0ad0698632c85
     Pseudo is Ultrasoft + core correction, Zval =  6.0
     Generated by new atomic code, or converted to UPF format
     Using radial grid of  877 points,  6 beta functions with:
                l(1) =   0
                l(2) =   0
                l(3) =   1
                l(4) =   1
                l(5) =   2
                l(6) =   2
     Q(r) pseudized with  8 coefficients,  rinner =    1.300   1.300   1.300
                                                       1.300   1.300

     atomic species   valence    mass     pseudopotential
        K              9.00    39.09830     K ( 1.00)
        Ag            19.00   107.86820     Ag( 1.00)
        Ge            14.00    72.63000     Ge( 1.00)
        Se             6.00    78.97100     Se( 1.00)

      2 Sym. Ops., with inversion, found ( 1 have fractional translation)

                                    s                        frac. trans.

      isym =  1     identity

 cryst.   s( 1) = (     1          0          0      )
                  (     0          1          0      )
                  (     0          0          1      )

 cart.    s( 1) = (  1.0000000  0.0000000 -0.0000000 )
                  (  0.0000000  1.0000000  0.0000000 )
                  (  0.0000000  0.0000000  1.0000000 )

      isym =  2     inversion

 cryst.   s( 2) = (    -1          0          0      )    f =( -0.2500000 )
                  (     0         -1          0      )       ( -0.2500000 )
                  (     0          0         -1      )       ( -0.2500000 )

 cart.    s( 2) = ( -1.0000000 -0.0000000  0.0000000 )    f =( -0.5000000 )
                  (  0.0000000 -1.0000000 -0.0000000 )       ( -0.0625596 )
                  (  0.0000000  0.0000000 -1.0000000 )       ( -0.1112464 )

   Cartesian axes

     site n.     atom                  positions (alat units)
         1           K   tau(   1) = (   0.7360764  -0.0220213   0.3052375  )
         2           K   tau(   2) = (   1.2639236   0.2722596   0.1397482  )
         3           K   tau(   3) = (   1.7639236   0.3348192   0.2509946  )
         4           K   tau(   4) = (   1.2360764   0.0405383   0.4164839  )
         5           Ag  tau(   5) = (   1.6038327   0.4617628   0.0331808  )
         6           Ag  tau(   6) = (   0.3961673  -0.2115245   0.4118049  )
         7           Ag  tau(   7) = (   0.6058340   0.1215633   0.0780656  )
         8           Ag  tau(   8) = (   0.3941660   0.0035559   0.1444272  )
         9           Ge  tau(   9) = (   1.0000000   0.1251192   0.2224928  )
        10           Ge  tau(  10) = (   1.5000000   0.1876788   0.3337393  )
        11           Se  tau(  11) = (   0.8513944   0.1105120   0.1153114  )
        12           Se  tau(  12) = (   1.1486066   0.0411226   0.1543326  )
        13           Se  tau(  13) = (   1.0261803   0.3065610   0.2358549  )
        14           Se  tau(  14) = (   0.9738207   0.0422813   0.3844730  )
        15           Se  tau(  15) = (   1.6486056   0.2022859   0.4409207  )
        16           Se  tau(  16) = (   1.3513934   0.2716753   0.4018995  )
        17           Se  tau(  17) = (   1.4738197   0.0062369   0.3203772  )
        18           Se  tau(  18) = (   1.5261793   0.2705167   0.1717591  )

   Crystallographic axes

     site n.     atom                  positions (cryst. coord.)
         1           K   tau(   1) = (  0.3140510  0.3140510  0.6859490  )
         2           K   tau(   2) = (  0.6859490  0.6859490  0.3140510  )
         3           K   tau(   3) = (  0.9359490  0.9359490  0.5640510  )
         4           K   tau(   4) = (  0.5640510  0.5640510  0.9359490  )
         5           Ag  tau(   5) = (  0.9254340  0.9254340  0.0745660  )
         6           Ag  tau(   6) = (  0.0745660  0.0745660  0.9254340  )
         7           Ag  tau(   7) = (  0.3245660  0.3245660  0.1754340  )
         8           Ag  tau(   8) = (  0.1754340  0.1754340  0.3245660  )
         9           Ge  tau(   9) = (  0.5000000  0.5000000  0.5000000  )
        10           Ge  tau(  10) = (  0.7500000  0.7500000  0.7500000  )
        11           Se  tau(  11) = (  0.5300280  0.3468260  0.2591350  )
        12           Se  tau(  12) = (  0.8640120  0.2591350  0.3468260  )
        13           Se  tau(  13) = (  0.2591350  0.8640120  0.5300280  )
        14           Se  tau(  14) = (  0.3468260  0.5300280  0.8640120  )
        15           Se  tau(  15) = (  0.7199720  0.9031740  0.9908650  )
        16           Se  tau(  16) = (  0.3859880  0.9908650  0.9031740  )
        17           Se  tau(  17) = (  0.9908650  0.3859880  0.7199720  )
        18           Se  tau(  18) = (  0.9031740  0.7199720  0.3859880  )

     number of k points=     1  Methfessel-Paxton smearing, width (Ry)=  0.0010
                       cart. coord. in units 2pi/alat
        k(    1) = (   0.0000000   0.0000000   0.0000000), wk =   2.0000000

                       cryst. coord.
        k(    1) = (   0.0000000   0.0000000   0.0000000), wk =   2.0000000

     Check: negative core charge=   -0.000002

     Initial potential from superposition of free atoms

     starting charge     187.9212, renormalised to     188.0000
     Starting wfcs are  122 randomized atomic wfcs
     Checking if some PAW data can be deallocated...

     Self-consistent Calculation

     iteration #  1     ecut=    30.00 Ry     beta= 0.70
     Davidson diagonalization with overlap

     ethr =  1.00E-02,  avg # of iterations =  6.0

     Threshold (ethr) on eigenvalues was too large:
     Diagonalizing with lowered threshold

     Davidson diagonalization with overlap

[...]

     total energy              =   -2377.09316788 Ry
     estimated scf accuracy    <       0.60662729 Ry

[...]

     c_bands:  1 eigenvalues not converged
     ethr =  2.06E-06,  avg # of iterations = 20.0

[...]

     total energy              =   -2377.27444045 Ry
     estimated scf accuracy    <       0.00004237 Ry

     iteration #  8     ecut=    30.00 Ry     beta= 0.70
     Davidson diagonalization with overlap

     ethr =  2.25E-08,  avg # of iterations =  4.0

     End of self-consistent calculation

          k = 0.0000 0.0000 0.0000 (  4917 PWs)   bands (ev):

   -87.1022 -86.8533 -86.8300 -86.8099 -49.9947 -49.9573 -49.9520 -49.9236
   -49.8426 -49.8122 -49.8119 -49.8114 -49.8015 -49.7684 -49.7681 -49.4670
   -24.9572 -24.6017 -24.5980 -24.5887 -19.4823 -19.4757 -19.4747 -19.4718
   -19.4650 -19.4537 -19.4519 -19.4439 -19.4431 -19.4272  -8.3857  -8.2360
    -8.1806  -8.1705  -8.1379  -8.1342  -8.1184  -8.1140  -8.1050  -8.1023
    -8.0957  -8.0685  -7.8522  -7.5279  -6.7837  -6.6650  -6.6445  -6.6163
    -6.5714  -6.4762  -2.3984  -2.0547   0.8782   0.9571   1.0283   1.1153
     1.1607   1.1756   1.2875   1.3585   1.4211   1.7830   1.8615   1.8869
     1.9209   1.9281   1.9977   2.0004   2.1887   2.1930   2.2292   2.3099
     2.3910   2.4424   2.5708   2.6437   2.7997   2.8130   3.1278   3.2147
     3.3312   3.3558   3.5875   3.7175   3.8342   4.0075   4.0276   4.1672
     4.2173   4.5396   4.5982   4.7807   4.9111   4.9441   6.1362   7.2515
     7.4127   8.1210   8.3457   8.3874   8.5287   8.6466   9.5829   9.6322
     9.8309  10.1295  10.2223  10.2558  10.3004  10.3785  10.9663  11.2022
    11.2355

     occupation numbers
     1.0000   1.0000   1.0000   1.0000   1.0000   1.0000   1.0000   1.0000
     1.0000   1.0000   1.0000   1.0000   1.0000   1.0000   1.0000   1.0000
     1.0000   1.0000   1.0000   1.0000   1.0000   1.0000   1.0000   1.0000
     1.0000   1.0000   1.0000   1.0000   1.0000   1.0000   1.0000   1.0000
     1.0000   1.0000   1.0000   1.0000   1.0000   1.0000   1.0000   1.0000
     1.0000   1.0000   1.0000   1.0000   1.0000   1.0000   1.0000   1.0000
     1.0000   1.0000   1.0000   1.0000   1.0000   1.0000   1.0000   1.0000
     1.0000   1.0000   1.0000   1.0000   1.0000   1.0000   1.0000   1.0000
     1.0000   1.0000   1.0000   1.0000   1.0000   1.0000   1.0000   1.0000
     1.0000   1.0000   1.0000   1.0000   1.0000   1.0000   1.0000   1.0000
     1.0000   1.0000   1.0000   1.0000   1.0000   1.0000   1.0000   1.0000
     1.0000   1.0000   1.0000   1.0000   1.0000   1.0000  -0.0000  -0.0000
    -0.0000  -0.0000  -0.0000  -0.0000  -0.0000  -0.0000  -0.0000  -0.0000
    -0.0000  -0.0000  -0.0000  -0.0000  -0.0000  -0.0000  -0.0000  -0.0000
    -0.0000

     the Fermi energy is     5.2085 ev

!    total energy              =   -2377.27445119 Ry
     estimated scf accuracy    <       0.00000078 Ry
     smearing contrib. (-TS)   =       0.00000000 Ry
     internal energy E=F+TS    =   -2377.27445119 Ry

     The total energy is F=E-TS. E is the sum of the following terms:
     one-electron contribution =   -1384.80198060 Ry
     hartree contribution      =     756.42272214 Ry
     xc contribution           =    -507.52648218 Ry
     ewald contribution        =   -1019.71153779 Ry
     one-center paw contrib.   =    -221.65717276 Ry
      -> PAW hartree energy AE =     150.13175864 Ry
      -> PAW hartree energy PS =    -149.29531105 Ry
      -> PAW xc energy AE      =    -264.75686235 Ry
      -> PAW xc energy PS      =      42.26324201 Ry
      -> total E_H with PAW    =     757.25916973 Ry
      -> total E_XC with PAW   =    -730.02010252 Ry

     convergence has been achieved in   8 iterations

     Forces acting on atoms (cartesian axes, Ry/au):

     atom    1 type  1   force =     0.00091115    0.00067137    0.00020922
     atom    2 type  1   force =    -0.00081697   -0.00067682   -0.00042951
     atom    3 type  1   force =    -0.00091115   -0.00067137   -0.00020922
     atom    4 type  1   force =     0.00081697    0.00067682    0.00042951
     atom    5 type  2   force =     0.00377030    0.00136906    0.00028576
     atom    6 type  2   force =    -0.00417778   -0.00411129   -0.00148842
     atom    7 type  2   force =    -0.00377030   -0.00136906   -0.00028576
     atom    8 type  2   force =     0.00417778    0.00411129    0.00148842
     atom    9 type  3   force =    -0.00096453   -0.00249404    0.00034013
     atom   10 type  3   force =     0.00096453    0.00249404   -0.00034013
     atom   11 type  4   force =     0.02636951   -0.03056219    0.00536516
     atom   12 type  4   force =    -0.01693601    0.01590370   -0.02571083
     atom   13 type  4   force =     0.01378390   -0.01868154    0.02800415
     atom   14 type  4   force =    -0.01961856    0.03353787   -0.00616062
     atom   15 type  4   force =    -0.02636951    0.03056219   -0.00536516
     atom   16 type  4   force =     0.01693601   -0.01590370    0.02571083
     atom   17 type  4   force =    -0.01378390    0.01868154   -0.02800415
     atom   18 type  4   force =     0.01961856   -0.03353787    0.00616062
     The non-local contrib.  to forces
     atom    1 type  1   force =    -0.01168414   -0.00630421    0.00436274
     atom    2 type  1   force =     0.01051310    0.00564648   -0.00410741
     atom    3 type  1   force =     0.01168414    0.00630421   -0.00436274
     atom    4 type  1   force =    -0.01051310   -0.00564648    0.00410741
     atom    5 type  2   force =    -0.07642984   -0.05089445    0.02549172
     atom    6 type  2   force =     0.07326631    0.04739906   -0.02483309
     atom    7 type  2   force =     0.07642984    0.05089445   -0.02549172
     atom    8 type  2   force =    -0.07326631   -0.04739906    0.02483309
     atom    9 type  3   force =     0.00255008    0.00208737    0.00155973
     atom   10 type  3   force =    -0.00255008   -0.00208737   -0.00155973
     atom   11 type  4   force =     0.22096855   -0.14761028    0.10092808
     atom   12 type  4   force =    -0.21268723    0.13803540   -0.08137658
     atom   13 type  4   force =     0.05661882   -0.22563285    0.13055638
     atom   14 type  4   force =    -0.06885926    0.23146791   -0.14686377
     atom   15 type  4   force =    -0.22096855    0.14761028   -0.10092808
     atom   16 type  4   force =     0.21268723   -0.13803540    0.08137658
     atom   17 type  4   force =    -0.05661882    0.22563285   -0.13055638
     atom   18 type  4   force =     0.06885926   -0.23146791    0.14686377
     The ionic contribution  to forces
     atom    1 type  1   force =    -1.62763005   -0.90741680    0.51029069
     atom    2 type  1   force =     1.62765862    0.90744383   -0.51031325
     atom    3 type  1   force =     1.62763005    0.90741680   -0.51029069
     atom    4 type  1   force =    -1.62765862   -0.90744383    0.51031325
     atom    5 type  2   force =    -8.50693789   -4.74270374    2.66704930
     atom    6 type  2   force =     8.50682222    4.74266195   -2.66697743
     atom    7 type  2   force =     8.50693789    4.74270374   -2.66704930
     atom    8 type  2   force =    -8.50682222   -4.74266195    2.66697743
     atom    9 type  3   force =    -0.00001467   -0.00002137    0.00001375
     atom   10 type  3   force =     0.00001467    0.00002137   -0.00001375
     atom   11 type  4   force =    -4.55575259    5.39687759   -0.20605290
     atom   12 type  4   force =     4.55563677   -2.97961474    4.50450539
     atom   13 type  4   force =    -2.45186403    4.15251124   -5.16412604
     atom   14 type  4   force =     2.45185652   -6.56980453    0.86564368
     atom   15 type  4   force =     4.55575259   -5.39687759    0.20605290
     atom   16 type  4   force =    -4.55563677    2.97961474   -4.50450539
     atom   17 type  4   force =     2.45186403   -4.15251124    5.16412604
     atom   18 type  4   force =    -2.45185652    6.56980453   -0.86564368
     The local contribution  to forces
     atom    1 type  1   force =     1.63857593    0.91344635   -0.51395355
     atom    2 type  1   force =    -1.63771509   -0.91299223    0.51358538
     atom    3 type  1   force =    -1.63860175   -0.91354604    0.51397343
     atom    4 type  1   force =     1.63770717    0.91303918   -0.51359155
     atom    5 type  2   force =     8.58887841    4.79591267   -2.69284244
     atom    6 type  2   force =    -8.58617268   -4.79500377    2.69061740
     atom    7 type  2   force =    -8.58889879   -4.79591493    2.69296387
     atom    8 type  2   force =     8.58619672    4.79502942   -2.69070048
     atom    9 type  3   force =    -0.00351816   -0.00426810   -0.00121433
     atom   10 type  3   force =     0.00342434    0.00420011    0.00116350
     atom   11 type  4   force =     4.38578583   -5.29804695    0.12162941
     atom   12 type  4   force =    -4.38347233    2.87070742   -4.45806931
     atom   13 type  4   force =     2.41477128   -3.96852941    5.07614513
     atom   14 type  4   force =    -2.41040129    6.39934306   -0.74101655
     atom   15 type  4   force =    -4.38580451    5.29801258   -0.12162263
     atom   16 type  4   force =     4.38350160   -2.87073966    4.45801611
     atom   17 type  4   force =    -2.41475860    3.96859250   -5.07611742
     atom   18 type  4   force =     2.41038347   -6.39936731    0.74104084
     The core correction contribution to forces
     atom    1 type  1   force =     0.00056454    0.00033738   -0.00014878
     atom    2 type  1   force =    -0.00054339   -0.00031748    0.00013593
     atom    3 type  1   force =    -0.00056439   -0.00033867    0.00014891
     atom    4 type  1   force =     0.00054279    0.00031781   -0.00013546
     atom    5 type  2   force =     0.00000000    0.00000000    0.00000000
     atom    6 type  2   force =     0.00000000    0.00000000    0.00000000
     atom    7 type  2   force =     0.00000000    0.00000000    0.00000000
     atom    8 type  2   force =     0.00000000    0.00000000    0.00000000
     atom    9 type  3   force =    -0.00001765   -0.00017063   -0.00007586
     atom   10 type  3   force =     0.00001675    0.00016923    0.00007475
     atom   11 type  4   force =    -0.02457843    0.01843529   -0.01126864
     atom   12 type  4   force =     0.02353431   -0.01355338    0.00936404
     atom   13 type  4   force =    -0.00607820    0.02310898   -0.01458262
     atom   14 type  4   force =     0.00803135   -0.02748588    0.01615603
     atom   15 type  4   force =     0.02457505   -0.01843497    0.01127226
     atom   16 type  4   force =    -0.02353714    0.01355237   -0.00936620
     atom   17 type  4   force =     0.00607820   -0.02310646    0.01458352
     atom   18 type  4   force =    -0.00803430    0.02748246   -0.01615292
     The Hubbard contrib.    to forces
     atom    1 type  1   force =     0.00000000    0.00000000    0.00000000
     atom    2 type  1   force =     0.00000000    0.00000000    0.00000000
     atom    3 type  1   force =     0.00000000    0.00000000    0.00000000
     atom    4 type  1   force =     0.00000000    0.00000000    0.00000000
     atom    5 type  2   force =     0.00000000    0.00000000    0.00000000
     atom    6 type  2   force =     0.00000000    0.00000000    0.00000000
     atom    7 type  2   force =     0.00000000    0.00000000    0.00000000
     atom    8 type  2   force =     0.00000000    0.00000000    0.00000000
     atom    9 type  3   force =     0.00000000    0.00000000    0.00000000
     atom   10 type  3   force =     0.00000000    0.00000000    0.00000000
     atom   11 type  4   force =     0.00000000    0.00000000    0.00000000
     atom   12 type  4   force =     0.00000000    0.00000000    0.00000000
     atom   13 type  4   force =     0.00000000    0.00000000    0.00000000
     atom   14 type  4   force =     0.00000000    0.00000000    0.00000000
     atom   15 type  4   force =     0.00000000    0.00000000    0.00000000
     atom   16 type  4   force =     0.00000000    0.00000000    0.00000000
     atom   17 type  4   force =     0.00000000    0.00000000    0.00000000
     atom   18 type  4   force =     0.00000000    0.00000000    0.00000000
     The SCF correction term to forces
     atom    1 type  1   force =     0.00108693    0.00060317   -0.00034764
     atom    2 type  1   force =    -0.00074888   -0.00045431    0.00026579
     atom    3 type  1   force =    -0.00105714   -0.00051315    0.00031609
     atom    4 type  1   force =     0.00072006    0.00041325   -0.00026820
     atom    5 type  2   force =    -0.00173868   -0.00094874    0.00057354
     atom    6 type  2   force =     0.00190927    0.00083374   -0.00029124
     atom    7 type  2   force =     0.00176245    0.00094435   -0.00072225
     atom    8 type  2   force =    -0.00192753   -0.00085485    0.00038243
     atom    9 type  3   force =     0.00005662   -0.00010880    0.00004976
     atom   10 type  3   force =     0.00007959    0.00020322   -0.00001199
     atom   11 type  4   force =    -0.00005520   -0.00022148    0.00013538
     atom   12 type  4   force =     0.00005373    0.00032123   -0.00014046
     atom   13 type  4   force =     0.00033467   -0.00013284    0.00001424
     atom   14 type  4   force =    -0.00025039    0.00000683   -0.00007676
     atom   15 type  4   force =     0.00007453    0.00024823   -0.00013345
     atom   16 type  4   force =    -0.00007766   -0.00030352    0.00018363
     atom   17 type  4   force =    -0.00035006    0.00008055   -0.00003696
     atom   18 type  4   force =     0.00026214   -0.00000012    0.00005587

     Total force =     0.107634     Total SCF correction =     0.004839

     Computing stress (Cartesian axis) and pressure

          total   stress  (Ry/bohr**3)                   (kbar)     P=     -242.55
  -0.00165621  -0.00007712   0.00006693         -243.64      -11.34        9.85
  -0.00007712  -0.00163456  -0.00008731          -11.34     -240.45      -12.84
   0.00006693  -0.00008731  -0.00165573            9.85      -12.84     -243.57

     kinetic stress (kbar)  15329.25     48.88    -27.71
                               48.88  15252.27    -46.21
                              -27.71    -46.21  15197.01

     local   stress (kbar)  -9173.20  -2921.69   1646.04
                            -2921.69  -8599.28  -4479.59
                             1646.04  -4479.59 -14034.34

     nonloc. stress (kbar)   2206.41    -11.83      6.90
                              -11.83   2225.59      9.92
                                6.90      9.92   2237.75

     hartree stress (kbar)   9914.58   1469.66   -826.29
                             1469.66   9475.02   1987.50
                             -826.29   1987.50  11890.80

     exc-cor stress (kbar)   7801.91     -0.38      0.20
                               -0.38   7802.87      0.92
                                0.20      0.92   7803.90

     corecor stress (kbar) -11297.04     -0.53      0.55
                               -0.53 -11296.84     -0.01
                                0.55     -0.01 -11296.12

     ewald   stress (kbar) -15025.54   1404.55   -789.84
                             1404.55 -15100.09   2514.61
                             -789.84   2514.61 -12042.56

     hubbard stress (kbar)      0.00      0.00      0.00
                                0.00      0.00      0.00
                                0.00      0.00      0.00

     DFT-D   stress (kbar)      0.00      0.00      0.00
                                0.00      0.00      0.00
                                0.00      0.00      0.00

     XDM     stress (kbar)      0.00      0.00      0.00
                                0.00      0.00      0.00
                                0.00      0.00      0.00

     dft-nl  stress (kbar)      0.00      0.00      0.00
                                0.00      0.00      0.00
                                0.00      0.00      0.00

     TS-vdW  stress (kbar)      0.00      0.00      0.00
                                0.00      0.00      0.00
                                0.00      0.00      0.00

[...]

                                0.00      0.00      0.00

     Writing all to output data dir new_calculations/myprefix.save/

     General routines

     Parallel routines

     PAW routines

   This run was terminated on:   7:14:12  20May2023

   JOB DONE.