     Program PWSCF v.7.0 starts on 21May2023 at  1:31:12

     Reading input from espresso_1898.pwi
Warning: card &CELL ignored
Warning: card / ignored

     Current dimensions of program PWSCF are:
     Max number of different atomic species (ntypx) = 10
     Max number of k-points (npk) =  40000
     Max angular momentum in pseudopotentials (lmaxx) =  4

     gamma-point specific algorithms are used
     Message from routine setup:
     using ibrav=0 with symmetry is DISCOURAGED, use correct ibrav instead

     Subspace diagonalization in iterative solution of the eigenvalue problem:
     a serial algorithm will be used

     Using Slab Decomposition

     bravais-lattice index     =            0
     lattice parameter (alat)  =       8.5596  a.u.
     unit-cell volume          =     985.3479 (a.u.)^3
     number of atoms/cell      =           14
     number of atomic types    =            3
     number of electrons       =       136.00
     number of Kohn-Sham states=           82
     kinetic-energy cutoff     =      30.0000  Ry
     charge density cutoff     =     240.0000  Ry
     scf convergence threshold =      1.0E-06
     mixing beta               =       0.7000
     number of iterations used =            8  plain     mixing
     Exchange-correlation= SLA  PW   PBE  PBE
                           (   1   4   3   4   0   0   0)

     celldm(1)=   8.559649  celldm(2)=   0.000000  celldm(3)=   0.000000
     celldm(4)=   0.000000  celldm(5)=   0.000000  celldm(6)=   0.000000

     crystal axes: (cart. coord. in units of alat)
               a(1) = (   1.000000   0.000000   0.000000 )
               a(2) = (  -0.752426   0.658677   0.000000 )
               a(3) = (   0.000000   0.000000   2.385335 )

     reciprocal axes: (cart. coord. in units 2 pi/alat)
               b(1) = (  1.000000  1.142330  0.000000 )
               b(2) = (  0.000000  1.518195  0.000000 )
               b(3) = (  0.000000  0.000000  0.419228 )

     PseudoPot. # 1 for Co read from file:
     /home/pragov/projects/rrg-bengioy-ad/pragov/crystal_structure_design/SSSP/Co_pbe_v1.2.uspp.F.UPF
     MD5 check sum: 5f91765df6ddd3222702df6e7b74a16d
     Pseudo is Ultrasoft + core correction, Zval = 17.0
     Generated by new atomic code, or converted to UPF format
     Using radial grid of  863 points,  6 beta functions with:
                l(1) =   0
                l(2) =   0
                l(3) =   1
                l(4) =   1
                l(5) =   2
                l(6) =   2
     Q(r) pseudized with  8 coefficients,  rinner =    1.200   1.200   1.200
                                                       1.200   1.200

     PseudoPot. # 2 for B  read from file:
     /home/pragov/projects/rrg-bengioy-ad/pragov/crystal_structure_design/SSSP/b_pbe_v1.4.uspp.F.UPF
     MD5 check sum: cc6de2960df11db49a60e589f9ebb39b
     Pseudo is Ultrasoft + core correction, Zval =  3.0
     Generated by new atomic code, or converted to UPF format
     Using radial grid of  781 points,  4 beta functions with:
                l(1) =   0
                l(2) =   0
                l(3) =   1
                l(4) =   1
     Q(r) pseudized with  8 coefficients,  rinner =    1.100   1.100   1.100

     PseudoPot. # 3 for W  read from file:
     /home/pragov/projects/rrg-bengioy-ad/pragov/crystal_structure_design/SSSP/W_pbe_v1.2.uspp.F.UPF
     MD5 check sum: 9c083fa34c2a2ea0f02f1f893e16e1c8
     Pseudo is Ultrasoft + core correction, Zval = 14.0
     Generated by new atomic code, or converted to UPF format
     Using radial grid of  923 points,  8 beta functions with:
                l(1) =   0
                l(2) =   0
                l(3) =   0
                l(4) =   1
                l(5) =   1
                l(6) =   2
                l(7) =   2
                l(8) =   3
     Q(r) pseudized with  6 coefficients,  rinner =    1.350   1.350   1.350
                                                       1.350   1.350   1.350
                                                       1.350

     atomic species   valence    mass     pseudopotential
        Co            17.00    58.93319     Co( 1.00)
        B              3.00    10.81000     B ( 1.00)
        W             14.00   183.84000     W ( 1.00)

      4 Sym. Ops., with inversion, found ( 2 have fractional translation)

                                    s                        frac. trans.

      isym =  1     identity

 cryst.   s( 1) = (     1          0          0      )
                  (     0          1          0      )
                  (     0          0          1      )

 cart.    s( 1) = (  1.0000000 -0.0000000  0.0000000 )
                  (  0.0000000  1.0000000  0.0000000 )
                  (  0.0000000  0.0000000  1.0000000 )

      isym =  2     180 deg rotation - cart. axis [0,0,1]

 cryst.   s( 2) = (    -1          0          0      )    f =( -0.0000000 )
                  (     0         -1          0      )       ( -0.0000000 )
                  (     0          0          1      )       ( -0.5000000 )

 cart.    s( 2) = ( -1.0000000  0.0000000  0.0000000 )    f =(  0.0000000 )
                  (  0.0000000 -1.0000000  0.0000000 )       ( -0.0000000 )
                  (  0.0000000  0.0000000  1.0000000 )       ( -1.1926674 )

      isym =  3     inversion

 cryst.   s( 3) = (    -1          0          0      )
                  (     0         -1          0      )
                  (     0          0         -1      )

 cart.    s( 3) = ( -1.0000000  0.0000000  0.0000000 )
                  (  0.0000000 -1.0000000  0.0000000 )
                  (  0.0000000  0.0000000 -1.0000000 )

      isym =  4     inv. 180 deg rotation - cart. axis [0,0,1]

 cryst.   s( 4) = (     1          0          0      )    f =(  0.0000000 )
                  (     0          1          0      )       (  0.0000000 )
                  (     0          0         -1      )       (  0.5000000 )

 cart.    s( 4) = (  1.0000000 -0.0000000  0.0000000 )    f =(  0.0000000 )
                  (  0.0000000  1.0000000  0.0000000 )       (  0.0000000 )
                  (  0.0000000  0.0000000 -1.0000000 )       (  1.1926674 )

   Cartesian axes

     site n.     atom                  positions (alat units)
         1           Co  tau(   1) = (   0.1237870   0.3293384   0.0000000  )
         2           Co  tau(   2) = (   0.1237870   0.3293384   1.1926674  )
         3           B   tau(   3) = (   0.6333802   0.1377998   0.5963337  )
         4           B   tau(   4) = (  -0.3858063   0.5208769   1.7890010  )
         5           B   tau(   5) = (  -0.6015159   0.6019548   1.4377200  )
         6           B   tau(   6) = (   0.8490898   0.0567219   0.9476148  )
         7           B   tau(   7) = (   0.8490898   0.0567219   0.2450526  )
         8           B   tau(   8) = (  -0.6015159   0.6019548   2.1402821  )
         9           W   tau(   9) = (   0.1197827   0.3308434   0.5963337  )
        10           W   tau(  10) = (   0.1277913   0.3278333   1.7890010  )
        11           W   tau(  11) = (   0.6295056   0.1392561   1.4477050  )
        12           W   tau(  12) = (  -0.3819316   0.5194206   0.9376298  )
        13           W   tau(  13) = (  -0.3819316   0.5194206   0.2550376  )
        14           W   tau(  14) = (   0.6295056   0.1392561   2.1302971  )

   Crystallographic axes

     site n.     atom                  positions (cryst. coord.)
         1           Co  tau(   1) = (  0.5000000  0.5000000  0.0000000  )
         2           Co  tau(   2) = (  0.5000000  0.5000000  0.5000000  )
         3           B   tau(   3) = (  0.7907930  0.2092070  0.2500000  )
         4           B   tau(   4) = (  0.2092070  0.7907930  0.7500000  )
         5           B   tau(   5) = (  0.0861150  0.9138850  0.6027330  )
         6           B   tau(   6) = (  0.9138850  0.0861150  0.3972670  )
         7           B   tau(   7) = (  0.9138850  0.0861150  0.1027330  )
         8           B   tau(   8) = (  0.0861150  0.9138850  0.8972670  )
         9           W   tau(   9) = (  0.4977150  0.5022850  0.2500000  )
        10           W   tau(  10) = (  0.5022850  0.4977150  0.7500000  )
        11           W   tau(  11) = (  0.7885820  0.2114180  0.6069190  )
        12           W   tau(  12) = (  0.2114180  0.7885820  0.3930810  )
        13           W   tau(  13) = (  0.2114180  0.7885820  0.1069190  )
        14           W   tau(  14) = (  0.7885820  0.2114180  0.8930810  )

     number of k points=     1  Methfessel-Paxton smearing, width (Ry)=  0.0010
                       cart. coord. in units 2pi/alat
        k(    1) = (   0.0000000   0.0000000   0.0000000), wk =   2.0000000

                       cryst. coord.
        k(    1) = (   0.0000000   0.0000000   0.0000000), wk =   2.0000000

     Check: negative core charge=   -0.000005

     Initial potential from superposition of free atoms

     starting charge     133.3963, renormalised to     136.0000

     negative rho (up, down):  3.833E-01 0.000E+00
     Starting wfcs are  128 randomized atomic wfcs

     Self-consistent Calculation

     iteration #  1     ecut=    30.00 Ry     beta= 0.70
     Davidson diagonalization with overlap

     ethr =  1.00E-02,  avg # of iterations =  2.0

     negative rho (up, down):  3.699E-01 0.000E+00

     total energy              =   -1587.13606333 Ry
     estimated scf accuracy    <       5.50202646 Ry

[...]

     total energy              =   -1590.26893497 Ry
     estimated scf accuracy    <       0.00001186 Ry

     iteration # 22     ecut=    30.00 Ry     beta= 0.70
     Davidson diagonalization with overlap

     ethr =  3.09E-09,  avg # of iterations =  2.0

[...]

     End of self-consistent calculation

          k = 0.0000 0.0000 0.0000 (  1392 PWs)   bands (ev):

   -73.5665 -73.5662 -53.5494 -53.5490 -53.0834 -53.0798 -53.0524 -53.0484
   -37.1970 -37.1944 -36.7720 -36.7709 -36.6635 -36.6631 -18.0055 -18.0026
   -17.9251 -17.9015 -17.7029 -17.6072 -17.6045 -17.5111 -17.4775 -17.4644
   -17.3454 -17.2355 -17.1761 -17.1704 -17.1498 -17.0960 -17.0473 -17.0387
     7.7461   8.6325   9.6845  11.7502  12.0435  13.1146  14.0294  14.7468
    15.4171  16.0307  16.1399  16.1628  16.2001  16.2303  16.6326  16.8307
    17.0726  17.0787  17.1292  17.1595  17.4508  17.6465  17.7846  18.2905
    18.4087  18.5156  18.6916  18.7152  19.0705  19.1868  20.1496  20.2921
    20.7515  21.2206  21.2511  21.3060  21.5446  21.7614  22.1856  22.3016
    22.7055  22.8613  23.2239  23.3572  23.4270  23.6688  23.9617  24.1550
    24.5448  24.6212

     occupation numbers
     1.0000   1.0000   1.0000   1.0000   1.0000   1.0000   1.0000   1.0000
     1.0000   1.0000   1.0000   1.0000   1.0000   1.0000   1.0000   1.0000
     1.0000   1.0000   1.0000   1.0000   1.0000   1.0000   1.0000   1.0000
     1.0000   1.0000   1.0000   1.0000   1.0000   1.0000   1.0000   1.0000
     1.0000   1.0000   1.0000   1.0000   1.0000   1.0000   1.0000   1.0000
     1.0000   1.0000   1.0000   1.0000   1.0000   1.0000   1.0000   1.0000
     1.0000   1.0000   1.0000   1.0000   1.0000   1.0000   1.0000   1.0000
     1.0000   1.0000   1.0000   1.0000   1.0000   1.0000   1.0000   1.0000
     1.0000   1.0000   1.0000   1.0000  -0.0000  -0.0000  -0.0000  -0.0000
    -0.0000  -0.0000  -0.0000  -0.0000  -0.0000  -0.0000  -0.0000  -0.0000
    -0.0000  -0.0000

     the Fermi energy is    21.3919 ev

!    total energy              =   -1590.26893529 Ry
     estimated scf accuracy    <       0.00000054 Ry
     smearing contrib. (-TS)   =       0.00000000 Ry
     internal energy E=F+TS    =   -1590.26893529 Ry

     The total energy is F=E-TS. E is the sum of the following terms:
     one-electron contribution =    -477.10591515 Ry
     hartree contribution      =     327.31122616 Ry
     xc contribution           =    -331.49887514 Ry
     ewald contribution        =   -1108.97537115 Ry

     convergence has been achieved in  22 iterations

     negative rho (up, down):  3.762E-01 0.000E+00

     Forces acting on atoms (cartesian axes, Ry/au):

     atom    1 type  1   force =     0.00000000    0.00000000    0.00000000
     atom    2 type  1   force =     0.00000000    0.00000000    0.00000000
     atom    3 type  2   force =    -0.00389306    0.00146326    0.00000000
     atom    4 type  2   force =     0.00389306   -0.00146326    0.00000000
     atom    5 type  2   force =     0.01733101   -0.00651414   -0.04123786
     atom    6 type  2   force =    -0.01733101    0.00651414    0.04123786
     atom    7 type  2   force =    -0.01733101    0.00651414   -0.04123786
     atom    8 type  2   force =     0.01733101   -0.00651414    0.04123786
     atom    9 type  3   force =    -0.09268595    0.03483746    0.00000000
     atom   10 type  3   force =     0.09268595   -0.03483746    0.00000000
     atom   11 type  3   force =    -0.11417763    0.04291546    0.13101748
     atom   12 type  3   force =     0.11417763   -0.04291546   -0.13101748
     atom   13 type  3   force =     0.11417763   -0.04291546    0.13101748
     atom   14 type  3   force =    -0.11417763    0.04291546   -0.13101748
     The non-local contrib.  to forces
     atom    1 type  1   force =     0.00000000    0.00000000    0.00000000
     atom    2 type  1   force =     0.00000000    0.00000000    0.00000000
     atom    3 type  2   force =    -0.05711753    0.02146850    0.00000000
     atom    4 type  2   force =     0.05711753   -0.02146850    0.00000000
     atom    5 type  2   force =    -0.10122760    0.03804795   -0.00857426
     atom    6 type  2   force =     0.10122760   -0.03804795    0.00857426
     atom    7 type  2   force =     0.10122760   -0.03804795   -0.00857426
     atom    8 type  2   force =    -0.10122760    0.03804795    0.00857426
     atom    9 type  3   force =    -0.25097523    0.09433286    0.00000000
     atom   10 type  3   force =     0.25097523   -0.09433286    0.00000000
     atom   11 type  3   force =    -0.17454867    0.06560673    0.16629537
     atom   12 type  3   force =     0.17454867   -0.06560673   -0.16629537
     atom   13 type  3   force =     0.17454867   -0.06560673    0.16629537
     atom   14 type  3   force =    -0.17454867    0.06560673   -0.16629537
     The ionic contribution  to forces
     atom    1 type  1   force =    -0.00000000    0.00000000   -0.00000000
     atom    2 type  1   force =    -0.00000000    0.00000000    0.00000000
     atom    3 type  2   force =    -0.03610144    0.01356929    0.00000000
     atom    4 type  2   force =     0.03610144   -0.01356929    0.00000000
     atom    5 type  2   force =     1.33467757   -0.50165943    3.01301251
     atom    6 type  2   force =    -1.33467757    0.50165943   -3.01301251
     atom    7 type  2   force =    -1.33467757    0.50165943    3.01301251
     atom    8 type  2   force =     1.33467757   -0.50165943   -3.01301251
     atom    9 type  3   force =    -0.13883279    0.05218248    0.00000000
     atom   10 type  3   force =     0.13883279   -0.05218248    0.00000000
     atom   11 type  3   force =    -1.69889350    0.63855568    8.42992242
     atom   12 type  3   force =     1.69889350   -0.63855568   -8.42992242
     atom   13 type  3   force =     1.69889350   -0.63855568    8.42992242
     atom   14 type  3   force =    -1.69889350    0.63855568   -8.42992242
     The local contribution  to forces
     atom    1 type  1   force =    -0.00026129    0.00009768   -0.00207863
     atom    2 type  1   force =    -0.00026191    0.00009837    0.00201464
     atom    3 type  2   force =     0.08676393   -0.03261154   -0.00021128
     atom    4 type  2   force =    -0.08666141    0.03257306    0.00021902
     atom    5 type  2   force =    -1.21987498    0.45850913   -3.04616954
     atom    6 type  2   force =     1.21990108   -0.45851891    3.04675300
     atom    7 type  2   force =     1.21984003   -0.45849582   -3.04693409
     atom    8 type  2   force =    -1.21980547    0.45848304    3.04634360
     atom    9 type  3   force =     0.29756510   -0.11184481   -0.00088607
     atom   10 type  3   force =    -0.29788728    0.11196558    0.00087919
     atom   11 type  3   force =     1.76146080   -0.66207260   -8.47832264
     atom   12 type  3   force =    -1.76122425    0.66198380    8.48098889
     atom   13 type  3   force =    -1.76117467    0.66196502   -8.48207097
     atom   14 type  3   force =     1.76138675   -0.66204495    8.47938362
     The core correction contribution to forces
     atom    1 type  1   force =     0.00000091   -0.00000034    0.00000038
     atom    2 type  1   force =     0.00000120   -0.00000044   -0.00000181
     atom    3 type  2   force =     0.00263003   -0.00098854    0.00000020
     atom    4 type  2   force =    -0.00263041    0.00098868   -0.00000014
     atom    5 type  2   force =     0.00363130   -0.00136488    0.00083804
     atom    6 type  2   force =    -0.00363041    0.00136454   -0.00083829
     atom    7 type  2   force =    -0.00363036    0.00136453    0.00083801
     atom    8 type  2   force =     0.00363143   -0.00136493   -0.00083765
     atom    9 type  3   force =    -0.00034410    0.00012934   -0.00000918
     atom   10 type  3   force =     0.00035300   -0.00013267    0.00000990
     atom   11 type  3   force =    -0.00173991    0.00065397    0.01495588
     atom   12 type  3   force =     0.00173331   -0.00065147   -0.01494792
     atom   13 type  3   force =     0.00173006   -0.00065028    0.01494855
     atom   14 type  3   force =    -0.00173488    0.00065207   -0.01495658
     The Hubbard contrib.    to forces
     atom    1 type  1   force =     0.00000000    0.00000000    0.00000000
     atom    2 type  1   force =     0.00000000    0.00000000    0.00000000
     atom    3 type  2   force =     0.00000000    0.00000000    0.00000000
     atom    4 type  2   force =     0.00000000    0.00000000    0.00000000
     atom    5 type  2   force =     0.00000000    0.00000000    0.00000000
     atom    6 type  2   force =     0.00000000    0.00000000    0.00000000
     atom    7 type  2   force =     0.00000000    0.00000000    0.00000000
     atom    8 type  2   force =     0.00000000    0.00000000    0.00000000
     atom    9 type  3   force =     0.00000000    0.00000000    0.00000000
     atom   10 type  3   force =     0.00000000    0.00000000    0.00000000
     atom   11 type  3   force =     0.00000000    0.00000000    0.00000000
     atom   12 type  3   force =     0.00000000    0.00000000    0.00000000
     atom   13 type  3   force =     0.00000000    0.00000000    0.00000000
     atom   14 type  3   force =     0.00000000    0.00000000    0.00000000
     The SCF correction term to forces
     atom    1 type  1   force =     0.00028858   -0.00010763    0.00209263
     atom    2 type  1   force =     0.00025847   -0.00009708   -0.00199448
     atom    3 type  2   force =    -0.00006409    0.00002407    0.00021595
     atom    4 type  2   force =    -0.00003014    0.00001132   -0.00022274
     atom    5 type  2   force =     0.00012982   -0.00004878   -0.00034343
     atom    6 type  2   force =    -0.00013199    0.00004961   -0.00024058
     atom    7 type  2   force =    -0.00008475    0.00003178    0.00041615
     atom    8 type  2   force =     0.00007565   -0.00002849    0.00016954
     atom    9 type  3   force =    -0.00010495    0.00003991    0.00093836
     atom   10 type  3   force =     0.00040618   -0.00015271   -0.00093194
     atom   11 type  3   force =    -0.00044717    0.00016812   -0.00187678
     atom   12 type  3   force =     0.00022472   -0.00008468   -0.00087830
     atom   13 type  3   force =     0.00019104   -0.00007188    0.00196093
     atom   14 type  3   force =    -0.00038722    0.00014610    0.00080651

     Total force =     0.394958     Total SCF correction =     0.004506

     Computing stress (Cartesian axis) and pressure

     negative rho (up, down):  3.762E-01 0.000E+00
          total   stress  (Ry/bohr**3)                   (kbar)     P=     -135.82
  -0.00278282   0.00188668   0.00000000         -409.37      277.54        0.00
   0.00188668   0.00152760   0.00000000          277.54      224.72        0.00
   0.00000000   0.00000000  -0.00151467            0.00        0.00     -222.82

     kinetic stress (kbar)  38556.05    416.85      0.00
                              416.85  39508.42      0.00
                                0.00      0.00  38674.94

     local   stress (kbar)  15795.29   1528.70      0.05
                             1528.70  19287.85     -0.02
                                0.05     -0.02  20912.47

     nonloc. stress (kbar)  -7625.82   -110.70      0.00
                             -110.70  -7878.74      0.00
                                0.00      0.00  -7611.23

     hartree stress (kbar)  17605.23   -569.32     -0.03
                             -569.32  16304.53      0.01
                               -0.03      0.01  14955.35

     exc-cor stress (kbar)  13674.55      3.38     -0.00
                                3.38  13682.27      0.00
                               -0.00      0.00  13673.79

     corecor stress (kbar) -24801.89     10.27      0.00
                               10.27 -24778.43     -0.00
                                0.00     -0.00 -24780.38

     ewald   stress (kbar) -53612.78  -1001.64     -0.00
                            -1001.64 -55901.19     -0.00
                               -0.00     -0.00 -56047.77

     hubbard stress (kbar)      0.00      0.00      0.00
                                0.00      0.00      0.00
                                0.00      0.00      0.00

     DFT-D   stress (kbar)      0.00      0.00      0.00
                                0.00      0.00      0.00
                                0.00      0.00      0.00

     XDM     stress (kbar)      0.00      0.00      0.00
                                0.00      0.00      0.00
                                0.00      0.00      0.00

     dft-nl  stress (kbar)      0.00      0.00      0.00
                                0.00      0.00      0.00
                                0.00      0.00      0.00

     TS-vdW  stress (kbar)      0.00      0.00      0.00
                                0.00      0.00      0.00
                                0.00      0.00      0.00

[...]

                                0.00      0.00      0.00

     Writing all to output data dir new_calculations/myprefix.save/

     General routines

     Parallel routines

   This run was terminated on:   1:32: 2  21May2023

   JOB DONE.