     Program PWSCF v.7.0 starts on 21May2023 at 20: 0: 6

     Reading input from espresso_27078.pwi
Warning: card &CELL ignored
Warning: card / ignored

     Current dimensions of program PWSCF are:
     Max number of different atomic species (ntypx) = 10
     Max number of k-points (npk) =  40000
     Max angular momentum in pseudopotentials (lmaxx) =  4
     file Nb.pbe-spn-kjpaw_psl.0.3.0.UPF: wavefunction(s)  4S 4P renormalized

     gamma-point specific algorithms are used
     Message from routine setup:
     using ibrav=0 with symmetry is DISCOURAGED, use correct ibrav instead

     Subspace diagonalization in iterative solution of the eigenvalue problem:
     a serial algorithm will be used

     Using Slab Decomposition

     bravais-lattice index     =            0
     lattice parameter (alat)  =       6.0788  a.u.
     unit-cell volume          =    1486.8166 (a.u.)^3
     number of atoms/cell      =           20
     number of atomic types    =            4
     number of electrons       =       188.00
     number of Kohn-Sham states=          113
     kinetic-energy cutoff     =      30.0000  Ry
     charge density cutoff     =     240.0000  Ry
     scf convergence threshold =      1.0E-06
     mixing beta               =       0.7000
     number of iterations used =            8  plain     mixing
     Exchange-correlation= SLA  PW   PBE  PBE
                           (   1   4   3   4   0   0   0)

     celldm(1)=   6.078843  celldm(2)=   0.000000  celldm(3)=   0.000000
     celldm(4)=   0.000000  celldm(5)=   0.000000  celldm(6)=   0.000000

     crystal axes: (cart. coord. in units of alat)
               a(1) = (   1.000000   0.000000   0.000000 )
               a(2) = (   0.000000   2.275072   0.000000 )
               a(3) = (   0.000000   0.007084   2.909374 )

     reciprocal axes: (cart. coord. in units 2 pi/alat)
               b(1) = (  1.000000  0.000000  0.000000 )
               b(2) = (  0.000000  0.439547 -0.001070 )
               b(3) = (  0.000000  0.000000  0.343717 )

     PseudoPot. # 1 for Nb read from file:
     /home/pragov/projects/rrg-bengioy-ad/pragov/crystal_structure_design/SSSP/Nb.pbe-spn-kjpaw_psl.0.3.0.UPF
     MD5 check sum: 411d72ad547312f8017e2943ceca08cc
     Pseudo is Projector augmented-wave + core cor, Zval = 13.0
     Generated using "atomic" code by A. Dal Corso  v.5.0.99 svn rev. 10869
     Shape of augmentation charge: PSQ
     Using radial grid of 1227 points,  6 beta functions with:
                l(1) =   0
                l(2) =   0
                l(3) =   1
                l(4) =   1
                l(5) =   2
                l(6) =   2
     Q(r) pseudized with 0 coefficients

     PseudoPot. # 2 for V  read from file:
     /home/pragov/projects/rrg-bengioy-ad/pragov/crystal_structure_design/SSSP/v_pbe_v1.4.uspp.F.UPF
     MD5 check sum: 22b79981416ebb76fdaf5b1b8640f6fb
     Pseudo is Ultrasoft + core correction, Zval = 13.0
     Generated by new atomic code, or converted to UPF format
     Using radial grid of  853 points,  6 beta functions with:
                l(1) =   0
                l(2) =   0
                l(3) =   1
                l(4) =   1
                l(5) =   2
                l(6) =   2
     Q(r) pseudized with  8 coefficients,  rinner =    1.100   1.100   1.100
                                                       1.100   1.100

     PseudoPot. # 3 for B  read from file:
     /home/pragov/projects/rrg-bengioy-ad/pragov/crystal_structure_design/SSSP/b_pbe_v1.4.uspp.F.UPF
     MD5 check sum: cc6de2960df11db49a60e589f9ebb39b
     Pseudo is Ultrasoft + core correction, Zval =  3.0
     Generated by new atomic code, or converted to UPF format
     Using radial grid of  781 points,  4 beta functions with:
                l(1) =   0
                l(2) =   0
                l(3) =   1
                l(4) =   1
     Q(r) pseudized with  8 coefficients,  rinner =    1.100   1.100   1.100

     PseudoPot. # 4 for Ir read from file:
     /home/pragov/projects/rrg-bengioy-ad/pragov/crystal_structure_design/SSSP/Ir_pbe_v1.2.uspp.F.UPF
     MD5 check sum: 8836f839c3459d2b385c504ce6d91f2c
     Pseudo is Ultrasoft + core correction, Zval = 15.0
     Generated by new atomic code, or converted to UPF format
     Using radial grid of  983 points,  7 beta functions with:
                l(1) =   0
                l(2) =   0
                l(3) =   1
                l(4) =   1
                l(5) =   1
                l(6) =   2
                l(7) =   2
     Q(r) pseudized with  8 coefficients,  rinner =    1.400   1.400   1.400
                                                       1.400   1.400

     atomic species   valence    mass     pseudopotential
        Nb            13.00    92.90637     Nb( 1.00)
        V             13.00    50.94150     V ( 1.00)
        B              3.00    10.81000     B ( 1.00)
        Ir            15.00   192.21700     Ir( 1.00)

      2 Sym. Ops. (no inversion) found

                                    s                        frac. trans.

      isym =  1     identity

 cryst.   s( 1) = (     1          0          0      )
                  (     0          1          0      )
                  (     0          0          1      )

 cart.    s( 1) = (  1.0000000  0.0000000  0.0000000 )
                  (  0.0000000  1.0000000  0.0000000 )
                  (  0.0000000  0.0000000  1.0000000 )

      isym =  2     inv. 180 deg rotation - cart. axis [1,0,0]

 cryst.   s( 2) = (    -1          0          0      )
                  (     0          1          0      )
                  (     0          0          1      )

 cart.    s( 2) = ( -1.0000000  0.0000000  0.0000000 )
                  (  0.0000000  1.0000000  0.0000000 )
                  (  0.0000000  0.0000000  1.0000000 )

   Cartesian axes

     site n.     atom                  positions (alat units)
         1           Nb  tau(   1) = (   0.5000000   0.7331479   0.3752976  )
         2           Nb  tau(   2) = (   0.5000000   1.5479228   2.5323221  )
         3           Nb  tau(   3) = (   0.0000000   1.8752343   1.0827614  )
         4           V   tau(   4) = (   0.0000000   0.4258792   1.8339822  )
         5           V   tau(   5) = (   0.5000000   0.1702600   2.5043398  )
         6           V   tau(   6) = (   0.5000000   2.1191478   0.3916396  )
         7           V   tau(   7) = (   0.0000000   1.2991570   1.8472780  )
         8           V   tau(   8) = (   0.0000000   0.9766085   1.0651277  )
         9           B   tau(   9) = (   0.5000000   0.8731041   1.5706052  )
        10           B   tau(  10) = (   0.5000000   1.3885015   1.3483873  )
        11           B   tau(  11) = (   0.0000000   2.0328514   2.7936887  )
        12           B   tau(  12) = (   0.0000000   0.2520748   0.1080367  )
        13           B   tau(  13) = (   0.5000000   0.8525348   2.1217542  )
        14           B   tau(  14) = (   0.5000000   1.4073530   0.7840909  )
        15           B   tau(  15) = (   0.0000000   2.0163572   2.2274634  )
        16           B   tau(  16) = (   0.0000000   0.2736909   0.6810583  )
        17           Ir  tau(  17) = (   0.5000000   1.9917987   1.7728067  )
        18           Ir  tau(  18) = (   0.5000000   0.3089102   1.1525107  )
        19           Ir  tau(  19) = (   0.0000000   0.8348061   2.5818513  )
        20           Ir  tau(  20) = (   0.0000000   1.4422138   0.3187365  )

   Crystallographic axes

     site n.     atom                  positions (cryst. coord.)
         1           Nb  tau(   1) = (  0.5000000  0.3218510  0.1289960  )
         2           Nb  tau(   2) = (  0.5000000  0.6776740  0.8704010  )
         3           Nb  tau(   3) = (  0.0000000  0.8230940  0.3721630  )
         4           V   tau(   4) = (  0.0000000  0.1852310  0.6303700  )
         5           V   tau(   5) = (  0.5000000  0.0721570  0.8607830  )
         6           V   tau(   6) = (  0.5000000  0.9310450  0.1346130  )
         7           V   tau(   7) = (  0.0000000  0.5690630  0.6349400  )
         8           V   tau(   8) = (  0.0000000  0.4281250  0.3661020  )
         9           B   tau(   9) = (  0.5000000  0.3820890  0.5398430  )
        10           B   tau(  10) = (  0.5000000  0.6088680  0.4634630  )
        11           B   tau(  11) = (  0.0000000  0.8905430  0.9602370  )
        12           B   tau(  12) = (  0.0000000  0.1106830  0.0371340  )
        13           B   tau(  13) = (  0.5000000  0.3724580  0.7292820  )
        14           B   tau(  14) = (  0.5000000  0.6177580  0.2695050  )
        15           B   tau(  15) = (  0.0000000  0.8838990  0.7656160  )
        16           B   tau(  16) = (  0.0000000  0.1195710  0.2340910  )
        17           Ir  tau(  17) = (  0.5000000  0.8735910  0.6093430  )
        18           Ir  tau(  18) = (  0.5000000  0.1345470  0.3961370  )
        19           Ir  tau(  19) = (  0.0000000  0.3641730  0.8874250  )
        20           Ir  tau(  20) = (  0.0000000  0.6335790  0.1095550  )

     number of k points=     1  Methfessel-Paxton smearing, width (Ry)=  0.0010
                       cart. coord. in units 2pi/alat
        k(    1) = (   0.0000000   0.0000000   0.0000000), wk =   2.0000000

                       cryst. coord.
        k(    1) = (   0.0000000   0.0000000   0.0000000), wk =   2.0000000

     Check: negative core charge=   -0.000009

     Initial potential from superposition of free atoms

     starting charge     185.9851, renormalised to     188.0000

     negative rho (up, down):  1.454E+00 0.000E+00
     Starting wfcs are  160 randomized atomic wfcs
     Checking if some PAW data can be deallocated...

     Self-consistent Calculation

     iteration #  1     ecut=    30.00 Ry     beta= 0.70
     Davidson diagonalization with overlap

     ethr =  1.00E-02,  avg # of iterations =  2.0

     negative rho (up, down):  1.130E+00 0.000E+00

     total energy              =   -2498.83768313 Ry
     estimated scf accuracy    <      13.19971819 Ry

[...]

     total energy              =   -2507.31054758 Ry
     estimated scf accuracy    <       0.00000225 Ry

     iteration # 33     ecut=    30.00 Ry     beta= 0.70
     Davidson diagonalization with overlap

     ethr =  1.20E-09,  avg # of iterations =  2.0

[...]

     End of self-consistent calculation

          k = 0.0000 0.0000 0.0000 (  2067 PWs)   bands (ev):

   -45.2968 -45.1770 -45.1289 -45.1222 -45.0957 -35.9943 -35.9365 -35.9028
   -30.5702 -30.4935 -30.4703 -30.3659 -30.2919 -30.2829 -30.2738 -30.2538
   -30.2497 -30.1796 -30.1603 -30.0860 -19.3182 -19.2857 -19.2477 -19.1987
   -19.1028 -19.0630 -19.0162 -18.9905 -18.9905 -18.9900 -18.9661 -18.8822
   -18.8142 -18.8010 -18.7734 -12.2449 -12.2032 -12.2012 -12.1582 -12.1229
   -12.1040 -11.8099 -11.7722 -11.7166   6.9482   7.8353   8.6295   9.1056
    10.1276  10.4040  11.2366  11.5931  11.9290  12.1626  13.1707  13.1983
    13.2807  13.7183  13.7851  13.9699  14.1768  14.2451  14.3579  14.4190
    14.5757  14.8216  15.0141  15.1945  15.2581  15.5923  15.6824  15.6973
    15.9518  15.9695  16.1866  16.3007  16.3755  16.4080  16.5663  16.5877
    16.6886  16.9651  17.1580  17.2076  17.2770  17.4878  17.5352  17.7137
    17.7600  18.1879  18.2908  18.6229  18.8989  19.0708  19.1791  19.3160
    19.3452  19.4343  19.6113  19.7964  20.0618  20.2696  20.4736  20.6062
    20.6443  20.7245  20.7309  20.8723  20.9812  21.1280  21.1815  21.2236
    21.4010

     occupation numbers
     1.0000   1.0000   1.0000   1.0000   1.0000   1.0000   1.0000   1.0000
     1.0000   1.0000   1.0000   1.0000   1.0000   1.0000   1.0000   1.0000
     1.0000   1.0000   1.0000   1.0000   1.0000   1.0000   1.0000   1.0000
     1.0000   1.0000   1.0000   1.0000   1.0000   1.0000   1.0000   1.0000
     1.0000   1.0000   1.0000   1.0000   1.0000   1.0000   1.0000   1.0000
     1.0000   1.0000   1.0000   1.0000   1.0000   1.0000   1.0000   1.0000
     1.0000   1.0000   1.0000   1.0000   1.0000   1.0000   1.0000   1.0000
     1.0000   1.0000   1.0000   1.0000   1.0000   1.0000   1.0000   1.0000
     1.0000   1.0000   1.0000   1.0000   1.0000   1.0000   1.0000   1.0000
     1.0000   1.0000   1.0000   1.0000   1.0000   1.0000   1.0000   1.0000
     1.0000   1.0000   1.0000   1.0000   1.0000   1.0000   1.0000   1.0000
     1.0000   1.0000   1.0000   1.0000   1.0000   1.0000  -0.0000  -0.0000
    -0.0000  -0.0000  -0.0000  -0.0000  -0.0000  -0.0000  -0.0000  -0.0000
    -0.0000  -0.0000  -0.0000  -0.0000  -0.0000  -0.0000  -0.0000  -0.0000
    -0.0000

     the Fermi energy is    19.1250 ev

!    total energy              =   -2507.31054696 Ry
     estimated scf accuracy    <       0.00000087 Ry
     smearing contrib. (-TS)   =       0.00000000 Ry
     internal energy E=F+TS    =   -2507.31054696 Ry

     The total energy is F=E-TS. E is the sum of the following terms:
     one-electron contribution =    -329.57562350 Ry
     hartree contribution      =     291.82577106 Ry
     xc contribution           =    -411.25280416 Ry
     ewald contribution        =   -1432.84064882 Ry
     one-center paw contrib.   =    -625.46724154 Ry
      -> PAW hartree energy AE =     207.13528294 Ry
      -> PAW hartree energy PS =    -206.02472156 Ry
      -> PAW xc energy AE      =    -707.76933455 Ry
      -> PAW xc energy PS      =      81.19153163 Ry
      -> total E_H with PAW    =     292.93633245 Ry
      -> total E_XC with PAW   =   -1037.83060708 Ry

     convergence has been achieved in  33 iterations

     negative rho (up, down):  1.245E+00 0.000E+00

     Forces acting on atoms (cartesian axes, Ry/au):

     atom    1 type  1   force =     0.00000000   -0.14598807   -0.01180324
     atom    2 type  1   force =     0.00000000    0.16464895    0.02424604
     atom    3 type  1   force =     0.00000000   -0.14057383    0.03589230
     atom    4 type  2   force =     0.00000000    0.16999502   -0.01173689
     atom    5 type  2   force =     0.00000000   -0.16231495    0.07980760
     atom    6 type  2   force =     0.00000000    0.13004335   -0.10046959
     atom    7 type  2   force =     0.00000000   -0.14183721   -0.07810489
     atom    8 type  2   force =     0.00000000    0.13835519    0.08837051
     atom    9 type  3   force =     0.00000000   -0.00794336   -0.00782219
     atom   10 type  3   force =     0.00000000   -0.00468826   -0.00840786
     atom   11 type  3   force =     0.00000000    0.00159400   -0.00270356
     atom   12 type  3   force =     0.00000000    0.00300070    0.01313420
     atom   13 type  3   force =     0.00000000   -0.01763875    0.01424768
     atom   14 type  3   force =     0.00000000    0.01592146   -0.01338453
     atom   15 type  3   force =     0.00000000   -0.00448635   -0.01425259
     atom   16 type  3   force =     0.00000000    0.02037717    0.00926074
     atom   17 type  4   force =     0.00000000   -0.00958240    0.07957803
     atom   18 type  4   force =     0.00000000   -0.01549207   -0.10258459
     atom   19 type  4   force =     0.00000000    0.01845472   -0.07787236
     atom   20 type  4   force =     0.00000000   -0.01184529    0.08460523
     The non-local contrib.  to forces
     atom    1 type  1   force =     0.00000000   -0.17361197   -0.00916627
     atom    2 type  1   force =     0.00000000    0.15744680    0.02696532
     atom    3 type  1   force =     0.00000000   -0.16848629    0.00773703
     atom    4 type  2   force =     0.00000000    0.16239528    0.01172912
     atom    5 type  2   force =     0.00000000   -0.15910669    0.10210416
     atom    6 type  2   force =     0.00000000    0.15222244   -0.07799319
     atom    7 type  2   force =     0.00000000   -0.14647985   -0.08096411
     atom    8 type  2   force =     0.00000000    0.15974393    0.08426540
     atom    9 type  3   force =     0.00000000   -0.01035675   -0.05523381
     atom   10 type  3   force =     0.00000000    0.03053533    0.04980498
     atom   11 type  3   force =     0.00000000   -0.03330652    0.04938503
     atom   12 type  3   force =     0.00000000    0.03926918   -0.04050629
     atom   13 type  3   force =     0.00000000   -0.00993038    0.07330930
     atom   14 type  3   force =     0.00000000    0.02749957   -0.07383194
     atom   15 type  3   force =     0.00000000   -0.01151809   -0.06340954
     atom   16 type  3   force =     0.00000000    0.02327466    0.05942914
     atom   17 type  4   force =     0.00000000    0.00124613    0.03994113
     atom   18 type  4   force =     0.00000000   -0.02967880   -0.07014744
     atom   19 type  4   force =     0.00000000    0.02657894   -0.04405128
     atom   20 type  4   force =     0.00000000   -0.02851132    0.04399755
     The ionic contribution  to forces
     atom    1 type  1   force =    -0.00000000   -1.67728443    0.59630643
     atom    2 type  1   force =    -0.00000000    1.91798198    0.20697880
     atom    3 type  1   force =     0.00000000   -2.43460039   -1.79787677
     atom    4 type  2   force =     0.00000000    0.67906521    0.11191409
     atom    5 type  2   force =    -0.00000000   -2.82331798    2.92124436
     atom    6 type  2   force =    -0.00000000    1.34830625   -0.29982690
     atom    7 type  2   force =     0.00000000    0.69073379   -0.53787778
     atom    8 type  2   force =     0.00000000    2.61204880   -1.29865761
     atom    9 type  3   force =     0.00000000    0.86461433    0.20224165
     atom   10 type  3   force =     0.00000000    0.20069990   -0.63275644
     atom   11 type  3   force =     0.00000000   -0.07416742   -0.26453117
     atom   12 type  3   force =     0.00000000   -0.14839960    0.76681810
     atom   13 type  3   force =     0.00000000    0.59073240   -0.76662121
     atom   14 type  3   force =    -0.00000000    0.26452726    0.97216664
     atom   15 type  3   force =     0.00000000   -0.58783734    1.40957469
     atom   16 type  3   force =     0.00000000    0.04247907   -1.32396819
     atom   17 type  4   force =    -0.00000000   -2.74603835    0.16699941
     atom   18 type  4   force =    -0.00000000   -0.45174998   -3.37483032
     atom   19 type  4   force =     0.00000000    1.32538524    2.67109273
     atom   20 type  4   force =     0.00000000    0.40682125    0.27160949
     The local contribution  to forces
     atom    1 type  1   force =    -0.00000041    1.69046364   -0.59819054
     atom    2 type  1   force =     0.00000045   -1.89849815   -0.20864693
     atom    3 type  1   force =    -0.00000065    2.44986039    1.82782717
     atom    4 type  2   force =    -0.00000025   -0.66467054   -0.13833663
     atom    5 type  2   force =    -0.00000038    2.81365290   -2.93921160
     atom    6 type  2   force =     0.00000041   -1.36193124    0.27248184
     atom    7 type  2   force =     0.00000071   -0.69358919    0.53182463
     atom    8 type  2   force =     0.00000058   -2.62765046    1.31114291
     atom    9 type  3   force =     0.00000005   -0.86384263   -0.15773745
     atom   10 type  3   force =    -0.00000013   -0.23351051    0.57728953
     atom   11 type  3   force =     0.00000006    0.10644018    0.21490129
     atom   12 type  3   force =    -0.00000034    0.11490004   -0.71506690
     atom   13 type  3   force =     0.00000012   -0.59875812    0.71032671
     atom   14 type  3   force =    -0.00000022   -0.27528194   -0.91432170
     atom   15 type  3   force =     0.00000016    0.59466439   -1.36343908
     atom   16 type  3   force =     0.00000018   -0.04470270    1.27671930
     atom   17 type  4   force =     0.00000005    2.73588318   -0.12498133
     atom   18 type  4   force =     0.00000018    0.46978839    3.34492003
     atom   19 type  4   force =    -0.00000027   -1.33439669   -2.70879856
     atom   20 type  4   force =    -0.00000001   -0.38989271   -0.22863115
     The core correction contribution to forces
     atom    1 type  1   force =    -0.00000002    0.01365179    0.00120702
     atom    2 type  1   force =     0.00000003   -0.01244149   -0.00259940
     atom    3 type  1   force =    -0.00000003    0.01281559   -0.00094805
     atom    4 type  2   force =    -0.00000001   -0.00620807    0.00141250
     atom    5 type  2   force =    -0.00000001    0.00694774   -0.00566736
     atom    6 type  2   force =     0.00000002   -0.00796862    0.00670293
     atom    7 type  2   force =     0.00000002    0.00663683    0.00709407
     atom    8 type  2   force =    -0.00000001   -0.00622227   -0.00659444
     atom    9 type  3   force =     0.00000001    0.00156499    0.00276001
     atom   10 type  3   force =    -0.00000001   -0.00262871   -0.00267057
     atom   11 type  3   force =    -0.00000000    0.00278910   -0.00239402
     atom   12 type  3   force =    -0.00000002   -0.00287252    0.00211612
     atom   13 type  3   force =     0.00000000    0.00021832   -0.00331448
     atom   14 type  3   force =    -0.00000001   -0.00088439    0.00317733
     atom   15 type  3   force =     0.00000001    0.00028924    0.00259730
     atom   16 type  3   force =     0.00000000   -0.00073785   -0.00247199
     atom   17 type  4   force =    -0.00000002   -0.00034910   -0.00393179
     atom   18 type  4   force =     0.00000004   -0.00329545   -0.00150831
     atom   19 type  4   force =    -0.00000005    0.00019003    0.00182702
     atom   20 type  4   force =     0.00000007    0.00020312   -0.00024017
     The Hubbard contrib.    to forces
     atom    1 type  1   force =     0.00000000    0.00000000    0.00000000
     atom    2 type  1   force =     0.00000000    0.00000000    0.00000000
     atom    3 type  1   force =     0.00000000    0.00000000    0.00000000
     atom    4 type  2   force =     0.00000000    0.00000000    0.00000000
     atom    5 type  2   force =     0.00000000    0.00000000    0.00000000
     atom    6 type  2   force =     0.00000000    0.00000000    0.00000000
     atom    7 type  2   force =     0.00000000    0.00000000    0.00000000
     atom    8 type  2   force =     0.00000000    0.00000000    0.00000000
     atom    9 type  3   force =     0.00000000    0.00000000    0.00000000
     atom   10 type  3   force =     0.00000000    0.00000000    0.00000000
     atom   11 type  3   force =     0.00000000    0.00000000    0.00000000
     atom   12 type  3   force =     0.00000000    0.00000000    0.00000000
     atom   13 type  3   force =     0.00000000    0.00000000    0.00000000
     atom   14 type  3   force =     0.00000000    0.00000000    0.00000000
     atom   15 type  3   force =     0.00000000    0.00000000    0.00000000
     atom   16 type  3   force =     0.00000000    0.00000000    0.00000000
     atom   17 type  4   force =     0.00000000    0.00000000    0.00000000
     atom   18 type  4   force =     0.00000000    0.00000000    0.00000000
     atom   19 type  4   force =     0.00000000    0.00000000    0.00000000
     atom   20 type  4   force =     0.00000000    0.00000000    0.00000000
     The SCF correction term to forces
     atom    1 type  1   force =     0.00000028    0.00077319   -0.00194860
     atom    2 type  1   force =     0.00000006    0.00014011    0.00155954
     atom    3 type  1   force =     0.00000033   -0.00018282   -0.00083579
     atom    4 type  2   force =     0.00000028   -0.00060656    0.00155532
     atom    5 type  2   force =     0.00000051   -0.00051062    0.00134933
     atom    6 type  2   force =    -0.00000027   -0.00060519   -0.00182298
     atom    7 type  2   force =    -0.00000065    0.00084151    0.00182959
     atom    8 type  2   force =    -0.00000042    0.00041548   -0.00177445
     atom    9 type  3   force =    -0.00000003    0.00005700    0.00015869
     atom   10 type  3   force =     0.00000001    0.00019603   -0.00006407
     atom   11 type  3   force =     0.00000002   -0.00018105   -0.00005341
     atom   12 type  3   force =     0.00000008    0.00008390   -0.00021554
     atom   13 type  3   force =    -0.00000005    0.00007933    0.00055864
     atom   14 type  3   force =     0.00000007    0.00004126   -0.00056357
     atom   15 type  3   force =    -0.00000001   -0.00010424    0.00043534
     atom   16 type  3   force =    -0.00000005    0.00004428   -0.00043623
     atom   17 type  4   force =    -0.00000043   -0.00034397    0.00156190
     atom   18 type  4   force =    -0.00000025   -0.00057593   -0.00100726
     atom   19 type  4   force =     0.00000028    0.00067748    0.00206902
     atom   20 type  4   force =     0.00000022   -0.00048534   -0.00211920

     Total force =     0.495071     Total SCF correction =     0.006170

     Computing stress (Cartesian axis) and pressure

     negative rho (up, down):  1.245E+00 0.000E+00
          total   stress  (Ry/bohr**3)                   (kbar)     P=     -105.79
   0.00066589   0.00000000   0.00000000           97.96        0.00        0.00
   0.00000000  -0.00131932   0.00002602            0.00     -194.08        3.83
   0.00000000   0.00002602  -0.00150392            0.00        3.83     -221.23

     kinetic stress (kbar)  35689.09      0.00      0.00
                                0.00  34888.20      5.83
                                0.00      5.83  34421.26

     local   stress (kbar)   8954.58      0.00      0.00
                                0.00   5772.31   -179.04
                                0.00   -179.04   6549.36

     nonloc. stress (kbar)   4583.13      0.00      0.00
                                0.00   4782.86     -0.70
                                0.00     -0.70   4718.25

     hartree stress (kbar)   8889.18     -0.00     -0.00
                               -0.00  10197.17     83.21
                               -0.00     83.21   9786.78

     exc-cor stress (kbar)  10662.30     -0.00     -0.00
                               -0.00  10652.97      0.06
                               -0.00      0.06  10650.40

     corecor stress (kbar) -19914.60      0.00     -0.00
                                0.00 -19922.82     -0.27
                               -0.00     -0.27 -19913.06

     ewald   stress (kbar) -48765.73      0.00      0.00
                                0.00 -46564.77     94.73
                                0.00     94.73 -46434.22

     hubbard stress (kbar)      0.00      0.00      0.00
                                0.00      0.00      0.00
                                0.00      0.00      0.00

     DFT-D   stress (kbar)      0.00      0.00      0.00
                                0.00      0.00      0.00
                                0.00      0.00      0.00

     XDM     stress (kbar)      0.00      0.00      0.00
                                0.00      0.00      0.00
                                0.00      0.00      0.00

     dft-nl  stress (kbar)      0.00      0.00      0.00
                                0.00      0.00      0.00
                                0.00      0.00      0.00

     TS-vdW  stress (kbar)      0.00      0.00      0.00
                                0.00      0.00      0.00
                                0.00      0.00      0.00

[...]

                                0.00      0.00      0.00

     Writing all to output data dir new_calculations/myprefix.save/

     General routines

     Parallel routines

     PAW routines

   This run was terminated on:  20: 0:51  21May2023

   JOB DONE.