     Program PWSCF v.7.0 starts on 20May2023 at 15:33:39

     Reading input from espresso_612.pwi
Warning: card &CELL ignored
Warning: card / ignored

     Current dimensions of program PWSCF are:
     Max number of different atomic species (ntypx) = 10
     Max number of k-points (npk) =  40000
     Max angular momentum in pseudopotentials (lmaxx) =  4
     file K.pbe-spn-kjpaw_psl.1.0.0.UPF: wavefunction(s)  3S renormalized

     gamma-point specific algorithms are used
     Message from routine setup:
     using ibrav=0 with symmetry is DISCOURAGED, use correct ibrav instead

     Subspace diagonalization in iterative solution of the eigenvalue problem:
     a serial algorithm will be used

     Using Slab Decomposition

     bravais-lattice index     =            0
     lattice parameter (alat)  =      11.2951  a.u.
     unit-cell volume          =    1042.5145 (a.u.)^3
     number of atoms/cell      =           10
     number of atomic types    =            3
     number of electrons       =        88.00
     number of Kohn-Sham states=           53
     kinetic-energy cutoff     =      30.0000  Ry
     charge density cutoff     =     240.0000  Ry
     scf convergence threshold =      1.0E-06
     mixing beta               =       0.7000
     number of iterations used =            8  plain     mixing
     Exchange-correlation=  SLA  PW   PBX  PBC
                           (   1   4   3   4   0   0   0)

     celldm(1)=  11.295050  celldm(2)=   0.000000  celldm(3)=   0.000000
     celldm(4)=   0.000000  celldm(5)=   0.000000  celldm(6)=   0.000000

     crystal axes: (cart. coord. in units of alat)
               a(1) = (   1.000000   0.000000   0.000000 )
               a(2) = (  -0.049414   0.998778   0.000000 )
               a(3) = (  -0.471739  -0.502772   0.724350 )

     reciprocal axes: (cart. coord. in units 2 pi/alat)
               b(1) = (  1.000000  0.049474  0.685598 )
               b(2) = (  0.000000  1.001223  0.694950 )
               b(3) = (  0.000000  0.000000  1.380548 )

     PseudoPot. # 1 for K  read from file:
     /home/pragov/projects/rrg-bengioy-ad/pragov/crystal_structure_design/SSSP/K.pbe-spn-kjpaw_psl.1.0.0.UPF
     MD5 check sum: 7d58810084cac21f60fbe77ea2b688fd
     Pseudo is Projector augmented-wave + core cor, Zval =  9.0
     Generated using "atomic" code by A. Dal Corso  v.5.1
     Shape of augmentation charge: PSQ
     Using radial grid of 1165 points,  6 beta functions with:
                l(1) =   0
                l(2) =   0
                l(3) =   1
                l(4) =   1
                l(5) =   2
                l(6) =   2
     Q(r) pseudized with 0 coefficients

     PseudoPot. # 2 for Cr read from file:
     /home/pragov/projects/rrg-bengioy-ad/pragov/crystal_structure_design/SSSP/cr_pbe_v1.5.uspp.F.UPF
     MD5 check sum: 0d52af634a40206e4dee301ad30da4bf
     Pseudo is Ultrasoft + core correction, Zval = 14.0
     Generated by new atomic code, or converted to UPF format
     Using radial grid of  857 points,  6 beta functions with:
                l(1) =   0
                l(2) =   0
                l(3) =   1
                l(4) =   1
                l(5) =   2
                l(6) =   2
     Q(r) pseudized with  8 coefficients,  rinner =    0.950   0.950   0.950
                                                       0.950   0.950

     PseudoPot. # 3 for F  read from file:
     /home/pragov/projects/rrg-bengioy-ad/pragov/crystal_structure_design/SSSP/f_pbe_v1.4.uspp.F.UPF
     MD5 check sum: 4c38b6a325caf53ec0e86aed9459de46
     Pseudo is Ultrasoft, Zval =  7.0
     Generated by new atomic code, or converted to UPF format
     Using radial grid of  799 points,  4 beta functions with:
                l(1) =   0
                l(2) =   0
                l(3) =   1
                l(4) =   1
     Q(r) pseudized with  8 coefficients,  rinner =    0.950   0.950   0.950

     atomic species   valence    mass     pseudopotential
        K              9.00    39.09830     K ( 1.00)
        Cr            14.00    51.99610     Cr( 1.00)
        F              7.00    18.99840     F ( 1.00)

      2 Sym. Ops., with inversion, found

                                    s                        frac. trans.

      isym =  1     identity

 cryst.   s( 1) = (     1          0          0      )
                  (     0          1          0      )
                  (     0          0          1      )

 cart.    s( 1) = (  1.0000000  0.0000000 -0.0000000 )
                  (  0.0000000  1.0000000 -0.0000000 )
                  (  0.0000000  0.0000000  1.0000000 )

      isym =  2     inversion

 cryst.   s( 2) = (    -1          0          0      )
                  (     0         -1          0      )
                  (     0          0         -1      )

 cart.    s( 2) = ( -1.0000000 -0.0000000  0.0000000 )
                  (  0.0000000 -1.0000000  0.0000000 )
                  (  0.0000000  0.0000000 -1.0000000 )

   Cartesian axes

     site n.     atom                  positions (alat units)
         1           K   tau(   1) = (   0.2376465   0.2496946   0.0000000  )
         2           K   tau(   2) = (   0.7129396   0.7490838   0.0000000  )
         3           Cr  tau(   3) = (   0.2641307  -0.2513861   0.3621750  )
         4           Cr  tau(   4) = (   0.7394237   0.2480031   0.3621750  )
         5           F   tau(   5) = (   0.4948642   0.4807624   0.3795000  )
         6           F   tau(   6) = (  -0.0160167   0.0152438   0.3448500  )
         7           F   tau(   7) = (   0.2256095   0.7370252   0.0244468  )
         8           F   tau(   8) = (   0.2532380  -0.2410190   0.6999031  )
         9           F   tau(   9) = (   0.5017772  -0.0016915   0.3621750  )
        10           F   tau(  10) = (  -0.0229297   0.4976977   0.3621750  )

   Crystallographic axes

     site n.     atom                  positions (cryst. coord.)
         1           K   tau(   1) = (  0.2500000  0.2500000  0.0000000  )
         2           K   tau(   2) = (  0.7500000  0.7500000  0.0000000  )
         3           Cr  tau(   3) = (  0.5000000  0.0000000  0.5000000  )
         4           Cr  tau(   4) = (  1.0000000  0.5000000  0.5000000  )
         5           F   tau(   5) = (  0.7788340  0.7450840  0.5239180  )
         6           F   tau(   6) = (  0.2211660  0.2549160  0.4760820  )
         7           F   tau(   7) = (  0.2788340  0.7549160  0.0337500  )
         8           F   tau(   8) = (  0.7211660  0.2450840  0.9662500  )
         9           F   tau(   9) = (  0.7500000  0.2500000  0.5000000  )
        10           F   tau(  10) = (  0.2500000  0.7500000  0.5000000  )

     number of k points=     1  Methfessel-Paxton smearing, width (Ry)=  0.0010
                       cart. coord. in units 2pi/alat
        k(    1) = (   0.0000000   0.0000000   0.0000000), wk =   2.0000000

                       cryst. coord.
        k(    1) = (   0.0000000   0.0000000   0.0000000), wk =   2.0000000

     Check: negative core charge=   -0.000008

     Initial potential from superposition of free atoms

     starting charge      85.9623, renormalised to      88.0000

     negative rho (up, down):  3.171E-03 0.000E+00
     Starting wfcs are   60 randomized atomic wfcs
     Checking if some PAW data can be deallocated...

     Self-consistent Calculation

     iteration #  1     ecut=    30.00 Ry     beta= 0.70
     Davidson diagonalization with overlap

     ethr =  1.00E-02,  avg # of iterations =  2.0

     Threshold (ethr) on eigenvalues was too large:
     Diagonalizing with lowered threshold

     Davidson diagonalization with overlap

[...]

     negative rho (up, down):  2.864E-03 0.000E+00

     total energy              =    -868.94522874 Ry
     estimated scf accuracy    <       0.36713468 Ry

[...]

     total energy              =    -869.03938404 Ry
     estimated scf accuracy    <       0.00000999 Ry

     iteration # 19     ecut=    30.00 Ry     beta= 0.70
     Davidson diagonalization with overlap

     ethr =  6.04E-09,  avg # of iterations =  1.0

[...]

     End of self-consistent calculation

          k = 0.0000 0.0000 0.0000 (  1441 PWs)   bands (ev):

   -64.5640 -64.5639 -36.0585 -36.0482 -36.0334 -36.0329 -35.7291 -35.7275
   -23.8043 -23.7823 -17.7876 -17.5863 -17.2246 -17.0917 -17.0784 -17.0783
    -7.3830  -7.3664  -7.3650  -7.2913  -7.2890  -7.2547  -1.0703   0.0274
     0.0663   0.3443   0.3645   0.3664   0.3747   0.3884   0.7766   1.5106
     1.5198   1.7753   1.8310   1.8536   1.8636   2.0577   2.0825   2.1072
     6.9268   6.9378   7.0712   7.6516   7.6541   7.7735   7.7907   7.8088
     8.4434   9.5298   9.6367  12.0912  12.1427

     occupation numbers
     1.0000   1.0000   1.0000   1.0000   1.0000   1.0000   1.0000   1.0000
     1.0000   1.0000   1.0000   1.0000   1.0000   1.0000   1.0000   1.0000
     1.0000   1.0000   1.0000   1.0000   1.0000   1.0000   1.0000   1.0000
     1.0000   1.0000   1.0000   1.0000   1.0000   1.0000   1.0000   1.0000
     1.0000   1.0000   1.0000   1.0000   1.0000   1.0000   1.0000   1.0000
     1.0000   1.0000   1.0000   0.5774   0.4226  -0.0000  -0.0000  -0.0000
    -0.0000  -0.0000  -0.0000  -0.0000  -0.0000

     the Fermi energy is     7.6528 ev

!    total energy              =    -869.03938415 Ry
     estimated scf accuracy    <       0.00000008 Ry
     smearing contrib. (-TS)   =      -0.00055001 Ry
     internal energy E=F+TS    =    -869.03883414 Ry

     The total energy is F=E-TS. E is the sum of the following terms:
     one-electron contribution =    -431.74789122 Ry
     hartree contribution      =     255.55896372 Ry
     xc contribution           =    -123.56448670 Ry
     ewald contribution        =    -458.44804963 Ry
     one-center paw contrib.   =    -110.83737031 Ry
      -> PAW hartree energy AE =      75.56975871 Ry
      -> PAW hartree energy PS =     -75.14801620 Ry
      -> PAW xc energy AE      =    -132.46856672 Ry
      -> PAW xc energy PS      =      21.20945390 Ry
      -> total E_H with PAW    =     255.98070623 Ry
      -> total E_XC with PAW   =    -234.82359951 Ry

     convergence has been achieved in  19 iterations

     negative rho (up, down):  2.648E-03 0.000E+00

     Forces acting on atoms (cartesian axes, Ry/au):

     atom    1 type  1   force =     0.00000293    0.00000249   -0.00000003
     atom    2 type  1   force =    -0.00000293   -0.00000249    0.00000003
     atom    3 type  2   force =     0.00000000    0.00000000    0.00000000
     atom    4 type  2   force =     0.00000000    0.00000000    0.00000000
     atom    5 type  3   force =    -0.00201475    0.00191459    0.00243357
     atom    6 type  3   force =     0.00201475   -0.00191459   -0.00243357
     atom    7 type  3   force =     0.00176561   -0.00167998   -0.00266356
     atom    8 type  3   force =    -0.00176561    0.00167998    0.00266356
     atom    9 type  3   force =    -0.00004660   -0.00004507   -0.00000012
     atom   10 type  3   force =     0.00004660    0.00004507    0.00000012
     The non-local contrib.  to forces
     atom    1 type  1   force =    -0.00000001   -0.00000024   -0.00000051
     atom    2 type  1   force =     0.00000001    0.00000024    0.00000051
     atom    3 type  2   force =     0.00000000    0.00000000    0.00000000
     atom    4 type  2   force =     0.00000000    0.00000000    0.00000000
     atom    5 type  3   force =     0.20691532   -0.19693497   -0.07229583
     atom    6 type  3   force =    -0.20691532    0.19693497    0.07229583
     atom    7 type  3   force =    -0.05094983    0.04849164    0.28629072
     atom    8 type  3   force =     0.05094983   -0.04849164   -0.28629072
     atom    9 type  3   force =    -0.00004726   -0.00004609    0.00000031
     atom   10 type  3   force =     0.00004726    0.00004609   -0.00000031
     The ionic contribution  to forces
     atom    1 type  1   force =     0.00000000   -0.00000000    0.00000000
     atom    2 type  1   force =    -0.00000000    0.00000000    0.00000000
     atom    3 type  2   force =    -0.00000000   -0.00000000   -0.00000000
     atom    4 type  2   force =     0.00000000   -0.00000000   -0.00000000
     atom    5 type  3   force =    -2.54208791    2.41942912    0.58706474
     atom    6 type  3   force =     2.54208791   -2.41942912   -0.58706474
     atom    7 type  3   force =     0.40801992   -0.38833247   -3.51329060
     atom    8 type  3   force =    -0.40801992    0.38833247    3.51329060
     atom    9 type  3   force =     0.00000000    0.00000000   -0.00000000
     atom   10 type  3   force =     0.00000000    0.00000000   -0.00000000
     The local contribution  to forces
     atom    1 type  1   force =    -0.00000229   -0.00000150   -0.00000293
     atom    2 type  1   force =     0.00000186    0.00000285    0.00000413
     atom    3 type  2   force =     0.00000033    0.00000045    0.00000114
     atom    4 type  2   force =    -0.00000083   -0.00000120   -0.00000129
     atom    5 type  3   force =     2.33340615   -2.22080442   -0.51230632
     atom    6 type  3   force =    -2.33340622    2.22080415    0.51230612
     atom    7 type  3   force =    -0.35531994    0.33817466    3.22402108
     atom    8 type  3   force =     0.35531907   -0.33817482   -3.22402121
     atom    9 type  3   force =     0.00024228    0.00024202   -0.00000162
     atom   10 type  3   force =    -0.00024211   -0.00024181    0.00000132
     The core correction contribution to forces
     atom    1 type  1   force =    -0.00000004    0.00000001    0.00000002
     atom    2 type  1   force =     0.00000002    0.00000002    0.00000001
     atom    3 type  2   force =    -0.00000003   -0.00000005   -0.00000000
     atom    4 type  2   force =     0.00000005    0.00000002    0.00000003
     atom    5 type  3   force =     0.00000000    0.00000000    0.00000000
     atom    6 type  3   force =     0.00000000    0.00000000    0.00000000
     atom    7 type  3   force =     0.00000000    0.00000000    0.00000000
     atom    8 type  3   force =     0.00000000    0.00000000    0.00000000
     atom    9 type  3   force =     0.00000000    0.00000000    0.00000000
     atom   10 type  3   force =     0.00000000    0.00000000    0.00000000
     The Hubbard contrib.    to forces
     atom    1 type  1   force =     0.00000000    0.00000000    0.00000000
     atom    2 type  1   force =     0.00000000    0.00000000    0.00000000
     atom    3 type  2   force =     0.00000000    0.00000000    0.00000000
     atom    4 type  2   force =     0.00000000    0.00000000    0.00000000
     atom    5 type  3   force =     0.00000000    0.00000000    0.00000000
     atom    6 type  3   force =     0.00000000    0.00000000    0.00000000
     atom    7 type  3   force =     0.00000000    0.00000000    0.00000000
     atom    8 type  3   force =     0.00000000    0.00000000    0.00000000
     atom    9 type  3   force =     0.00000000    0.00000000    0.00000000
     atom   10 type  3   force =     0.00000000    0.00000000    0.00000000
     The SCF correction term to forces
     atom    1 type  1   force =     0.00000508    0.00000467    0.00000400
     atom    2 type  1   force =    -0.00000502   -0.00000514   -0.00000401
     atom    3 type  2   force =    -0.00000157   -0.00000236   -0.00000276
     atom    4 type  2   force =     0.00000264    0.00000254    0.00000238
     atom    5 type  3   force =    -0.00024829    0.00022503   -0.00002882
     atom    6 type  3   force =     0.00024839   -0.00022443    0.00002941
     atom    7 type  3   force =     0.00001503   -0.00001378    0.00031496
     atom    8 type  3   force =    -0.00001502    0.00001401   -0.00031540
     atom    9 type  3   force =    -0.00024163   -0.00024103    0.00000112
     atom   10 type  3   force =     0.00024146    0.00024076   -0.00000095

     Total force =     0.007306     Total SCF correction =     0.000811
     SCF correction compared to forces is large: reduce conv_thr to get better values

     Computing stress (Cartesian axis) and pressure

     negative rho (up, down):  2.648E-03 0.000E+00
          total   stress  (Ry/bohr**3)                   (kbar)     P=     -185.65
  -0.00128127  -0.00006833   0.00002244         -188.48      -10.05        3.30
  -0.00006833  -0.00128804  -0.00002138          -10.05     -189.48       -3.15
   0.00002244  -0.00002138  -0.00121680            3.30       -3.15     -179.00

     kinetic stress (kbar)  21652.93    -84.97     14.08
                              -84.97  21644.52    -13.40
                               14.08    -13.40  21733.79

     local   stress (kbar) -11831.83  -2172.03    407.56
                            -2172.03 -12046.75   -387.91
                              407.56   -387.91  -9772.90

     nonloc. stress (kbar)   4325.51     -3.17      4.47
                               -3.17   4325.20     -4.25
                                4.47     -4.25   4328.57

     hartree stress (kbar)  12267.99    874.98   -152.93
                              874.98  12354.56    145.55
                             -152.93    145.55  11438.36

     exc-cor stress (kbar)  -3941.21      0.49     -0.18
                                0.49  -3941.16      0.17
                               -0.18      0.17  -3941.66

     corecor stress (kbar)  -1487.61      0.30     -0.10
                                0.30  -1487.58      0.10
                               -0.10      0.10  -1487.90

     ewald   stress (kbar) -21174.26   1374.36   -269.59
                             1374.36 -21038.27    256.59
                             -269.59    256.59 -22477.26

     hubbard stress (kbar)      0.00      0.00      0.00
                                0.00      0.00      0.00
                                0.00      0.00      0.00

     DFT-D   stress (kbar)      0.00      0.00      0.00
                                0.00      0.00      0.00
                                0.00      0.00      0.00

     XDM     stress (kbar)      0.00      0.00      0.00
                                0.00      0.00      0.00
                                0.00      0.00      0.00

     dft-nl  stress (kbar)      0.00      0.00      0.00
                                0.00      0.00      0.00
                                0.00      0.00      0.00

     TS-vdW  stress (kbar)      0.00      0.00      0.00
                                0.00      0.00      0.00
                                0.00      0.00      0.00

[...]

                                0.00      0.00      0.00

     Writing all to output data dir new_calculations/myprefix.save/

     General routines

     Parallel routines

     PAW routines

   This run was terminated on:  15:34:18  20May2023

   JOB DONE.