     Program PWSCF v.7.0 starts on 21May2023 at  7:56:51

     Reading input from espresso_24532.pwi
Warning: card &CELL ignored
Warning: card / ignored

     Current dimensions of program PWSCF are:
     Max number of different atomic species (ntypx) = 10
     Max number of k-points (npk) =  40000
     Max angular momentum in pseudopotentials (lmaxx) =  4
     file O.pbe-n-kjpaw_psl.0.1.UPF: wavefunction(s)  2P renormalized

     gamma-point specific algorithms are used
     Message from routine setup:
     using ibrav=0 with symmetry is DISCOURAGED, use correct ibrav instead

     Subspace diagonalization in iterative solution of the eigenvalue problem:
     a serial algorithm will be used

     Using Slab Decomposition

     bravais-lattice index     =            0
     lattice parameter (alat)  =       7.2783  a.u.
     unit-cell volume          =    1802.8179 (a.u.)^3
     number of atoms/cell      =           10
     number of atomic types    =            3
     number of electrons       =        80.00
     number of Kohn-Sham states=           48
     kinetic-energy cutoff     =      30.0000  Ry
     charge density cutoff     =     240.0000  Ry
     scf convergence threshold =      1.0E-06
     mixing beta               =       0.7000
     number of iterations used =            8  plain     mixing
     Exchange-correlation= SLA  PW   PBX  PBC
                           (   1   4   3   4   0   0   0)

     celldm(1)=   7.278303  celldm(2)=   0.000000  celldm(3)=   0.000000
     celldm(4)=   0.000000  celldm(5)=   0.000000  celldm(6)=   0.000000

     crystal axes: (cart. coord. in units of alat)
               a(1) = (   1.000000   0.000000   0.000000 )
               a(2) = (   0.000000   1.999553   0.000000 )
               a(3) = (   0.000000   0.000000   2.338453 )

     reciprocal axes: (cart. coord. in units 2 pi/alat)
               b(1) = (  1.000000  0.000000  0.000000 )
               b(2) = (  0.000000  0.500112  0.000000 )
               b(3) = (  0.000000  0.000000  0.427633 )

     PseudoPot. # 1 for W  read from file:
     /home/pragov/projects/rrg-bengioy-ad/pragov/crystal_structure_design/SSSP/W_pbe_v1.2.uspp.F.UPF
     MD5 check sum: 9c083fa34c2a2ea0f02f1f893e16e1c8
     Pseudo is Ultrasoft + core correction, Zval = 14.0
     Generated by new atomic code, or converted to UPF format
     Using radial grid of  923 points,  8 beta functions with:
                l(1) =   0
                l(2) =   0
                l(3) =   0
                l(4) =   1
                l(5) =   1
                l(6) =   2
                l(7) =   2
                l(8) =   3
     Q(r) pseudized with  6 coefficients,  rinner =    1.350   1.350   1.350
                                                       1.350   1.350   1.350
                                                       1.350

     PseudoPot. # 2 for Br read from file:
     /home/pragov/projects/rrg-bengioy-ad/pragov/crystal_structure_design/SSSP/br_pbe_v1.4.uspp.F.UPF
     MD5 check sum: d3ffb7b29f6225aa16fe06858fb2a80b
     Pseudo is Ultrasoft + core correction, Zval =  7.0
     Generated by new atomic code, or converted to UPF format
     Using radial grid of  879 points,  6 beta functions with:
                l(1) =   0
                l(2) =   0
                l(3) =   1
                l(4) =   1
                l(5) =   2
                l(6) =   2
     Q(r) pseudized with  8 coefficients,  rinner =    1.100   1.100   1.100
                                                       1.100   1.100

     PseudoPot. # 3 for O  read from file:
     /home/pragov/projects/rrg-bengioy-ad/pragov/crystal_structure_design/SSSP/O.pbe-n-kjpaw_psl.0.1.UPF
     MD5 check sum: 0234752ac141de4415c5fc33072bef88
     Pseudo is Projector augmented-wave + core cor, Zval =  6.0
     Generated using "atomic" code by A. Dal Corso  v.5.0.99 svn rev. 10869
     Shape of augmentation charge: BESSEL
     Using radial grid of 1095 points,  4 beta functions with:
                l(1) =   0
                l(2) =   0
                l(3) =   1
                l(4) =   1
     Q(r) pseudized with 0 coefficients

     atomic species   valence    mass     pseudopotential
        W             14.00   183.84000     W ( 1.00)
        Br             7.00    79.90400     Br( 1.00)
        O              6.00    15.99900     O ( 1.00)

      8 Sym. Ops., with inversion, found ( 4 have fractional translation)

                                    s                        frac. trans.

      isym =  1     identity

 cryst.   s( 1) = (     1          0          0      )
                  (     0          1          0      )
                  (     0          0          1      )

 cart.    s( 1) = (  1.0000000  0.0000000  0.0000000 )
                  (  0.0000000  1.0000000  0.0000000 )
                  (  0.0000000  0.0000000  1.0000000 )

      isym =  2     180 deg rotation - cart. axis [0,0,1]

[...]

 cryst.   s( 3) = (    -1          0          0      )    f =(  0.0000000 )
                  (     0          1          0      )       (  0.5000000 )
                  (     0          0         -1      )       (  0.0000000 )

 cart.    s( 3) = ( -1.0000000  0.0000000  0.0000000 )    f =(  0.0000000 )
                  (  0.0000000  1.0000000  0.0000000 )       (  0.9997765 )
                  (  0.0000000  0.0000000 -1.0000000 )       (  0.0000000 )

      isym =  4     180 deg rotation - cart. axis [1,0,0]

[...]

      isym =  5     inversion

[...]

      isym =  6     inv. 180 deg rotation - cart. axis [0,0,1]

 cryst.   s( 6) = (     1          0          0      )
                  (     0          1          0      )
                  (     0          0         -1      )

 cart.    s( 6) = (  1.0000000  0.0000000  0.0000000 )
                  (  0.0000000  1.0000000  0.0000000 )
                  (  0.0000000  0.0000000 -1.0000000 )

[...]

      isym =  8     inv. 180 deg rotation - cart. axis [1,0,0]

 cryst.   s( 8) = (    -1          0          0      )    f =(  0.0000000 )
                  (     0          1          0      )       (  0.5000000 )
                  (     0          0          1      )       (  0.0000000 )

 cart.    s( 8) = ( -1.0000000  0.0000000  0.0000000 )    f =(  0.0000000 )
                  (  0.0000000  1.0000000  0.0000000 )       (  0.9997765 )
                  (  0.0000000  0.0000000  1.0000000 )       (  0.0000000 )

   Cartesian axes

     site n.     atom                  positions (alat units)
         1           W   tau(   1) = (   0.0066080   1.4996647   0.0000000  )
         2           W   tau(   2) = (   0.9933920   0.4998882   0.0000000  )
         3           Br  tau(   3) = (   0.9971950   1.4996647   1.6892445  )
         4           Br  tau(   4) = (   0.9971950   1.4996647   0.6492083  )
         5           Br  tau(   5) = (   0.0028050   0.4998882   1.6892445  )
         6           Br  tau(   6) = (   0.0028050   0.4998882   0.6492083  )
         7           O   tau(   7) = (   0.5010990   1.4996647   0.0000000  )
         8           O   tau(   8) = (   0.0000000   0.9997765   0.0000000  )
         9           O   tau(   9) = (   0.4989010   0.4998882   0.0000000  )
        10           O   tau(  10) = (   0.0000000   0.0000000   0.0000000  )

   Crystallographic axes

     site n.     atom                  positions (cryst. coord.)
         1           W   tau(   1) = (  0.0066080  0.7500000  0.0000000  )
         2           W   tau(   2) = (  0.9933920  0.2500000  0.0000000  )
         3           Br  tau(   3) = (  0.9971950  0.7500000  0.7223770  )
         4           Br  tau(   4) = (  0.9971950  0.7500000  0.2776230  )
         5           Br  tau(   5) = (  0.0028050  0.2500000  0.7223770  )
         6           Br  tau(   6) = (  0.0028050  0.2500000  0.2776230  )
         7           O   tau(   7) = (  0.5010990  0.7500000  0.0000000  )
         8           O   tau(   8) = (  0.0000000  0.5000000  0.0000000  )
         9           O   tau(   9) = (  0.4989010  0.2500000  0.0000000  )
        10           O   tau(  10) = (  0.0000000  0.0000000  0.0000000  )

     number of k points=     1  Methfessel-Paxton smearing, width (Ry)=  0.0010
                       cart. coord. in units 2pi/alat
        k(    1) = (   0.0000000   0.0000000   0.0000000), wk =   2.0000000

                       cryst. coord.
        k(    1) = (   0.0000000   0.0000000   0.0000000), wk =   2.0000000

     Check: negative core charge=   -0.000005

     Initial potential from superposition of free atoms

     starting charge      79.7992, renormalised to      80.0000

     negative rho (up, down):  1.284E-01 0.000E+00
     Starting wfcs are   58 randomized atomic wfcs
     Checking if some PAW data can be deallocated...

     Self-consistent Calculation

     iteration #  1     ecut=    30.00 Ry     beta= 0.70
     Davidson diagonalization with overlap

     ethr =  1.00E-02,  avg # of iterations =  2.0

     negative rho (up, down):  1.227E-01 0.000E+00

     total energy              =    -669.39890407 Ry
     estimated scf accuracy    <       3.56413667 Ry

[...]

     total energy              =    -671.22505601 Ry
     estimated scf accuracy    <       0.00000206 Ry

     iteration # 69     ecut=    30.00 Ry     beta= 0.70
     Davidson diagonalization with overlap

     ethr =  2.58E-09,  avg # of iterations =  1.0

[...]

     End of self-consistent calculation

          k = 0.0000 0.0000 0.0000 (  2519 PWs)   bands (ev):

   -73.1248 -73.1243 -37.3427 -37.2780 -37.1645 -37.1615 -37.1516 -37.1487
   -16.0752 -14.6806 -13.8168 -13.8057 -11.8450 -11.7129 -11.6331 -11.4788
    -4.9226  -2.3943  -1.9882  -1.8141  -1.3903  -0.9053  -0.6247  -0.1252
    -0.0244   0.0708   0.6164   0.6923   0.8072   0.8237   1.0001   1.2151
     1.4280   1.5038   2.0289   2.0959   2.2844   2.6071   2.6692   2.7092
     2.7208   3.3557   3.4893   3.5628   5.6185   5.7326   5.9170   6.1135

     occupation numbers
     1.0000   1.0000   1.0000   1.0000   1.0000   1.0000   1.0000   1.0000
     1.0000   1.0000   1.0000   1.0000   1.0000   1.0000   1.0000   1.0000
     1.0000   1.0000   1.0000   1.0000   1.0000   1.0000   1.0000   1.0000
     1.0000   1.0000   1.0000   1.0000   1.0000   1.0000   1.0000   1.0000
     1.0000   1.0000   1.0000   1.0000   1.0000   1.0000   1.0000   0.8283
     0.1716  -0.0000  -0.0000  -0.0000  -0.0000  -0.0000  -0.0000  -0.0000

     the Fermi energy is     2.7150 ev

!    total energy              =    -671.22505542 Ry
     estimated scf accuracy    <       0.00000076 Ry
     smearing contrib. (-TS)   =      -0.00029703 Ry
     internal energy E=F+TS    =    -671.22475840 Ry

     The total energy is F=E-TS. E is the sum of the following terms:
     one-electron contribution =    -614.39004469 Ry
     hartree contribution      =     329.80460781 Ry
     xc contribution           =    -216.25357934 Ry
     ewald contribution        =    -132.39438975 Ry
     one-center paw contrib.   =     -37.99135243 Ry
      -> PAW hartree energy AE =     124.04520643 Ry
      -> PAW hartree energy PS =    -123.54564392 Ry
      -> PAW xc energy AE      =     -69.49941646 Ry
      -> PAW xc energy PS      =      31.00850152 Ry
      -> total E_H with PAW    =     330.30417032 Ry
      -> total E_XC with PAW   =    -254.74449428 Ry

     convergence has been achieved in  69 iterations

     negative rho (up, down):  1.263E-01 0.000E+00

     Forces acting on atoms (cartesian axes, Ry/au):

     atom    1 type  1   force =     0.18935433    0.00000000    0.00000000
     atom    2 type  1   force =    -0.18935433    0.00000000    0.00000000
     atom    3 type  2   force =    -0.01242497   -0.00000000    0.06131317
     atom    4 type  2   force =    -0.01242497    0.00000000   -0.06131317
     atom    5 type  2   force =     0.01242497    0.00000000    0.06131317
     atom    6 type  2   force =     0.01242497    0.00000000   -0.06131317
     atom    7 type  3   force =    -0.14822520    0.00000000   -0.00000000
     atom    8 type  3   force =     0.00000000    0.00000000    0.00000000
     atom    9 type  3   force =     0.14822520    0.00000000    0.00000000
     atom   10 type  3   force =     0.00000000    0.00000000    0.00000000
     The non-local contrib.  to forces
     atom    1 type  1   force =    -0.03927185    0.00000000    0.00000000
     atom    2 type  1   force =     0.03927185    0.00000000    0.00000000
     atom    3 type  2   force =     0.00531487    0.00000000    0.02652551
     atom    4 type  2   force =     0.00531487    0.00000000   -0.02652551
     atom    5 type  2   force =    -0.00531487   -0.00000000    0.02652551
     atom    6 type  2   force =    -0.00531487    0.00000000   -0.02652551
     atom    7 type  3   force =    -0.09276376    0.00000000    0.00000000
     atom    8 type  3   force =     0.00000000    0.00000000    0.00000000
     atom    9 type  3   force =     0.09276376    0.00000000    0.00000000
     atom   10 type  3   force =     0.00000000    0.00000000   -0.00000000
     The ionic contribution  to forces
     atom    1 type  1   force =    -0.22449310    0.00000000    0.00000000
     atom    2 type  1   force =     0.22449310   -0.00000000    0.00000000
     atom    3 type  2   force =    -0.05587687    0.00000000  -19.54563794
     atom    4 type  2   force =    -0.05587687    0.00000000   19.54563794
     atom    5 type  2   force =     0.05587687   -0.00000000  -19.54563794
     atom    6 type  2   force =     0.05587687   -0.00000000   19.54563794
     atom    7 type  3   force =     0.55103982    0.00000000   -0.00000000
     atom    8 type  3   force =    -0.00000000   -0.00000000   -0.00000000
     atom    9 type  3   force =    -0.55103982   -0.00000000   -0.00000000
     atom   10 type  3   force =    -0.00000000   -0.00000000   -0.00000000
     The local contribution  to forces
     atom    1 type  1   force =     0.46399681   -0.00026895   -0.00004386
     atom    2 type  1   force =    -0.46669856    0.00028726    0.00004665
     atom    3 type  2   force =     0.03619976   -0.00005711   19.59280400
     atom    4 type  2   force =     0.03619889   -0.00002301  -19.59280772
     atom    5 type  2   force =    -0.03625659    0.00006249   19.59274586
     atom    6 type  2   force =    -0.03625706    0.00002131  -19.59272713
     atom    7 type  3   force =    -0.60612116   -0.00009802   -0.00004143
     atom    8 type  3   force =    -0.00004490    0.00016934   -0.00003479
     atom    9 type  3   force =     0.60844093    0.00010214    0.00003522
     atom   10 type  3   force =    -0.00004561   -0.00017119    0.00003834
     The core correction contribution to forces
     atom    1 type  1   force =    -0.01209457   -0.00000055    0.00000035
     atom    2 type  1   force =     0.01206540    0.00000036   -0.00000107
     atom    3 type  2   force =     0.00190927    0.00000006   -0.01243794
     atom    4 type  2   force =     0.00190949    0.00000073    0.01243785
     atom    5 type  2   force =    -0.00190989    0.00000057   -0.01243936
     atom    6 type  2   force =    -0.00190981   -0.00000154    0.01244017
     atom    7 type  3   force =     0.00072262    0.00000009   -0.00000011
     atom    8 type  3   force =     0.00000036    0.00000151    0.00000004
     atom    9 type  3   force =    -0.00072125   -0.00000023   -0.00000003
     atom   10 type  3   force =     0.00000029   -0.00000135   -0.00000003
     The Hubbard contrib.    to forces
     atom    1 type  1   force =     0.00000000    0.00000000    0.00000000
     atom    2 type  1   force =     0.00000000    0.00000000    0.00000000
     atom    3 type  2   force =     0.00000000    0.00000000    0.00000000
     atom    4 type  2   force =     0.00000000    0.00000000    0.00000000
     atom    5 type  2   force =     0.00000000    0.00000000    0.00000000
     atom    6 type  2   force =     0.00000000    0.00000000    0.00000000
     atom    7 type  3   force =     0.00000000    0.00000000    0.00000000
     atom    8 type  3   force =     0.00000000    0.00000000    0.00000000
     atom    9 type  3   force =     0.00000000    0.00000000    0.00000000
     atom   10 type  3   force =     0.00000000    0.00000000    0.00000000
     The SCF correction term to forces
     atom    1 type  1   force =     0.00079389    0.00030436    0.00005581
     atom    2 type  1   force =     0.00109072   -0.00032808   -0.00005995
     atom    3 type  2   force =     0.00003194    0.00006043    0.00005377
     atom    4 type  2   force =     0.00003186    0.00002253   -0.00005440
     atom    5 type  2   force =     0.00003319   -0.00006898    0.00012660
     atom    6 type  2   force =     0.00003327   -0.00001467   -0.00013820
     atom    7 type  3   force =    -0.00064105    0.00010998    0.00002792
     atom    8 type  3   force =     0.00015383   -0.00006858    0.00003845
     atom    9 type  3   force =    -0.00075672   -0.00011934   -0.00003441
     atom   10 type  3   force =     0.00015282    0.00007637   -0.00004514

     Total force =     0.362362     Total SCF correction =     0.001776

     Computing stress (Cartesian axis) and pressure

     negative rho (up, down):  1.263E-01 0.000E+00
          total   stress  (Ry/bohr**3)                   (kbar)     P=      -37.03
   0.00135566   0.00000000   0.00000000          199.42        0.00        0.00
   0.00000000  -0.00096265   0.00000000            0.00     -141.61        0.00
   0.00000000   0.00000000  -0.00114824            0.00        0.00     -168.91

     kinetic stress (kbar)  10963.54      0.00      0.00
                                0.00  10584.99      0.00
                                0.00      0.00  10634.38

     local   stress (kbar) -34823.01      0.00      0.00
                                0.00 -34546.43      0.03
                                0.00      0.03  37937.60

     nonloc. stress (kbar)  -2678.65      0.00      0.00
                                0.00  -2763.69      0.00
                                0.00      0.00  -2791.77

     hartree stress (kbar)  20522.31      0.00     -0.00
                                0.00  20358.32     -0.01
                               -0.00     -0.01 -13969.46

     exc-cor stress (kbar)   8192.37     -0.00     -0.00
                               -0.00   8197.17     -0.00
                               -0.00     -0.00   8194.41

     corecor stress (kbar) -11111.12      0.00      0.00
                                0.00 -11104.32     -0.00
                                0.00     -0.00 -11104.73

     ewald   stress (kbar)   9133.98      0.00      0.00
                                0.00   9132.34      0.00
                                0.00      0.00 -29069.34

     hubbard stress (kbar)      0.00      0.00      0.00
                                0.00      0.00      0.00
                                0.00      0.00      0.00

     DFT-D   stress (kbar)      0.00      0.00      0.00
                                0.00      0.00      0.00
                                0.00      0.00      0.00

     XDM     stress (kbar)      0.00      0.00      0.00
                                0.00      0.00      0.00
                                0.00      0.00      0.00

     dft-nl  stress (kbar)      0.00      0.00      0.00
                                0.00      0.00      0.00
                                0.00      0.00      0.00

     TS-vdW  stress (kbar)      0.00      0.00      0.00
                                0.00      0.00      0.00
                                0.00      0.00      0.00

[...]

                                0.00      0.00      0.00

     Writing all to output data dir new_calculations/myprefix.save/

     General routines

     Parallel routines

     PAW routines

   This run was terminated on:   7:57:58  21May2023

   JOB DONE.