     Program PWSCF v.7.0 starts on 21May2023 at  6:21:25

     Reading input from espresso_24454.pwi
Warning: card &CELL ignored
Warning: card / ignored

     Current dimensions of program PWSCF are:
     Max number of different atomic species (ntypx) = 10
     Max number of k-points (npk) =  40000
     Max angular momentum in pseudopotentials (lmaxx) =  4

     gamma-point specific algorithms are used
     Message from routine setup:
     using ibrav=0 with symmetry is DISCOURAGED, use correct ibrav instead

     Subspace diagonalization in iterative solution of the eigenvalue problem:
     a serial algorithm will be used

     Using Slab Decomposition

     bravais-lattice index     =            0
     lattice parameter (alat)  =       8.5935  a.u.
     unit-cell volume          =     448.7459 (a.u.)^3
     number of atoms/cell      =            4
     number of atomic types    =            2
     number of electrons       =        55.00
     number of Kohn-Sham states=           34
     kinetic-energy cutoff     =      30.0000  Ry
     charge density cutoff     =     240.0000  Ry
     scf convergence threshold =      1.0E-06
     mixing beta               =       0.7000
     number of iterations used =            8  plain     mixing
     Exchange-correlation= SLA  PW   PBE  PBE
                           (   1   4   3   4   0   0   0)

     celldm(1)=   8.593535  celldm(2)=   0.000000  celldm(3)=   0.000000
     celldm(4)=   0.000000  celldm(5)=   0.000000  celldm(6)=   0.000000

     crystal axes: (cart. coord. in units of alat)
               a(1) = (   1.000000   0.000000   0.000000 )
               a(2) = (   0.500000   0.866025   0.000000 )
               a(3) = (   0.500000   0.288675   0.816497 )

     reciprocal axes: (cart. coord. in units 2 pi/alat)
               b(1) = (  1.000000 -0.577350 -0.408248 )
               b(2) = (  0.000000  1.154701 -0.408248 )
               b(3) = (  0.000000  0.000000  1.224745 )

     PseudoPot. # 1 for Ta read from file:
     /home/pragov/projects/rrg-bengioy-ad/pragov/crystal_structure_design/SSSP/Ta_pbe_v1.uspp.F.UPF
     MD5 check sum: f8bbe9446314a3b8ea5d9f3e3836c939
     Pseudo is Ultrasoft + core correction, Zval = 13.0
     Generated by new atomic code, or converted to UPF format
     Using radial grid of  921 points,  7 beta functions with:
                l(1) =   0
                l(2) =   0
                l(3) =   1
                l(4) =   1
                l(5) =   2
                l(6) =   2
                l(7) =   3
     Q(r) pseudized with  6 coefficients,  rinner =    1.300   1.300   1.300
                                                       1.300   1.300   1.300
                                                       1.300

     PseudoPot. # 2 for W  read from file:
     /home/pragov/projects/rrg-bengioy-ad/pragov/crystal_structure_design/SSSP/W_pbe_v1.2.uspp.F.UPF
     MD5 check sum: 9c083fa34c2a2ea0f02f1f893e16e1c8
     Pseudo is Ultrasoft + core correction, Zval = 14.0
     Generated by new atomic code, or converted to UPF format
     Using radial grid of  923 points,  8 beta functions with:
                l(1) =   0
                l(2) =   0
                l(3) =   0
                l(4) =   1
                l(5) =   1
                l(6) =   2
                l(7) =   2
                l(8) =   3
     Q(r) pseudized with  6 coefficients,  rinner =    1.350   1.350   1.350
                                                       1.350   1.350   1.350
                                                       1.350

     atomic species   valence    mass     pseudopotential
        Ta            13.00   180.94788     Ta( 1.00)
        W             14.00   183.84000     W ( 1.00)

     12 Sym. Ops., with inversion, found

                                    s                        frac. trans.

      isym =  1     identity

 cryst.   s( 1) = (     1          0          0      )
                  (     0          1          0      )
                  (     0          0          1      )

 cart.    s( 1) = (  1.0000000  0.0000000  0.0000000 )
                  (  0.0000000  1.0000000  0.0000000 )
                  (  0.0000000  0.0000000  1.0000000 )

      isym =  2     180 deg rotation - cart. axis [1,0,0]

[...]

      isym =  3     120 deg rotation - cryst. axis [0,0,1]

[...]

      isym =  6     180 deg rotation - cryst. axis [1,1,0]

[...]

      isym =  7     inversion

[...]

      isym =  8     inv. 180 deg rotation - cart. axis [1,0,0]

[...]

      isym =  9     inv. 120 deg rotation - cryst. axis [0,0,1]

 cryst.   s( 9) = (     1         -1          0      )
                  (     1          0          0      )
                  (     1          0         -1      )

 cart.    s( 9) = (  0.5000000  0.8660254 -0.0000000 )
                  ( -0.8660254  0.5000000 -0.0000000 )
                  (  0.0000000  0.0000000 -1.0000000 )

[...]

 cryst.   s(10) = (     0          1          0      )
                  (    -1          1          0      )
                  (     0          1         -1      )

 cart.    s(10) = (  0.5000000 -0.8660254  0.0000000 )
                  (  0.8660254  0.5000000 -0.0000000 )
                  (  0.0000000  0.0000000 -1.0000000 )

[...]

      isym = 12     inv. 180 deg rotation - cryst. axis [1,1,0]

 cryst.   s(12) = (     1         -1          0      )
                  (     0         -1          0      )
                  (     0         -1          1      )

 cart.    s(12) = (  0.5000000 -0.8660254  0.0000000 )
                  ( -0.8660254 -0.5000000  0.0000000 )
                  (  0.0000000  0.0000000  1.0000000 )

   Cartesian axes

     site n.     atom                  positions (alat units)
         1           Ta  tau(   1) = (   0.0000000   0.0000000   0.0000000  )
         2           W   tau(   2) = (   0.5000000   0.2886751   0.2041241  )
         3           W   tau(   3) = (   1.5000000   0.8660254   0.6123724  )
         4           W   tau(   4) = (   1.0000000   0.5773503   0.4082483  )

   Crystallographic axes

     site n.     atom                  positions (cryst. coord.)
         1           Ta  tau(   1) = (  0.0000000  0.0000000  0.0000000  )
         2           W   tau(   2) = (  0.2500000  0.2500000  0.2500000  )
         3           W   tau(   3) = (  0.7500000  0.7500000  0.7500000  )
         4           W   tau(   4) = (  0.5000000  0.5000000  0.5000000  )

     number of k points=     1  Methfessel-Paxton smearing, width (Ry)=  0.0010
                       cart. coord. in units 2pi/alat
        k(    1) = (   0.0000000   0.0000000   0.0000000), wk =   2.0000000

                       cryst. coord.
        k(    1) = (   0.0000000   0.0000000   0.0000000), wk =   2.0000000

     Initial potential from superposition of free atoms

     starting charge      54.6979, renormalised to      55.0000

     negative rho (up, down):  2.844E-01 0.000E+00
     Starting wfcs are   52 randomized atomic wfcs

     Self-consistent Calculation

     iteration #  1     ecut=    30.00 Ry     beta= 0.70
     Davidson diagonalization with overlap

     ethr =  1.00E-02,  avg # of iterations =  2.0
     Minimization algorithm failed to find Fermi energy: reverting to bisection
     Possible cause: smearing is larger than the electronic band-gap.

     Threshold (ethr) on eigenvalues was too large:
     Diagonalizing with lowered threshold

     Davidson diagonalization with overlap

[...]

     negative rho (up, down):  2.875E-01 0.000E+00

     total energy              =    -619.38250113 Ry
     estimated scf accuracy    <       0.14417648 Ry

[...]

     ethr =  1.30E-04,  avg # of iterations =  3.0

[...]

     ethr =  2.92E-05,  avg # of iterations =  1.0

[...]

     total energy              =    -619.40588099 Ry
     estimated scf accuracy    <       0.00000162 Ry

     iteration # 16     ecut=    30.00 Ry     beta= 0.70
     Davidson diagonalization with overlap

     ethr =  2.94E-09,  avg # of iterations =  3.0
     Minimization algorithm failed to find Fermi energy: reverting to bisection
     Possible cause: smearing is larger than the electronic band-gap.

[...]

     End of self-consistent calculation

          k = 0.0000 0.0000 0.0000 (   622 PWs)   bands (ev):

   -52.3822 -52.1268 -52.1247 -45.5648 -16.7958 -16.7957 -16.7957 -16.5108
   -16.5107 -16.5107 -16.1913 -16.1912 -16.1912 -12.1662 -12.1661 -12.1661
    12.1334  16.1180  16.1180  18.8256  18.8257  18.8257  18.9012  18.9013
    18.9013  20.8418  20.8419  20.8419  23.8975  23.8975  24.7954  24.7955
    25.9223  25.9223

     occupation numbers
     1.0000   1.0000   1.0000   1.0000   1.0000   1.0000   1.0000   1.0000
     1.0000   1.0000   1.0000   1.0000   1.0000   1.0000   1.0000   1.0000
     1.0000   1.0000   1.0000   1.0000   1.0000   1.0000   1.0000   1.0000
     1.0000   0.8347   0.8332   0.8321  -0.0000  -0.0000  -0.0000  -0.0000
    -0.0000  -0.0000

     the Fermi energy is    20.8478 ev

!    total energy              =    -619.40588098 Ry
     estimated scf accuracy    <       0.00000036 Ry
     smearing contrib. (-TS)   =      -0.00043272 Ry
     internal energy E=F+TS    =    -619.40544826 Ry

     The total energy is F=E-TS. E is the sum of the following terms:
     one-electron contribution =     -63.80954020 Ry
     hartree contribution      =      63.83372809 Ry
     xc contribution           =    -166.28526198 Ry
     ewald contribution        =    -453.14437417 Ry

     convergence has been achieved in  16 iterations

     negative rho (up, down):  2.905E-01 0.000E+00

     Forces acting on atoms (cartesian axes, Ry/au):

     atom    1 type  1   force =     0.00000000    0.00000000    0.00000000
     atom    2 type  2   force =     0.00000000   -0.00000000    0.00003726
     atom    3 type  2   force =     0.00000000    0.00000000   -0.00003726
     atom    4 type  2   force =    -0.00000000   -0.00000000   -0.00000000
     The non-local contrib.  to forces
     atom    1 type  1   force =     0.00000000    0.00000000   -0.00000000
     atom    2 type  2   force =     0.00000000    0.00000000    0.00005841
     atom    3 type  2   force =    -0.00000000   -0.00000000   -0.00005841
     atom    4 type  2   force =     0.00000000    0.00000000    0.00000000
     The ionic contribution  to forces
     atom    1 type  1   force =     0.00000000    0.00000000    0.00000000
     atom    2 type  2   force =    -0.00000000    0.00000000   -0.00000000
     atom    3 type  2   force =     0.00000000   -0.00000000    0.00000000
     atom    4 type  2   force =    -0.00000000   -0.00000000   -0.00000000
     The local contribution  to forces
     atom    1 type  1   force =     0.00001703    0.00002264    0.00000118
     atom    2 type  2   force =     0.00010861   -0.00009109   -0.00009049
     atom    3 type  2   force =    -0.00012854    0.00005019    0.00010827
     atom    4 type  2   force =    -0.00000050    0.00000463   -0.00000614
     The core correction contribution to forces
     atom    1 type  1   force =     0.00000077    0.00000082    0.00000032
     atom    2 type  2   force =    -0.00003220    0.00001124    0.00001605
     atom    3 type  2   force =     0.00003131   -0.00001297   -0.00001462
     atom    4 type  2   force =     0.00000004   -0.00000001    0.00000051
     The Hubbard contrib.    to forces
     atom    1 type  1   force =     0.00000000    0.00000000    0.00000000
     atom    2 type  2   force =     0.00000000    0.00000000    0.00000000
     atom    3 type  2   force =     0.00000000    0.00000000    0.00000000
     atom    4 type  2   force =     0.00000000    0.00000000    0.00000000
     The SCF correction term to forces
     atom    1 type  1   force =    -0.00002396   -0.00003012   -0.00000188
     atom    2 type  2   force =    -0.00001953    0.00007361    0.00004814
     atom    3 type  2   force =     0.00004302   -0.00002220   -0.00007767
     atom    4 type  2   force =    -0.00000023   -0.00000518    0.00000534

     Total force =     0.000053     Total SCF correction =     0.000134
     SCF correction compared to forces is large: reduce conv_thr to get better values

     Computing stress (Cartesian axis) and pressure

     negative rho (up, down):  2.905E-01 0.000E+00
          total   stress  (Ry/bohr**3)                   (kbar)     P=      -73.22
  -0.00050031  -0.00000000  -0.00000000          -73.60       -0.00       -0.00
  -0.00000000  -0.00050031   0.00000000           -0.00      -73.60        0.00
  -0.00000000   0.00000000  -0.00049256           -0.00        0.00      -72.46

     kinetic stress (kbar)  39722.46     -0.00     -0.00
                               -0.00  39722.46     -0.00
                                0.00     -0.00  39722.04

     local   stress (kbar)  33444.41      1.00      1.94
                                1.00  33445.77     -0.18
                                1.94     -0.18  33446.91

     nonloc. stress (kbar) -20052.72      0.00      0.00
                                0.00 -20052.72      0.00
                                0.00      0.00 -20052.32

     hartree stress (kbar)   6975.66     -0.45     -0.63
                               -0.45   6975.18      0.09
                               -0.63      0.09   6974.73

     exc-cor stress (kbar)  24550.34     -0.01     -0.03
                               -0.01  24550.32      0.00
                               -0.03      0.00  24550.31

     corecor stress (kbar) -35198.55      0.01      0.08
                                0.01 -35198.50      0.00
                                0.08      0.00 -35198.48

     ewald   stress (kbar) -49515.65     -0.00     -0.00
                               -0.00 -49515.65     -0.00
                               -0.00     -0.00 -49515.65

     hubbard stress (kbar)      0.00      0.00      0.00
                                0.00      0.00      0.00
                                0.00      0.00      0.00

     DFT-D   stress (kbar)      0.00      0.00      0.00
                                0.00      0.00      0.00
                                0.00      0.00      0.00

     XDM     stress (kbar)      0.00      0.00      0.00
                                0.00      0.00      0.00
                                0.00      0.00      0.00

     dft-nl  stress (kbar)      0.00      0.00      0.00
                                0.00      0.00      0.00
                                0.00      0.00      0.00

     TS-vdW  stress (kbar)      0.00      0.00      0.00
                                0.00      0.00      0.00
                                0.00      0.00      0.00

[...]

                                0.00      0.00      0.00

     Writing all to output data dir new_calculations/myprefix.save/

     General routines

     Parallel routines

   This run was terminated on:   6:21:38  21May2023

   JOB DONE.