     Program PWSCF v.7.0 starts on 21May2023 at 16:10:24

     Reading input from espresso_21060.pwi
Warning: card &CELL ignored
Warning: card / ignored

     Current dimensions of program PWSCF are:
     Max number of different atomic species (ntypx) = 10
     Max number of k-points (npk) =  40000
     Max angular momentum in pseudopotentials (lmaxx) =  4
     file O.pbe-n-kjpaw_psl.0.1.UPF: wavefunction(s)  2P renormalized

     gamma-point specific algorithms are used
     Message from routine setup:
     using ibrav=0 with symmetry is DISCOURAGED, use correct ibrav instead

     Subspace diagonalization in iterative solution of the eigenvalue problem:
     a serial algorithm will be used

     Using Slab Decomposition

     bravais-lattice index     =            0
     lattice parameter (alat)  =       7.2431  a.u.
     unit-cell volume          =     880.1433 (a.u.)^3
     number of atoms/cell      =            6
     number of atomic types    =            3
     number of electrons       =        68.00
     number of Kohn-Sham states=           41
     kinetic-energy cutoff     =      30.0000  Ry
     charge density cutoff     =     240.0000  Ry
     scf convergence threshold =      1.0E-06
     mixing beta               =       0.7000
     number of iterations used =            8  plain     mixing
     Exchange-correlation= SLA  PW   PBX  PBC
                           (   1   4   3   4   0   0   0)

     celldm(1)=   7.243139  celldm(2)=   0.000000  celldm(3)=   0.000000
     celldm(4)=   0.000000  celldm(5)=   0.000000  celldm(6)=   0.000000

     crystal axes: (cart. coord. in units of alat)
               a(1) = (   1.000000   0.000000   0.000000 )
               a(2) = (   0.000000   1.000000   0.000000 )
               a(3) = (   0.000000   0.000000   2.316183 )

     reciprocal axes: (cart. coord. in units 2 pi/alat)
               b(1) = (  1.000000  0.000000  0.000000 )
               b(2) = (  0.000000  1.000000  0.000000 )
               b(3) = (  0.000000  0.000000  0.431745 )

     PseudoPot. # 1 for Ho read from file:
     /home/pragov/projects/rrg-bengioy-ad/pragov/crystal_structure_design/SSSP/Ho.GGA-PBE-paw-v1.0.UPF
     MD5 check sum: 3d93cae5f38e6cc822e0e70538981326
     Pseudo is Projector augmented-wave + core cor, Zval = 21.0
     Generated using ATOMPAW code
     Shape of augmentation charge: BESSEL
     Using radial grid of 1114 points,  8 beta functions with:
                l(1) =   0
                l(2) =   0
                l(3) =   1
                l(4) =   1
                l(5) =   2
                l(6) =   2
                l(7) =   3
                l(8) =   3
     Q(r) pseudized with 0 coefficients

     PseudoPot. # 2 for Br read from file:
     /home/pragov/projects/rrg-bengioy-ad/pragov/crystal_structure_design/SSSP/br_pbe_v1.4.uspp.F.UPF
     MD5 check sum: d3ffb7b29f6225aa16fe06858fb2a80b
     Pseudo is Ultrasoft + core correction, Zval =  7.0
     Generated by new atomic code, or converted to UPF format
     Using radial grid of  879 points,  6 beta functions with:
                l(1) =   0
                l(2) =   0
                l(3) =   1
                l(4) =   1
                l(5) =   2
                l(6) =   2
     Q(r) pseudized with  8 coefficients,  rinner =    1.100   1.100   1.100
                                                       1.100   1.100

     PseudoPot. # 3 for O  read from file:
     /home/pragov/projects/rrg-bengioy-ad/pragov/crystal_structure_design/SSSP/O.pbe-n-kjpaw_psl.0.1.UPF
     MD5 check sum: 0234752ac141de4415c5fc33072bef88
     Pseudo is Projector augmented-wave + core cor, Zval =  6.0
     Generated using "atomic" code by A. Dal Corso  v.5.0.99 svn rev. 10869
     Shape of augmentation charge: BESSEL
     Using radial grid of 1095 points,  4 beta functions with:
                l(1) =   0
                l(2) =   0
                l(3) =   1
                l(4) =   1
     Q(r) pseudized with 0 coefficients

     atomic species   valence    mass     pseudopotential
        Ho            21.00   164.93033     Ho( 1.00)
        Br             7.00    79.90400     Br( 1.00)
        O              6.00    15.99900     O ( 1.00)

     16 Sym. Ops., with inversion, found ( 8 have fractional translation)

                                    s                        frac. trans.

      isym =  1     identity

 cryst.   s( 1) = (     1          0          0      )
                  (     0          1          0      )
                  (     0          0          1      )

 cart.    s( 1) = (  1.0000000  0.0000000  0.0000000 )
                  (  0.0000000  1.0000000  0.0000000 )
                  (  0.0000000  0.0000000  1.0000000 )

      isym =  2     180 deg rotation - cart. axis [0,0,1]

[...]

 cryst.   s( 3) = (    -1          0          0      )    f =(  0.5000000 )
                  (     0          1          0      )       ( -0.5000000 )
                  (     0          0         -1      )       ( -0.0000000 )

 cart.    s( 3) = ( -1.0000000  0.0000000  0.0000000 )    f =(  0.5000000 )
                  (  0.0000000  1.0000000  0.0000000 )       ( -0.5000000 )
                  (  0.0000000  0.0000000 -1.0000000 )       ( -0.0000000 )

[...]

 cryst.   s( 6) = (     0         -1          0      )
                  (    -1          0          0      )
                  (     0          0         -1      )

 cart.    s( 6) = (  0.0000000 -1.0000000  0.0000000 )
                  ( -1.0000000  0.0000000  0.0000000 )
                  (  0.0000000  0.0000000 -1.0000000 )

[...]

      isym =  8      90 deg rotation - cart. axis [0,0,1]

[...]

      isym =  9     inversion

 cryst.   s( 9) = (    -1          0          0      )    f =(  0.5000000 )
                  (     0         -1          0      )       (  0.5000000 )
                  (     0          0         -1      )       ( -0.0000000 )

 cart.    s( 9) = ( -1.0000000  0.0000000  0.0000000 )    f =(  0.5000000 )
                  (  0.0000000 -1.0000000  0.0000000 )       (  0.5000000 )
                  (  0.0000000  0.0000000 -1.0000000 )       ( -0.0000000 )

      isym = 10     inv. 180 deg rotation - cart. axis [0,0,1]

 cryst.   s(10) = (     1          0          0      )    f =(  0.5000000 )
                  (     0          1          0      )       ( -0.5000000 )
                  (     0          0         -1      )       ( -0.0000000 )

 cart.    s(10) = (  1.0000000  0.0000000  0.0000000 )    f =(  0.5000000 )
                  (  0.0000000  1.0000000  0.0000000 )       ( -0.5000000 )
                  (  0.0000000  0.0000000 -1.0000000 )       ( -0.0000000 )

[...]

 cryst.   s(11) = (     1          0          0      )
                  (     0         -1          0      )
                  (     0          0          1      )

 cart.    s(11) = (  1.0000000  0.0000000  0.0000000 )
                  (  0.0000000 -1.0000000  0.0000000 )
                  (  0.0000000  0.0000000  1.0000000 )

[...]

 cryst.   s(14) = (     0          1          0      )    f =(  0.5000000 )
                  (     1          0          0      )       ( -0.5000000 )
                  (     0          0          1      )       (  0.0000000 )

 cart.    s(14) = (  0.0000000  1.0000000  0.0000000 )    f =(  0.5000000 )
                  (  1.0000000  0.0000000  0.0000000 )       ( -0.5000000 )
                  (  0.0000000  0.0000000  1.0000000 )       (  0.0000000 )

[...]

      isym = 16     inv.  90 deg rotation - cart. axis [0,0,1]

 cryst.   s(16) = (     0         -1          0      )
                  (     1          0          0      )
                  (     0          0         -1      )

 cart.    s(16) = (  0.0000000  1.0000000  0.0000000 )
                  ( -1.0000000  0.0000000  0.0000000 )
                  (  0.0000000  0.0000000 -1.0000000 )

   Cartesian axes

     site n.     atom                  positions (alat units)
         1           Ho  tau(   1) = (   0.5000000   0.0000000   0.2933076  )
         2           Ho  tau(   2) = (   0.0000000   0.5000000   2.0228759  )
         3           Br  tau(   3) = (   0.5000000   0.0000000   1.5815827  )
         4           Br  tau(   4) = (   0.0000000   0.5000000   0.7346008  )
         5           O   tau(   5) = (   0.5000000   0.5000000   0.0000000  )
         6           O   tau(   6) = (   0.0000000   0.0000000   0.0000000  )

   Crystallographic axes

     site n.     atom                  positions (cryst. coord.)
         1           Ho  tau(   1) = (  0.5000000  0.0000000  0.1266340  )
         2           Ho  tau(   2) = (  0.0000000  0.5000000  0.8733660  )
         3           Br  tau(   3) = (  0.5000000  0.0000000  0.6828400  )
         4           Br  tau(   4) = (  0.0000000  0.5000000  0.3171600  )
         5           O   tau(   5) = (  0.5000000  0.5000000  0.0000000  )
         6           O   tau(   6) = (  0.0000000  0.0000000  0.0000000  )

     number of k points=     1  Methfessel-Paxton smearing, width (Ry)=  0.0010
                       cart. coord. in units 2pi/alat
        k(    1) = (   0.0000000   0.0000000   0.0000000), wk =   2.0000000

                       cryst. coord.
        k(    1) = (   0.0000000   0.0000000   0.0000000), wk =   2.0000000

     Check: negative core charge=   -0.000005

     Initial potential from superposition of free atoms

     starting charge      67.9914, renormalised to      68.0000
     Starting wfcs are   80 randomized atomic wfcs
     Checking if some PAW data can be deallocated...

     Self-consistent Calculation

     iteration #  1     ecut=    30.00 Ry     beta= 0.70
     Davidson diagonalization with overlap

     ethr =  1.00E-02,  avg # of iterations =  2.0

     total energy              =   -1801.77711110 Ry
     estimated scf accuracy    <      32.50501623 Ry

[...]

     negative rho (up, down):  3.439E-05 0.000E+00

[...]

     negative rho (up, down):  2.054E-05 0.000E+00

[...]

     total energy              =   -1836.25586695 Ry
     estimated scf accuracy    <       0.00001128 Ry

     iteration # 82     ecut=    30.00 Ry     beta= 0.70
     Davidson diagonalization with overlap

     ethr =  6.16E-09,  avg # of iterations =  1.0

     End of self-consistent calculation

          k = 0.0000 0.0000 0.0000 (  1207 PWs)   bands (ev):

   -38.4469 -38.3933 -14.5799 -13.7155 -13.7155 -13.4904 -13.4554 -13.4554
   -10.1129  -9.6635  -5.7798  -5.7130   2.7176   3.3470   3.3470   3.5814
     5.0823   5.0823   5.2069   6.6558   6.6558   6.7464   6.9964   6.9964
     7.5488   7.5642   7.5642   7.6595   7.7138   7.7138   7.7509   7.7509
     7.7545   7.8378   7.8605   7.8610   7.8610   7.8634  11.7311  11.8517
    12.8556

     occupation numbers
     1.0000   1.0000   1.0000   1.0000   1.0000   1.0000   1.0000   1.0000
     1.0000   1.0000   1.0000   1.0000   1.0000   1.0000   1.0000   1.0000
     1.0000   1.0000   1.0000   1.0000   1.0000   1.0000   1.0000   1.0000
     1.0000   1.0000   1.0000   1.0000   1.0000   1.0000   1.0000   1.0000
     1.0000   1.0072   0.0116   0.0035   0.0035  -0.0258  -0.0000  -0.0000
    -0.0000

     the Fermi energy is     7.8497 ev

!    total energy              =   -1836.25586667 Ry
     estimated scf accuracy    <       0.00000019 Ry
     smearing contrib. (-TS)   =       0.00031874 Ry
     internal energy E=F+TS    =   -1836.25618541 Ry

     The total energy is F=E-TS. E is the sum of the following terms:
     one-electron contribution =    -869.37241622 Ry
     hartree contribution      =     455.51233466 Ry
     xc contribution           =    -128.10410636 Ry
     ewald contribution        =    -306.66229510 Ry
     one-center paw contrib.   =    -987.62970238 Ry
      -> PAW hartree energy AE =     652.02635031 Ry
      -> PAW hartree energy PS =    -599.66791863 Ry
      -> PAW xc energy AE      =   -1113.29183338 Ry
      -> PAW xc energy PS      =      73.30369931 Ry
      -> total E_H with PAW    =     507.87076634 Ry
      -> total E_XC with PAW   =   -1168.09224043 Ry

     convergence has been achieved in  82 iterations

     Forces acting on atoms (cartesian axes, Ry/au):

     atom    1 type  1   force =     0.00000000    0.00000000   -0.01964365
     atom    2 type  1   force =     0.00000000    0.00000000    0.01964365
     atom    3 type  2   force =     0.00000000    0.00000000   -0.00047308
     atom    4 type  2   force =     0.00000000    0.00000000    0.00047308
     atom    5 type  3   force =     0.00000000    0.00000000    0.00000000
     atom    6 type  3   force =     0.00000000    0.00000000    0.00000000
     The non-local contrib.  to forces
     atom    1 type  1   force =     0.00000000    0.00000000   -0.11675240
     atom    2 type  1   force =     0.00000000    0.00000000    0.11675240
     atom    3 type  2   force =     0.00000000    0.00000000    0.00286025
     atom    4 type  2   force =     0.00000000    0.00000000   -0.00286025
     atom    5 type  3   force =     0.00000000    0.00000000    0.00000000
     atom    6 type  3   force =     0.00000000    0.00000000    0.00000000
     The ionic contribution  to forces
     atom    1 type  1   force =    -0.00000000    0.00000000   65.57539317
     atom    2 type  1   force =     0.00000000   -0.00000000  -65.57539317
     atom    3 type  2   force =    -0.00000000    0.00000000  -24.25957239
     atom    4 type  2   force =     0.00000000    0.00000000   24.25957239
     atom    5 type  3   force =    -0.00000000   -0.00000000   -0.00000000
     atom    6 type  3   force =     0.00000000    0.00000000   -0.00000000
     The local contribution  to forces
     atom    1 type  1   force =     0.00024600    0.00014249  -65.47854260
     atom    2 type  1   force =     0.00026299    0.00009569   65.47746775
     atom    3 type  2   force =    -0.00001280   -0.00000481   24.26902481
     atom    4 type  2   force =    -0.00001274   -0.00000637  -24.26879930
     atom    5 type  3   force =    -0.00000221   -0.00000152   -0.00033826
     atom    6 type  3   force =    -0.00000349   -0.00000022   -0.00034124
     The core correction contribution to forces
     atom    1 type  1   force =     0.00000000    0.00000000   -0.00001263
     atom    2 type  1   force =     0.00000001    0.00000000    0.00001262
     atom    3 type  2   force =    -0.00000010    0.00000016   -0.01265764
     atom    4 type  2   force =    -0.00000011    0.00000009    0.01265821
     atom    5 type  3   force =    -0.00000001    0.00000000   -0.00000013
     atom    6 type  3   force =    -0.00000004   -0.00000002   -0.00000011
     The Hubbard contrib.    to forces
     atom    1 type  1   force =     0.00000000    0.00000000    0.00000000
     atom    2 type  1   force =     0.00000000    0.00000000    0.00000000
     atom    3 type  2   force =     0.00000000    0.00000000    0.00000000
     atom    4 type  2   force =     0.00000000    0.00000000    0.00000000
     atom    5 type  3   force =     0.00000000    0.00000000    0.00000000
     atom    6 type  3   force =     0.00000000    0.00000000    0.00000000
     The SCF correction term to forces
     atom    1 type  1   force =    -0.00016341   -0.00009764    0.00022834
     atom    2 type  1   force =    -0.00017661   -0.00005722    0.00076159
     atom    3 type  2   force =     0.00001094    0.00000281   -0.00012933
     atom    4 type  2   force =     0.00001089    0.00000456   -0.00009920
     atom    5 type  3   force =    -0.00000736   -0.00000221    0.00032521
     atom    6 type  3   force =    -0.00000712   -0.00000511    0.00032786

     Total force =     0.027788     Total SCF correction =     0.000971

     Computing stress (Cartesian axis) and pressure

          total   stress  (Ry/bohr**3)                   (kbar)     P=      -61.66
  -0.00026210   0.00000000   0.00000000          -38.56        0.00        0.00
   0.00000000  -0.00026210   0.00000000            0.00      -38.56        0.00
   0.00000000   0.00000000  -0.00073319            0.00        0.00     -107.86

     kinetic stress (kbar)  11155.40      0.00      0.00
                                0.00  11155.40      0.00
                                0.00      0.00  10894.44

     local   stress (kbar) -76144.94     -0.02      0.00
                               -0.02 -76144.96     -0.01
                                0.00     -0.01  87861.35

     nonloc. stress (kbar)   6881.23      0.00      0.00
                                0.00   6881.23      0.00
                                0.00      0.00   6947.78

     hartree stress (kbar)  51372.07      0.01     -0.00
                                0.01  51372.08      0.00
                               -0.00      0.00 -26610.89

     exc-cor stress (kbar)   2168.17      0.00     -0.00
                                0.00   2168.17      0.00
                               -0.00      0.00   2158.44

     corecor stress (kbar)  -7020.99     -0.00      0.00
                               -0.00  -7020.99     -0.00
                                0.00     -0.00  -7003.15

     ewald   stress (kbar)  11550.50      0.00     -0.00
                                0.00  11550.50     -0.00
                               -0.00     -0.00 -74355.82

     hubbard stress (kbar)      0.00      0.00      0.00
                                0.00      0.00      0.00
                                0.00      0.00      0.00

     DFT-D   stress (kbar)      0.00      0.00      0.00
                                0.00      0.00      0.00
                                0.00      0.00      0.00

     XDM     stress (kbar)      0.00      0.00      0.00
                                0.00      0.00      0.00
                                0.00      0.00      0.00

     dft-nl  stress (kbar)      0.00      0.00      0.00
                                0.00      0.00      0.00
                                0.00      0.00      0.00

     TS-vdW  stress (kbar)      0.00      0.00      0.00
                                0.00      0.00      0.00
                                0.00      0.00      0.00

[...]

                                0.00      0.00      0.00

     Writing all to output data dir new_calculations/myprefix.save/

     General routines

     Parallel routines

     PAW routines

   This run was terminated on:  16:11:53  21May2023

   JOB DONE.