     Program PWSCF v.7.0 starts on 20May2023 at  7:34:53

     Reading input from espresso_8253.pwi
Warning: card &CELL ignored
Warning: card / ignored

     Current dimensions of program PWSCF are:
     Max number of different atomic species (ntypx) = 10
     Max number of k-points (npk) =  40000
     Max angular momentum in pseudopotentials (lmaxx) =  4

     gamma-point specific algorithms are used
     Message from routine setup:
     using ibrav=0 with symmetry is DISCOURAGED, use correct ibrav instead

     Subspace diagonalization in iterative solution of the eigenvalue problem:
     a serial algorithm will be used

     Using Slab Decomposition

     bravais-lattice index     =            0
     lattice parameter (alat)  =      11.6206  a.u.
     unit-cell volume          =     645.6020 (a.u.)^3
     number of atoms/cell      =            5
     number of atomic types    =            3
     number of electrons       =        62.00
     number of Kohn-Sham states=           37
     kinetic-energy cutoff     =      30.0000  Ry
     charge density cutoff     =     240.0000  Ry
     scf convergence threshold =      1.0E-06
     mixing beta               =       0.7000
     number of iterations used =            8  plain     mixing
     Exchange-correlation= PBE
                           (   1   4   3   4   0   0   0)

     celldm(1)=  11.620571  celldm(2)=   0.000000  celldm(3)=   0.000000
     celldm(4)=   0.000000  celldm(5)=   0.000000  celldm(6)=   0.000000

     crystal axes: (cart. coord. in units of alat)
               a(1) = (   1.000000   0.000000   0.000000 )
               a(2) = (   0.529547   0.848280   0.000000 )
               a(3) = (  -0.764774  -0.424140   0.485001 )

     reciprocal axes: (cart. coord. in units 2 pi/alat)
               b(1) = (  1.000000 -0.624260  1.030925 )
               b(2) = (  0.000000  1.178855  1.030925 )
               b(3) = (  0.000000  0.000000  2.061850 )

     PseudoPot. # 1 for Sm read from file:
     /home/pragov/projects/rrg-bengioy-ad/pragov/crystal_structure_design/SSSP/Sm.GGA-PBE-paw-v1.0.UPF
     MD5 check sum: 886f70968969f895acf876f5617e0641
     Pseudo is Projector augmented-wave + core cor, Zval = 16.0
     Generated using ATOMPAW code
     Shape of augmentation charge: BESSEL
     Using radial grid of 1107 points,  8 beta functions with:
                l(1) =   0
                l(2) =   0
                l(3) =   1
                l(4) =   1
                l(5) =   2
                l(6) =   2
                l(7) =   3
                l(8) =   3
     Q(r) pseudized with 0 coefficients

     PseudoPot. # 2 for Si read from file:
     /home/pragov/projects/rrg-bengioy-ad/pragov/crystal_structure_design/SSSP/Si.pbe-n-rrkjus_psl.1.0.0.UPF
     MD5 check sum: 0b0bb1205258b0d07b9f9672cf965d36
     Pseudo is Ultrasoft + core correction, Zval =  4.0
     Generated using "atomic" code by A. Dal Corso  v.5.1
     Using radial grid of 1141 points,  6 beta functions with:
                l(1) =   0
                l(2) =   0
                l(3) =   1
                l(4) =   1
                l(5) =   2
                l(6) =   2
     Q(r) pseudized with 0 coefficients

     PseudoPot. # 3 for Ag read from file:
     /home/pragov/projects/rrg-bengioy-ad/pragov/crystal_structure_design/SSSP/Ag_ONCV_PBE-1.0.oncvpsp.upf
     MD5 check sum: 94f47bd0669c641108e45594df92fabc
     Pseudo is Norm-conserving, Zval = 19.0
     Generated using ONCVPSP code by D. R. Hamann
     Using radial grid of 1398 points,  6 beta functions with:
                l(1) =   0
                l(2) =   0
                l(3) =   1
                l(4) =   1
                l(5) =   2
                l(6) =   2

     atomic species   valence    mass     pseudopotential
        Sm            16.00   150.36000     Sm( 1.00)
        Si             4.00    28.08500     Si( 1.00)
        Ag            19.00   107.86820     Ag( 1.00)

      4 Sym. Ops., with inversion, found

                                    s                        frac. trans.

      isym =  1     identity

 cryst.   s( 1) = (     1          0          0      )
                  (     0          1          0      )
                  (     0          0          1      )

 cart.    s( 1) = (  1.0000000 -0.0000000  0.0000000 )
                  (  0.0000000  1.0000000  0.0000000 )
                  (  0.0000000  0.0000000  1.0000000 )

      isym =  2     180 deg rotation - cart. axis [0,0,1]

[...]

      isym =  3     inversion

[...]

      isym =  4     inv. 180 deg rotation - cart. axis [0,0,1]

 cryst.   s( 4) = (     1          0          0      )
                  (     0          1          0      )
                  (    -1         -1         -1      )

 cart.    s( 4) = (  1.0000000 -0.0000000  0.0000000 )
                  (  0.0000000  1.0000000  0.0000000 )
                  (  0.0000000  0.0000000 -1.0000000 )

   Cartesian axes

     site n.     atom                  positions (alat units)
         1           Sm  tau(   1) = (   0.0000000   0.0000000   0.0000000  )
         2           Si  tau(   2) = (   0.9293575   0.5154177   0.0000000  )
         3           Si  tau(   3) = (   0.6001897   0.3328627   0.0000000  )
         4           Ag  tau(   4) = (   0.5000000  -0.0000000   0.2425007  )
         5           Ag  tau(   5) = (   0.2647736   0.4241402   0.2425007  )

   Crystallographic axes

     site n.     atom                  positions (cryst. coord.)
         1           Sm  tau(   1) = (  0.0000000  0.0000000  0.0000000  )
         2           Si  tau(   2) = (  0.6076030  0.6076030  0.0000000  )
         3           Si  tau(   3) = (  0.3923970  0.3923970  0.0000000  )
         4           Ag  tau(   4) = (  0.7500000  0.2500000  0.5000000  )
         5           Ag  tau(   5) = (  0.2500000  0.7500000  0.5000000  )

     number of k points=     1  Methfessel-Paxton smearing, width (Ry)=  0.0010
                       cart. coord. in units 2pi/alat
        k(    1) = (   0.0000000   0.0000000   0.0000000), wk =   2.0000000

                       cryst. coord.
        k(    1) = (   0.0000000   0.0000000   0.0000000), wk =   2.0000000

     Initial potential from superposition of free atoms

     starting charge      61.9927, renormalised to      62.0000
     Starting wfcs are   60 randomized atomic wfcs
     Checking if some PAW data can be deallocated...

     Self-consistent Calculation

     iteration #  1     ecut=    30.00 Ry     beta= 0.70
     Davidson diagonalization with overlap

     ethr =  1.00E-02,  avg # of iterations =  2.0

     total energy              =   -1174.04811683 Ry
     estimated scf accuracy    <      23.03607765 Ry

[...]

     total energy              =   -1200.41779284 Ry
     estimated scf accuracy    <       0.00000789 Ry

     iteration # 65     ecut=    30.00 Ry     beta= 0.70
     Davidson diagonalization with overlap

     ethr =  1.27E-08,  avg # of iterations =  1.0

     End of self-consistent calculation

          k = 0.0000 0.0000 0.0000 (   883 PWs)   bands (ev):

   -81.3226 -81.1262 -44.1429 -44.0976 -44.0768 -44.0744 -44.0200 -44.0113
   -25.4230  -5.2250  -5.0449  -5.0124   3.2032   5.6926   6.6710   7.0786
     7.5129   8.0802   8.2686   8.4223   8.6602   8.7635   9.3090   9.3386
    10.4820  12.5317  12.5561  13.4342  13.4687  13.6566  13.6633  13.6643
    13.9559  13.9910  14.1031  14.8440  14.9264

     occupation numbers
     1.0000   1.0000   1.0000   1.0000   1.0000   1.0000   1.0000   1.0000
     1.0000   1.0000   1.0000   1.0000   1.0000   1.0000   1.0000   1.0000
     1.0000   1.0000   1.0000   1.0000   1.0000   1.0000   1.0000   1.0000
     1.0000   1.0000   1.0000   1.0000   1.0000   0.9100   0.5762   0.5138
    -0.0000  -0.0000  -0.0000  -0.0000  -0.0000

     the Fermi energy is    13.6645 ev

!    total energy              =   -1200.41779347 Ry
     estimated scf accuracy    <       0.00000036 Ry
     smearing contrib. (-TS)   =      -0.00062398 Ry
     internal energy E=F+TS    =   -1200.41716949 Ry

     The total energy is F=E-TS. E is the sum of the following terms:
     one-electron contribution =    -391.45266907 Ry
     hartree contribution      =     227.15339363 Ry
     xc contribution           =     -84.24483931 Ry
     ewald contribution        =    -502.19365788 Ry
     one-center paw contrib.   =    -449.67939686 Ry
      -> PAW hartree energy AE =     129.14285389 Ry
      -> PAW hartree energy PS =    -126.23319878 Ry
      -> PAW xc energy AE      =    -469.54635665 Ry
      -> PAW xc energy PS      =      16.95730467 Ry
      -> total E_H with PAW    =     230.06304875 Ry
      -> total E_XC with PAW   =    -536.83389129 Ry

     convergence has been achieved in  65 iterations

     Forces acting on atoms (cartesian axes, Ry/au):

     atom    1 type  1   force =     0.00000000    0.00000000    0.00000000
     atom    2 type  2   force =     0.03922266    0.01891970    0.00000000
     atom    3 type  2   force =    -0.03922266   -0.01891970   -0.00000000
     atom    4 type  3   force =     0.00000000    0.00000000    0.01230461
     atom    5 type  3   force =     0.00000000    0.00000000   -0.01230461
     The non-local contrib.  to forces
     atom    1 type  1   force =     0.00000000    0.00000000    0.00000000
     atom    2 type  2   force =     0.09008437    0.04896083    0.00000000
     atom    3 type  2   force =    -0.09008437   -0.04896083   -0.00000000
     atom    4 type  3   force =     0.00000000    0.00000000   -0.00106954
     atom    5 type  3   force =     0.00000000    0.00000000    0.00106954
     The ionic contribution  to forces
     atom    1 type  1   force =     0.00000000   -0.00000000   -0.00000000
     atom    2 type  2   force =    -5.31013465   -2.94497830   -0.00000000
     atom    3 type  2   force =     5.31013465    2.94497830    0.00000000
     atom    4 type  3   force =    -0.00000000    0.00000000    0.00000000
     atom    5 type  3   force =     0.00000000   -0.00000000    0.00000000
     The local contribution  to forces
     atom    1 type  1   force =     0.00213628    0.00111670   -0.00021411
     atom    2 type  2   force =     5.27044569    2.92163828   -0.00118610
     atom    3 type  2   force =    -5.27040844   -2.92161486    0.00123238
     atom    4 type  3   force =     0.01111174    0.00288297    0.01328868
     atom    5 type  3   force =    -0.01292447   -0.00390260   -0.01333807
     The core correction contribution to forces
     atom    1 type  1   force =     0.00000008    0.00000004   -0.00000001
     atom    2 type  2   force =    -0.01114588   -0.00667532   -0.00023660
     atom    3 type  2   force =     0.01114595    0.00667522    0.00023828
     atom    4 type  3   force =     0.00000000    0.00000000    0.00000000
     atom    5 type  3   force =     0.00000000    0.00000000    0.00000000
     The Hubbard contrib.    to forces
     atom    1 type  1   force =     0.00000000    0.00000000    0.00000000
     atom    2 type  2   force =     0.00000000    0.00000000    0.00000000
     atom    3 type  2   force =     0.00000000    0.00000000    0.00000000
     atom    4 type  3   force =     0.00000000    0.00000000    0.00000000
     atom    5 type  3   force =     0.00000000    0.00000000    0.00000000
     The SCF correction term to forces
     atom    1 type  1   force =    -0.00149311   -0.00072239    0.00016318
     atom    2 type  2   force =    -0.00002747   -0.00002550   -0.00001285
     atom    3 type  2   force =    -0.00001104    0.00000274   -0.00001189
     atom    4 type  3   force =     0.00073807    0.00043287    0.00008547
     atom    5 type  3   force =     0.00089225    0.00050012   -0.00003607

     Total force =     0.063996     Total SCF correction =     0.002137

     Computing stress (Cartesian axis) and pressure

          total   stress  (Ry/bohr**3)                   (kbar)     P=     -828.32
  -0.00554932   0.00043851  -0.00000000         -816.33       64.51       -0.00
   0.00043851  -0.00494489  -0.00000000           64.51     -727.42       -0.00
  -0.00000000  -0.00000000  -0.00639819           -0.00       -0.00     -941.21

     kinetic stress (kbar)  32508.08    -50.53      0.00
                              -50.53  32758.72      0.00
                                0.00      0.00  32718.16

     local   stress (kbar)   4558.55  13469.89     10.20
                            13469.89 -12309.84    -18.57
                               10.20    -18.57 -19801.31

     nonloc. stress (kbar)   2216.30     31.08      0.00
                               31.08   2218.81      0.00
                                0.00      0.00   2083.94

     hartree stress (kbar)  10911.29  -6229.62     -6.28
                            -6229.62  18681.95      9.71
                               -6.28      9.71  22165.31

     exc-cor stress (kbar)  -3938.33     -0.90     -0.23
                               -0.90  -3938.33      0.25
                               -0.23      0.25  -3936.99

     corecor stress (kbar)  -1649.38      1.44     -0.03
                                1.44  -1651.35      0.02
                               -0.03      0.02  -1652.10

     ewald   stress (kbar) -45422.86  -7156.86     -0.00
                            -7156.86 -36487.38     -0.00
                               -0.00     -0.00 -32518.22

     hubbard stress (kbar)      0.00      0.00      0.00
                                0.00      0.00      0.00
                                0.00      0.00      0.00

     DFT-D   stress (kbar)      0.00      0.00      0.00
                                0.00      0.00      0.00
                                0.00      0.00      0.00

     XDM     stress (kbar)      0.00      0.00      0.00
                                0.00      0.00      0.00
                                0.00      0.00      0.00

     dft-nl  stress (kbar)      0.00      0.00      0.00
                                0.00      0.00      0.00
                                0.00      0.00      0.00

     TS-vdW  stress (kbar)      0.00      0.00      0.00
                                0.00      0.00      0.00
                                0.00      0.00      0.00

[...]

                                0.00      0.00      0.00

     Writing all to output data dir new_calculations/myprefix.save/

     General routines

     Parallel routines

     PAW routines

   This run was terminated on:   7:35:48  20May2023

   JOB DONE.