     Program PWSCF v.7.0 starts on 21May2023 at  4:10:18

     Reading input from espresso_1036.pwi
Warning: card &CELL ignored
Warning: card / ignored

     Current dimensions of program PWSCF are:
     Max number of different atomic species (ntypx) = 10
     Max number of k-points (npk) =  40000
     Max angular momentum in pseudopotentials (lmaxx) =  4
     file Ba.pbe-spn-kjpaw_psl.1.0.0.UPF: wavefunction(s)  5S 6S renormalized

     gamma-point specific algorithms are used
     Message from routine setup:
     using ibrav=0 with symmetry is DISCOURAGED, use correct ibrav instead

     Subspace diagonalization in iterative solution of the eigenvalue problem:
     a serial algorithm will be used

     Using Slab Decomposition

     bravais-lattice index     =            0
     lattice parameter (alat)  =       6.9882  a.u.
     unit-cell volume          =    1014.6293 (a.u.)^3
     number of atoms/cell      =            8
     number of atomic types    =            3
     number of electrons       =        64.00
     number of Kohn-Sham states=           38
     kinetic-energy cutoff     =      30.0000  Ry
     charge density cutoff     =     240.0000  Ry
     scf convergence threshold =      1.0E-06
     mixing beta               =       0.7000
     number of iterations used =            8  plain     mixing
     Exchange-correlation= PBE
                           (   1   4   3   4   0   0   0)

     celldm(1)=   6.988206  celldm(2)=   0.000000  celldm(3)=   0.000000
     celldm(4)=   0.000000  celldm(5)=   0.000000  celldm(6)=   0.000000

     crystal axes: (cart. coord. in units of alat)
               a(1) = (   1.000000   0.000000   0.000000 )
               a(2) = (  -0.500000   0.866026   0.000000 )
               a(3) = (   0.000000   0.000000   3.433046 )

     reciprocal axes: (cart. coord. in units 2 pi/alat)
               b(1) = (  1.000000  0.577350  0.000000 )
               b(2) = (  0.000000  1.154700  0.000000 )
               b(3) = (  0.000000  0.000000  0.291286 )

     PseudoPot. # 1 for Ba read from file:
     /home/pragov/projects/rrg-bengioy-ad/pragov/crystal_structure_design/SSSP/Ba.pbe-spn-kjpaw_psl.1.0.0.UPF
     MD5 check sum: c432291d3e53af55f19d5e8866385beb
     Pseudo is Projector augmented-wave + core cor, Zval = 10.0
     Generated using "atomic" code by A. Dal Corso  v.5.1
     Shape of augmentation charge: PSQ
     Using radial grid of 1251 points,  7 beta functions with:
                l(1) =   0
                l(2) =   0
                l(3) =   0
                l(4) =   1
                l(5) =   1
                l(6) =   2
                l(7) =   2
     Q(r) pseudized with 0 coefficients

     PseudoPot. # 2 for Ce read from file:
     /home/pragov/projects/rrg-bengioy-ad/pragov/crystal_structure_design/SSSP/Ce.GGA-PBE-paw-v1.0.UPF
     MD5 check sum: f2b950f613061344c13339c8d844425d
     Pseudo is Projector augmented-wave + core cor, Zval = 12.0
     Generated using ATOMPAW code
     Shape of augmentation charge: BESSEL
     Using radial grid of 1102 points,  8 beta functions with:
                l(1) =   0
                l(2) =   0
                l(3) =   1
                l(4) =   1
                l(5) =   2
                l(6) =   2
                l(7) =   3
                l(8) =   3
     Q(r) pseudized with 0 coefficients

     PseudoPot. # 3 for N  read from file:
     /home/pragov/projects/rrg-bengioy-ad/pragov/crystal_structure_design/SSSP/N.pbe-n-radius_5.UPF
     MD5 check sum: 16739722b17309cd8fe442a2ace49922
     Pseudo is Ultrasoft + core correction, Zval =  5.0
     Generated using "atomic" code by A. Dal Corso  v.5.1
     Using radial grid of 1085 points,  4 beta functions with:
                l(1) =   0
                l(2) =   0
                l(3) =   1
                l(4) =   1
     Q(r) pseudized with 0 coefficients

     atomic species   valence    mass     pseudopotential
        Ba            10.00   137.32700     Ba( 1.00)
        Ce            12.00   140.11600     Ce( 1.00)
        N              5.00    14.00700     N ( 1.00)

     24 Sym. Ops., with inversion, found (12 have fractional translation)

                                    s                        frac. trans.

      isym =  1     identity

 cryst.   s( 1) = (     1          0          0      )
                  (     0          1          0      )
                  (     0          0          1      )

 cart.    s( 1) = (  1.0000000  0.0000000  0.0000000 )
                  (  0.0000000  1.0000000  0.0000000 )
                  (  0.0000000  0.0000000  1.0000000 )

      isym =  2     180 deg rotation - cart. axis [0,0,1]

 cryst.   s( 2) = (    -1          0          0      )    f =( -0.0000000 )
                  (     0         -1          0      )       ( -0.0000000 )
                  (     0          0          1      )       (  0.5000000 )

 cart.    s( 2) = ( -1.0000000 -0.0000000  0.0000000 )    f =(  0.0000000 )
                  (  0.0000000 -1.0000000  0.0000000 )       ( -0.0000000 )
                  (  0.0000000  0.0000000  1.0000000 )       (  1.7165232 )

[...]

      isym =  4     180 deg rotation - cart. axis [1,0,0]

[...]

      isym =  5      60 deg rotation - cryst. axis [0,0,1]

[...]

 cryst.   s( 8) = (    -1         -1          0      )
                  (     1          0          0      )
                  (     0          0          1      )

 cart.    s( 8) = ( -0.5000002  0.8660253  0.0000000 )
                  ( -0.8660255 -0.4999998  0.0000000 )
                  (  0.0000000  0.0000000  1.0000000 )

[...]

 cryst.   s( 9) = (     0         -1          0      )    f =( -0.0000000 )
                  (    -1          0          0      )       ( -0.0000000 )
                  (     0          0         -1      )       (  0.5000000 )

 cart.    s( 9) = (  0.4999998 -0.8660255  0.0000000 )    f =( -0.0000000 )
                  ( -0.8660255 -0.4999998  0.0000000 )       ( -0.0000000 )
                  (  0.0000000  0.0000000 -1.0000000 )       (  1.7165232 )

[...]

 cryst.   s(10) = (     1          1          0      )    f =(  0.0000000 )
                  (     0         -1          0      )       ( -0.0000010 )
                  (     0          0         -1      )       (  0.5000000 )

 cart.    s(10) = (  0.5000002  0.8660250  0.0000000 )    f =(  0.0000005 )
                  (  0.8660255 -0.5000002  0.0000000 )       ( -0.0000009 )
                  (  0.0000000  0.0000000 -1.0000000 )       (  1.7165232 )

[...]

 cryst.   s(11) = (    -1         -1          0      )
                  (     0          1          0      )
                  (     0          0         -1      )

 cart.    s(11) = ( -0.5000002 -0.8660250  0.0000000 )
                  ( -0.8660255  0.5000002  0.0000000 )
                  (  0.0000000  0.0000000 -1.0000000 )

      isym = 12     180 deg rotation - cryst. axis [1,1,0]

[...]

      isym = 13     inversion

[...]

      isym = 14     inv. 180 deg rotation - cart. axis [0,0,1]

[...]

      isym = 16     inv. 180 deg rotation - cart. axis [1,0,0]

[...]

      isym = 17     inv.  60 deg rotation - cryst. axis [0,0,1]

[...]

 cryst.   s(22) = (    -1         -1          0      )    f =( -0.0000000 )
                  (     0          1          0      )       ( -0.0000010 )
                  (     0          0          1      )       (  0.5000000 )

 cart.    s(22) = ( -0.5000002 -0.8660250  0.0000000 )    f =(  0.0000005 )
                  ( -0.8660255  0.5000002  0.0000000 )       ( -0.0000009 )
                  (  0.0000000  0.0000000  1.0000000 )       (  1.7165232 )

[...]

      isym = 24     inv. 180 deg rotation - cryst. axis [1,1,0]

 cryst.   s(24) = (     0         -1          0      )
                  (    -1          0          0      )
                  (     0          0          1      )

 cart.    s(24) = (  0.4999998 -0.8660255  0.0000000 )
                  ( -0.8660255 -0.4999998  0.0000000 )
                  (  0.0000000  0.0000000  1.0000000 )

   Cartesian axes

     site n.     atom                  positions (alat units)
         1           Ba  tau(   1) = (  -0.0000004   0.5773506   2.5747848  )
         2           Ba  tau(   2) = (   0.5000006   0.2886749   0.8582616  )
         3           Ce  tau(   3) = (   0.0000000   0.0000000   0.0000000  )
         4           Ce  tau(   4) = (   0.0000000   0.0000000   1.7165232  )
         5           N   tau(   5) = (  -0.0000004   0.5773506   1.3875653  )
         6           N   tau(   6) = (   0.5000006   0.2886749   3.1040885  )
         7           N   tau(   7) = (  -0.0000004   0.5773506   0.3289579  )
         8           N   tau(   8) = (   0.5000006   0.2886749   2.0454812  )

   Crystallographic axes

     site n.     atom                  positions (cryst. coord.)
         1           Ba  tau(   1) = (  0.3333330  0.6666670  0.7500000  )
         2           Ba  tau(   2) = (  0.6666670  0.3333330  0.2500000  )
         3           Ce  tau(   3) = (  0.0000000  0.0000000  0.0000000  )
         4           Ce  tau(   4) = (  0.0000000  0.0000000  0.5000000  )
         5           N   tau(   5) = (  0.3333330  0.6666670  0.4041790  )
         6           N   tau(   6) = (  0.6666670  0.3333330  0.9041790  )
         7           N   tau(   7) = (  0.3333330  0.6666670  0.0958210  )
         8           N   tau(   8) = (  0.6666670  0.3333330  0.5958210  )

     number of k points=     1  Methfessel-Paxton smearing, width (Ry)=  0.0010
                       cart. coord. in units 2pi/alat
        k(    1) = (   0.0000000   0.0000000   0.0000000), wk =   2.0000000

                       cryst. coord.
        k(    1) = (   0.0000000   0.0000000   0.0000000), wk =   2.0000000

     Check: negative core charge=   -0.000002

     Initial potential from superposition of free atoms

     starting charge      63.9520, renormalised to      64.0000
     Starting wfcs are   90 randomized atomic wfcs
     Checking if some PAW data can be deallocated...

     Self-consistent Calculation

     iteration #  1     ecut=    30.00 Ry     beta= 0.70
     Davidson diagonalization with overlap

     ethr =  1.00E-02,  avg # of iterations =  1.0

     total energy              =   -1914.62165457 Ry
     estimated scf accuracy    <       4.74863896 Ry

[...]

     total energy              =   -1917.45790616 Ry
     estimated scf accuracy    <       0.00000127 Ry

     iteration # 40     ecut=    30.00 Ry     beta= 0.70
     Davidson diagonalization with overlap

     ethr =  1.98E-09,  avg # of iterations =  2.0

     End of self-consistent calculation

          k = 0.0000 0.0000 0.0000 (  1389 PWs)   bands (ev):

   -21.1014 -21.1003 -15.4643 -15.4584  -5.0573  -4.8681  -3.2628  -3.2628
    -3.2618  -3.2618  -1.9496  -1.0523  -0.2656   0.0827   0.0827   0.0849
     0.0849   1.1658   1.1832   1.9369   8.7392   9.6737   9.6737   9.7042
     9.7042   9.7345   9.9556  11.0960  11.0960  11.1456  11.1456  11.3078
    12.9186  13.3412  13.5054  13.6767  13.6801  13.6900

     occupation numbers
     1.0000   1.0000   1.0000   1.0000   1.0000   1.0000   1.0000   1.0000
     1.0000   1.0000   1.0000   1.0000   1.0000   1.0000   1.0000   1.0000
     1.0000   1.0000   1.0000   1.0000   1.0000   1.0000   1.0000   1.0000
     1.0000   1.0000   1.0000   1.0000   1.0000   1.0000   1.0000   1.0000
    -0.0000  -0.0000  -0.0000  -0.0000  -0.0000  -0.0000

     the Fermi energy is    11.6346 ev

!    total energy              =   -1917.45790580 Ry
     estimated scf accuracy    <       0.00000049 Ry
     smearing contrib. (-TS)   =       0.00000000 Ry
     internal energy E=F+TS    =   -1917.45790580 Ry

     The total energy is F=E-TS. E is the sum of the following terms:
     one-electron contribution =     -11.16845232 Ry
     hartree contribution      =      51.11627031 Ry
     xc contribution           =     -83.47547440 Ry
     ewald contribution        =    -307.46932684 Ry
     one-center paw contrib.   =   -1566.46092255 Ry
      -> PAW hartree energy AE =     148.33964139 Ry
      -> PAW hartree energy PS =    -147.69043778 Ry
      -> PAW xc energy AE      =   -1623.06748120 Ry
      -> PAW xc energy PS      =      55.95735504 Ry
      -> total E_H with PAW    =      51.76547392 Ry
      -> total E_XC with PAW   =   -1650.58560056 Ry

     convergence has been achieved in  40 iterations

     Forces acting on atoms (cartesian axes, Ry/au):

     atom    1 type  1   force =    -0.00000000   -0.00000000    0.00000000
     atom    2 type  1   force =     0.00000000    0.00000000    0.00000000
     atom    3 type  2   force =     0.00000000    0.00000000    0.00000000
     atom    4 type  2   force =     0.00000000    0.00000000    0.00000000
     atom    5 type  3   force =     0.00000000    0.00000000    0.13029842
     atom    6 type  3   force =     0.00000000   -0.00000000    0.13029842
     atom    7 type  3   force =     0.00000000    0.00000000   -0.13029842
     atom    8 type  3   force =    -0.00000000   -0.00000000   -0.13029842
     The non-local contrib.  to forces
     atom    1 type  1   force =     0.00000000    0.00000000    0.00000000
     atom    2 type  1   force =    -0.00000000    0.00000000    0.00000000
     atom    3 type  2   force =     0.00000000    0.00000000   -0.00000000
     atom    4 type  2   force =     0.00000000    0.00000000   -0.00000000
     atom    5 type  3   force =    -0.00000000    0.00000000   -0.04338530
     atom    6 type  3   force =    -0.00000000    0.00000000   -0.04338530
     atom    7 type  3   force =     0.00000000   -0.00000000    0.04338530
     atom    8 type  3   force =     0.00000000   -0.00000000    0.04338530
     The ionic contribution  to forces
     atom    1 type  1   force =     0.00000594   -0.00000343    0.00000000
     atom    2 type  1   force =    -0.00000594    0.00000343    0.00000000
     atom    3 type  2   force =    -0.00000000    0.00000000   -0.00000000
     atom    4 type  2   force =    -0.00000000    0.00000000    0.00000000
     atom    5 type  3   force =     0.00001020   -0.00000589   -3.95768059
     atom    6 type  3   force =    -0.00001020    0.00000589   -3.95768059
     atom    7 type  3   force =     0.00001020   -0.00000589    3.95768059
     atom    8 type  3   force =    -0.00001020    0.00000589    3.95768059
     The local contribution  to forces
     atom    1 type  1   force =     0.00005659    0.00002397    0.00013473
     atom    2 type  1   force =    -0.00016873    0.00010946    0.00012436
     atom    3 type  2   force =     0.00000752   -0.00001303   -0.00089449
     atom    4 type  2   force =    -0.00001743   -0.00000027    0.00106433
     atom    5 type  3   force =    -0.00000541    0.00001263    4.13090983
     atom    6 type  3   force =     0.00000607    0.00000258    4.13030708
     atom    7 type  3   force =    -0.00001190    0.00000908   -4.13116869
     atom    8 type  3   force =     0.00001209    0.00000724   -4.13001121
     The core correction contribution to forces
     atom    1 type  1   force =     0.00001128    0.00000390    0.00000956
     atom    2 type  1   force =     0.00000279   -0.00000243    0.00000868
     atom    3 type  2   force =     0.00000001   -0.00000001    0.00000021
     atom    4 type  2   force =    -0.00000001   -0.00000000   -0.00000037
     atom    5 type  3   force =    -0.00000005    0.00000002    0.00063292
     atom    6 type  3   force =    -0.00000007    0.00000000    0.00063403
     atom    7 type  3   force =     0.00000001    0.00000003   -0.00063288
     atom    8 type  3   force =    -0.00000010    0.00000011   -0.00063541
     The Hubbard contrib.    to forces
     atom    1 type  1   force =     0.00000000    0.00000000    0.00000000
     atom    2 type  1   force =     0.00000000    0.00000000    0.00000000
     atom    3 type  2   force =     0.00000000    0.00000000    0.00000000
     atom    4 type  2   force =     0.00000000    0.00000000    0.00000000
     atom    5 type  3   force =     0.00000000    0.00000000    0.00000000
     atom    6 type  3   force =     0.00000000    0.00000000    0.00000000
     atom    7 type  3   force =     0.00000000    0.00000000    0.00000000
     atom    8 type  3   force =     0.00000000    0.00000000    0.00000000
     The SCF correction term to forces
     atom    1 type  1   force =    -0.00000707   -0.00001391   -0.00004394
     atom    2 type  1   force =     0.00003019   -0.00001512    0.00022743
     atom    3 type  2   force =    -0.00000416    0.00000731    0.00111052
     atom    4 type  2   force =     0.00001088    0.00000326   -0.00138637
     atom    5 type  3   force =    -0.00000291    0.00000101   -0.00021506
     atom    6 type  3   force =     0.00000365   -0.00000144    0.00042641
     atom    7 type  3   force =     0.00000187   -0.00000387    0.00048656
     atom    8 type  3   force =    -0.00000231   -0.00000465   -0.00080038

     Total force =     0.260597     Total SCF correction =     0.002077

     Computing stress (Cartesian axis) and pressure

          total   stress  (Ry/bohr**3)                   (kbar)     P=       55.54
   0.00196791  -0.00000000   0.00000000          289.49       -0.00        0.00
  -0.00000000   0.00196791   0.00000000           -0.00      289.49        0.00
   0.00000000   0.00000000  -0.00280312            0.00        0.00     -412.35

     kinetic stress (kbar)  12494.33     -0.00      0.00
                               -0.00  12494.33     -0.00
                                0.00      0.00  11266.13

     local   stress (kbar)  -6910.27      0.01     -0.00
                                0.01  -6910.26      0.00
                               -0.00      0.00    864.16

     nonloc. stress (kbar)   7653.61     -0.00      0.00
                               -0.00   7653.61      0.00
                                0.00      0.00   7742.46

     hartree stress (kbar)   3571.56     -0.00      0.00
                               -0.00   3571.56     -0.00
                                0.00     -0.00    267.93

     exc-cor stress (kbar)    988.69     -0.00      0.00
                               -0.00    988.69      0.00
                                0.00      0.00    981.50

     corecor stress (kbar)  -3991.97     -0.00      0.00
                               -0.00  -3991.97     -0.00
                                0.00     -0.00  -3989.31

     ewald   stress (kbar) -13516.47     -0.01     -0.00
                               -0.01 -13516.48      0.00
                               -0.00      0.00 -17545.21

     hubbard stress (kbar)      0.00      0.00      0.00
                                0.00      0.00      0.00
                                0.00      0.00      0.00

     DFT-D   stress (kbar)      0.00      0.00      0.00
                                0.00      0.00      0.00
                                0.00      0.00      0.00

     XDM     stress (kbar)      0.00      0.00      0.00
                                0.00      0.00      0.00
                                0.00      0.00      0.00

     dft-nl  stress (kbar)      0.00      0.00      0.00
                                0.00      0.00      0.00
                                0.00      0.00      0.00

     TS-vdW  stress (kbar)      0.00      0.00      0.00
                                0.00      0.00      0.00
                                0.00      0.00      0.00

[...]

                                0.00      0.00      0.00

     Writing all to output data dir new_calculations/myprefix.save/

     General routines

     Parallel routines

     PAW routines

   This run was terminated on:   4:11:14  21May2023

   JOB DONE.