     Program PWSCF v.7.0 starts on 20May2023 at  3: 4:14

     Reading input from espresso_11026.pwi
Warning: card &CELL ignored
Warning: card / ignored

     Current dimensions of program PWSCF are:
     Max number of different atomic species (ntypx) = 10
     Max number of k-points (npk) =  40000
     Max angular momentum in pseudopotentials (lmaxx) =  4

     gamma-point specific algorithms are used

     Subspace diagonalization in iterative solution of the eigenvalue problem:
     a serial algorithm will be used

     Using Slab Decomposition

     bravais-lattice index     =            0
     lattice parameter (alat)  =      12.2456  a.u.
     unit-cell volume          =    1327.5364 (a.u.)^3
     number of atoms/cell      =           11
     number of atomic types    =            5
     number of electrons       =        66.00
     number of Kohn-Sham states=           40
     kinetic-energy cutoff     =      30.0000  Ry
     charge density cutoff     =     240.0000  Ry
     scf convergence threshold =      1.0E-06
     mixing beta               =       0.7000
     number of iterations used =            8  plain     mixing
     Exchange-correlation= PBE
                           (   1   4   3   4   0   0   0)

     celldm(1)=  12.245595  celldm(2)=   0.000000  celldm(3)=   0.000000
     celldm(4)=   0.000000  celldm(5)=   0.000000  celldm(6)=   0.000000

     crystal axes: (cart. coord. in units of alat)
               a(1) = (   1.000000   0.000000   0.000000 )
               a(2) = (  -0.582704   0.812684   0.000000 )
               a(3) = (  -0.208648  -0.406342   0.889580 )

     reciprocal axes: (cart. coord. in units 2 pi/alat)
               b(1) = (  1.000000  0.717012  0.562063 )
               b(2) = (  0.000000  1.230490  0.562063 )
               b(3) = (  0.000000  0.000000  1.124126 )

     PseudoPot. # 1 for Ag read from file:
     /home/pragov/projects/rrg-bengioy-ad/pragov/crystal_structure_design/SSSP/Ag_ONCV_PBE-1.0.oncvpsp.upf
     MD5 check sum: 94f47bd0669c641108e45594df92fabc
     Pseudo is Norm-conserving, Zval = 19.0
     Generated using ONCVPSP code by D. R. Hamann
     Using radial grid of 1398 points,  6 beta functions with:
                l(1) =   0
                l(2) =   0
                l(3) =   1
                l(4) =   1
                l(5) =   2
                l(6) =   2

     PseudoPot. # 2 for H  read from file:
     /home/pragov/projects/rrg-bengioy-ad/pragov/crystal_structure_design/SSSP/H.pbe-rrkjus_psl.1.0.0.UPF
     MD5 check sum: f52b6d4d1c606e5624b1dc7b2218f220
     Pseudo is Ultrasoft, Zval =  1.0
     Generated using "atomic" code by A. Dal Corso  v.5.1
     Using radial grid of  929 points,  2 beta functions with:
                l(1) =   0
                l(2) =   0
     Q(r) pseudized with 0 coefficients

     PseudoPot. # 3 for W  read from file:
     /home/pragov/projects/rrg-bengioy-ad/pragov/crystal_structure_design/SSSP/W_pbe_v1.2.uspp.F.UPF
     MD5 check sum: 9c083fa34c2a2ea0f02f1f893e16e1c8
     Pseudo is Ultrasoft + core correction, Zval = 14.0
     Generated by new atomic code, or converted to UPF format
     Using radial grid of  923 points,  8 beta functions with:
                l(1) =   0
                l(2) =   0
                l(3) =   0
                l(4) =   1
                l(5) =   1
                l(6) =   2
                l(7) =   2
                l(8) =   3
     Q(r) pseudized with  6 coefficients,  rinner =    1.350   1.350   1.350
                                                       1.350   1.350   1.350
                                                       1.350

     PseudoPot. # 4 for S  read from file:
     /home/pragov/projects/rrg-bengioy-ad/pragov/crystal_structure_design/SSSP/s_pbe_v1.4.uspp.F.UPF
     MD5 check sum: 88d86576ff6df21479756cfb9bdac1df
     Pseudo is Ultrasoft + core correction, Zval =  6.0
     Generated by new atomic code, or converted to UPF format
     Using radial grid of  907 points,  6 beta functions with:
                l(1) =   0
                l(2) =   0
                l(3) =   1
                l(4) =   1
                l(5) =   2
                l(6) =   2
     Q(r) pseudized with  8 coefficients,  rinner =    1.300   1.300   1.300
                                                       1.300   1.300

     PseudoPot. # 5 for N  read from file:
     /home/pragov/projects/rrg-bengioy-ad/pragov/crystal_structure_design/SSSP/N.pbe-n-radius_5.UPF
     MD5 check sum: 16739722b17309cd8fe442a2ace49922
     Pseudo is Ultrasoft + core correction, Zval =  5.0
     Generated using "atomic" code by A. Dal Corso  v.5.1
     Using radial grid of 1085 points,  4 beta functions with:
                l(1) =   0
                l(2) =   0
                l(3) =   1
                l(4) =   1
     Q(r) pseudized with 0 coefficients

     atomic species   valence    mass     pseudopotential
        Ag            19.00   107.86820     Ag( 1.00)
        H              1.00     1.00800     H ( 1.00)
        W             14.00   183.84000     W ( 1.00)
        S              6.00    32.06000     S ( 1.00)
        N              5.00    14.00700     N ( 1.00)

     No symmetry found

                                    s                        frac. trans.

      isym =  1     identity

 cryst.   s( 1) = (     1          0          0      )
                  (     0          1          0      )
                  (     0          0          1      )

 cart.    s( 1) = (  1.0000000 -0.0000000 -0.0000000 )
                  (  0.0000000  1.0000000 -0.0000000 )
                  (  0.0000000  0.0000000  1.0000000 )

   Cartesian axes

     site n.     atom                  positions (alat units)
         1           Ag  tau(   1) = (   0.5000000  -0.0000000   0.4447899  )
         2           H   tau(   2) = (   0.3188851   0.4520524   0.1063119  )
         3           H   tau(   3) = (  -0.0270877   0.1162236   0.7832678  )
         4           H   tau(   4) = (   0.0529979  -0.1295285   0.8123953  )
         5           H   tau(   5) = (   0.0725004   0.3739368   0.0771844  )
         6           W   tau(   6) = (  -0.2913521   0.4063422   0.4447899  )
         7           S   tau(   7) = (   0.3733445   0.3687039   0.5130998  )
         8           S   tau(   8) = (  -0.1265574   0.1119144   0.3764799  )
         9           S   tau(   9) = (   0.4373736  -0.2715117   0.7258766  )
        10           S   tau(  10) = (  -0.2668649   0.6035778   0.1637031  )
        11           N   tau(  11) = (   0.2086479   0.4063422   0.0000000  )

   Crystallographic axes

     site n.     atom                  positions (cryst. coord.)
         1           Ag  tau(   1) = (  0.7500000  0.2500000  0.5000000  )
         2           H   tau(   2) = (  0.7027660  0.6160000  0.1195080  )
         3           H   tau(   3) = (  0.4964920  0.5832580  0.8804920  )
         4           H   tau(   4) = (  0.4167420  0.2972340  0.9132350  )
         5           H   tau(   5) = (  0.3840000  0.5035080  0.0867650  )
         6           W   tau(   6) = (  0.2500000  0.7500000  0.5000000  )
         7           S   tau(   7) = (  0.9261040  0.7420810  0.5767890  )
         8           S   tau(   8) = (  0.1652920  0.3493150  0.4232110  )
         9           S   tau(   9) = (  0.6506850  0.0738960  0.8159770  )
        10           S   tau(  10) = (  0.2579190  0.8347080  0.1840230  )
        11           N   tau(  11) = (  0.5000000  0.5000000  0.0000000  )

     number of k points=     1  Methfessel-Paxton smearing, width (Ry)=  0.0010
                       cart. coord. in units 2pi/alat
        k(    1) = (   0.0000000   0.0000000   0.0000000), wk =   2.0000000

                       cryst. coord.
        k(    1) = (   0.0000000   0.0000000   0.0000000), wk =   2.0000000

     Check: negative core charge=   -0.000003

     Initial potential from superposition of free atoms

     starting charge      65.8992, renormalised to      66.0000

     negative rho (up, down):  6.154E-02 0.000E+00
     Starting wfcs are   47 randomized atomic wfcs

     Self-consistent Calculation

     iteration #  1     ecut=    30.00 Ry     beta= 0.70
     Davidson diagonalization with overlap

     ethr =  1.00E-02,  avg # of iterations =  3.0

     negative rho (up, down):  5.994E-02 0.000E+00

     total energy              =    -567.01250979 Ry
     estimated scf accuracy    <       0.78278017 Ry

[...]

     total energy              =    -567.32897426 Ry
     estimated scf accuracy    <       0.00002180 Ry

     iteration #  9     ecut=    30.00 Ry     beta= 0.70
     Davidson diagonalization with overlap

     ethr =  3.30E-08,  avg # of iterations =  2.0

[...]

     End of self-consistent calculation

          k = 0.0000 0.0000 0.0000 (  1863 PWs)   bands (ev):

   -90.0415 -70.3239 -52.0295 -51.4896 -51.3697 -34.6970 -34.0566 -33.5063
   -15.4024  -8.3154  -7.5423  -7.3475  -7.3121  -4.7898  -4.7357  -4.6055
    -1.2810  -0.0664   0.2523   0.4626   0.5667   0.7296   1.3916   1.4878
     1.5395   1.6189   1.9666   2.1938   2.2685   2.4789   2.8475   3.1013
     3.2309   6.2647   6.4406   6.8404   7.0392   7.1995   7.8311   9.8207

     occupation numbers
     1.0000   1.0000   1.0000   1.0000   1.0000   1.0000   1.0000   1.0000
     1.0000   1.0000   1.0000   1.0000   1.0000   1.0000   1.0000   1.0000
     1.0000   1.0000   1.0000   1.0000   1.0000   1.0000   1.0000   1.0000
     1.0000   1.0000   1.0000   1.0000   1.0000   1.0000   1.0000   1.0000
     1.0000  -0.0000  -0.0000  -0.0000  -0.0000  -0.0000  -0.0000  -0.0000

     the Fermi energy is     3.6983 ev

!    total energy              =    -567.32897800 Ry
     estimated scf accuracy    <       0.00000098 Ry
     smearing contrib. (-TS)   =       0.00000000 Ry
     internal energy E=F+TS    =    -567.32897800 Ry

     The total energy is F=E-TS. E is the sum of the following terms:
     one-electron contribution =    -398.13717173 Ry
     hartree contribution      =     212.03560338 Ry
     xc contribution           =    -109.83488999 Ry
     ewald contribution        =    -271.39251965 Ry

     convergence has been achieved in   9 iterations

     negative rho (up, down):  6.072E-02 0.000E+00

     Forces acting on atoms (cartesian axes, Ry/au):

     atom    1 type  1   force =     0.00064995    0.03647188    0.00786353
     atom    2 type  2   force =     0.00221993   -0.00335918    0.00558186
     atom    3 type  2   force =     0.00097511   -0.00578434   -0.00898429
     atom    4 type  2   force =    -0.00291255   -0.01185442   -0.00086139
     atom    5 type  2   force =    -0.00589227   -0.00993898   -0.00187518
     atom    6 type  3   force =     0.00265141   -0.00935606    0.00523007
     atom    7 type  4   force =     0.00488636    0.00389796   -0.04254669
     atom    8 type  4   force =     0.01490731    0.01198006    0.03581891
     atom    9 type  4   force =    -0.01858964    0.00214063    0.00194829
     atom   10 type  4   force =    -0.00511824   -0.00328090   -0.00654150
     atom   11 type  5   force =     0.00622262   -0.01091665    0.00436638
     The non-local contrib.  to forces
     atom    1 type  1   force =     0.01172756    0.04203587   -0.02728003
     atom    2 type  2   force =    -0.06666645   -0.02708982   -0.06492069
     atom    3 type  2   force =     0.01888723   -0.07052832    0.06424440
     atom    4 type  2   force =    -0.03441702    0.08222656    0.04983422
     atom    5 type  2   force =     0.08427269    0.01960440   -0.04891979
     atom    6 type  3   force =     0.01134514   -0.00757869    0.02180110
     atom    7 type  4   force =     0.13751271   -0.11097206    0.00752458
     atom    8 type  4   force =    -0.18899728   -0.03663454    0.05404423
     atom    9 type  4   force =     0.05004603    0.02567654   -0.19367627
     atom   10 type  4   force =     0.02345346    0.04294132    0.13758859
     atom   11 type  5   force =     0.00402659   -0.00003987    0.00870089
     The ionic contribution  to forces
     atom    1 type  1   force =    -0.00000106   -0.00000097    0.00000069
     atom    2 type  2   force =     1.53615246    0.95401101    1.32280626
     atom    3 type  2   force =    -0.11981160    1.80431271   -1.32280712
     atom    4 type  2   force =     0.46857274   -1.98340738   -0.93075110
     atom    5 type  2   force =    -1.88493992   -0.77493059    0.93076464
     atom    6 type  3   force =     0.00000094    0.00000082   -0.00000060
     atom    7 type  4   force =    -9.16697230    4.34861380    3.37746349
     atom    8 type  4   force =     8.87568402   -4.91589871   -3.37746418
     atom    9 type  4   force =     3.15016736   -1.25911413   10.14111109
     atom   10 type  4   force =    -2.85887866    1.82639985  -10.14111087
     atom   11 type  5   force =     0.00002602    0.00001357   -0.00001230
     The local contribution  to forces
     atom    1 type  1   force =    -0.00927916    0.00278643    0.03623994
     atom    2 type  2   force =    -1.46497872   -0.92111163   -1.25104926
     atom    3 type  2   force =     0.10430508   -1.73045408    1.25108358
     atom    4 type  2   force =    -0.43470207    1.89866434    0.88152851
     atom    5 type  2   force =     1.79728233    0.75465786   -0.88243021
     atom    6 type  3   force =    -0.00805087    0.01038714   -0.01630792
     atom    7 type  4   force =     9.03935084   -4.23990705   -3.42204050
     atom    8 type  4   force =    -8.68363775    4.95790181    3.35785568
     atom    9 type  4   force =    -3.20612854    1.24705993   -9.95802355
     atom   10 type  4   force =     2.83376079   -1.85537718   10.00664030
     atom   11 type  5   force =     0.00443643   -0.00169046   -0.00295607
     The core correction contribution to forces
     atom    1 type  1   force =     0.00000000    0.00000000    0.00000000
     atom    2 type  2   force =     0.00000000    0.00000000    0.00000000
     atom    3 type  2   force =     0.00000000    0.00000000    0.00000000
     atom    4 type  2   force =     0.00000000    0.00000000    0.00000000
     atom    5 type  2   force =     0.00000000    0.00000000    0.00000000
     atom    6 type  3   force =     0.00197931   -0.00252392    0.00127834
     atom    7 type  4   force =    -0.00290325    0.01525926   -0.00410982
     atom    8 type  4   force =     0.01430152    0.01553211    0.00276791
     atom    9 type  4   force =    -0.01028894   -0.00191004    0.01437726
     atom   10 type  4   force =    -0.00077788   -0.00771703   -0.00872011
     atom   11 type  5   force =     0.00013352    0.00002192    0.00005105
     The Hubbard contrib.    to forces
     atom    1 type  1   force =     0.00000000    0.00000000    0.00000000
     atom    2 type  2   force =     0.00000000    0.00000000    0.00000000
     atom    3 type  2   force =     0.00000000    0.00000000    0.00000000
     atom    4 type  2   force =     0.00000000    0.00000000    0.00000000
     atom    5 type  2   force =     0.00000000    0.00000000    0.00000000
     atom    6 type  3   force =     0.00000000    0.00000000    0.00000000
     atom    7 type  4   force =     0.00000000    0.00000000    0.00000000
     atom    8 type  4   force =     0.00000000    0.00000000    0.00000000
     atom    9 type  4   force =     0.00000000    0.00000000    0.00000000
     atom   10 type  4   force =     0.00000000    0.00000000    0.00000000
     atom   11 type  5   force =     0.00000000    0.00000000    0.00000000
     The SCF correction term to forces
     atom    1 type  1   force =     0.00059186    0.00086983    0.00028152
     atom    2 type  2   force =     0.00010190    0.00005054    0.00012414
     atom    3 type  2   force =    -0.00001635    0.00010463   -0.00012654
     atom    4 type  2   force =     0.00002305   -0.00011867   -0.00009442
     atom    5 type  2   force =    -0.00011811   -0.00005138    0.00008877
     atom    6 type  3   force =    -0.00023384   -0.00042213   -0.00016225
     atom    7 type  4   force =     0.00028762    0.00012329   -0.00000584
     atom    8 type  4   force =    -0.00005395    0.00029867   -0.00000614
     atom    9 type  4   force =     0.00000371   -0.00035240   -0.00046165
     atom   10 type  4   force =    -0.00028668   -0.00030858    0.00043918
     atom   11 type  5   force =    -0.00001069   -0.00000253   -0.00003858

     Total force =     0.077925     Total SCF correction =     0.001565

     Computing stress (Cartesian axis) and pressure

     negative rho (up, down):  6.072E-02 0.000E+00
          total   stress  (Ry/bohr**3)                   (kbar)     P=     -199.08
  -0.00131528   0.00002001   0.00011202         -193.49        2.94       16.48
   0.00002001  -0.00126370  -0.00007200            2.94     -185.90      -10.59
   0.00011202  -0.00007200  -0.00148090           16.48      -10.59     -217.85

     kinetic stress (kbar)  13867.60    -68.67     16.44
                              -68.67  13761.29     18.06
                               16.44     18.06  13914.52

     local   stress (kbar)  -5944.73 -10511.39      9.58
                           -10511.39 -21011.73    -36.19
                                9.58    -36.19   -533.24

     nonloc. stress (kbar)    221.72      3.28      8.08
                                3.28    222.21    -14.96
                                8.08    -14.96    173.73

     hartree stress (kbar)   6456.20   4479.21    -17.39
                             4479.21  12887.69     22.69
                              -17.39     22.69   4151.90

     exc-cor stress (kbar)   1775.28      0.89     -0.54
                                0.89   1777.04      0.64
                               -0.54      0.64   1774.51

     corecor stress (kbar)  -4673.65      0.48      0.31
                                0.48  -4672.81     -0.83
                                0.31     -0.83  -4671.58

     ewald   stress (kbar) -11895.90   6099.14      0.00
                             6099.14  -3149.58     -0.00
                                0.00     -0.00 -15027.68

     hubbard stress (kbar)      0.00      0.00      0.00
                                0.00      0.00      0.00
                                0.00      0.00      0.00

     DFT-D   stress (kbar)      0.00      0.00      0.00
                                0.00      0.00      0.00
                                0.00      0.00      0.00

     XDM     stress (kbar)      0.00      0.00      0.00
                                0.00      0.00      0.00
                                0.00      0.00      0.00

     dft-nl  stress (kbar)      0.00      0.00      0.00
                                0.00      0.00      0.00
                                0.00      0.00      0.00

     TS-vdW  stress (kbar)      0.00      0.00      0.00
                                0.00      0.00      0.00
                                0.00      0.00      0.00

[...]

                                0.00      0.00      0.00

     Writing all to output data dir new_calculations/myprefix.save/

     General routines

     Parallel routines

   This run was terminated on:   3: 4:55  20May2023

   JOB DONE.