     Program PWSCF v.7.0 starts on 21May2023 at  5:11:11

     Reading input from espresso_11852.pwi
Warning: card &CELL ignored
Warning: card / ignored

     Current dimensions of program PWSCF are:
     Max number of different atomic species (ntypx) = 10
     Max number of k-points (npk) =  40000
     Max angular momentum in pseudopotentials (lmaxx) =  4
     file In.pbe-dn-rrkjus_psl.0.2.2.UPF: wavefunction(s)  5S renormalized

     gamma-point specific algorithms are used
     Message from routine setup:
     using ibrav=0 with symmetry is DISCOURAGED, use correct ibrav instead

     Subspace diagonalization in iterative solution of the eigenvalue problem:
     a serial algorithm will be used

     Using Slab Decomposition

     bravais-lattice index     =            0
     lattice parameter (alat)  =      13.4927  a.u.
     unit-cell volume          =    2252.2933 (a.u.)^3
     number of atoms/cell      =           20
     number of atomic types    =            3
     number of electrons       =       292.00
     number of Kohn-Sham states=          175
     kinetic-energy cutoff     =      30.0000  Ry
     charge density cutoff     =     240.0000  Ry
     scf convergence threshold =      1.0E-06
     mixing beta               =       0.7000
     number of iterations used =            8  plain     mixing
     Exchange-correlation=  SLA  PW   PBX  PBC
                           (   1   4   3   4   0   0   0)

     celldm(1)=  13.492747  celldm(2)=   0.000000  celldm(3)=   0.000000
     celldm(4)=   0.000000  celldm(5)=   0.000000  celldm(6)=   0.000000

     crystal axes: (cart. coord. in units of alat)
               a(1) = (   1.000000   0.000000   0.000000 )
               a(2) = (   0.000000   1.000000   0.000000 )
               a(3) = (   0.000000   0.000000   0.916904 )

     reciprocal axes: (cart. coord. in units 2 pi/alat)
               b(1) = (  1.000000  0.000000  0.000000 )
               b(2) = (  0.000000  1.000000  0.000000 )
               b(3) = (  0.000000  0.000000  1.090627 )

     PseudoPot. # 1 for Hf read from file:
     /home/pragov/projects/rrg-bengioy-ad/pragov/crystal_structure_design/SSSP/Hf-sp.oncvpsp.upf
     MD5 check sum: 417ed15784afe83d2e06dacf143de3f8
     Pseudo is Norm-conserving + core correction, Zval = 12.0
     Generated using ONCVPSP code by D. R. Hamann
     Using radial grid of 1656 points,  8 beta functions with:
                l(1) =   0
                l(2) =   0
                l(3) =   1
                l(4) =   1
                l(5) =   2
                l(6) =   2
                l(7) =   3
                l(8) =   3

     PseudoPot. # 2 for In read from file:
     /home/pragov/projects/rrg-bengioy-ad/pragov/crystal_structure_design/SSSP/In.pbe-dn-rrkjus_psl.0.2.2.UPF
     MD5 check sum: 25e7c42c3b55b68f4bf926be2e7201a4
     Pseudo is Ultrasoft + core correction, Zval = 13.0
     Generated using "atomic" code by A. Dal Corso  v.5.0.99 svn rev. 10869
     Using radial grid of 1241 points,  6 beta functions with:
                l(1) =   0
                l(2) =   0
                l(3) =   1
                l(4) =   1
                l(5) =   2
                l(6) =   2
     Q(r) pseudized with 0 coefficients

     PseudoPot. # 3 for Ni read from file:
     /home/pragov/projects/rrg-bengioy-ad/pragov/crystal_structure_design/SSSP/ni_pbe_v1.4.uspp.F.UPF
     MD5 check sum: 1ee80287db30b12d2bc1f57a5b5d6409
     Pseudo is Ultrasoft + core correction, Zval = 18.0
     Generated by new atomic code, or converted to UPF format
     Using radial grid of  865 points,  6 beta functions with:
                l(1) =   0
                l(2) =   0
                l(3) =   1
                l(4) =   1
                l(5) =   2
                l(6) =   2
     Q(r) pseudized with 10 coefficients,  rinner =    0.980   0.980   0.980
                                                       0.980   0.980

     atomic species   valence    mass     pseudopotential
        Hf            12.00   178.49000     Hf( 1.00)
        In            13.00   114.81800     In( 1.00)
        Ni            18.00    58.69340     Ni( 1.00)

     16 Sym. Ops., with inversion, found ( 8 have fractional translation)

                                    s                        frac. trans.

      isym =  1     identity

 cryst.   s( 1) = (     1          0          0      )
                  (     0          1          0      )
                  (     0          0          1      )

 cart.    s( 1) = (  1.0000000  0.0000000  0.0000000 )
                  (  0.0000000  1.0000000  0.0000000 )
                  (  0.0000000  0.0000000  1.0000000 )

      isym =  2     180 deg rotation - cart. axis [0,0,1]

[...]

 cryst.   s( 3) = (    -1          0          0      )    f =( -0.5000000 )
                  (     0          1          0      )       (  0.5000000 )
                  (     0          0         -1      )       (  0.5000000 )

 cart.    s( 3) = ( -1.0000000  0.0000000  0.0000000 )    f =( -0.5000000 )
                  (  0.0000000  1.0000000  0.0000000 )       (  0.5000000 )
                  (  0.0000000  0.0000000 -1.0000000 )       (  0.4584520 )

[...]

      isym =  8      90 deg rotation - cart. axis [0,0,1]

 cryst.   s( 8) = (     0          1          0      )    f =( -0.5000000 )
                  (    -1          0          0      )       (  0.5000000 )
                  (     0          0          1      )       (  0.5000000 )

 cart.    s( 8) = (  0.0000000 -1.0000000  0.0000000 )    f =( -0.5000000 )
                  (  1.0000000  0.0000000  0.0000000 )       (  0.5000000 )
                  (  0.0000000  0.0000000  1.0000000 )       (  0.4584520 )

      isym =  9     inversion

 cryst.   s( 9) = (    -1          0          0      )
                  (     0         -1          0      )
                  (     0          0         -1      )

 cart.    s( 9) = ( -1.0000000  0.0000000  0.0000000 )
                  (  0.0000000 -1.0000000  0.0000000 )
                  (  0.0000000  0.0000000 -1.0000000 )

      isym = 10     inv. 180 deg rotation - cart. axis [0,0,1]

 cryst.   s(10) = (     1          0          0      )
                  (     0          1          0      )
                  (     0          0         -1      )

 cart.    s(10) = (  1.0000000  0.0000000  0.0000000 )
                  (  0.0000000  1.0000000  0.0000000 )
                  (  0.0000000  0.0000000 -1.0000000 )

[...]

 cryst.   s(11) = (     1          0          0      )    f =( -0.5000000 )
                  (     0         -1          0      )       (  0.5000000 )
                  (     0          0          1      )       (  0.5000000 )

 cart.    s(11) = (  1.0000000  0.0000000  0.0000000 )    f =( -0.5000000 )
                  (  0.0000000 -1.0000000  0.0000000 )       (  0.5000000 )
                  (  0.0000000  0.0000000  1.0000000 )       (  0.4584520 )

[...]

 cryst.   s(14) = (     0          1          0      )
                  (     1          0          0      )
                  (     0          0          1      )

 cart.    s(14) = (  0.0000000  1.0000000  0.0000000 )
                  (  1.0000000  0.0000000  0.0000000 )
                  (  0.0000000  0.0000000  1.0000000 )

[...]

      isym = 16     inv.  90 deg rotation - cart. axis [0,0,1]

 cryst.   s(16) = (     0         -1          0      )    f =( -0.5000000 )
                  (     1          0          0      )       (  0.5000000 )
                  (     0          0         -1      )       (  0.5000000 )

 cart.    s(16) = (  0.0000000  1.0000000  0.0000000 )    f =( -0.5000000 )
                  ( -1.0000000  0.0000000  0.0000000 )       (  0.5000000 )
                  (  0.0000000  0.0000000 -1.0000000 )       (  0.4584520 )

   Cartesian axes

     site n.     atom                  positions (alat units)
         1           Hf  tau(   1) = (   0.1741600   0.8258400   0.4584520  )
         2           Hf  tau(   2) = (   0.3258400   0.3258400   0.0000000  )
         3           Hf  tau(   3) = (   0.6593880   0.6593880   0.4584520  )
         4           Hf  tau(   4) = (   0.8258400   0.1741600   0.4584520  )
         5           Hf  tau(   5) = (   0.1593880   0.8406120   0.0000000  )
         6           Hf  tau(   6) = (   0.3406120   0.3406120   0.4584520  )
         7           Hf  tau(   7) = (   0.6741600   0.6741600   0.0000000  )
         8           Hf  tau(   8) = (   0.8406120   0.1593880   0.0000000  )
         9           In  tau(   9) = (   0.5000000   0.0000000   0.6876780  )
        10           In  tau(  10) = (   0.0000000   0.5000000   0.2292260  )
        11           In  tau(  11) = (   0.0000000   0.5000000   0.6876780  )
        12           In  tau(  12) = (   0.5000000   0.0000000   0.2292260  )
        13           Ni  tau(  13) = (   0.1262530   0.1262530   0.2453076  )
        14           Ni  tau(  14) = (   0.8737470   0.8737470   0.6715964  )
        15           Ni  tau(  15) = (   0.8737470   0.8737470   0.2453076  )
        16           Ni  tau(  16) = (   0.1262530   0.1262530   0.6715964  )
        17           Ni  tau(  17) = (   0.3737470   0.6262530   0.2131444  )
        18           Ni  tau(  18) = (   0.6262530   0.3737470   0.7037596  )
        19           Ni  tau(  19) = (   0.3737470   0.6262530   0.7037596  )
        20           Ni  tau(  20) = (   0.6262530   0.3737470   0.2131444  )

   Crystallographic axes

     site n.     atom                  positions (cryst. coord.)
         1           Hf  tau(   1) = (  0.1741600  0.8258400  0.5000000  )
         2           Hf  tau(   2) = (  0.3258400  0.3258400  0.0000000  )
         3           Hf  tau(   3) = (  0.6593880  0.6593880  0.5000000  )
         4           Hf  tau(   4) = (  0.8258400  0.1741600  0.5000000  )
         5           Hf  tau(   5) = (  0.1593880  0.8406120  0.0000000  )
         6           Hf  tau(   6) = (  0.3406120  0.3406120  0.5000000  )
         7           Hf  tau(   7) = (  0.6741600  0.6741600  0.0000000  )
         8           Hf  tau(   8) = (  0.8406120  0.1593880  0.0000000  )
         9           In  tau(   9) = (  0.5000000  0.0000000  0.7500000  )
        10           In  tau(  10) = (  0.0000000  0.5000000  0.2500000  )
        11           In  tau(  11) = (  0.0000000  0.5000000  0.7500000  )
        12           In  tau(  12) = (  0.5000000  0.0000000  0.2500000  )
        13           Ni  tau(  13) = (  0.1262530  0.1262530  0.2675390  )
        14           Ni  tau(  14) = (  0.8737470  0.8737470  0.7324610  )
        15           Ni  tau(  15) = (  0.8737470  0.8737470  0.2675390  )
        16           Ni  tau(  16) = (  0.1262530  0.1262530  0.7324610  )
        17           Ni  tau(  17) = (  0.3737470  0.6262530  0.2324610  )
        18           Ni  tau(  18) = (  0.6262530  0.3737470  0.7675390  )
        19           Ni  tau(  19) = (  0.3737470  0.6262530  0.7675390  )
        20           Ni  tau(  20) = (  0.6262530  0.3737470  0.2324610  )

     number of k points=     1  Methfessel-Paxton smearing, width (Ry)=  0.0010
                       cart. coord. in units 2pi/alat
[...]
    10.5009  10.5889  10.9447  11.2297  11.3002  11.5440  12.0982  12.0982
    12.3873  12.4211  12.4654  12.4654  12.6581  12.8160  12.8160  12.9901
    13.0726  13.0726  13.1063  13.1063  13.1385  13.1715  13.2220  13.2564
    13.3338  13.7075  13.7075  13.7633  13.8985  13.9121  13.9121  13.9558
    13.9558  13.9641  13.9768  13.9960  13.9960  14.1436  14.2064  14.3079
    14.3906  14.3907  14.5577  14.6479  14.6499  14.6805  14.6871  14.7554
    14.7703  14.7703  14.8206  14.8553  14.8553  15.0375  15.1386  15.1387
    15.6129  15.6129  15.6283  16.0923  16.7105  16.7285  16.7285  16.8145
    17.0365  17.3214  17.3653  17.3653  17.7110  17.7110  17.8417  18.1936
    18.1936  18.2527  18.3418  18.3418  18.5341  18.5394  19.4279  19.4418
    19.5289  19.5289  19.7023  19.8872  19.9576  20.0221  20.0239

     occupation numbers
     1.0000   1.0000   1.0000   1.0000   1.0000   1.0000   1.0000   1.0000
     1.0000   1.0000   1.0000   1.0000   1.0000   1.0000   1.0000   1.0000
     1.0000   1.0000   1.0000   1.0000   1.0000   1.0000   1.0000   1.0000
     1.0000   1.0000   1.0000   1.0000   1.0000   1.0000   1.0000   1.0000
     1.0000   1.0000   1.0000   1.0000   1.0000   1.0000   1.0000   1.0000
     1.0000   1.0000   1.0000   1.0000   1.0000   1.0000   1.0000   1.0000
     1.0000   1.0000   1.0000   1.0000   1.0000   1.0000   1.0000   1.0000
     1.0000   1.0000   1.0000   1.0000   1.0000   1.0000   1.0000   1.0000
     1.0000   1.0000   1.0000   1.0000   1.0000   1.0000   1.0000   1.0000
     1.0000   1.0000   1.0000   1.0000   1.0000   1.0000   1.0000   1.0000
     1.0000   1.0000   1.0000   1.0000   1.0000   1.0000   1.0000   1.0000
     1.0000   1.0000   1.0000   1.0000   1.0000   1.0000   1.0000   1.0000
     1.0000   1.0000   1.0000   1.0000   1.0000   1.0000   1.0000   1.0000
     1.0000   1.0000   1.0000   1.0000   1.0000   1.0000   1.0000   1.0000
     1.0000   1.0000   1.0000   1.0000   1.0000   1.0000   1.0000   1.0000
     1.0000   1.0000   1.0000   1.0000   1.0000   1.0000   1.0000   1.0000
     1.0000   1.0000   1.0000   1.0000   1.0000   1.0000   1.0000   1.0000
     1.0000   1.0000   1.0000   1.0000   1.0000   1.0000   1.0000   1.0000
     0.9344   0.9342   0.1314  -0.0000  -0.0000  -0.0000  -0.0000  -0.0000
    -0.0000  -0.0000  -0.0000  -0.0000  -0.0000  -0.0000  -0.0000  -0.0000
    -0.0000  -0.0000  -0.0000  -0.0000  -0.0000  -0.0000  -0.0000  -0.0000
    -0.0000  -0.0000  -0.0000  -0.0000  -0.0000  -0.0000  -0.0000

     the Fermi energy is    15.6215 ev

!    total energy              =   -4227.26372772 Ry
     estimated scf accuracy    <       0.00000011 Ry
     smearing contrib. (-TS)   =      -0.00018632 Ry
     internal energy E=F+TS    =   -4227.26354140 Ry

     The total energy is F=E-TS. E is the sum of the following terms:
     one-electron contribution =   -2313.99165483 Ry
     hartree contribution      =    1333.17568054 Ry
     xc contribution           =    -703.53686062 Ry
     ewald contribution        =   -2542.91070649 Ry

     convergence has been achieved in  44 iterations

     Forces acting on atoms (cartesian axes, Ry/au):

     atom    1 type  1   force =    -0.01132500    0.01132500   -0.00000000
     atom    2 type  1   force =     0.01132500    0.01132500    0.00000000
     atom    3 type  1   force =    -0.01807533   -0.01807533    0.00000000
     atom    4 type  1   force =     0.01132500   -0.01132500   -0.00000000
     atom    5 type  1   force =    -0.01807533    0.01807533    0.00000000
     atom    6 type  1   force =     0.01807533    0.01807533   -0.00000000
     atom    7 type  1   force =    -0.01132500   -0.01132500    0.00000000
     atom    8 type  1   force =     0.01807533   -0.01807533   -0.00000000
     atom    9 type  2   force =     0.00000000    0.00000000    0.00000000
     atom   10 type  2   force =     0.00000000    0.00000000    0.00000000
     atom   11 type  2   force =     0.00000000    0.00000000    0.00000000
     atom   12 type  2   force =     0.00000000    0.00000000    0.00000000
     atom   13 type  3   force =     0.00036035    0.00036035    0.00714551
     atom   14 type  3   force =    -0.00036035   -0.00036035   -0.00714551
     atom   15 type  3   force =    -0.00036035   -0.00036035    0.00714551
     atom   16 type  3   force =     0.00036035    0.00036035   -0.00714551
     atom   17 type  3   force =    -0.00036035    0.00036035   -0.00714551
     atom   18 type  3   force =     0.00036035   -0.00036035    0.00714551
     atom   19 type  3   force =    -0.00036035    0.00036035    0.00714551
     atom   20 type  3   force =     0.00036035   -0.00036035   -0.00714551
     The non-local contrib.  to forces
     atom    1 type  1   force =     0.01216570   -0.01216570    0.00000000
     atom    2 type  1   force =    -0.01216570   -0.01216570    0.00000000
     atom    3 type  1   force =     0.00456445    0.00456445    0.00000000
     atom    4 type  1   force =    -0.01216570    0.01216570   -0.00000000
     atom    5 type  1   force =     0.00456445   -0.00456445    0.00000000
     atom    6 type  1   force =    -0.00456445   -0.00456445   -0.00000000
     atom    7 type  1   force =     0.01216570    0.01216570   -0.00000000
     atom    8 type  1   force =    -0.00456445    0.00456445    0.00000000
     atom    9 type  2   force =     0.00000000    0.00000000    0.00000000
     atom   10 type  2   force =     0.00000000    0.00000000   -0.00000000
     atom   11 type  2   force =     0.00000000    0.00000000    0.00000000
     atom   12 type  2   force =     0.00000000    0.00000000    0.00000000
     atom   13 type  3   force =     0.03931818    0.03931818    0.07701925
     atom   14 type  3   force =    -0.03931818   -0.03931818   -0.07701925
     atom   15 type  3   force =    -0.03931818   -0.03931818    0.07701925
     atom   16 type  3   force =     0.03931818    0.03931818   -0.07701925
     atom   17 type  3   force =    -0.03931818    0.03931818   -0.07701925
     atom   18 type  3   force =     0.03931818   -0.03931818    0.07701925
     atom   19 type  3   force =    -0.03931818    0.03931818    0.07701925
     atom   20 type  3   force =     0.03931818   -0.03931818   -0.07701925
     The ionic contribution  to forces
     atom    1 type  1   force =     6.29797143   -6.29797143   -0.00000000
     atom    2 type  1   force =    -6.29797143   -6.29797143   -0.00000000
     atom    3 type  1   force =     3.16716833    3.16716833   -0.00000000
     atom    4 type  1   force =    -6.29797143    6.29797143   -0.00000000
     atom    5 type  1   force =     3.16716833   -3.16716833   -0.00000000
     atom    6 type  1   force =    -3.16716833   -3.16716833   -0.00000000
     atom    7 type  1   force =     6.29797143    6.29797143   -0.00000000
     atom    8 type  1   force =    -3.16716833    3.16716833   -0.00000000
     atom    9 type  2   force =    -0.00000000   -0.00000000   -0.00000000
     atom   10 type  2   force =     0.00000000   -0.00000000   -0.00000000
     atom   11 type  2   force =    -0.00000000   -0.00000000   -0.00000000
     atom   12 type  2   force =     0.00000000    0.00000000   -0.00000000
     atom   13 type  3   force =     9.02379523    9.02379523   -3.32345134
     atom   14 type  3   force =    -9.02379523   -9.02379523    3.32345134
     atom   15 type  3   force =    -9.02379523   -9.02379523   -3.32345134
     atom   16 type  3   force =     9.02379523    9.02379523    3.32345134
     atom   17 type  3   force =    -9.02379523    9.02379523    3.32345134
     atom   18 type  3   force =     9.02379523   -9.02379523   -3.32345134
     atom   19 type  3   force =    -9.02379523    9.02379523   -3.32345134
     atom   20 type  3   force =     9.02379523   -9.02379523    3.32345134
     The local contribution  to forces
     atom    1 type  1   force =    -6.32452281    6.32455928   -0.00001680
     atom    2 type  1   force =     6.32462369    6.32467952   -0.00000200
     atom    3 type  1   force =    -3.19467955   -3.19461329    0.00000819
     atom    4 type  1   force =     6.32460769   -6.32458228    0.00001996
     atom    5 type  1   force =    -3.19447394    3.19451459    0.00003622
     atom    6 type  1   force =     3.19460169    3.19466214    0.00001131
     atom    7 type  1   force =    -6.32470163   -6.32463688   -0.00001224
     atom    8 type  1   force =     3.19457826   -3.19454555   -0.00003066
     atom    9 type  2   force =    -0.00004973   -0.00002517   -0.00009455
     atom   10 type  2   force =     0.00008906    0.00002732    0.00009502
     atom   11 type  2   force =     0.00003112    0.00000267   -0.00009216
     atom   12 type  2   force =    -0.00007164   -0.00008048    0.00009127
     atom   13 type  3   force =    -9.06228302   -9.06235071    3.25416428
     atom   14 type  3   force =     9.06236767    9.06231677   -3.25416750
     atom   15 type  3   force =     9.06238471    9.06231616    3.25415677
     atom   16 type  3   force =    -9.06228793   -9.06234657   -3.25418488
     atom   17 type  3   force =     9.06245842   -9.06246944   -3.25378899
     atom   18 type  3   force =    -9.06259678    9.06256796    3.25377878
     atom   19 type  3   force =     9.06252659   -9.06252826    3.25381071
     atom   20 type  3   force =    -9.06263308    9.06261448   -3.25380472
     The core correction contribution to forces
     atom    1 type  1   force =     0.00322058   -0.00322004    0.00000144
     atom    2 type  1   force =    -0.00322015   -0.00321983   -0.00000019
     atom    3 type  1   force =     0.00491400    0.00491441    0.00000084
     atom    4 type  1   force =    -0.00321951    0.00321991   -0.00000007
     atom    5 type  1   force =     0.00491492   -0.00491465   -0.00000048
     atom    6 type  1   force =    -0.00491437   -0.00491389    0.00000064
     atom    7 type  1   force =     0.00321975    0.00322028   -0.00000127
     atom    8 type  1   force =    -0.00491373    0.00491385   -0.00000083
     atom    9 type  2   force =    -0.00000125   -0.00000132   -0.00000079
     atom   10 type  2   force =     0.00000008   -0.00000052    0.00000099
     atom   11 type  2   force =     0.00000069   -0.00000029   -0.00000064
     atom   12 type  2   force =    -0.00000149   -0.00000052    0.00000052
     atom   13 type  3   force =    -0.00017170   -0.00017173   -0.00046399
     atom   14 type  3   force =     0.00017169    0.00017196    0.00046410
     atom   15 type  3   force =     0.00017186    0.00017176   -0.00046387
     atom   16 type  3   force =    -0.00017187   -0.00017160    0.00046396
     atom   17 type  3   force =     0.00017154   -0.00017138    0.00046362
     atom   18 type  3   force =    -0.00017143    0.00017147   -0.00046358
     atom   19 type  3   force =     0.00017136   -0.00017130   -0.00046426
     atom   20 type  3   force =    -0.00017129    0.00017144    0.00046422
     The Hubbard contrib.    to forces
     atom    1 type  1   force =     0.00000000    0.00000000    0.00000000
     atom    2 type  1   force =     0.00000000    0.00000000    0.00000000
     atom    3 type  1   force =     0.00000000    0.00000000    0.00000000
     atom    4 type  1   force =     0.00000000    0.00000000    0.00000000
     atom    5 type  1   force =     0.00000000    0.00000000    0.00000000
     atom    6 type  1   force =     0.00000000    0.00000000    0.00000000
     atom    7 type  1   force =     0.00000000    0.00000000    0.00000000
     atom    8 type  1   force =     0.00000000    0.00000000    0.00000000
     atom    9 type  2   force =     0.00000000    0.00000000    0.00000000
     atom   10 type  2   force =     0.00000000    0.00000000    0.00000000
     atom   11 type  2   force =     0.00000000    0.00000000    0.00000000
     atom   12 type  2   force =     0.00000000    0.00000000    0.00000000
     atom   13 type  3   force =     0.00000000    0.00000000    0.00000000
     atom   14 type  3   force =     0.00000000    0.00000000    0.00000000
     atom   15 type  3   force =     0.00000000    0.00000000    0.00000000
     atom   16 type  3   force =     0.00000000    0.00000000    0.00000000
     atom   17 type  3   force =     0.00000000    0.00000000    0.00000000
     atom   18 type  3   force =     0.00000000    0.00000000    0.00000000
     atom   19 type  3   force =     0.00000000    0.00000000    0.00000000
     atom   20 type  3   force =     0.00000000    0.00000000    0.00000000
     The SCF correction term to forces
     atom    1 type  1   force =    -0.00015900    0.00012714    0.00002986
     atom    2 type  1   force =     0.00005105   -0.00000104    0.00000348
     atom    3 type  1   force =    -0.00004373   -0.00010583   -0.00000381
     atom    4 type  1   force =     0.00008339   -0.00010521   -0.00002300
     atom    5 type  1   force =    -0.00024461    0.00020768   -0.00003883
     atom    6 type  1   force =     0.00011558    0.00005995   -0.00000789
     atom    7 type  1   force =     0.00002072   -0.00003932    0.00000538
     atom    8 type  1   force =     0.00015117   -0.00018119    0.00002627
     atom    9 type  2   force =     0.00003722    0.00001967    0.00009362
     atom   10 type  2   force =    -0.00008481   -0.00003684   -0.00009425
     atom   11 type  2   force =    -0.00001737   -0.00000638    0.00009164
     atom   12 type  2   force =     0.00006334    0.00008607   -0.00009227
     atom   13 type  3   force =    -0.00029277   -0.00023434   -0.00010593
     atom   14 type  3   force =     0.00021793    0.00026871    0.00010606
     atom   15 type  3   force =     0.00020459    0.00027047   -0.00009886
     atom   16 type  3   force =    -0.00028531   -0.00023151    0.00012776
     atom   17 type  3   force =     0.00011649   -0.00011391   -0.00023641
     atom   18 type  3   force =     0.00001079    0.00001286    0.00024768
     atom   19 type  3   force =     0.00004454   -0.00005032    0.00020929
     atom   20 type  3   force =     0.00004175   -0.00003629   -0.00022102

     Total force =     0.063642     Total SCF correction =     0.001057

     Computing stress (Cartesian axis) and pressure

          total   stress  (Ry/bohr**3)                   (kbar)     P=     -668.06
  -0.00471799   0.00000000   0.00000000         -694.04        0.00        0.00
   0.00000000  -0.00471799   0.00000000            0.00     -694.04        0.00
   0.00000000   0.00000000  -0.00418818            0.00        0.00     -616.10

     kinetic stress (kbar)  31505.57      0.00      0.00
                                0.00  31505.57      0.00
                                0.00      0.00  31656.48

     local   stress (kbar)  -8706.84      0.05      0.01
                                0.05  -8706.84     -0.01
                                0.01     -0.01  -6582.32

     nonloc. stress (kbar)  13166.21      0.00      0.00
                                0.00  13166.21      0.00
                                0.00      0.00  13134.20

     hartree stress (kbar)  29227.18     -0.02     -0.01
                               -0.02  29227.18      0.01
                               -0.01      0.01  28619.96

     exc-cor stress (kbar)   5917.12     -0.00     -0.00
                               -0.00   5917.12      0.00
                               -0.00      0.00   5918.66

     corecor stress (kbar) -16962.50      0.00      0.00
                                0.00 -16962.50     -0.00
                                0.00     -0.00 -16958.33

     ewald   stress (kbar) -54840.79     -0.00      0.00
                               -0.00 -54840.79      0.00
                                0.00      0.00 -56404.73

     hubbard stress (kbar)      0.00      0.00      0.00
                                0.00      0.00      0.00
                                0.00      0.00      0.00

     DFT-D   stress (kbar)      0.00      0.00      0.00
                                0.00      0.00      0.00
                                0.00      0.00      0.00

     XDM     stress (kbar)      0.00      0.00      0.00
                                0.00      0.00      0.00
                                0.00      0.00      0.00

     dft-nl  stress (kbar)      0.00      0.00      0.00
                                0.00      0.00      0.00
                                0.00      0.00      0.00

     TS-vdW  stress (kbar)      0.00      0.00      0.00
                                0.00      0.00      0.00
                                0.00      0.00      0.00

[...]

                                0.00      0.00      0.00

     Writing all to output data dir new_calculations/myprefix.save/

     General routines

     Parallel routines

   This run was terminated on:   5:13:39  21May2023

   JOB DONE.