     Program PWSCF v.7.0 starts on 21May2023 at  3:31:55

     Reading input from espresso_23344.pwi
Warning: card &CELL ignored
Warning: card / ignored

     Current dimensions of program PWSCF are:
     Max number of different atomic species (ntypx) = 10
     Max number of k-points (npk) =  40000
     Max angular momentum in pseudopotentials (lmaxx) =  4
     file O.pbe-n-kjpaw_psl.0.1.UPF: wavefunction(s)  2P renormalized

     gamma-point specific algorithms are used
     Message from routine setup:
     using ibrav=0 with symmetry is DISCOURAGED, use correct ibrav instead

     Subspace diagonalization in iterative solution of the eigenvalue problem:
     a serial algorithm will be used

     Using Slab Decomposition

     bravais-lattice index     =            0
     lattice parameter (alat)  =       7.2426  a.u.
     unit-cell volume          =     570.5256 (a.u.)^3
     number of atoms/cell      =            5
     number of atomic types    =            3
     number of electrons       =        56.00
     number of Kohn-Sham states=           34
     kinetic-energy cutoff     =      30.0000  Ry
     charge density cutoff     =     240.0000  Ry
     scf convergence threshold =      1.0E-06
     mixing beta               =       0.7000
     number of iterations used =            8  plain     mixing
     Exchange-correlation= SLA  PW   PBX  PBC
                           (   1   4   3   4   0   0   0)

     celldm(1)=   7.242621  celldm(2)=   0.000000  celldm(3)=   0.000000
     celldm(4)=   0.000000  celldm(5)=   0.000000  celldm(6)=   0.000000

     crystal axes: (cart. coord. in units of alat)
               a(1) = (   1.000000   0.000000   0.000000 )
               a(2) = (  -0.500000   0.866025   0.000000 )
               a(3) = (   0.000000   0.000000   1.734032 )

     reciprocal axes: (cart. coord. in units 2 pi/alat)
               b(1) = (  1.000000  0.577350  0.000000 )
               b(2) = (  0.000000  1.154701  0.000000 )
               b(3) = (  0.000000  0.000000  0.576690 )

     PseudoPot. # 1 for Tb read from file:
     /home/pragov/projects/rrg-bengioy-ad/pragov/crystal_structure_design/SSSP/Tb.GGA-PBE-paw-v1.0.UPF
     MD5 check sum: f7bf3d58e9b293961564f5b9598c921e
     Pseudo is Projector augmented-wave + core cor, Zval = 19.0
     Generated using ATOMPAW code
     Shape of augmentation charge: BESSEL
     Using radial grid of 1111 points,  8 beta functions with:
                l(1) =   0
                l(2) =   0
                l(3) =   1
                l(4) =   1
                l(5) =   2
                l(6) =   2
                l(7) =   3
                l(8) =   3
     Q(r) pseudized with 0 coefficients

     PseudoPot. # 2 for S  read from file:
     /home/pragov/projects/rrg-bengioy-ad/pragov/crystal_structure_design/SSSP/s_pbe_v1.4.uspp.F.UPF
     MD5 check sum: 88d86576ff6df21479756cfb9bdac1df
     Pseudo is Ultrasoft + core correction, Zval =  6.0
     Generated by new atomic code, or converted to UPF format
     Using radial grid of  907 points,  6 beta functions with:
                l(1) =   0
                l(2) =   0
                l(3) =   1
                l(4) =   1
                l(5) =   2
                l(6) =   2
     Q(r) pseudized with  8 coefficients,  rinner =    1.300   1.300   1.300
                                                       1.300   1.300

     PseudoPot. # 3 for O  read from file:
     /home/pragov/projects/rrg-bengioy-ad/pragov/crystal_structure_design/SSSP/O.pbe-n-kjpaw_psl.0.1.UPF
     MD5 check sum: 0234752ac141de4415c5fc33072bef88
     Pseudo is Projector augmented-wave + core cor, Zval =  6.0
     Generated using "atomic" code by A. Dal Corso  v.5.0.99 svn rev. 10869
     Shape of augmentation charge: BESSEL
     Using radial grid of 1095 points,  4 beta functions with:
                l(1) =   0
                l(2) =   0
                l(3) =   1
                l(4) =   1
     Q(r) pseudized with 0 coefficients

     atomic species   valence    mass     pseudopotential
        Tb            19.00   158.92535     Tb( 1.00)
        S              6.00    32.06000     S ( 1.00)
        O              6.00    15.99900     O ( 1.00)

     12 Sym. Ops., with inversion, found

                                    s                        frac. trans.

      isym =  1     identity

 cryst.   s( 1) = (     1          0          0      )
                  (     0          1          0      )
                  (     0          0          1      )

 cart.    s( 1) = (  1.0000000 -0.0000000  0.0000000 )
                  (  0.0000000  1.0000000  0.0000000 )
                  (  0.0000000  0.0000000  1.0000000 )

      isym =  2     180 deg rotation - cart. axis [1,0,0]

[...]

      isym =  3     120 deg rotation - cryst. axis [0,0,1]

[...]

      isym =  6     180 deg rotation - cryst. axis [1,1,0]

[...]

      isym =  7     inversion

[...]

      isym =  8     inv. 180 deg rotation - cart. axis [1,0,0]

[...]

      isym =  9     inv. 120 deg rotation - cryst. axis [0,0,1]

 cryst.   s( 9) = (     0         -1          0      )
                  (     1          1          0      )
                  (     0          0         -1      )

 cart.    s( 9) = (  0.5000000  0.8660254  0.0000000 )
                  ( -0.8660254  0.5000000  0.0000000 )
                  (  0.0000000  0.0000000 -1.0000000 )

[...]

 cryst.   s(10) = (     1          1          0      )
                  (    -1          0          0      )
                  (     0          0         -1      )

 cart.    s(10) = (  0.5000000 -0.8660254  0.0000000 )
                  (  0.8660254  0.5000000  0.0000000 )
                  (  0.0000000  0.0000000 -1.0000000 )

[...]

      isym = 12     inv. 180 deg rotation - cryst. axis [1,1,0]

 cryst.   s(12) = (     0         -1          0      )
                  (    -1          0          0      )
                  (     0          0          1      )

 cart.    s(12) = (  0.5000000 -0.8660254  0.0000000 )
                  ( -0.8660254 -0.5000000  0.0000000 )
                  (  0.0000000  0.0000000  1.0000000 )

   Cartesian axes

     site n.     atom                  positions (alat units)
         1           Tb  tau(   1) = (   0.5000005   0.2886748   1.2447787  )
         2           Tb  tau(   2) = (  -0.0000005   0.5773506   0.4892538  )
         3           S   tau(   3) = (   0.0000000   0.0000000   0.0000000  )
         4           O   tau(   4) = (   0.5000005   0.2886748   0.6426012  )
         5           O   tau(   5) = (  -0.0000005   0.5773506   1.0914313  )

   Crystallographic axes

     site n.     atom                  positions (cryst. coord.)
         1           Tb  tau(   1) = (  0.6666670  0.3333330  0.7178520  )
         2           Tb  tau(   2) = (  0.3333330  0.6666670  0.2821480  )
         3           S   tau(   3) = (  0.0000000  0.0000000  0.0000000  )
         4           O   tau(   4) = (  0.6666670  0.3333330  0.3705820  )
         5           O   tau(   5) = (  0.3333330  0.6666670  0.6294180  )

     number of k points=     1  Methfessel-Paxton smearing, width (Ry)=  0.0010
                       cart. coord. in units 2pi/alat
        k(    1) = (   0.0000000   0.0000000   0.0000000), wk =   2.0000000

                       cryst. coord.
        k(    1) = (   0.0000000   0.0000000   0.0000000), wk =   2.0000000

     Check: negative core charge=   -0.000008

     Initial potential from superposition of free atoms

     starting charge      55.9911, renormalised to      56.0000
     Starting wfcs are   76 randomized atomic wfcs
     Checking if some PAW data can be deallocated...

     Self-consistent Calculation

     iteration #  1     ecut=    30.00 Ry     beta= 0.70
     Davidson diagonalization with overlap

     ethr =  1.00E-02,  avg # of iterations =  1.0

     total energy              =   -1561.77769597 Ry
     estimated scf accuracy    <       3.26840370 Ry

[...]

     total energy              =   -1564.76526589 Ry
     estimated scf accuracy    <       0.00000985 Ry

     iteration # 61     ecut=    30.00 Ry     beta= 0.70
     Davidson diagonalization with overlap

     ethr =  1.76E-08,  avg # of iterations =  1.0

     End of self-consistent calculation

          k = 0.0000 0.0000 0.0000 (   791 PWs)   bands (ev):

   -31.1990 -31.1569  -9.3713  -8.2482  -8.0785  -8.0785  -7.9858  -7.9858
    -5.9145  -5.5425  -0.1999   7.7290   7.7290   7.7376   7.8390   8.0408
     8.0408  10.2703  10.3252  10.3252  11.8874  11.8879  11.8879  11.9408
    11.9474  11.9474  12.0037  12.0084  12.0115  12.0116  12.1826  12.2713
    12.2713  12.3029

     occupation numbers
     1.0000   1.0000   1.0000   1.0000   1.0000   1.0000   1.0000   1.0000
     1.0000   1.0000   1.0000   1.0000   1.0000   1.0000   1.0000   1.0000
     1.0000   1.0000   1.0000   1.0000   1.0000   1.0000   1.0000   1.0000
     1.0000   1.0000   0.7962   0.5310   0.3369   0.3359  -0.0000  -0.0000
    -0.0000  -0.0000

     the Fermi energy is    12.0089 ev

!    total energy              =   -1564.76526441 Ry
     estimated scf accuracy    <       0.00000069 Ry
     smearing contrib. (-TS)   =      -0.00095572 Ry
     internal energy E=F+TS    =   -1564.76430869 Ry

     The total energy is F=E-TS. E is the sum of the following terms:
     one-electron contribution =    -293.73303289 Ry
     hartree contribution      =     184.87303058 Ry
     xc contribution           =     -73.75009510 Ry
     ewald contribution        =    -416.18204034 Ry
     one-center paw contrib.   =    -965.97217094 Ry
      -> PAW hartree energy AE =     492.77825835 Ry
      -> PAW hartree energy PS =    -466.05886211 Ry
      -> PAW xc energy AE      =   -1055.38381507 Ry
      -> PAW xc energy PS      =      62.69224790 Ry
      -> total E_H with PAW    =     211.59242681 Ry
      -> total E_XC with PAW   =   -1066.44166227 Ry

     convergence has been achieved in  61 iterations

     Forces acting on atoms (cartesian axes, Ry/au):

     atom    1 type  1   force =     0.00000000    0.00000000   -0.01561197
     atom    2 type  1   force =    -0.00000000    0.00000000    0.01561197
     atom    3 type  2   force =     0.00000000    0.00000000    0.00000000
     atom    4 type  3   force =     0.00000000    0.00000000   -0.04816022
     atom    5 type  3   force =     0.00000000   -0.00000000    0.04816022
     The non-local contrib.  to forces
     atom    1 type  1   force =     0.00000000    0.00000000   -0.44082004
     atom    2 type  1   force =    -0.00000000   -0.00000000    0.44082004
     atom    3 type  2   force =     0.00000000    0.00000000    0.00000000
     atom    4 type  3   force =     0.00000000   -0.00000000   -0.09301159
     atom    5 type  3   force =     0.00000000   -0.00000000    0.09301159
     The ionic contribution  to forces
     atom    1 type  1   force =    -0.00004988    0.00002880   21.42526453
     atom    2 type  1   force =     0.00004988   -0.00002880  -21.42526453
     atom    3 type  2   force =     0.00000000    0.00000000   -0.00000000
     atom    4 type  3   force =    -0.00004445    0.00002567   -4.81858191
     atom    5 type  3   force =     0.00004445   -0.00002567    4.81858191
     The local contribution  to forces
     atom    1 type  1   force =     0.00009933    0.00014510  -20.99921795
     atom    2 type  1   force =    -0.00009200    0.00006655   20.99966496
     atom    3 type  2   force =     0.00001285   -0.00003625   -0.00041497
     atom    4 type  3   force =     0.00000097    0.00003429    4.86223515
     atom    5 type  3   force =    -0.00010539    0.00002139   -4.86145387
     The core correction contribution to forces
     atom    1 type  1   force =     0.00000000    0.00000001    0.00001721
     atom    2 type  1   force =    -0.00000000    0.00000000   -0.00001721
     atom    3 type  2   force =     0.00000015   -0.00000020    0.00000046
     atom    4 type  3   force =    -0.00000031   -0.00000002    0.00162897
     atom    5 type  3   force =    -0.00000009    0.00000010   -0.00162921
     The Hubbard contrib.    to forces
     atom    1 type  1   force =     0.00000000    0.00000000    0.00000000
     atom    2 type  1   force =     0.00000000    0.00000000    0.00000000
     atom    3 type  2   force =     0.00000000    0.00000000    0.00000000
     atom    4 type  3   force =     0.00000000    0.00000000    0.00000000
     atom    5 type  3   force =     0.00000000    0.00000000    0.00000000
     The SCF correction term to forces
     atom    1 type  1   force =    -0.00003698   -0.00012601   -0.00083040
     atom    2 type  1   force =     0.00003530   -0.00001772    0.00043403
     atom    3 type  2   force =    -0.00001470    0.00003166    0.00042354
     atom    4 type  3   force =     0.00002013   -0.00005695   -0.00043278
     atom    5 type  3   force =     0.00005503    0.00000818   -0.00035214

     Total force =     0.071598     Total SCF correction =     0.001181

     Computing stress (Cartesian axis) and pressure

          total   stress  (Ry/bohr**3)                   (kbar)     P=     -260.28
  -0.00156814  -0.00000000   0.00000000         -230.68       -0.00        0.00
  -0.00000000  -0.00156814  -0.00000000           -0.00     -230.68       -0.00
   0.00000000  -0.00000000  -0.00217171            0.00       -0.00     -319.47

     kinetic stress (kbar)  15331.76      0.00      0.00
                                0.00  15331.76      0.00
                                0.00      0.00  15056.30

     local   stress (kbar)  -7837.87     -0.68     -0.24
                               -0.68  -7836.54     -0.28
                               -0.24     -0.28   8863.67

     nonloc. stress (kbar)  12442.74      0.00      0.00
                                0.00  12442.74      0.00
                                0.00     -0.00  12296.58

     hartree stress (kbar)  18594.85      0.23      0.07
                                0.23  18594.41      0.07
                                0.07      0.07  10478.64

     exc-cor stress (kbar)  -4515.01      0.00      0.00
                                0.00  -4515.01      0.00
                                0.00      0.00  -4519.49

     corecor stress (kbar)  -1228.38     -0.00      0.00
                               -0.00  -1228.38      0.00
                                0.00      0.00  -1224.68

     ewald   stress (kbar) -33019.26      0.08     -0.02
                                0.08 -33019.17      0.01
                               -0.02      0.01 -41270.50

     hubbard stress (kbar)      0.00      0.00      0.00
                                0.00      0.00      0.00
                                0.00      0.00      0.00

     DFT-D   stress (kbar)      0.00      0.00      0.00
                                0.00      0.00      0.00
                                0.00      0.00      0.00

     XDM     stress (kbar)      0.00      0.00      0.00
                                0.00      0.00      0.00
                                0.00      0.00      0.00

     dft-nl  stress (kbar)      0.00      0.00      0.00
                                0.00      0.00      0.00
                                0.00      0.00      0.00

     TS-vdW  stress (kbar)      0.00      0.00      0.00
                                0.00      0.00      0.00
                                0.00      0.00      0.00

[...]

                                0.00      0.00      0.00

     Writing all to output data dir new_calculations/myprefix.save/

     General routines

     Parallel routines

     PAW routines

   This run was terminated on:   3:33: 2  21May2023

   JOB DONE.