     Program PWSCF v.7.0 starts on 20May2023 at 12:19:46

     Reading input from espresso_2417.pwi
Warning: card &CELL ignored
Warning: card / ignored

     Current dimensions of program PWSCF are:
     Max number of different atomic species (ntypx) = 10
     Max number of k-points (npk) =  40000
     Max angular momentum in pseudopotentials (lmaxx) =  4
     file In.pbe-dn-rrkjus_psl.0.2.2.UPF: wavefunction(s)  5S renormalized

     gamma-point specific algorithms are used
     Message from routine setup:
     using ibrav=0 with symmetry is DISCOURAGED, use correct ibrav instead

     Subspace diagonalization in iterative solution of the eigenvalue problem:
     a serial algorithm will be used

     Using Slab Decomposition

     bravais-lattice index     =            0
     lattice parameter (alat)  =       8.4302  a.u.
     unit-cell volume          =    3473.3275 (a.u.)^3
     number of atoms/cell      =           18
     number of atomic types    =            3
     number of electrons       =       152.00
     number of Kohn-Sham states=           91
     kinetic-energy cutoff     =      30.0000  Ry
     charge density cutoff     =     240.0000  Ry
     scf convergence threshold =      1.0E-06
     mixing beta               =       0.7000
     number of iterations used =            8  plain     mixing
     Exchange-correlation= PBE
                           (   1   4   3   4   0   0   0)

     celldm(1)=   8.430155  celldm(2)=   0.000000  celldm(3)=   0.000000
     celldm(4)=   0.000000  celldm(5)=   0.000000  celldm(6)=   0.000000

     crystal axes: (cart. coord. in units of alat)
               a(1) = (   1.000000   0.000000   0.000000 )
               a(2) = (   0.000000   1.541292   0.000000 )
               a(3) = (   0.000000   0.000000   3.761440 )

     reciprocal axes: (cart. coord. in units 2 pi/alat)
               b(1) = (  1.000000  0.000000  0.000000 )
               b(2) = (  0.000000  0.648806  0.000000 )
               b(3) = (  0.000000  0.000000  0.265856 )

     PseudoPot. # 1 for Ca read from file:
     /home/pragov/projects/rrg-bengioy-ad/pragov/crystal_structure_design/SSSP/Ca_pbe_v1.uspp.F.UPF
     MD5 check sum: 403a4c14b9e4d4dfdc3024c9a3812218
     Pseudo is Ultrasoft + core correction, Zval = 10.0
     Generated by new atomic code, or converted to UPF format
     Using radial grid of  845 points,  6 beta functions with:
                l(1) =   0
                l(2) =   0
                l(3) =   1
                l(4) =   1
                l(5) =   2
                l(6) =   2
     Q(r) pseudized with  8 coefficients,  rinner =    1.500   1.500   1.500
                                                       1.500   1.500

     PseudoPot. # 2 for In read from file:
     /home/pragov/projects/rrg-bengioy-ad/pragov/crystal_structure_design/SSSP/In.pbe-dn-rrkjus_psl.0.2.2.UPF
     MD5 check sum: 25e7c42c3b55b68f4bf926be2e7201a4
     Pseudo is Ultrasoft + core correction, Zval = 13.0
     Generated using "atomic" code by A. Dal Corso  v.5.0.99 svn rev. 10869
     Using radial grid of 1241 points,  6 beta functions with:
                l(1) =   0
                l(2) =   0
                l(3) =   1
                l(4) =   1
                l(5) =   2
                l(6) =   2
     Q(r) pseudized with 0 coefficients

     PseudoPot. # 3 for As read from file:
     /home/pragov/projects/rrg-bengioy-ad/pragov/crystal_structure_design/SSSP/As.pbe-n-rrkjus_psl.0.2.UPF
     MD5 check sum: 767315de957beeeb34f87d97bf945c8f
     Pseudo is Ultrasoft + core correction, Zval =  5.0
     Generated using "atomic" code by A. Dal Corso  v.5.0.99 svn rev. 10869
     Using radial grid of 1209 points,  4 beta functions with:
                l(1) =   0
                l(2) =   0
                l(3) =   1
                l(4) =   1
     Q(r) pseudized with 0 coefficients

     atomic species   valence    mass     pseudopotential
        Ca            10.00    40.07800     Ca( 1.00)
        In            13.00   114.81800     In( 1.00)
        As             5.00    74.92159     As( 1.00)

      8 Sym. Ops., with inversion, found ( 4 have fractional translation)

                                    s                        frac. trans.

      isym =  1     identity

 cryst.   s( 1) = (     1          0          0      )
                  (     0          1          0      )
                  (     0          0          1      )

 cart.    s( 1) = (  1.0000000  0.0000000  0.0000000 )
                  (  0.0000000  1.0000000  0.0000000 )
                  (  0.0000000  0.0000000  1.0000000 )

      isym =  2     180 deg rotation - cart. axis [0,0,1]

 cryst.   s( 2) = (    -1          0          0      )    f =(  0.5000000 )
                  (     0         -1          0      )       (  0.5000000 )
                  (     0          0          1      )       (  0.5000000 )

 cart.    s( 2) = ( -1.0000000  0.0000000  0.0000000 )    f =(  0.5000000 )
                  (  0.0000000 -1.0000000  0.0000000 )       (  0.7706459 )
                  (  0.0000000  0.0000000  1.0000000 )       (  1.8807200 )

[...]

      isym =  4     180 deg rotation - cart. axis [1,0,0]

[...]

      isym =  5     inversion

[...]

      isym =  6     inv. 180 deg rotation - cart. axis [0,0,1]

[...]

 cryst.   s( 7) = (     1          0          0      )    f =( -0.5000000 )
                  (     0         -1          0      )       (  0.5000000 )
                  (     0          0          1      )       (  0.5000000 )

 cart.    s( 7) = (  1.0000000  0.0000000  0.0000000 )    f =( -0.5000000 )
                  (  0.0000000 -1.0000000  0.0000000 )       (  0.7706459 )
                  (  0.0000000  0.0000000  1.0000000 )       (  1.8807200 )

      isym =  8     inv. 180 deg rotation - cart. axis [1,0,0]

 cryst.   s( 8) = (    -1          0          0      )
                  (     0          1          0      )
                  (     0          0          1      )

 cart.    s( 8) = ( -1.0000000  0.0000000  0.0000000 )
                  (  0.0000000  1.0000000  0.0000000 )
                  (  0.0000000  0.0000000  1.0000000 )

   Cartesian axes

     site n.     atom                  positions (alat units)
         1           Ca  tau(   1) = (   0.0000000   0.4248941   3.0228061  )
         2           Ca  tau(   2) = (   0.5000000   1.1955400   2.6193540  )
         3           Ca  tau(   3) = (   0.0000000   1.1163978   0.7386340  )
         4           Ca  tau(   4) = (   0.5000000   0.3457518   1.1420860  )
         5           Ca  tau(   5) = (   0.0000000   0.0000000   0.0000000  )
         6           Ca  tau(   6) = (   0.5000000   0.7706459   1.8807200  )
         7           In  tau(   7) = (   0.0000000   1.3254108   1.5486150  )
         8           In  tau(   8) = (   0.5000000   0.5547649   0.3321051  )
         9           In  tau(   9) = (   0.0000000   0.2158810   2.2128251  )
        10           In  tau(  10) = (   0.5000000   0.9865270   3.4293350  )
        11           As  tau(  11) = (   0.5000000   0.3702507   3.4940242  )
        12           As  tau(  12) = (   0.5000000   1.1710412   0.2674158  )
        13           As  tau(  13) = (   0.0000000   0.3521713   0.6494427  )
        14           As  tau(  14) = (   0.0000000   0.4003953   1.6133042  )
        15           As  tau(  15) = (   0.5000000   1.1228173   1.2312773  )
        16           As  tau(  16) = (   0.0000000   1.1891206   3.1119973  )
        17           As  tau(  17) = (   0.0000000   1.1408966   2.1481358  )
        18           As  tau(  18) = (   0.5000000   0.4184746   2.5301627  )

   Crystallographic axes

     site n.     atom                  positions (cryst. coord.)
         1           Ca  tau(   1) = (  0.0000000  0.2756740  0.8036300  )
         2           Ca  tau(   2) = (  0.5000000  0.7756740  0.6963700  )
         3           Ca  tau(   3) = (  0.0000000  0.7243260  0.1963700  )
         4           Ca  tau(   4) = (  0.5000000  0.2243260  0.3036300  )
         5           Ca  tau(   5) = (  0.0000000  0.0000000  0.0000000  )
         6           Ca  tau(   6) = (  0.5000000  0.5000000  0.5000000  )
         7           In  tau(   7) = (  0.0000000  0.8599350  0.4117080  )
         8           In  tau(   8) = (  0.5000000  0.3599350  0.0882920  )
         9           In  tau(   9) = (  0.0000000  0.1400650  0.5882920  )
        10           In  tau(  10) = (  0.5000000  0.6400650  0.9117080  )
        11           As  tau(  11) = (  0.5000000  0.2402210  0.9289060  )
        12           As  tau(  12) = (  0.5000000  0.7597790  0.0710940  )
        13           As  tau(  13) = (  0.0000000  0.2284910  0.1726580  )
        14           As  tau(  14) = (  0.0000000  0.2597790  0.4289060  )
        15           As  tau(  15) = (  0.5000000  0.7284910  0.3273420  )
        16           As  tau(  16) = (  0.0000000  0.7715090  0.8273420  )
        17           As  tau(  17) = (  0.0000000  0.7402210  0.5710940  )
        18           As  tau(  18) = (  0.5000000  0.2715090  0.6726580  )

     number of k points=     1  Methfessel-Paxton smearing, width (Ry)=  0.0010
                       cart. coord. in units 2pi/alat
        k(    1) = (   0.0000000   0.0000000   0.0000000), wk =   2.0000000

                       cryst. coord.
        k(    1) = (   0.0000000   0.0000000   0.0000000), wk =   2.0000000

     Initial potential from superposition of free atoms

     starting charge     151.9505, renormalised to     152.0000
     Starting wfcs are  128 randomized atomic wfcs

     Self-consistent Calculation

     iteration #  1     ecut=    30.00 Ry     beta= 0.70
     Davidson diagonalization with overlap

     ethr =  1.00E-02,  avg # of iterations =  2.0

     Threshold (ethr) on eigenvalues was too large:
     Diagonalizing with lowered threshold

     Davidson diagonalization with overlap

[...]

     total energy              =   -1174.14234411 Ry
     estimated scf accuracy    <       1.19992334 Ry

[...]

     total energy              =   -1174.61258247 Ry
     estimated scf accuracy    <       0.00001359 Ry

     iteration # 17     ecut=    30.00 Ry     beta= 0.70
     Davidson diagonalization with overlap

     ethr =  2.74E-09,  avg # of iterations =  2.0

     End of self-consistent calculation

          k = 0.0000 0.0000 0.0000 (  4852 PWs)   bands (ev):

   -35.1614 -35.1611 -35.1600 -35.1596 -34.4741 -34.4736 -16.2117 -16.2112
   -16.1930 -16.1926 -16.1635 -16.1619 -16.1610 -16.1594 -16.0798 -16.0794
   -16.0734 -16.0730 -15.5872 -15.5867 -15.5280 -15.5275 -15.3821 -15.3816
    -8.1408  -8.1401  -8.1130  -8.1127  -8.0772  -8.0759  -8.0749  -8.0742
    -8.0597  -8.0594  -8.0324  -8.0321  -8.0244  -8.0242  -8.0115  -8.0112
    -8.0045  -8.0043  -7.9866  -7.9859  -4.3778  -4.2159  -3.7945  -3.5215
    -3.1972  -3.1630  -3.1463  -3.0615   1.5449   1.6466   1.7260   2.0261
     2.7986   3.2307   3.6395   3.9945   4.1591   4.5027   4.6406   4.7666
     4.7871   5.0344   5.1261   5.1687   5.3868   5.5101   5.6304   5.8200
     5.8294   6.3650   6.3854   6.5104   6.5144   7.0480   7.1540   7.7002
     7.9856   8.3402   8.5008   8.8394   8.8676   8.8760   8.9184   8.9367
     9.0164   9.0352   9.1951

     occupation numbers
     1.0000   1.0000   1.0000   1.0000   1.0000   1.0000   1.0000   1.0000
     1.0000   1.0000   1.0000   1.0000   1.0000   1.0000   1.0000   1.0000
     1.0000   1.0000   1.0000   1.0000   1.0000   1.0000   1.0000   1.0000
     1.0000   1.0000   1.0000   1.0000   1.0000   1.0000   1.0000   1.0000
     1.0000   1.0000   1.0000   1.0000   1.0000   1.0000   1.0000   1.0000
     1.0000   1.0000   1.0000   1.0000   1.0000   1.0000   1.0000   1.0000
     1.0000   1.0000   1.0000   1.0000   1.0000   1.0000   1.0000   1.0000
     1.0000   1.0000   1.0000   1.0000   1.0000   1.0000   1.0000   1.0000
     1.0000   1.0000   1.0000   1.0000   1.0000   1.0000   1.0000   1.0000
     1.0000   1.0000   1.0000   0.6210   0.3790  -0.0000  -0.0000  -0.0000
    -0.0000  -0.0000  -0.0000  -0.0000  -0.0000  -0.0000  -0.0000  -0.0000
    -0.0000  -0.0000  -0.0000

     the Fermi energy is     6.5124 ev

!    total energy              =   -1174.61258253 Ry
     estimated scf accuracy    <       0.00000073 Ry
     smearing contrib. (-TS)   =      -0.00052937 Ry
     internal energy E=F+TS    =   -1174.61205315 Ry

     The total energy is F=E-TS. E is the sum of the following terms:
     one-electron contribution =    -468.03608796 Ry
     hartree contribution      =     301.98567871 Ry
     xc contribution           =    -335.78962355 Ry
     ewald contribution        =    -672.77202037 Ry

     convergence has been achieved in  17 iterations

     Forces acting on atoms (cartesian axes, Ry/au):

     atom    1 type  1   force =    -0.00000000    0.00180776   -0.00868468
     atom    2 type  1   force =     0.00000000    0.00180776    0.00868468
     atom    3 type  1   force =     0.00000000   -0.00180776    0.00868468
     atom    4 type  1   force =     0.00000000   -0.00180776   -0.00868468
     atom    5 type  1   force =    -0.00000000    0.00000000    0.00000000
     atom    6 type  1   force =     0.00000000    0.00000000    0.00000000
     atom    7 type  2   force =     0.00000000   -0.00224352    0.01739516
     atom    8 type  2   force =     0.00000000   -0.00224352   -0.01739516
     atom    9 type  2   force =     0.00000000    0.00224352   -0.01739516
     atom   10 type  2   force =    -0.00000000    0.00224352    0.01739516
     atom   11 type  3   force =     0.00000000   -0.02071265    0.00722683
     atom   12 type  3   force =     0.00000000    0.02071265   -0.00722683
     atom   13 type  3   force =     0.00000000   -0.00612753    0.03993651
     atom   14 type  3   force =     0.00000000    0.02071265    0.00722683
     atom   15 type  3   force =    -0.00000000   -0.00612753   -0.03993651
     atom   16 type  3   force =     0.00000000    0.00612753   -0.03993651
     atom   17 type  3   force =     0.00000000   -0.02071265   -0.00722683
     atom   18 type  3   force =     0.00000000    0.00612753    0.03993651
     The non-local contrib.  to forces
     atom    1 type  1   force =     0.00000000    0.01737456    0.02561858
     atom    2 type  1   force =    -0.00000000    0.01737456   -0.02561858
     atom    3 type  1   force =     0.00000000   -0.01737456   -0.02561858
     atom    4 type  1   force =    -0.00000000   -0.01737456    0.02561858
     atom    5 type  1   force =    -0.00000000    0.00000000    0.00000000
     atom    6 type  1   force =     0.00000000    0.00000000    0.00000000
     atom    7 type  2   force =    -0.00000000   -0.03160524   -0.05382385
     atom    8 type  2   force =     0.00000000   -0.03160524    0.05382385
     atom    9 type  2   force =     0.00000000    0.03160524    0.05382385
     atom   10 type  2   force =     0.00000000    0.03160524   -0.05382385
     atom   11 type  3   force =     0.00000000    0.07817190    0.03874552
     atom   12 type  3   force =     0.00000000   -0.07817190   -0.03874552
     atom   13 type  3   force =     0.00000000    0.07019669   -0.08425180
     atom   14 type  3   force =    -0.00000000   -0.07817190    0.03874552
     atom   15 type  3   force =     0.00000000    0.07019669    0.08425180
     atom   16 type  3   force =     0.00000000   -0.07019669    0.08425180
     atom   17 type  3   force =    -0.00000000    0.07817190   -0.03874552
     atom   18 type  3   force =     0.00000000   -0.07019669   -0.08425180
     The ionic contribution  to forces
     atom    1 type  1   force =    -0.00000000   -0.80006727   -1.50144614
     atom    2 type  1   force =    -0.00000000   -0.80006727    1.50144614
     atom    3 type  1   force =     0.00000000    0.80006727    1.50144614
     atom    4 type  1   force =     0.00000000    0.80006727   -1.50144614
     atom    5 type  1   force =     0.00000000    0.00000000    0.00000000
     atom    6 type  1   force =    -0.00000000   -0.00000000   -0.00000000
     atom    7 type  2   force =    -0.00000000   -0.78366043   -3.01999833
     atom    8 type  2   force =    -0.00000000   -0.78366043    3.01999833
     atom    9 type  2   force =    -0.00000000    0.78366043    3.01999833
     atom   10 type  2   force =    -0.00000000    0.78366043   -3.01999833
     atom   11 type  3   force =     0.00000000   -1.86598845   -2.16519814
     atom   12 type  3   force =     0.00000000    1.86598845    2.16519814
     atom   13 type  3   force =    -0.00000000   -1.29900034    2.27323395
     atom   14 type  3   force =     0.00000000    1.86598845   -2.16519814
     atom   15 type  3   force =    -0.00000000   -1.29900034   -2.27323395
     atom   16 type  3   force =    -0.00000000    1.29900034   -2.27323395
     atom   17 type  3   force =    -0.00000000   -1.86598845    2.16519814
     atom   18 type  3   force =     0.00000000    1.29900034    2.27323395
     The local contribution  to forces
     atom    1 type  1   force =     0.00000476    0.78464538    1.46778788
     atom    2 type  1   force =    -0.00000467    0.78474299   -1.46837689
     atom    3 type  1   force =     0.00000721   -0.78487945   -1.46852439
     atom    4 type  1   force =     0.00000446   -0.78457546    1.46872314
     atom    5 type  1   force =     0.00001347   -0.00008444   -0.00089254
     atom    6 type  1   force =    -0.00000356   -0.00006287    0.00123282
     atom    7 type  2   force =     0.00000282    0.81163809    3.09181970
     atom    8 type  2   force =    -0.00000386    0.81216234   -3.09178628
     atom    9 type  2   force =     0.00000683   -0.81185595   -3.08966032
     atom   10 type  2   force =     0.00000174   -0.81203337    3.08990601
     atom   11 type  3   force =    -0.00000175    1.77260693    2.13518180
     atom   12 type  3   force =    -0.00000209   -1.77281779   -2.13579558
     atom   13 type  3   force =     0.00000300    1.22871028   -2.15925883
     atom   14 type  3   force =    -0.00000067   -1.77265057    2.13603554
     atom   15 type  3   force =    -0.00000252    1.22869388    2.15929411
     atom   16 type  3   force =     0.00000022   -1.22900419    2.15887783
     atom   17 type  3   force =     0.00000326    1.77258343   -2.13513382
     atom   18 type  3   force =     0.00000013   -1.22902977   -2.15928541
     The core correction contribution to forces
     atom    1 type  1   force =     0.00000007   -0.00023443   -0.00120868
     atom    2 type  1   force =    -0.00000009   -0.00023294    0.00120845
     atom    3 type  1   force =     0.00000020    0.00022951    0.00120866
     atom    4 type  1   force =     0.00000014    0.00023353   -0.00121071
     atom    5 type  1   force =     0.00000027   -0.00000050   -0.00000091
     atom    6 type  1   force =     0.00000003   -0.00000041    0.00000489
     atom    7 type  2   force =     0.00000000    0.00141561    0.00042397
     atom    8 type  2   force =     0.00000027    0.00141702   -0.00042568
     atom    9 type  2   force =     0.00000036   -0.00142240   -0.00042676
     atom   10 type  2   force =     0.00000047   -0.00142106    0.00042600
     atom   11 type  3   force =    -0.00000001   -0.00561388   -0.00191534
     atom   12 type  3   force =    -0.00000008    0.00558166    0.00192110
     atom   13 type  3   force =     0.00000030   -0.00630392    0.01023583
     atom   14 type  3   force =    -0.00000012    0.00559292   -0.00192069
     atom   15 type  3   force =    -0.00000021   -0.00629359   -0.01022847
     atom   16 type  3   force =    -0.00000029    0.00625031   -0.01022749
     atom   17 type  3   force =     0.00000011   -0.00561422    0.00191693
     atom   18 type  3   force =     0.00000010    0.00624925    0.01020352
     The Hubbard contrib.    to forces
     atom    1 type  1   force =     0.00000000    0.00000000    0.00000000
     atom    2 type  1   force =     0.00000000    0.00000000    0.00000000
     atom    3 type  1   force =     0.00000000    0.00000000    0.00000000
     atom    4 type  1   force =     0.00000000    0.00000000    0.00000000
     atom    5 type  1   force =     0.00000000    0.00000000    0.00000000
     atom    6 type  1   force =     0.00000000    0.00000000    0.00000000
     atom    7 type  2   force =     0.00000000    0.00000000    0.00000000
     atom    8 type  2   force =     0.00000000    0.00000000    0.00000000
     atom    9 type  2   force =     0.00000000    0.00000000    0.00000000
     atom   10 type  2   force =     0.00000000    0.00000000    0.00000000
     atom   11 type  3   force =     0.00000000    0.00000000    0.00000000
     atom   12 type  3   force =     0.00000000    0.00000000    0.00000000
     atom   13 type  3   force =     0.00000000    0.00000000    0.00000000
     atom   14 type  3   force =     0.00000000    0.00000000    0.00000000
     atom   15 type  3   force =     0.00000000    0.00000000    0.00000000
     atom   16 type  3   force =     0.00000000    0.00000000    0.00000000
     atom   17 type  3   force =     0.00000000    0.00000000    0.00000000
     atom   18 type  3   force =     0.00000000    0.00000000    0.00000000
     The SCF correction term to forces
     atom    1 type  1   force =    -0.00000374    0.00007212    0.00058070
     atom    2 type  1   force =     0.00000254   -0.00001789    0.00004034
     atom    3 type  1   force =    -0.00000427    0.00012992    0.00016397
     atom    4 type  1   force =    -0.00000435   -0.00016471   -0.00038064
     atom    5 type  1   force =    -0.00001088    0.00008358    0.00090403
     atom    6 type  1   force =     0.00000400    0.00004859   -0.00122936
     atom    7 type  2   force =     0.00000298   -0.00004071   -0.00110868
     atom    8 type  2   force =     0.00000811   -0.00065535    0.00104844
     atom    9 type  2   force =    -0.00000339    0.00019667   -0.00123614
     atom   10 type  2   force =    -0.00000298    0.00038453    0.00091561
     atom   11 type  3   force =     0.00000167    0.00003268    0.00044578
     atom   12 type  3   force =     0.00000176    0.00003094    0.00021106
     atom   13 type  3   force =    -0.00000100    0.00007138    0.00004399
     atom   14 type  3   force =    -0.00000053   -0.00010050   -0.00048043
     atom   15 type  3   force =     0.00000124    0.00015741   -0.00005541
     atom   16 type  3   force =    -0.00000044   -0.00008011    0.00038746
     atom   17 type  3   force =    -0.00000229    0.00005734   -0.00049085
     atom   18 type  3   force =     0.00000022   -0.00005454   -0.00007360

     Total force =     0.100001     Total SCF correction =     0.003023

     Computing stress (Cartesian axis) and pressure

          total   stress  (Ry/bohr**3)                   (kbar)     P=       12.49
   0.00050898   0.00000000   0.00000000           74.87        0.00        0.00
   0.00000000  -0.00022777   0.00000000            0.00      -33.51        0.00
   0.00000000   0.00000000  -0.00002657            0.00        0.00       -3.91

     kinetic stress (kbar)   8019.64      0.00      0.00
                                0.00   7717.49      0.00
                                0.00      0.00   7767.17

     local   stress (kbar)  -2466.36      0.00      0.00
                                0.00  -1500.10     -0.01
                                0.00     -0.01  -2517.05

     nonloc. stress (kbar)   2302.09      0.00      0.00
                                0.00   2337.58      0.00
                                0.00      0.00   2330.34

     hartree stress (kbar)   4371.91     -0.00      0.00
                               -0.00   4081.35      0.01
                                0.00      0.01   4336.68

     exc-cor stress (kbar)   4697.39     -0.00     -0.00
                               -0.00   4692.71     -0.00
                               -0.00     -0.00   4695.67

     corecor stress (kbar)  -7454.85      0.00      0.00
                                0.00  -7439.00      0.00
                                0.00      0.00  -7441.43

     ewald   stress (kbar)  -9394.94      0.00     -0.00
                                0.00  -9923.54     -0.00
                               -0.00     -0.00  -9175.29

     hubbard stress (kbar)      0.00      0.00      0.00
                                0.00      0.00      0.00
                                0.00      0.00      0.00

     DFT-D   stress (kbar)      0.00      0.00      0.00
                                0.00      0.00      0.00
                                0.00      0.00      0.00

     XDM     stress (kbar)      0.00      0.00      0.00
                                0.00      0.00      0.00
                                0.00      0.00      0.00

     dft-nl  stress (kbar)      0.00      0.00      0.00
                                0.00      0.00      0.00
                                0.00      0.00      0.00

     TS-vdW  stress (kbar)      0.00      0.00      0.00
                                0.00      0.00      0.00
                                0.00      0.00      0.00

[...]

                                0.00      0.00      0.00

     Writing all to output data dir new_calculations/myprefix.save/

     General routines

     Parallel routines

   This run was terminated on:  12:21: 6  20May2023

   JOB DONE.