     Program PWSCF v.7.0 starts on 21May2023 at  3:51:57

     Reading input from espresso_2918.pwi
Warning: card &CELL ignored
Warning: card / ignored

     Current dimensions of program PWSCF are:
     Max number of different atomic species (ntypx) = 10
     Max number of k-points (npk) =  40000
     Max angular momentum in pseudopotentials (lmaxx) =  4
     file O.pbe-n-kjpaw_psl.0.1.UPF: wavefunction(s)  2P renormalized

     gamma-point specific algorithms are used

     Subspace diagonalization in iterative solution of the eigenvalue problem:
     a serial algorithm will be used

     Using Slab Decomposition

     bravais-lattice index     =            0
     lattice parameter (alat)  =       9.8308  a.u.
     unit-cell volume          =    1345.4580 (a.u.)^3
     number of atoms/cell      =           20
     number of atomic types    =            4
     number of electrons       =       146.00
     number of Kohn-Sham states=           88
     kinetic-energy cutoff     =      30.0000  Ry
     charge density cutoff     =     240.0000  Ry
     scf convergence threshold =      1.0E-06
     mixing beta               =       0.7000
     number of iterations used =            8  plain     mixing
     Exchange-correlation= SLA  PW   PBX  PBC
                           (   1   4   3   4   0   0   0)

     celldm(1)=   9.830844  celldm(2)=   0.000000  celldm(3)=   0.000000
     celldm(4)=   0.000000  celldm(5)=   0.000000  celldm(6)=   0.000000

     crystal axes: (cart. coord. in units of alat)
               a(1) = (   1.000000   0.000000   0.000000 )
               a(2) = (  -0.249563   1.020007   0.000000 )
               a(3) = (  -0.336023  -0.478416   1.388335 )

     reciprocal axes: (cart. coord. in units 2 pi/alat)
               b(1) = (  1.000000  0.244668  0.326345 )
               b(2) = (  0.000000  0.980385  0.337837 )
               b(3) = (  0.000000  0.000000  0.720287 )

     PseudoPot. # 1 for Li read from file:
     /home/pragov/projects/rrg-bengioy-ad/pragov/crystal_structure_design/SSSP/li_pbe_v1.4.uspp.F.UPF
     MD5 check sum: e912e257baa3777c20ea3d68f190483c
     Pseudo is Ultrasoft, Zval =  3.0
     Generated by new atomic code, or converted to UPF format
     Using radial grid of  751 points,  5 beta functions with:
                l(1) =   0
                l(2) =   0
                l(3) =   0
                l(4) =   1
                l(5) =   1
     Q(r) pseudized with 10 coefficients,  rinner =    1.150   1.150   1.150

     PseudoPot. # 2 for Cu read from file:
     /home/pragov/projects/rrg-bengioy-ad/pragov/crystal_structure_design/SSSP/Cu_pbe_v1.2.uspp.F.UPF
     MD5 check sum: 6e991ff952a84172a2a52a1c1e996048
     Pseudo is Ultrasoft + core correction, Zval = 19.0
     Generated by new atomic code, or converted to UPF format
     Using radial grid of  867 points,  6 beta functions with:
                l(1) =   0
                l(2) =   0
                l(3) =   1
                l(4) =   1
                l(5) =   2
                l(6) =   2
     Q(r) pseudized with  8 coefficients,  rinner =    1.150   1.150   1.150
                                                       1.150   1.150

     PseudoPot. # 3 for Sb read from file:
     /home/pragov/projects/rrg-bengioy-ad/pragov/crystal_structure_design/SSSP/sb_pbe_v1.4.uspp.F.UPF
     MD5 check sum: 9bc50dfb53373b713f5709b9110fe27f
     Pseudo is Ultrasoft + core correction, Zval = 15.0
     Generated by new atomic code, or converted to UPF format
     Using radial grid of  891 points,  6 beta functions with:
                l(1) =   0
                l(2) =   0
                l(3) =   1
                l(4) =   1
                l(5) =   2
                l(6) =   2
     Q(r) pseudized with  8 coefficients,  rinner =    1.350   1.350   1.350
                                                       1.350   1.350

     PseudoPot. # 4 for O  read from file:
     /home/pragov/projects/rrg-bengioy-ad/pragov/crystal_structure_design/SSSP/O.pbe-n-kjpaw_psl.0.1.UPF
     MD5 check sum: 0234752ac141de4415c5fc33072bef88
     Pseudo is Projector augmented-wave + core cor, Zval =  6.0
     Generated using "atomic" code by A. Dal Corso  v.5.0.99 svn rev. 10869
     Shape of augmentation charge: BESSEL
     Using radial grid of 1095 points,  4 beta functions with:
                l(1) =   0
                l(2) =   0
                l(3) =   1
                l(4) =   1
     Q(r) pseudized with 0 coefficients

     atomic species   valence    mass     pseudopotential
        Li             3.00     6.94000     Li( 1.00)
        Cu            19.00    63.54600     Cu( 1.00)
        Sb            15.00   121.76000     Sb( 1.00)
        O              6.00    15.99900     O ( 1.00)

     No symmetry found

                                    s                        frac. trans.

      isym =  1     identity

 cryst.   s( 1) = (     1          0          0      )
                  (     0          1          0      )
                  (     0          0          1      )

 cart.    s( 1) = (  1.0000000 -0.0000000 -0.0000000 )
                  (  0.0000000  1.0000000  0.0000000 )
                  (  0.0000000  0.0000000  1.0000000 )

   Cartesian axes

     site n.     atom                  positions (alat units)
         1           Li  tau(   1) = (  -0.1237866   0.7294525   0.5216850  )
         2           Li  tau(   2) = (   0.0709332  -0.0847413   1.1271991  )
         3           Li  tau(   3) = (   0.2106855   0.2627562   0.6836593  )
         4           Li  tau(   4) = (   0.2305043   0.0610733   0.1394416  )
         5           Li  tau(   5) = (   0.3478816   0.6232727   0.2739241  )
         6           Li  tau(   6) = (   0.5454088  -0.1853939   0.8482020  )
         7           Cu  tau(   7) = (  -0.1188813   0.5093587   0.0034583  )
         8           Cu  tau(   8) = (   0.1792579   0.4814229   1.2542429  )
         9           Sb  tau(   9) = (  -0.3036746   0.3778671   0.9740032  )
        10           Sb  tau(  10) = (   0.7150595   0.1605893   0.4102642  )
        11           O   tau(  11) = (  -0.2374682  -0.3573843   1.1479755  )
        12           O   tau(  12) = (  -0.1424228   0.2472231   1.3027985  )
        13           O   tau(  13) = (  -0.1246507   0.0835128   0.7625126  )
        14           O   tau(  14) = (   0.0139205   0.4009284   0.3361729  )
        15           O   tau(  15) = (   0.0098134   0.5874373   0.9271566  )
        16           O   tau(  16) = (   0.4148634  -0.0526690   0.4849844  )
        17           O   tau(  17) = (   0.4160203   0.1266275   1.0544989  )
        18           O   tau(  18) = (   0.5492199   0.4624711   0.6248161  )
        19           O   tau(  19) = (   0.5609633   0.3147576   0.0960353  )
        20           O   tau(  20) = (   0.6432375   0.8954834   0.2250950  )

   Crystallographic axes

     site n.     atom                  positions (cryst. coord.)
         1           Li  tau(   1) = (  0.2249360  0.8913890  0.3757630  )
         2           Li  tau(   2) = (  0.4180550  0.2977310  0.8119070  )
         3           Li  tau(   3) = (  0.4980820  0.4885680  0.4924310  )
         4           Li  tau(   4) = (  0.2909530  0.1069840  0.1004380  )
         5           Li  tau(   5) = (  0.5897700  0.7035890  0.1973040  )
         6           Li  tau(   6) = (  0.7768550  0.1047970  0.6109490  )
         7           Cu  tau(   7) = (  0.0068710  0.5005360  0.0024910  )
         8           Cu  tau(   8) = (  0.7063620  0.8957100  0.9034150  )
         9           Sb  tau(   9) = (  0.1066380  0.6995100  0.7015620  )
        10           Sb  tau(  10) = (  0.8882380  0.2960420  0.2955080  )
        11           O   tau(  11) = (  0.0497270  0.0374550  0.8268720  )
        12           O   tau(  12) = (  0.3432260  0.6825080  0.9383890  )
        13           O   tau(  13) = (  0.1446240  0.3394800  0.5492280  )
        14           O   tau(  14) = (  0.2217230  0.5066360  0.2421410  )
        15           O   tau(  15) = (  0.4561130  0.8891430  0.6678190  )
        16           O   tau(  16) = (  0.5602490  0.1122100  0.3493280  )
        17           O   tau(  17) = (  0.7911320  0.4803930  0.7595420  )
        18           O   tau(  18) = (  0.8662770  0.6644860  0.4500470  )
        19           O   tau(  19) = (  0.6693150  0.3410280  0.0691730  )
        20           O   tau(  20) = (  0.9357920  0.9539640  0.1621330  )

     number of k points=     1  Methfessel-Paxton smearing, width (Ry)=  0.0010
                       cart. coord. in units 2pi/alat
        k(    1) = (   0.0000000   0.0000000   0.0000000), wk =   2.0000000

                       cryst. coord.
        k(    1) = (   0.0000000   0.0000000   0.0000000), wk =   2.0000000

     Check: negative core charge=   -0.000014

     Initial potential from superposition of free atoms

     starting charge     139.2955, renormalised to     146.0000
     Starting wfcs are  114 randomized atomic wfcs
     Checking if some PAW data can be deallocated...

     Self-consistent Calculation

     iteration #  1     ecut=    30.00 Ry     beta= 0.70
     Davidson diagonalization with overlap

     ethr =  1.00E-02,  avg # of iterations =  3.0

     total energy              =   -1653.96229195 Ry
     estimated scf accuracy    <      35.12639256 Ry

[...]

     total energy              =   -1680.95439371 Ry
     estimated scf accuracy    <       0.00009471 Ry

     iteration # 18     ecut=    30.00 Ry     beta= 0.70
     Davidson diagonalization with overlap

     ethr =  4.32E-08,  avg # of iterations =  2.0

     End of self-consistent calculation

          k = 0.0000 0.0000 0.0000 (  1862 PWs)   bands (ev):

  -104.2444-103.7190 -61.8699 -61.7368 -61.3319 -61.2830 -61.2338 -60.6805
   -36.3022 -36.2603 -36.2133 -36.0607 -36.0199 -35.9155 -21.6799 -21.6431
   -21.5183 -21.5115 -21.4859 -21.4686 -21.4465 -21.3685 -21.3138 -21.3056
   -11.8923 -10.9017 -10.5226 -10.1869 -10.0929  -9.7821  -9.6618  -9.4230
    -9.2383  -8.9591  -0.9394  -0.5561   1.9151   2.1898   2.2864   2.4031
     2.6392   2.7271   3.1359   3.2398   3.6495   3.8551   3.9379   4.0939
     4.2752   4.5770   4.7597   4.9212   4.9792   5.0703   5.2651   5.4178
     5.4389   5.6418   5.7363   5.8641   5.9316   6.0985   6.1794   6.3167
     6.3531   6.4827   6.6154   6.8356   6.9484   6.9963   7.1125   7.6845
     7.9949   8.7534   9.8357  11.7326  13.2157  13.7363  14.7017  15.1896
    15.3538  15.5798  16.0310  16.2604  16.4494  17.2624  17.4085  17.5848

     occupation numbers
     1.0000   1.0000   1.0000   1.0000   1.0000   1.0000   1.0000   1.0000
     1.0000   1.0000   1.0000   1.0000   1.0000   1.0000   1.0000   1.0000
     1.0000   1.0000   1.0000   1.0000   1.0000   1.0000   1.0000   1.0000
     1.0000   1.0000   1.0000   1.0000   1.0000   1.0000   1.0000   1.0000
     1.0000   1.0000   1.0000   1.0000   1.0000   1.0000   1.0000   1.0000
     1.0000   1.0000   1.0000   1.0000   1.0000   1.0000   1.0000   1.0000
     1.0000   1.0000   1.0000   1.0000   1.0000   1.0000   1.0000   1.0000
     1.0000   1.0000   1.0000   1.0000   1.0000   1.0000   1.0000   1.0000
     1.0000   1.0000   1.0000   1.0000   1.0000   1.0000   1.0000   1.0000
     1.0000  -0.0000  -0.0000  -0.0000  -0.0000  -0.0000  -0.0000  -0.0000
    -0.0000  -0.0000  -0.0000  -0.0000  -0.0000  -0.0000  -0.0000  -0.0000

     the Fermi energy is     8.1817 ev

!    total energy              =   -1680.95440082 Ry
     estimated scf accuracy    <       0.00000078 Ry
     smearing contrib. (-TS)   =       0.00000000 Ry
     internal energy E=F+TS    =   -1680.95440082 Ry

     The total energy is F=E-TS. E is the sum of the following terms:
     one-electron contribution =   -1128.16225413 Ry
     hartree contribution      =     636.42835561 Ry
     xc contribution           =    -261.53832032 Ry
     ewald contribution        =    -832.44620548 Ry
     one-center paw contrib.   =     -95.23597650 Ry
      -> PAW hartree energy AE =     295.60897312 Ry
      -> PAW hartree energy PS =    -294.58209567 Ry
      -> PAW xc energy AE      =    -171.58206882 Ry
      -> PAW xc energy PS      =      75.31921487 Ry
      -> total E_H with PAW    =     637.45523306 Ry
      -> total E_XC with PAW   =    -357.80117427 Ry

     convergence has been achieved in  18 iterations

     Forces acting on atoms (cartesian axes, Ry/au):

     atom    1 type  1   force =     0.00282511    0.00035606   -0.00323738
     atom    2 type  1   force =     0.00211746   -0.00236647    0.00150225
     atom    3 type  1   force =    -0.00059153   -0.00233682   -0.00216886
     atom    4 type  1   force =    -0.00122940    0.00432369    0.00192270
     atom    5 type  1   force =     0.00083288   -0.00014889    0.00039666
     atom    6 type  1   force =    -0.00195155    0.00060008    0.00231765
     atom    7 type  2   force =     0.00134805    0.00287453   -0.00406597
     atom    8 type  2   force =    -0.00260844   -0.00297848   -0.00148719
     atom    9 type  3   force =     0.00266895    0.00288635   -0.00432268
     atom   10 type  3   force =    -0.00718692   -0.00707412    0.00402176
     atom   11 type  4   force =     0.01018226   -0.00969379    0.01623459
     atom   12 type  4   force =     0.00888989    0.00474938    0.01491906
     atom   13 type  4   force =     0.00449940    0.00017330    0.00795283
     atom   14 type  4   force =     0.01559992   -0.00086633    0.00745045
     atom   15 type  4   force =     0.00319779   -0.00306698   -0.00960447
     atom   16 type  4   force =    -0.00494967    0.00248867    0.00230659
     atom   17 type  4   force =    -0.01181355   -0.00652413   -0.00415466
     atom   18 type  4   force =    -0.00368139    0.00535459   -0.00327197
     atom   19 type  4   force =    -0.01325923    0.00476163   -0.02038172
     atom   20 type  4   force =    -0.00489005    0.00648774   -0.00632965
     The non-local contrib.  to forces
     atom    1 type  1   force =    -0.04936931    0.00762731    0.05148011
     atom    2 type  1   force =    -0.00473614    0.01422709   -0.03700130
     atom    3 type  1   force =     0.00671755    0.02002471    0.01664415
     atom    4 type  1   force =     0.02598757    0.00879657   -0.01250597
     atom    5 type  1   force =    -0.01632941   -0.00655931    0.02609085
     atom    6 type  1   force =     0.03477884   -0.02522773   -0.02482245
     atom    7 type  2   force =     0.17383695    0.11469906   -0.04042359
     atom    8 type  2   force =    -0.14340095   -0.12740260    0.06437845
     atom    9 type  3   force =     0.03565430   -0.11551761   -0.11746906
     atom   10 type  3   force =     0.09343097    0.11669445    0.14526002
     atom   11 type  4   force =     0.17098257   -0.89747683   -0.45260800
     atom   12 type  4   force =    -0.38139422    0.17452103   -0.70228023
     atom   13 type  4   force =    -0.54423671    0.66410978   -0.37639844
     atom   14 type  4   force =    -0.81546283   -0.28367519   -0.31453727
     atom   15 type  4   force =    -0.60709491   -0.61328330    0.53548544
     atom   16 type  4   force =     0.76271094    0.52612960   -0.22343483
     atom   17 type  4   force =     0.84752339    0.44585352    0.29992196
     atom   18 type  4   force =     0.53706798   -0.68629749    0.45159600
     atom   19 type  4   force =     0.64458398   -0.16993730    0.71485258
     atom   20 type  4   force =    -0.56197820    0.78660350    0.10748255
     The ionic contribution  to forces
     atom    1 type  1   force =     0.50644879    1.45969680    2.54015431
     atom    2 type  1   force =    -0.87162546   -0.53426015   -3.15364771
     atom    3 type  1   force =    -0.00788170   -0.36008757   -1.26801190
     atom    4 type  1   force =     1.38530983    0.60629850    2.91989877
     atom    5 type  1   force =    -0.80400118   -0.51282367    4.13881600
     atom    6 type  1   force =    -0.09395502   -0.62116652   -4.00915790
     atom    7 type  2   force =     6.55337809    0.58305243    7.12357992
     atom    8 type  2   force =    -4.27856316   -0.23229327   -5.06560894
     atom    9 type  3   force =     1.20751137    4.85969657  -16.17588767
     atom   10 type  3   force =    -2.60020354   -5.20869332   14.14136725
     atom   11 type  4   force =     5.53144268    9.56693997   -3.95216712
     atom   12 type  4   force =     4.01514993   -3.01654404    5.71201188
     atom   13 type  4   force =     7.10929055   -8.96017391   -0.00251867
     atom   14 type  4   force =    11.28337200    2.42063204   11.93026836
     atom   15 type  4   force =     1.61529250    8.70646997  -14.49786044
     atom   16 type  4   force =    -7.15453235   -5.93911267    4.68146523
     atom   17 type  4   force =    -8.19206129   -6.22986248  -13.96559573
     atom   18 type  4   force =    -6.62283298    8.53657688   -3.44860325
     atom   19 type  4   force =   -13.80166220    0.82380827    0.44297501
     atom   20 type  4   force =     5.22012314   -5.94815383   11.90852261
     The local contribution  to forces
     atom    1 type  1   force =    -0.45416510   -1.46690601   -2.59485122
     atom    2 type  1   force =     0.87852680    0.51770599    3.19220369
     atom    3 type  1   force =     0.00058169    0.33767088    1.24913383
     atom    4 type  1   force =    -1.41238763   -0.61063936   -2.90539218
     atom    5 type  1   force =     0.82114686    0.51918481   -4.16446874
     atom    6 type  1   force =     0.05728927    0.64710242    4.03619088
     atom    7 type  2   force =    -6.72572560   -0.69542326   -7.08678230
     atom    8 type  2   force =     4.41885744    0.35676416    5.00007605
     atom    9 type  3   force =    -1.23973440   -4.74307770   16.28809955
     atom   10 type  3   force =     2.50024271    5.08654141  -14.28115750
     atom   11 type  4   force =    -5.69073425   -8.68845122    4.41599409
     atom   12 type  4   force =    -3.62861492    2.84833655   -5.00198848
     atom   13 type  4   force =    -6.56591597    8.30253218    0.38300404
     atom   14 type  4   force =   -10.46066413   -2.14071154  -11.61205575
     atom   15 type  4   force =    -1.01115129   -8.10245575   13.95861497
     atom   16 type  4   force =     6.39477131    5.42080588   -4.45806832
     atom   17 type  4   force =     7.34152823    5.78205497   13.66497106
     atom   18 type  4   force =     6.08736545   -7.85147259    2.99840610
     atom   19 type  4   force =    13.15050068   -0.65077026   -1.17080770
     atom   20 type  4   force =    -4.66898218    5.17625359  -12.02132485
     The core correction contribution to forces
     atom    1 type  1   force =     0.00000000    0.00000000    0.00000000
     atom    2 type  1   force =     0.00000000    0.00000000    0.00000000
     atom    3 type  1   force =     0.00000000    0.00000000    0.00000000
     atom    4 type  1   force =     0.00000000    0.00000000    0.00000000
     atom    5 type  1   force =     0.00000000    0.00000000    0.00000000
     atom    6 type  1   force =     0.00000000    0.00000000    0.00000000
     atom    7 type  2   force =    -0.00034432   -0.00019361    0.00006432
     atom    8 type  2   force =     0.00028798    0.00020215   -0.00018302
     atom    9 type  3   force =    -0.00102176    0.00167328    0.00098331
     atom   10 type  3   force =    -0.00070556   -0.00181983   -0.00153513
     atom   11 type  4   force =    -0.00129402    0.00925651    0.00491282
     atom   12 type  4   force =     0.00382391   -0.00152005    0.00716232
     atom   13 type  4   force =     0.00540512   -0.00634272    0.00382673
     atom   14 type  4   force =     0.00845777    0.00269750    0.00386745
     atom   15 type  4   force =     0.00603533    0.00627936   -0.00596439
     atom   16 type  4   force =    -0.00783656   -0.00524208    0.00236358
     atom   17 type  4   force =    -0.00875968   -0.00448760   -0.00364710
     atom   18 type  4   force =    -0.00532532    0.00656252   -0.00458579
     atom   19 type  4   force =    -0.00673445    0.00152256   -0.00736779
     atom   20 type  4   force =     0.00594635   -0.00803201   -0.00077745
     The Hubbard contrib.    to forces
     atom    1 type  1   force =     0.00000000    0.00000000    0.00000000
     atom    2 type  1   force =     0.00000000    0.00000000    0.00000000
     atom    3 type  1   force =     0.00000000    0.00000000    0.00000000
     atom    4 type  1   force =     0.00000000    0.00000000    0.00000000
     atom    5 type  1   force =     0.00000000    0.00000000    0.00000000
     atom    6 type  1   force =     0.00000000    0.00000000    0.00000000
     atom    7 type  2   force =     0.00000000    0.00000000    0.00000000
     atom    8 type  2   force =     0.00000000    0.00000000    0.00000000
     atom    9 type  3   force =     0.00000000    0.00000000    0.00000000
     atom   10 type  3   force =     0.00000000    0.00000000    0.00000000
     atom   11 type  4   force =     0.00000000    0.00000000    0.00000000
     atom   12 type  4   force =     0.00000000    0.00000000    0.00000000
     atom   13 type  4   force =     0.00000000    0.00000000    0.00000000
     atom   14 type  4   force =     0.00000000    0.00000000    0.00000000
     atom   15 type  4   force =     0.00000000    0.00000000    0.00000000
     atom   16 type  4   force =     0.00000000    0.00000000    0.00000000
     atom   17 type  4   force =     0.00000000    0.00000000    0.00000000
     atom   18 type  4   force =     0.00000000    0.00000000    0.00000000
     atom   19 type  4   force =     0.00000000    0.00000000    0.00000000
     atom   20 type  4   force =     0.00000000    0.00000000    0.00000000
     The SCF correction term to forces
     atom    1 type  1   force =    -0.00007571   -0.00004150   -0.00002271
     atom    2 type  1   force =    -0.00003419   -0.00001887   -0.00005456
     atom    3 type  1   force =     0.00000448    0.00007571    0.00006292
     atom    4 type  1   force =    -0.00012561   -0.00011147   -0.00008005
     atom    5 type  1   force =     0.00003017    0.00006982   -0.00004358
     atom    6 type  1   force =    -0.00005109   -0.00008755    0.00010498
     atom    7 type  2   force =     0.00021647    0.00076046   -0.00050644
     atom    8 type  2   force =     0.00022380   -0.00022837   -0.00015186
     atom    9 type  3   force =     0.00027300    0.00013234   -0.00005094
     atom   10 type  3   force =     0.00006206    0.00022372    0.00008500
     atom   11 type  4   force =    -0.00020116    0.00005831    0.00010066
     atom   12 type  4   force =    -0.00006125   -0.00002357    0.00001144
     atom   13 type  4   force =    -0.00003004    0.00006850    0.00003703
     atom   14 type  4   force =    -0.00008932    0.00021141   -0.00009447
     atom   15 type  4   force =     0.00012971   -0.00005672    0.00011783
     atom   16 type  4   force =    -0.00004946   -0.00007152   -0.00002122
     atom   17 type  4   force =    -0.00003064   -0.00006199    0.00019303
     atom   18 type  4   force =     0.00005703    0.00000580   -0.00008716
     atom   19 type  4   force =     0.00006631    0.00015891   -0.00003596
     atom   20 type  4   force =     0.00001440   -0.00016297   -0.00023464

     Total force =     0.050606     Total SCF correction =     0.001258

     Computing stress (Cartesian axis) and pressure

          total   stress  (Ry/bohr**3)                   (kbar)     P=     -554.51
  -0.00367217   0.00007414   0.00005641         -540.19       10.91        8.30
   0.00007414  -0.00401430   0.00002283           10.91     -590.52        3.36
   0.00005641   0.00002283  -0.00362188            8.30        3.36     -532.80

     kinetic stress (kbar)  25218.47   -194.46   -109.48
                             -194.46  25448.26    160.66
                             -109.48    160.66  25071.78

     local   stress (kbar) -18974.88  -5871.67   1149.61
                            -5871.67 -16301.58   5271.16
                             1149.61   5271.16 -14892.12

     nonloc. stress (kbar)   5897.06    -38.04    -20.01
                              -38.04   5918.95     38.00
                              -20.01     38.00   5876.16

     hartree stress (kbar)  24329.80   2230.99   -600.68
                             2230.99  23708.41  -2083.98
                             -600.68  -2083.98  21545.41

     exc-cor stress (kbar)  -2264.45      4.21      0.38
                                4.21  -2268.71     -2.67
                                0.38     -2.67  -2264.17

     corecor stress (kbar)  -5565.73     -0.08      0.47
                               -0.08  -5566.03     -0.07
                                0.47     -0.07  -5565.00

     ewald   stress (kbar) -29180.46   3879.96   -411.99
                             3879.96 -31529.83  -3379.74
                             -411.99  -3379.74 -30304.85

     hubbard stress (kbar)      0.00      0.00      0.00
                                0.00      0.00      0.00
                                0.00      0.00      0.00

     DFT-D   stress (kbar)      0.00      0.00      0.00
                                0.00      0.00      0.00
                                0.00      0.00      0.00

     XDM     stress (kbar)      0.00      0.00      0.00
                                0.00      0.00      0.00
                                0.00      0.00      0.00

     dft-nl  stress (kbar)      0.00      0.00      0.00
                                0.00      0.00      0.00
                                0.00      0.00      0.00

     TS-vdW  stress (kbar)      0.00      0.00      0.00
                                0.00      0.00      0.00
                                0.00      0.00      0.00

[...]

                                0.00      0.00      0.00

     Writing all to output data dir new_calculations/myprefix.save/

     General routines

     Parallel routines

     PAW routines

   This run was terminated on:   3:52:49  21May2023

   JOB DONE.