     Program PWSCF v.7.0 starts on 21May2023 at  3:51:47

     Reading input from espresso_26402.pwi
Warning: card &CELL ignored
Warning: card / ignored

     Current dimensions of program PWSCF are:
     Max number of different atomic species (ntypx) = 10
     Max number of k-points (npk) =  40000
     Max angular momentum in pseudopotentials (lmaxx) =  4
     file Nb.pbe-spn-kjpaw_psl.0.3.0.UPF: wavefunction(s)  4S 4P renormalized

     gamma-point specific algorithms are used
     Message from routine setup:
     using ibrav=0 with symmetry is DISCOURAGED, use correct ibrav instead

     Subspace diagonalization in iterative solution of the eigenvalue problem:
     a serial algorithm will be used

     Using Slab Decomposition

     bravais-lattice index     =            0
     lattice parameter (alat)  =       6.5904  a.u.
     unit-cell volume          =     478.9884 (a.u.)^3
     number of atoms/cell      =            3
     number of atomic types    =            2
     number of electrons       =        25.00
     number of Kohn-Sham states=           17
     kinetic-energy cutoff     =      30.0000  Ry
     charge density cutoff     =     240.0000  Ry
     scf convergence threshold =      1.0E-06
     mixing beta               =       0.7000
     number of iterations used =            8  plain     mixing
     Exchange-correlation= SLA  PW   PBE  PBE
                           (   1   4   3   4   0   0   0)

     celldm(1)=   6.590441  celldm(2)=   0.000000  celldm(3)=   0.000000
     celldm(4)=   0.000000  celldm(5)=   0.000000  celldm(6)=   0.000000

     crystal axes: (cart. coord. in units of alat)
               a(1) = (   1.000000   0.000000   0.000000 )
               a(2) = (  -0.500000   0.866026   0.000000 )
               a(3) = (   0.000000   0.000000   1.932195 )

     reciprocal axes: (cart. coord. in units 2 pi/alat)
               b(1) = (  1.000000  0.577350  0.000000 )
               b(2) = (  0.000000  1.154700  0.000000 )
               b(3) = (  0.000000  0.000000  0.517546 )

     PseudoPot. # 1 for Nb read from file:
     /home/pragov/projects/rrg-bengioy-ad/pragov/crystal_structure_design/SSSP/Nb.pbe-spn-kjpaw_psl.0.3.0.UPF
     MD5 check sum: 411d72ad547312f8017e2943ceca08cc
     Pseudo is Projector augmented-wave + core cor, Zval = 13.0
     Generated using "atomic" code by A. Dal Corso  v.5.0.99 svn rev. 10869
     Shape of augmentation charge: PSQ
     Using radial grid of 1227 points,  6 beta functions with:
                l(1) =   0
                l(2) =   0
                l(3) =   1
                l(4) =   1
                l(5) =   2
                l(6) =   2
     Q(r) pseudized with 0 coefficients

     PseudoPot. # 2 for Se read from file:
     /home/pragov/projects/rrg-bengioy-ad/pragov/crystal_structure_design/SSSP/Se_pbe_v1.uspp.F.UPF
     MD5 check sum: 1b3568f3a8ae88f9a2a0ad0698632c85
     Pseudo is Ultrasoft + core correction, Zval =  6.0
     Generated by new atomic code, or converted to UPF format
     Using radial grid of  877 points,  6 beta functions with:
                l(1) =   0
                l(2) =   0
                l(3) =   1
                l(4) =   1
                l(5) =   2
                l(6) =   2
     Q(r) pseudized with  8 coefficients,  rinner =    1.300   1.300   1.300
                                                       1.300   1.300

     atomic species   valence    mass     pseudopotential
        Nb            13.00    92.90637     Nb( 1.00)
        Se             6.00    78.97100     Se( 1.00)

     12 Sym. Ops., with inversion, found

                                    s                        frac. trans.

      isym =  1     identity

 cryst.   s( 1) = (     1          0          0      )
                  (     0          1          0      )
                  (     0          0          1      )

 cart.    s( 1) = (  1.0000000  0.0000000  0.0000000 )
                  (  0.0000000  1.0000000  0.0000000 )
                  (  0.0000000  0.0000000  1.0000000 )

      isym =  2     180 deg rotation - cart. axis [1,0,0]

[...]

      isym =  3     120 deg rotation - cryst. axis [0,0,1]

[...]

      isym =  6     180 deg rotation - cryst. axis [1,1,0]

[...]

      isym =  7     inversion

[...]

      isym =  8     inv. 180 deg rotation - cart. axis [1,0,0]

[...]

      isym =  9     inv. 120 deg rotation - cryst. axis [0,0,1]

 cryst.   s( 9) = (     0         -1          0      )
                  (     1          1          0      )
                  (     0          0         -1      )

 cart.    s( 9) = (  0.4999998  0.8660253  0.0000000 )
                  ( -0.8660255  0.5000002  0.0000000 )
                  (  0.0000000  0.0000000 -1.0000000 )

[...]

 cryst.   s(10) = (     1          1          0      )
                  (    -1          0          0      )
                  (     0          0         -1      )

 cart.    s(10) = (  0.5000002 -0.8660253  0.0000000 )
                  (  0.8660255  0.4999998  0.0000000 )
                  (  0.0000000  0.0000000 -1.0000000 )

[...]

      isym = 12     inv. 180 deg rotation - cryst. axis [1,1,0]

 cryst.   s(12) = (     0         -1          0      )
                  (    -1          0          0      )
                  (     0          0          1      )

 cart.    s(12) = (  0.4999998 -0.8660255  0.0000000 )
                  ( -0.8660255 -0.4999998  0.0000000 )
                  (  0.0000000  0.0000000  1.0000000 )

   Cartesian axes

     site n.     atom                  positions (alat units)
         1           Nb  tau(   1) = (   0.0000000   0.0000000   0.0000000  )
         2           Se  tau(   2) = (   0.5000006   0.2886749   1.4500328  )
         3           Se  tau(   3) = (  -0.0000003   0.5773507   0.4821618  )

   Crystallographic axes

     site n.     atom                  positions (cryst. coord.)
         1           Nb  tau(   1) = (  0.0000000  0.0000000  0.0000000  )
         2           Se  tau(   2) = (  0.6666670  0.3333330  0.7504590  )
         3           Se  tau(   3) = (  0.3333330  0.6666670  0.2495410  )

     number of k points=     1  Methfessel-Paxton smearing, width (Ry)=  0.0010
                       cart. coord. in units 2pi/alat
        k(    1) = (   0.0000000   0.0000000   0.0000000), wk =   2.0000000

                       cryst. coord.
        k(    1) = (   0.0000000   0.0000000   0.0000000), wk =   2.0000000

     Check: negative core charge=   -0.000006

     Initial potential from superposition of free atoms

     starting charge      24.9977, renormalised to      25.0000
     Starting wfcs are   18 randomized atomic wfcs
     Checking if some PAW data can be deallocated...

     Self-consistent Calculation

     iteration #  1     ecut=    30.00 Ry     beta= 0.70
     Davidson diagonalization with overlap

     ethr =  1.00E-02,  avg # of iterations =  2.0

     total energy              =    -420.45259326 Ry
     estimated scf accuracy    <       0.62063520 Ry

[...]

     ethr =  2.40E-08,  avg # of iterations =  1.0

[...]

     ethr =  2.40E-08,  avg # of iterations =  1.0
     Minimization algorithm failed to find Fermi energy: reverting to bisection
     Possible cause: smearing is larger than the electronic band-gap.

[...]

     total energy              =    -420.74309508 Ry
     estimated scf accuracy    <       0.00000877 Ry

     iteration # 49     ecut=    30.00 Ry     beta= 0.70
     Davidson diagonalization with overlap

     ethr =  2.40E-08,  avg # of iterations =  1.0
     Minimization algorithm failed to find Fermi energy: reverting to bisection
     Possible cause: smearing is larger than the electronic band-gap.

     End of self-consistent calculation

          k = 0.0000 0.0000 0.0000 (   660 PWs)   bands (ev):

   -46.0522 -22.1225 -22.1225 -22.0838  -5.2632  -4.2317   3.3947   6.2228
     6.2228   7.9094   8.8023   8.8095   8.8095   9.3987   9.3987  12.4635
    12.4635

     occupation numbers
     1.0000   1.0000   1.0000   1.0000   1.0000   1.0000   1.0000   1.0000
     1.0000   1.0000   0.9989   0.7507   0.7504  -0.0000  -0.0000  -0.0000
    -0.0000

     the Fermi energy is     8.8137 ev

!    total energy              =    -420.74309503 Ry
     estimated scf accuracy    <       0.00000014 Ry
     smearing contrib. (-TS)   =      -0.00035578 Ry
     internal energy E=F+TS    =    -420.74273925 Ry

     The total energy is F=E-TS. E is the sum of the following terms:
     one-electron contribution =     -72.16498948 Ry
     hartree contribution      =      47.66447997 Ry
     xc contribution           =     -88.64009621 Ry
     ewald contribution        =     -99.12305869 Ry
     one-center paw contrib.   =    -208.47907484 Ry
      -> PAW hartree energy AE =      69.21749660 Ry
      -> PAW hartree energy PS =     -68.84879909 Ry
      -> PAW xc energy AE      =    -235.95887965 Ry
      -> PAW xc energy PS      =      27.11110730 Ry
      -> total E_H with PAW    =      48.03317748 Ry
      -> total E_XC with PAW   =    -297.48786856 Ry

     convergence has been achieved in  49 iterations

     Forces acting on atoms (cartesian axes, Ry/au):

     atom    1 type  1   force =     0.00000000    0.00000000    0.00000000
     atom    2 type  2   force =     0.00000000    0.00000000    0.02375439
     atom    3 type  2   force =     0.00000000    0.00000000   -0.02375439
     The non-local contrib.  to forces
     atom    1 type  1   force =     0.00000000    0.00000000    0.00000000
     atom    2 type  2   force =     0.00000000    0.00000000   -0.03838298
     atom    3 type  2   force =     0.00000000   -0.00000000    0.03838298
     The ionic contribution  to forces
     atom    1 type  1   force =    -0.00000000   -0.00000000    0.00000000
     atom    2 type  2   force =    -0.00000487    0.00000281  -10.99485960
     atom    3 type  2   force =     0.00000487   -0.00000281   10.99485960
     The local contribution  to forces
     atom    1 type  1   force =    -0.00006757    0.00005929   -0.00000753
     atom    2 type  2   force =     0.00002123   -0.00002835   11.04741939
     atom    3 type  2   force =     0.00002168   -0.00000900  -11.04742053
     The core correction contribution to forces
     atom    1 type  1   force =    -0.00000181    0.00000154    0.00000006
     atom    2 type  2   force =     0.00000106   -0.00000153    0.00931240
     atom    3 type  2   force =     0.00000130   -0.00000066   -0.00931266
     The Hubbard contrib.    to forces
     atom    1 type  1   force =     0.00000000    0.00000000    0.00000000
     atom    2 type  2   force =     0.00000000    0.00000000    0.00000000
     atom    3 type  2   force =     0.00000000    0.00000000    0.00000000
     The SCF correction term to forces
     atom    1 type  1   force =     0.00003234   -0.00002837    0.00000686
     atom    2 type  2   force =    -0.00000399    0.00000636    0.00026445
     atom    3 type  2   force =    -0.00000687    0.00000319   -0.00026453

     Total force =     0.033594     Total SCF correction =     0.000377

     Computing stress (Cartesian axis) and pressure

          total   stress  (Ry/bohr**3)                   (kbar)     P=      237.77
   0.00184932  -0.00000000  -0.00000000          272.04       -0.00       -0.00
  -0.00000000   0.00184932  -0.00000000           -0.00      272.04       -0.00
   0.00000000   0.00000000   0.00115031            0.00        0.00      169.22

     kinetic stress (kbar)  11597.14     -0.00      0.00
                               -0.00  11597.14      0.00
                                0.00      0.00  12027.70

     local   stress (kbar) -20810.85     -0.10      0.03
                               -0.10 -20810.61      0.05
                                0.03      0.05  11840.19

     nonloc. stress (kbar)   6814.46     -0.00      0.00
                               -0.00   6814.46      0.00
                                0.00      0.00   6907.04

     hartree stress (kbar)   9886.33      0.01     -0.02
                                0.01   9886.31     -0.02
                               -0.02     -0.02  -5134.11

     exc-cor stress (kbar)  16939.65      0.00     -0.00
                                0.00  16939.65     -0.00
                               -0.00     -0.00  16955.71

     corecor stress (kbar) -20093.77     -0.01     -0.00
                               -0.01 -20093.75      0.00
                               -0.00      0.00 -20107.08

     ewald   stress (kbar)  -4061.03     -0.01      0.01
                               -0.01  -4061.04     -0.01
                                0.01     -0.01 -22320.22

     hubbard stress (kbar)      0.00      0.00      0.00
                                0.00      0.00      0.00
                                0.00      0.00      0.00

     DFT-D   stress (kbar)      0.00      0.00      0.00
                                0.00      0.00      0.00
                                0.00      0.00      0.00

     XDM     stress (kbar)      0.00      0.00      0.00
                                0.00      0.00      0.00
                                0.00      0.00      0.00

     dft-nl  stress (kbar)      0.00      0.00      0.00
                                0.00      0.00      0.00
                                0.00      0.00      0.00

     TS-vdW  stress (kbar)      0.00      0.00      0.00
                                0.00      0.00      0.00
                                0.00      0.00      0.00

[...]

                                0.00      0.00      0.00

     Writing all to output data dir new_calculations/myprefix.save/

     General routines

     Parallel routines

     PAW routines

   This run was terminated on:   3:52: 2  21May2023

   JOB DONE.