     Program PWSCF v.7.0 starts on 20May2023 at 18:27:43

     Reading input from espresso_16539.pwi
Warning: card &CELL ignored
Warning: card / ignored

     Current dimensions of program PWSCF are:
     Max number of different atomic species (ntypx) = 10
     Max number of k-points (npk) =  40000
     Max angular momentum in pseudopotentials (lmaxx) =  4
     file C.pbe-n-kjpaw_psl.1.0.0.UPF: wavefunction(s)  2S 2P renormalized
     file O.pbe-n-kjpaw_psl.0.1.UPF: wavefunction(s)  2P renormalized

     gamma-point specific algorithms are used
     Message from routine setup:
     using ibrav=0 with symmetry is DISCOURAGED, use correct ibrav instead

     Subspace diagonalization in iterative solution of the eigenvalue problem:
     a serial algorithm will be used

     Using Slab Decomposition

     bravais-lattice index     =            0
     lattice parameter (alat)  =      12.5449  a.u.
     unit-cell volume          =    1356.6254 (a.u.)^3
     number of atoms/cell      =           16
     number of atomic types    =            4
     number of electrons       =       104.00
     number of Kohn-Sham states=           62
     kinetic-energy cutoff     =      30.0000  Ry
     charge density cutoff     =     240.0000  Ry
     scf convergence threshold =      1.0E-06
     mixing beta               =       0.7000
     number of iterations used =            8  plain     mixing
     Exchange-correlation= SLA  PW   PBX  PBC
                           (   1   4   3   4   0   0   0)

     celldm(1)=  12.544860  celldm(2)=   0.000000  celldm(3)=   0.000000
     celldm(4)=   0.000000  celldm(5)=   0.000000  celldm(6)=   0.000000

     crystal axes: (cart. coord. in units of alat)
               a(1) = (   1.000000   0.000000   0.000000 )
               a(2) = (  -0.412210   0.911089   0.000000 )
               a(3) = (   0.000000   0.000000   0.754226 )

     reciprocal axes: (cart. coord. in units 2 pi/alat)
               b(1) = (  1.000000  0.452436  0.000000 )
               b(2) = (  0.000000  1.097588  0.000000 )
               b(3) = (  0.000000  0.000000  1.325862 )

     PseudoPot. # 1 for Na read from file:
     /home/pragov/projects/rrg-bengioy-ad/pragov/crystal_structure_design/SSSP/na_pbe_v1.5.uspp.F.UPF
     MD5 check sum: 44600605ef58000f06b90626533354dc
     Pseudo is Ultrasoft, Zval =  9.0
     Generated by new atomic code, or converted to UPF format
     Using radial grid of  819 points,  5 beta functions with:
                l(1) =   0
                l(2) =   0
                l(3) =   1
                l(4) =   1
                l(5) =   2
     Q(r) pseudized with  8 coefficients,  rinner =    1.250   1.250   1.250
                                                       1.250   1.250

     PseudoPot. # 2 for Ca read from file:
     /home/pragov/projects/rrg-bengioy-ad/pragov/crystal_structure_design/SSSP/Ca_pbe_v1.uspp.F.UPF
     MD5 check sum: 403a4c14b9e4d4dfdc3024c9a3812218
     Pseudo is Ultrasoft + core correction, Zval = 10.0
     Generated by new atomic code, or converted to UPF format
     Using radial grid of  845 points,  6 beta functions with:
                l(1) =   0
                l(2) =   0
                l(3) =   1
                l(4) =   1
                l(5) =   2
                l(6) =   2
     Q(r) pseudized with  8 coefficients,  rinner =    1.500   1.500   1.500
                                                       1.500   1.500

     PseudoPot. # 3 for C  read from file:
     /home/pragov/projects/rrg-bengioy-ad/pragov/crystal_structure_design/SSSP/C.pbe-n-kjpaw_psl.1.0.0.UPF
     MD5 check sum: 5d2aebdfa2cae82b50a7e79e9516da0f
     Pseudo is Projector augmented-wave + core cor, Zval =  4.0
     Generated using "atomic" code by A. Dal Corso  v.5.1
     Shape of augmentation charge: PSQ
     Using radial grid of 1073 points,  4 beta functions with:
                l(1) =   0
                l(2) =   0
                l(3) =   1
                l(4) =   1
     Q(r) pseudized with 0 coefficients

     PseudoPot. # 4 for O  read from file:
     /home/pragov/projects/rrg-bengioy-ad/pragov/crystal_structure_design/SSSP/O.pbe-n-kjpaw_psl.0.1.UPF
     MD5 check sum: 0234752ac141de4415c5fc33072bef88
     Pseudo is Projector augmented-wave + core cor, Zval =  6.0
     Generated using "atomic" code by A. Dal Corso  v.5.0.99 svn rev. 10869
     Shape of augmentation charge: BESSEL
     Using radial grid of 1095 points,  4 beta functions with:
                l(1) =   0
                l(2) =   0
                l(3) =   1
                l(4) =   1
     Q(r) pseudized with 0 coefficients

     atomic species   valence    mass     pseudopotential
        Na             9.00    22.98977     Na( 1.00)
        Ca            10.00    40.07800     Ca( 1.00)
        C              4.00    12.01100     C ( 1.00)
        O              6.00    15.99900     O ( 1.00)

      2 Sym. Ops. (no inversion) found

                                    s                        frac. trans.

      isym =  1     identity

 cryst.   s( 1) = (     1          0          0      )
                  (     0          1          0      )
                  (     0          0          1      )

 cart.    s( 1) = (  1.0000000 -0.0000000  0.0000000 )
                  (  0.0000000  1.0000000  0.0000000 )
                  (  0.0000000  0.0000000  1.0000000 )

      isym =  2     inv. 180 deg rotation - cart. axis [0,0,1]

 cryst.   s( 2) = (     1          0          0      )
                  (     0          1          0      )
                  (     0          0         -1      )

 cart.    s( 2) = (  1.0000000 -0.0000000  0.0000000 )
                  (  0.0000000  1.0000000  0.0000000 )
                  (  0.0000000  0.0000000 -1.0000000 )

   Cartesian axes

     site n.     atom                  positions (alat units)
         1           Na  tau(   1) = (   0.0435688   0.0675326   0.0000000  )
         2           Na  tau(   2) = (   0.2278445   0.3531645   0.3771132  )
         3           Ca  tau(   3) = (   0.6952311   0.1983924   0.3771132  )
         4           Ca  tau(   4) = (  -0.1058279   0.7151966   0.3771132  )
         5           C   tau(   5) = (  -0.0941411   0.4867848   0.0000000  )
         6           C   tau(   6) = (   0.4823102   0.1148865   0.0000000  )
         7           C   tau(   7) = (   0.4551113   0.7054334   0.3771132  )
         8           O   tau(   8) = (   0.2612043   0.7195945   0.3771132  )
         9           O   tau(   9) = (   0.5479436   0.5346042   0.3771132  )
        10           O   tau(  10) = (  -0.1765234   0.6628500   0.0000000  )
        11           O   tau(  11) = (   0.5631989   0.8729717   0.3771132  )
        12           O   tau(  12) = (   0.6766800   0.1124047   0.0000000  )
        13           O   tau(  13) = (  -0.0506420   0.4001093   0.5836905  )
        14           O   tau(  14) = (   0.3854103   0.1187896   0.1705359  )
        15           O   tau(  15) = (  -0.0506420   0.4001093   0.1705359  )
        16           O   tau(  16) = (   0.3854103   0.1187896   0.5836905  )

   Crystallographic axes

     site n.     atom                  positions (cryst. coord.)
         1           Na  tau(   1) = (  0.0741230  0.0741230  0.0000000  )
         2           Na  tau(   2) = (  0.3876290  0.3876290  0.5000000  )
         3           Ca  tau(   3) = (  0.7849910  0.2177530  0.5000000  )
         4           Ca  tau(   4) = (  0.2177530  0.7849910  0.5000000  )
         5           C   tau(   5) = (  0.1260980  0.5342890  0.0000000  )
         6           C   tau(   6) = (  0.5342890  0.1260980  0.0000000  )
         7           C   tau(   7) = (  0.7742750  0.7742750  0.5000000  )
         8           O   tau(   8) = (  0.5867750  0.7898180  0.5000000  )
         9           O   tau(   9) = (  0.7898180  0.5867750  0.5000000  )
        10           O   tau(  10) = (  0.1233740  0.7275360  0.0000000  )
        11           O   tau(  11) = (  0.9581630  0.9581630  0.5000000  )
        12           O   tau(  12) = (  0.7275360  0.1233740  0.0000000  )
        13           O   tau(  13) = (  0.1303820  0.4391550  0.7738930  )
        14           O   tau(  14) = (  0.4391550  0.1303820  0.2261070  )
        15           O   tau(  15) = (  0.1303820  0.4391550  0.2261070  )
        16           O   tau(  16) = (  0.4391550  0.1303820  0.7738930  )

     number of k points=     1  Methfessel-Paxton smearing, width (Ry)=  0.0010
                       cart. coord. in units 2pi/alat
        k(    1) = (   0.0000000   0.0000000   0.0000000), wk =   2.0000000

                       cryst. coord.
        k(    1) = (   0.0000000   0.0000000   0.0000000), wk =   2.0000000

     Check: negative core charge=   -0.000019

     Initial potential from superposition of free atoms

     starting charge     103.9764, renormalised to     104.0000
     Starting wfcs are   78 randomized atomic wfcs
     Checking if some PAW data can be deallocated...

     Self-consistent Calculation

     iteration #  1     ecut=    30.00 Ry     beta= 0.70
     Davidson diagonalization with overlap

     ethr =  1.00E-02,  avg # of iterations =  2.0

     total energy              =    -770.31435591 Ry
     estimated scf accuracy    <       2.30591966 Ry

[...]

     total energy              =    -771.28844294 Ry
     estimated scf accuracy    <       0.00000251 Ry

     iteration #  9     ecut=    30.00 Ry     beta= 0.70
     Davidson diagonalization with overlap

     ethr =  2.41E-09,  avg # of iterations =  2.0

     End of self-consistent calculation

          k = 0.0000 0.0000 0.0000 (  1883 PWs)   bands (ev):

   -45.7200 -45.4584 -34.6460 -34.6327 -17.8294 -17.7871 -17.7518 -17.6479
   -17.6005 -17.5866 -17.3865 -17.3323 -17.3067 -15.9863 -15.8499 -15.8365
   -15.6508 -15.6390 -15.5959 -14.4791 -14.4532 -14.4174 -14.3652 -14.2832
   -14.2581  -4.1590  -3.6588  -3.5499  -2.3346  -2.1694  -2.0507  -1.7864
    -1.5997  -1.5121  -1.4785  -1.4391  -1.0687   1.4920   2.0330   2.0401
     2.0684   2.1485   2.2934   2.3059   2.3498   2.4566   2.6199   2.9915
     3.0549   3.4848   3.7577   4.0947   8.7221   9.2664   9.6937   9.7430
    10.5567  10.5616  10.7382  10.9838  10.9955  11.5212

     occupation numbers
     1.0000   1.0000   1.0000   1.0000   1.0000   1.0000   1.0000   1.0000
     1.0000   1.0000   1.0000   1.0000   1.0000   1.0000   1.0000   1.0000
     1.0000   1.0000   1.0000   1.0000   1.0000   1.0000   1.0000   1.0000
     1.0000   1.0000   1.0000   1.0000   1.0000   1.0000   1.0000   1.0000
     1.0000   1.0000   1.0000   1.0000   1.0000   1.0000   1.0000   1.0000
     1.0000   1.0000   1.0000   1.0000   1.0000   1.0000   1.0000   1.0000
     1.0000   1.0000   1.0000   1.0000  -0.0000  -0.0000  -0.0000  -0.0000
    -0.0000  -0.0000  -0.0000  -0.0000  -0.0000  -0.0000

     the Fermi energy is     4.4681 ev

!    total energy              =    -771.28844344 Ry
     estimated scf accuracy    <       0.00000011 Ry
     smearing contrib. (-TS)   =       0.00000000 Ry
     internal energy E=F+TS    =    -771.28844344 Ry

     The total energy is F=E-TS. E is the sum of the following terms:
     one-electron contribution =    -370.75468074 Ry
     hartree contribution      =     231.90965357 Ry
     xc contribution           =    -134.03220344 Ry
     ewald contribution        =    -394.30192312 Ry
     one-center paw contrib.   =    -104.10928972 Ry
      -> PAW hartree energy AE =     309.27992404 Ry
      -> PAW hartree energy PS =    -308.23698085 Ry
      -> PAW xc energy AE      =    -188.52738714 Ry
      -> PAW xc energy PS      =      83.37515423 Ry
      -> total E_H with PAW    =     232.95259677 Ry
      -> total E_XC with PAW   =    -239.18443635 Ry

     convergence has been achieved in   9 iterations

     Forces acting on atoms (cartesian axes, Ry/au):

     atom    1 type  1   force =     0.00105115    0.00159472    0.00000000
     atom    2 type  1   force =     0.00080377    0.00124479    0.00000000
     atom    3 type  2   force =     0.00162285    0.01753735    0.00000000
     atom    4 type  2   force =     0.01530291    0.00869379    0.00000000
     atom    5 type  3   force =    -0.00108888   -0.01053545    0.00000000
     atom    6 type  3   force =    -0.00917506   -0.00533251    0.00000000
     atom    7 type  3   force =     0.00070087    0.00112187    0.00000000
     atom    8 type  4   force =     0.00808904   -0.00064200    0.00000000
     atom    9 type  4   force =    -0.00392118    0.00708448    0.00000000
     atom   10 type  4   force =    -0.00920514   -0.02414591    0.00000000
     atom   11 type  4   force =    -0.00429704   -0.00665997    0.00000000
     atom   12 type  4   force =    -0.01818915   -0.01833684    0.00000000
     atom   13 type  4   force =    -0.00813980    0.01529836    0.02450525
     atom   14 type  4   force =     0.01729274   -0.00111051   -0.02451900
     atom   15 type  4   force =    -0.00813980    0.01529836   -0.02450525
     atom   16 type  4   force =     0.01729274   -0.00111051    0.02451900
     The non-local contrib.  to forces
     atom    1 type  1   force =    -0.07706014   -0.11943045    0.00000000
     atom    2 type  1   force =    -0.02786392   -0.04318466    0.00000000
     atom    3 type  2   force =    -0.00170435    0.01112602    0.00000000
     atom    4 type  2   force =     0.01082837    0.00301002    0.00000000
     atom    5 type  3   force =     0.05501770   -0.07650837    0.00000000
     atom    6 type  3   force =    -0.09234337    0.01857732    0.00000000
     atom    7 type  3   force =     0.01488032    0.02304210    0.00000000
     atom    8 type  4   force =     1.88620627   -0.12401072    0.00000000
     atom    9 type  4   force =    -0.89047989    1.66736113    0.00000000
     atom   10 type  4   force =     0.90823027   -1.72996836    0.00000000
     atom   11 type  4   force =    -1.00142304   -1.55223021    0.00000000
     atom   12 type  4   force =    -1.95051285    0.11437901    0.00000000
     atom   13 type  4   force =    -0.46672601    0.86635940    1.63731965
     atom   14 type  4   force =     0.98173242   -0.06810119   -1.63732038
     atom   15 type  4   force =    -0.46672601    0.86635940   -1.63731965
     atom   16 type  4   force =     0.98173242   -0.06810119    1.63732038
     The ionic contribution  to forces
     atom    1 type  1   force =    -1.92417041   -2.98251025   -0.00000000
     atom    2 type  1   force =     1.82182245    2.82386846    0.00000000
     atom    3 type  2   force =    -0.50969517    1.27878350    0.00000000
     atom    4 type  2   force =     1.37518687    0.06274937    0.00000000
     atom    5 type  3   force =     0.28574016    0.44706360   -0.00000000
     atom    6 type  3   force =     0.28952984    0.44461868   -0.00000000
     atom    7 type  3   force =    -0.72622402   -1.12566463    0.00000000
     atom    8 type  4   force =    -5.93951577   -1.08129571    0.00000000
     atom    9 type  4   force =     1.46316970   -5.85714798    0.00000000
     atom   10 type  4   force =    -4.93774148    5.32369806   -0.00000000
     atom   11 type  4   force =     2.87208500    4.45180058   -0.00000000
     atom   12 type  4   force =     6.88574779   -2.30424160   -0.00000000
     atom   13 type  4   force =     2.48709964   -2.12916680   -4.23085191
     atom   14 type  4   force =    -2.96506712    1.38830576    4.23085191
     atom   15 type  4   force =     2.48709964   -2.12916680    4.23085191
     atom   16 type  4   force =    -2.96506712    1.38830576   -4.23085191
     The local contribution  to forces
     atom    1 type  1   force =     2.00214037    3.10345449   -0.00000764
     atom    2 type  1   force =    -1.79308261   -2.77930180    0.00001213
     atom    3 type  2   force =     0.51294469   -1.27349033    0.00002188
     atom    4 type  2   force =    -1.37176615   -0.05773136    0.00001490
     atom    5 type  3   force =    -0.34049495   -0.38299460   -0.00001590
     atom    6 type  3   force =    -0.20851561   -0.46804123   -0.00000195
     atom    7 type  3   force =     0.71276880    1.10472959    0.00000141
     atom    8 type  4   force =     4.07811978    1.20355444    0.00000575
     atom    9 type  4   force =    -0.58446137    4.21158495    0.00000733
     atom   10 type  4   force =     4.02833526   -3.63318762   -0.00000743
     atom   11 type  4   force =    -1.88431231   -2.92072783    0.00000433
     atom   12 type  4   force =    -4.97054571    2.17259560   -0.00000689
     atom   13 type  4   force =    -2.03288468    1.28576763    2.63283268
     atom   14 type  4   force =     2.00945485   -1.32207257   -2.63285182
     atom   15 type  4   force =    -2.03289001    1.28579212   -2.63285634
     atom   16 type  4   force =     2.00945739   -1.32207291    2.63284455
     The core correction contribution to forces
     atom    1 type  1   force =     0.00000000    0.00000000    0.00000000
     atom    2 type  1   force =     0.00000000    0.00000000    0.00000000
     atom    3 type  2   force =    -0.00011512    0.00115593    0.00000032
     atom    4 type  2   force =     0.00110033    0.00037054   -0.00000000
     atom    5 type  3   force =    -0.00142853    0.00190034    0.00000024
     atom    6 type  3   force =     0.00231924   -0.00051787    0.00000016
     atom    7 type  3   force =    -0.00077838   -0.00120611   -0.00000011
     atom    8 type  4   force =    -0.01679208    0.00114795    0.00000003
     atom    9 type  4   force =     0.00796764   -0.01482586    0.00000003
     atom   10 type  4   force =    -0.00809170    0.01518318    0.00000006
     atom   11 type  4   force =     0.00916965    0.01421314    0.00000001
     atom   12 type  4   force =     0.01716873   -0.00111372    0.00000003
     atom   13 type  4   force =     0.00422268   -0.00761783   -0.01495400
     atom   14 type  4   force =    -0.00868119    0.00070704    0.01495393
     atom   15 type  4   force =     0.00422263   -0.00761768    0.01495418
     atom   16 type  4   force =    -0.00868108    0.00070702   -0.01495393
     The Hubbard contrib.    to forces
     atom    1 type  1   force =     0.00000000    0.00000000    0.00000000
     atom    2 type  1   force =     0.00000000    0.00000000    0.00000000
     atom    3 type  2   force =     0.00000000    0.00000000    0.00000000
     atom    4 type  2   force =     0.00000000    0.00000000    0.00000000
     atom    5 type  3   force =     0.00000000    0.00000000    0.00000000
     atom    6 type  3   force =     0.00000000    0.00000000    0.00000000
     atom    7 type  3   force =     0.00000000    0.00000000    0.00000000
     atom    8 type  4   force =     0.00000000    0.00000000    0.00000000
     atom    9 type  4   force =     0.00000000    0.00000000    0.00000000
     atom   10 type  4   force =     0.00000000    0.00000000    0.00000000
     atom   11 type  4   force =     0.00000000    0.00000000    0.00000000
     atom   12 type  4   force =     0.00000000    0.00000000    0.00000000
     atom   13 type  4   force =     0.00000000    0.00000000    0.00000000
     atom   14 type  4   force =     0.00000000    0.00000000    0.00000000
     atom   15 type  4   force =     0.00000000    0.00000000    0.00000000
     atom   16 type  4   force =     0.00000000    0.00000000    0.00000000
     The SCF correction term to forces
     atom    1 type  1   force =     0.00013284    0.00005810    0.00001190
     atom    2 type  1   force =    -0.00008064   -0.00016004   -0.00001836
     atom    3 type  2   force =     0.00018431   -0.00006060   -0.00002353
     atom    4 type  2   force =    -0.00005500    0.00027239   -0.00001575
     atom    5 type  3   force =     0.00006826   -0.00001924    0.00003752
     atom    6 type  3   force =    -0.00017364    0.00000777    0.00001129
     atom    7 type  3   force =     0.00004566    0.00019809   -0.00000281
     atom    8 type  4   force =     0.00006235   -0.00006079   -0.00000513
     atom    9 type  4   force =    -0.00012575    0.00008941   -0.00000652
     atom   10 type  4   force =     0.00005404    0.00010601    0.00001118
     atom   11 type  4   force =     0.00017518    0.00026152   -0.00000506
     atom   12 type  4   force =    -0.00005560    0.00002104    0.00001023
     atom   13 type  4   force =     0.00014325   -0.00007270    0.00015874
     atom   14 type  4   force =    -0.00015542    0.00002784   -0.00015446
     atom   15 type  4   force =     0.00014228   -0.00008566   -0.00013543
     atom   16 type  4   force =    -0.00015664    0.00002776    0.00015808

     Total force =     0.077369     Total SCF correction =     0.000769

     Computing stress (Cartesian axis) and pressure

          total   stress  (Ry/bohr**3)                   (kbar)     P=     -321.67
  -0.00236227   0.00002176   0.00000000         -347.50        3.20        0.00
   0.00002176  -0.00234261   0.00000000            3.20     -344.61        0.00
   0.00000000   0.00000000  -0.00185512            0.00        0.00     -272.90

     kinetic stress (kbar)  18177.07    106.95      0.00
                              106.95  18273.85      0.00
                                0.00      0.00  18362.01

     local   stress (kbar)  -5254.75   3547.10      0.00
                             3547.10  -2045.07     -0.00
                                0.00     -0.00  -1005.82

     nonloc. stress (kbar)  -5485.00     -0.73      0.00
                               -0.73  -5485.67      0.00
                                0.00      0.00  -5465.70

     hartree stress (kbar)   9331.58  -1300.80     -0.00
                            -1300.80   8154.51     -0.00
                               -0.00     -0.00   7660.93

     exc-cor stress (kbar)  -3329.93     -6.35      0.00
                               -6.35  -3335.67      0.00
                                0.00      0.00  -3335.09

     corecor stress (kbar)  -1142.21      1.30     -0.00
                                1.30  -1141.03      0.00
                               -0.00      0.00  -1143.06

     ewald   stress (kbar) -12644.26  -2344.27     -0.00
                            -2344.27 -14765.53     -0.00
                               -0.00     -0.00 -15346.17

     hubbard stress (kbar)      0.00      0.00      0.00
                                0.00      0.00      0.00
                                0.00      0.00      0.00

     DFT-D   stress (kbar)      0.00      0.00      0.00
                                0.00      0.00      0.00
                                0.00      0.00      0.00

     XDM     stress (kbar)      0.00      0.00      0.00
                                0.00      0.00      0.00
                                0.00      0.00      0.00

     dft-nl  stress (kbar)      0.00      0.00      0.00
                                0.00      0.00      0.00
                                0.00      0.00      0.00

     TS-vdW  stress (kbar)      0.00      0.00      0.00
                                0.00      0.00      0.00
                                0.00      0.00      0.00

[...]

                                0.00      0.00      0.00

     Writing all to output data dir new_calculations/myprefix.save/

     General routines

     Parallel routines

     PAW routines

   This run was terminated on:  18:28: 3  20May2023

   JOB DONE.