     Program PWSCF v.7.0 starts on 20May2023 at 12:45: 0

     Reading input from espresso_15200.pwi
Warning: card &CELL ignored
Warning: card / ignored

     Current dimensions of program PWSCF are:
     Max number of different atomic species (ntypx) = 10
     Max number of k-points (npk) =  40000
     Max angular momentum in pseudopotentials (lmaxx) =  4

     gamma-point specific algorithms are used
     Message from routine setup:
     using ibrav=0 with symmetry is DISCOURAGED, use correct ibrav instead

     Subspace diagonalization in iterative solution of the eigenvalue problem:
     a serial algorithm will be used

     Using Slab Decomposition

     bravais-lattice index     =            0
     lattice parameter (alat)  =       9.8180  a.u.
     unit-cell volume          =    1747.3940 (a.u.)^3
     number of atoms/cell      =           20
     number of atomic types    =            3
     number of electrons       =       156.00
     number of Kohn-Sham states=           94
     kinetic-energy cutoff     =      30.0000  Ry
     charge density cutoff     =     240.0000  Ry
     scf convergence threshold =      1.0E-06
     mixing beta               =       0.7000
     number of iterations used =            8  plain     mixing
     Exchange-correlation=  SLA  PW   PBX  PBC
                           (   1   4   3   4   0   0   0)

     celldm(1)=   9.818031  celldm(2)=   0.000000  celldm(3)=   0.000000
     celldm(4)=   0.000000  celldm(5)=   0.000000  celldm(6)=   0.000000

     crystal axes: (cart. coord. in units of alat)
               a(1) = (   1.000000   0.000000   0.000000 )
               a(2) = (   0.000000   1.150463   0.000000 )
               a(3) = (   0.000000   0.000000   1.604889 )

     reciprocal axes: (cart. coord. in units 2 pi/alat)
               b(1) = (  1.000000  0.000000  0.000000 )
               b(2) = (  0.000000  0.869215  0.000000 )
               b(3) = (  0.000000  0.000000  0.623096 )

     PseudoPot. # 1 for Li read from file:
     /home/pragov/projects/rrg-bengioy-ad/pragov/crystal_structure_design/SSSP/li_pbe_v1.4.uspp.F.UPF
     MD5 check sum: e912e257baa3777c20ea3d68f190483c
     Pseudo is Ultrasoft, Zval =  3.0
     Generated by new atomic code, or converted to UPF format
     Using radial grid of  751 points,  5 beta functions with:
                l(1) =   0
                l(2) =   0
                l(3) =   0
                l(4) =   1
                l(5) =   1
     Q(r) pseudized with 10 coefficients,  rinner =    1.150   1.150   1.150

     PseudoPot. # 2 for Mn read from file:
     /home/pragov/projects/rrg-bengioy-ad/pragov/crystal_structure_design/SSSP/mn_pbe_v1.5.uspp.F.UPF
     MD5 check sum: 82ef2b46521d7a7d9e736dc3972e4928
     Pseudo is Ultrasoft + core correction, Zval = 15.0
     Generated by new atomic code, or converted to UPF format
     Using radial grid of  859 points,  6 beta functions with:
                l(1) =   0
                l(2) =   0
                l(3) =   1
                l(4) =   1
                l(5) =   2
                l(6) =   2
     Q(r) pseudized with  8 coefficients,  rinner =    0.950   0.950   0.950
                                                       0.950   0.950

     PseudoPot. # 3 for F  read from file:
     /home/pragov/projects/rrg-bengioy-ad/pragov/crystal_structure_design/SSSP/f_pbe_v1.4.uspp.F.UPF
     MD5 check sum: 4c38b6a325caf53ec0e86aed9459de46
     Pseudo is Ultrasoft, Zval =  7.0
     Generated by new atomic code, or converted to UPF format
     Using radial grid of  799 points,  4 beta functions with:
                l(1) =   0
                l(2) =   0
                l(3) =   1
                l(4) =   1
     Q(r) pseudized with  8 coefficients,  rinner =    0.950   0.950   0.950

     atomic species   valence    mass     pseudopotential
        Li             3.00     6.94000     Li( 1.00)
        Mn            15.00    54.93804     Mn( 1.00)
        F              7.00    18.99840     F ( 1.00)

      8 Sym. Ops., with inversion, found ( 6 have fractional translation)

                                    s                        frac. trans.

      isym =  1     identity

 cryst.   s( 1) = (     1          0          0      )
                  (     0          1          0      )
                  (     0          0          1      )

 cart.    s( 1) = (  1.0000000  0.0000000  0.0000000 )
                  (  0.0000000  1.0000000  0.0000000 )
                  (  0.0000000  0.0000000  1.0000000 )

      isym =  2     180 deg rotation - cart. axis [0,0,1]

 cryst.   s( 2) = (    -1          0          0      )    f =(  0.0000000 )
                  (     0         -1          0      )       (  0.0000000 )
                  (     0          0          1      )       ( -0.5000000 )

 cart.    s( 2) = ( -1.0000000  0.0000000  0.0000000 )    f =(  0.0000000 )
                  (  0.0000000 -1.0000000  0.0000000 )       (  0.0000000 )
                  (  0.0000000  0.0000000  1.0000000 )       ( -0.8024444 )

[...]

      isym =  4     180 deg rotation - cart. axis [1,0,0]

[...]

      isym =  5     inversion

 cryst.   s( 5) = (    -1          0          0      )
                  (     0         -1          0      )
                  (     0          0         -1      )

 cart.    s( 5) = ( -1.0000000  0.0000000  0.0000000 )
                  (  0.0000000 -1.0000000  0.0000000 )
                  (  0.0000000  0.0000000 -1.0000000 )

      isym =  6     inv. 180 deg rotation - cart. axis [0,0,1]

[...]

      isym =  8     inv. 180 deg rotation - cart. axis [1,0,0]

 cryst.   s( 8) = (    -1          0          0      )    f =(  0.5000000 )
                  (     0          1          0      )       (  0.5000000 )
                  (     0          0          1      )       (  0.0000000 )

 cart.    s( 8) = ( -1.0000000  0.0000000  0.0000000 )    f =(  0.5000000 )
                  (  0.0000000  1.0000000  0.0000000 )       (  0.5752317 )
                  (  0.0000000  0.0000000  1.0000000 )       (  0.0000000 )

   Cartesian axes

     site n.     atom                  positions (alat units)
         1           Li  tau(   1) = (   0.9698850   0.7433799   1.2036665  )
         2           Li  tau(   2) = (   0.5301150   0.1681483   1.2036665  )
         3           Li  tau(   3) = (   0.4698850   0.9823151   0.4012222  )
         4           Li  tau(   4) = (   0.0301150   0.4070834   0.4012222  )
         5           Mn  tau(   5) = (   0.0000000   0.0000000   0.0000000  )
         6           Mn  tau(   6) = (   0.0000000   0.0000000   0.8024444  )
         7           Mn  tau(   7) = (   0.5000000   0.5752317   0.0000000  )
         8           Mn  tau(   8) = (   0.5000000   0.5752317   0.8024444  )
         9           F   tau(   9) = (   0.3402740   0.6052634   0.4012222  )
        10           F   tau(  10) = (   0.3166480   0.2284107   0.9185468  )
        11           F   tau(  11) = (   0.3166480   0.2284107   1.4887862  )
        12           F   tau(  12) = (   0.1833520   0.8036424   0.9185468  )
        13           F   tau(  13) = (   0.1833520   0.8036424   1.4887862  )
        14           F   tau(  14) = (   0.1597260   0.0300317   0.4012222  )
        15           F   tau(  15) = (   0.8402740   1.1204317   1.2036665  )
        16           F   tau(  16) = (   0.8166480   0.3468210   0.6863419  )
        17           F   tau(  17) = (   0.8166480   0.3468210   0.1161025  )
        18           F   tau(  18) = (   0.6833520   0.9220527   0.1161025  )
        19           F   tau(  19) = (   0.6833520   0.9220527   0.6863419  )
        20           F   tau(  20) = (   0.6597260   0.5452000   1.2036665  )

   Crystallographic axes

     site n.     atom                  positions (cryst. coord.)
         1           Li  tau(   1) = (  0.9698850  0.6461570  0.7500000  )
         2           Li  tau(   2) = (  0.5301150  0.1461570  0.7500000  )
         3           Li  tau(   3) = (  0.4698850  0.8538430  0.2500000  )
         4           Li  tau(   4) = (  0.0301150  0.3538430  0.2500000  )
         5           Mn  tau(   5) = (  0.0000000  0.0000000  0.0000000  )
         6           Mn  tau(   6) = (  0.0000000  0.0000000  0.5000000  )
         7           Mn  tau(   7) = (  0.5000000  0.5000000  0.0000000  )
         8           Mn  tau(   8) = (  0.5000000  0.5000000  0.5000000  )
         9           F   tau(   9) = (  0.3402740  0.5261040  0.2500000  )
        10           F   tau(  10) = (  0.3166480  0.1985380  0.5723430  )
        11           F   tau(  11) = (  0.3166480  0.1985380  0.9276570  )
        12           F   tau(  12) = (  0.1833520  0.6985380  0.5723430  )
        13           F   tau(  13) = (  0.1833520  0.6985380  0.9276570  )
        14           F   tau(  14) = (  0.1597260  0.0261040  0.2500000  )
        15           F   tau(  15) = (  0.8402740  0.9738960  0.7500000  )
        16           F   tau(  16) = (  0.8166480  0.3014620  0.4276570  )
        17           F   tau(  17) = (  0.8166480  0.3014620  0.0723430  )
        18           F   tau(  18) = (  0.6833520  0.8014620  0.0723430  )
        19           F   tau(  19) = (  0.6833520  0.8014620  0.4276570  )
        20           F   tau(  20) = (  0.6597260  0.4738960  0.7500000  )

     number of k points=     1  Methfessel-Paxton smearing, width (Ry)=  0.0010
                       cart. coord. in units 2pi/alat
        k(    1) = (   0.0000000   0.0000000   0.0000000), wk =   2.0000000

                       cryst. coord.
        k(    1) = (   0.0000000   0.0000000   0.0000000), wk =   2.0000000

     Check: negative core charge=   -0.000016

     Initial potential from superposition of free atoms

     starting charge     152.1967, renormalised to     156.0000
     Starting wfcs are  120 randomized atomic wfcs

     Self-consistent Calculation

     iteration #  1     ecut=    30.00 Ry     beta= 0.70
     Davidson diagonalization with overlap

     ethr =  1.00E-02,  avg # of iterations =  2.0

     total energy              =   -1483.61189295 Ry
     estimated scf accuracy    <       4.98992837 Ry

[...]

     negative rho (up, down):  5.096E-07 0.000E+00

[...]

     negative rho (up, down):  3.982E-06 0.000E+00

[...]

     total energy              =   -1486.76944702 Ry
     estimated scf accuracy    <       0.00001743 Ry

     iteration # 91     ecut=    30.00 Ry     beta= 0.70
     Davidson diagonalization with overlap

     ethr =  3.16E-09,  avg # of iterations =  1.0

     End of self-consistent calculation

          k = 0.0000 0.0000 0.0000 (  2415 PWs)   bands (ev):

   -74.1372 -74.1366 -74.1362 -74.1360 -43.0515 -43.0491 -43.0486 -43.0484
   -42.9201 -42.9193 -42.9187 -42.9171 -42.7047 -42.7032 -42.6993 -42.6964
   -40.3278 -40.3271 -40.3261 -40.3260 -19.3589 -19.2553 -19.1130 -19.0517
   -19.0498 -19.0423 -18.9980 -18.9959 -18.9280 -18.9062 -18.9053 -18.8477
    -2.3524  -2.3515  -1.6957  -1.6614  -1.5972  -1.5824  -1.4878  -1.4794
    -1.4010  -1.3952  -1.3789  -1.2056  -1.1883  -1.0348  -0.9296  -0.8727
    -0.8665  -0.7141  -0.6236  -0.5683  -0.5209  -0.4955  -0.4517  -0.3705
    -0.2442  -0.1934  -0.1515  -0.1034  -0.0437   0.0849   0.1596   0.1860
     0.2724   0.3032   0.3180   0.3393   4.5879   4.5983   4.7297   4.7582
     4.7898   4.8007   4.8802   4.9295   4.9540   5.0306   5.0375   5.0387
     5.4710   5.4861   5.4881   5.5397   5.8337   6.2372   6.5308   6.5399
     6.9727   9.3041  10.0715  11.4313  11.5126  11.5253

     occupation numbers
     1.0000   1.0000   1.0000   1.0000   1.0000   1.0000   1.0000   1.0000
     1.0000   1.0000   1.0000   1.0000   1.0000   1.0000   1.0000   1.0000
     1.0000   1.0000   1.0000   1.0000   1.0000   1.0000   1.0000   1.0000
     1.0000   1.0000   1.0000   1.0000   1.0000   1.0000   1.0000   1.0000
     1.0000   1.0000   1.0000   1.0000   1.0000   1.0000   1.0000   1.0000
     1.0000   1.0000   1.0000   1.0000   1.0000   1.0000   1.0000   1.0000
     1.0000   1.0000   1.0000   1.0000   1.0000   1.0000   1.0000   1.0000
     1.0000   1.0000   1.0000   1.0000   1.0000   1.0000   1.0000   1.0000
     1.0000   1.0000   1.0000   1.0000   1.0000   1.0000   1.0000   1.0000
     1.0000   1.0000   1.0000   1.0000   1.0000   0.6253   0.2146   0.1601
    -0.0000  -0.0000  -0.0000  -0.0000  -0.0000  -0.0000  -0.0000  -0.0000
    -0.0000  -0.0000  -0.0000  -0.0000  -0.0000  -0.0000

     the Fermi energy is     5.0326 ev

!    total energy              =   -1486.76944736 Ry
     estimated scf accuracy    <       0.00000003 Ry
     smearing contrib. (-TS)   =      -0.00058434 Ry
     internal energy E=F+TS    =   -1486.76886302 Ry

     The total energy is F=E-TS. E is the sum of the following terms:
     one-electron contribution =    -993.85496992 Ry
     hartree contribution      =     553.18371658 Ry
     xc contribution           =    -231.54412829 Ry
     ewald contribution        =    -814.55348140 Ry

     convergence has been achieved in  91 iterations

     Forces acting on atoms (cartesian axes, Ry/au):

     atom    1 type  1   force =    -0.00524942    0.00154426   -0.00000000
     atom    2 type  1   force =     0.00524942    0.00154426    0.00000000
     atom    3 type  1   force =    -0.00524942   -0.00154426   -0.00000000
     atom    4 type  1   force =     0.00524942   -0.00154426    0.00000000
     atom    5 type  2   force =     0.00000000    0.00000000    0.00000000
     atom    6 type  2   force =     0.00000000   -0.00000000   -0.00000000
     atom    7 type  2   force =     0.00000000    0.00000000    0.00000000
     atom    8 type  2   force =    -0.00000000   -0.00000000    0.00000000
     atom    9 type  3   force =     0.02229214   -0.00409574    0.00000000
     atom   10 type  3   force =    -0.01493651    0.01285853   -0.02668708
     atom   11 type  3   force =    -0.01493651    0.01285853    0.02668708
     atom   12 type  3   force =     0.01493651    0.01285853   -0.02668708
     atom   13 type  3   force =     0.01493651    0.01285853    0.02668708
     atom   14 type  3   force =    -0.02229214   -0.00409574    0.00000000
     atom   15 type  3   force =     0.02229214    0.00409574    0.00000000
     atom   16 type  3   force =    -0.01493651   -0.01285853    0.02668708
     atom   17 type  3   force =    -0.01493651   -0.01285853   -0.02668708
     atom   18 type  3   force =     0.01493651   -0.01285853   -0.02668708
     atom   19 type  3   force =     0.01493651   -0.01285853    0.02668708
     atom   20 type  3   force =    -0.02229214    0.00409574    0.00000000
     The non-local contrib.  to forces
     atom    1 type  1   force =    -0.01666577   -0.02536397    0.00000000
     atom    2 type  1   force =     0.01666577   -0.02536397    0.00000000
     atom    3 type  1   force =    -0.01666577    0.02536397    0.00000000
     atom    4 type  1   force =     0.01666577    0.02536397    0.00000000
     atom    5 type  2   force =    -0.00000000    0.00000000   -0.00000000
     atom    6 type  2   force =     0.00000000    0.00000000    0.00000000
     atom    7 type  2   force =     0.00000000    0.00000000    0.00000000
     atom    8 type  2   force =     0.00000000   -0.00000000    0.00000000
     atom    9 type  3   force =     0.18048095   -0.04399372    0.00000000
     atom   10 type  3   force =    -0.05639561    0.13127358   -0.16723970
     atom   11 type  3   force =    -0.05639561    0.13127358    0.16723970
     atom   12 type  3   force =     0.05639561    0.13127358   -0.16723970
     atom   13 type  3   force =     0.05639561    0.13127358    0.16723970
     atom   14 type  3   force =    -0.18048095   -0.04399372    0.00000000
     atom   15 type  3   force =     0.18048095    0.04399372    0.00000000
     atom   16 type  3   force =    -0.05639561   -0.13127358    0.16723970
     atom   17 type  3   force =    -0.05639561   -0.13127358   -0.16723970
     atom   18 type  3   force =     0.05639561   -0.13127358   -0.16723970
     atom   19 type  3   force =     0.05639561   -0.13127358    0.16723970
     atom   20 type  3   force =    -0.18048095    0.04399372    0.00000000
     The ionic contribution  to forces
     atom    1 type  1   force =    -0.02833247   -2.00768307    0.00000000
     atom    2 type  1   force =     0.02833247   -2.00768307    0.00000000
     atom    3 type  1   force =    -0.02833247    2.00768307   -0.00000000
     atom    4 type  1   force =     0.02833247    2.00768307   -0.00000000
     atom    5 type  2   force =     0.00000000    0.00000000   -0.00000000
     atom    6 type  2   force =    -0.00000000    0.00000000    0.00000000
     atom    7 type  2   force =    -0.00000000    0.00000000    0.00000000
     atom    8 type  2   force =    -0.00000000   -0.00000000    0.00000000
     atom    9 type  3   force =    -4.41472035   -0.24489233    0.00000000
     atom   10 type  3   force =     1.09259334   -2.22258028    3.39393287
     atom   11 type  3   force =     1.09259334   -2.22258028   -3.39393287
     atom   12 type  3   force =    -1.09259334   -2.22258028    3.39393287
     atom   13 type  3   force =    -1.09259334   -2.22258028   -3.39393287
     atom   14 type  3   force =     4.41472035   -0.24489233    0.00000000
     atom   15 type  3   force =    -4.41472035    0.24489233    0.00000000
     atom   16 type  3   force =     1.09259334    2.22258028   -3.39393287
     atom   17 type  3   force =     1.09259334    2.22258028    3.39393287
     atom   18 type  3   force =    -1.09259334    2.22258028    3.39393287
     atom   19 type  3   force =    -1.09259334    2.22258028   -3.39393287
     atom   20 type  3   force =     4.41472035    0.24489233    0.00000000
     The local contribution  to forces
     atom    1 type  1   force =     0.03975087    2.03459319    0.00003774
     atom    2 type  1   force =    -0.03974683    2.03458921    0.00002622
     atom    3 type  1   force =     0.03974686   -2.03458922   -0.00002622
     atom    4 type  1   force =    -0.03975092   -2.03459324   -0.00003773
     atom    5 type  2   force =     0.00000029    0.00000031    0.00000070
     atom    6 type  2   force =    -0.00000041    0.00000060    0.00000032
     atom    7 type  2   force =    -0.00000002   -0.00000067    0.00000169
     atom    8 type  2   force =     0.00000047   -0.00000001   -0.00000088
     atom    9 type  3   force =     4.25652085    0.28478914   -0.00004880
     atom   10 type  3   force =    -1.05110118    2.10420921   -3.25333028
     atom   11 type  3   force =    -1.05119322    2.10409182    3.25341574
     atom   12 type  3   force =     1.05116067    2.10411903   -3.25332435
     atom   13 type  3   force =     1.05107931    2.10424127    3.25343878
     atom   14 type  3   force =    -4.25654255    0.28479106   -0.00013138
     atom   15 type  3   force =     4.25654242   -0.28479111    0.00013136
     atom   16 type  3   force =    -1.05116066   -2.10411919    3.25332434
     atom   17 type  3   force =    -1.05107932   -2.10424120   -3.25343867
     atom   18 type  3   force =     1.05119336   -2.10409179   -3.25341543
     atom   19 type  3   force =     1.05110140   -2.10420957    3.25332982
     atom   20 type  3   force =    -4.25652081   -0.28478921    0.00004873
     The core correction contribution to forces
     atom    1 type  1   force =     0.00000000    0.00000000    0.00000000
     atom    2 type  1   force =     0.00000000    0.00000000    0.00000000
     atom    3 type  1   force =     0.00000000    0.00000000    0.00000000
     atom    4 type  1   force =     0.00000000    0.00000000    0.00000000
     atom    5 type  2   force =     0.00000001   -0.00000010   -0.00000003
     atom    6 type  2   force =    -0.00000000    0.00000001    0.00000004
     atom    7 type  2   force =    -0.00000003   -0.00000003    0.00000000
     atom    8 type  2   force =     0.00000002    0.00000004    0.00000001
     atom    9 type  3   force =     0.00000000    0.00000000    0.00000000
     atom   10 type  3   force =     0.00000000    0.00000000    0.00000000
     atom   11 type  3   force =     0.00000000    0.00000000    0.00000000
     atom   12 type  3   force =     0.00000000    0.00000000    0.00000000
     atom   13 type  3   force =     0.00000000    0.00000000    0.00000000
     atom   14 type  3   force =     0.00000000    0.00000000    0.00000000
     atom   15 type  3   force =     0.00000000    0.00000000    0.00000000
     atom   16 type  3   force =     0.00000000    0.00000000    0.00000000
     atom   17 type  3   force =     0.00000000    0.00000000    0.00000000
     atom   18 type  3   force =     0.00000000    0.00000000    0.00000000
     atom   19 type  3   force =     0.00000000    0.00000000    0.00000000
     atom   20 type  3   force =     0.00000000    0.00000000    0.00000000
     The Hubbard contrib.    to forces
     atom    1 type  1   force =     0.00000000    0.00000000    0.00000000
     atom    2 type  1   force =     0.00000000    0.00000000    0.00000000
     atom    3 type  1   force =     0.00000000    0.00000000    0.00000000
     atom    4 type  1   force =     0.00000000    0.00000000    0.00000000
     atom    5 type  2   force =     0.00000000    0.00000000    0.00000000
     atom    6 type  2   force =     0.00000000    0.00000000    0.00000000
     atom    7 type  2   force =     0.00000000    0.00000000    0.00000000
     atom    8 type  2   force =     0.00000000    0.00000000    0.00000000
     atom    9 type  3   force =     0.00000000    0.00000000    0.00000000
     atom   10 type  3   force =     0.00000000    0.00000000    0.00000000
     atom   11 type  3   force =     0.00000000    0.00000000    0.00000000
     atom   12 type  3   force =     0.00000000    0.00000000    0.00000000
     atom   13 type  3   force =     0.00000000    0.00000000    0.00000000
     atom   14 type  3   force =     0.00000000    0.00000000    0.00000000
     atom   15 type  3   force =     0.00000000    0.00000000    0.00000000
     atom   16 type  3   force =     0.00000000    0.00000000    0.00000000
     atom   17 type  3   force =     0.00000000    0.00000000    0.00000000
     atom   18 type  3   force =     0.00000000    0.00000000    0.00000000
     atom   19 type  3   force =     0.00000000    0.00000000    0.00000000
     atom   20 type  3   force =     0.00000000    0.00000000    0.00000000
     The SCF correction term to forces
     atom    1 type  1   force =    -0.00000171   -0.00000135   -0.00003163
     atom    2 type  1   force =    -0.00000161    0.00000152   -0.00002299
     atom    3 type  1   force =     0.00000159   -0.00000153    0.00002300
     atom    4 type  1   force =     0.00000173    0.00000137    0.00003161
     atom    5 type  2   force =    -0.00000067   -0.00000043   -0.00000043
     atom    6 type  2   force =     0.00000049   -0.00000047   -0.00000010
     atom    7 type  2   force =    -0.00000032    0.00000000   -0.00000104
     atom    8 type  2   force =    -0.00000021    0.00000029    0.00000088
     atom    9 type  3   force =     0.00001078    0.00000136    0.00004830
     atom   10 type  3   force =    -0.00003683   -0.00004254   -0.00004541
     atom   11 type  3   force =     0.00006222    0.00006914   -0.00003338
     atom   12 type  3   force =    -0.00002398    0.00004957   -0.00005501
     atom   13 type  3   force =     0.00005182   -0.00007662   -0.00005512
     atom   14 type  3   force =     0.00001111   -0.00000097    0.00013226
     atom   15 type  3   force =    -0.00001102    0.00000099   -0.00013233
     atom   16 type  3   force =     0.00002403   -0.00004944    0.00005505
     atom   17 type  3   force =    -0.00005187    0.00007672    0.00005502
     atom   18 type  3   force =    -0.00006219   -0.00006916    0.00003307
     atom   19 type  3   force =     0.00003673    0.00004260    0.00004576
     atom   20 type  3   force =    -0.00001088   -0.00000132   -0.00004818

     Total force =     0.104784     Total SCF correction =     0.000329

     Computing stress (Cartesian axis) and pressure

          total   stress  (Ry/bohr**3)                   (kbar)     P=     -309.33
  -0.00207687   0.00000000   0.00000000         -305.52        0.00        0.00
   0.00000000  -0.00223104   0.00000000            0.00     -328.20        0.00
   0.00000000   0.00000000  -0.00200041            0.00        0.00     -294.27

     kinetic stress (kbar)  22203.53      0.00      0.00
                                0.00  22113.61      0.00
                                0.00      0.00  22254.96

     local   stress (kbar) -13816.23      0.07      0.17
                                0.07 -17336.37      0.04
                                0.17      0.04 -13764.55

     nonloc. stress (kbar)   5903.04      0.00      0.00
                                0.00   5901.09      0.00
                                0.00      0.00   6015.54

     hartree stress (kbar)  14997.58     -0.03     -0.04
                               -0.03  16552.80     -0.00
                               -0.04     -0.00  15019.61

     exc-cor stress (kbar)  -4920.21     -0.00     -0.00
                               -0.00  -4921.00     -0.00
                               -0.00     -0.00  -4923.26

     corecor stress (kbar)  -1210.53      0.00      0.00
                                0.00  -1210.50      0.00
                                0.00      0.00  -1213.57

     ewald   stress (kbar) -23462.70      0.00      0.00
                                0.00 -21427.83     -0.00
                                0.00     -0.00 -23682.99

     hubbard stress (kbar)      0.00      0.00      0.00
                                0.00      0.00      0.00
                                0.00      0.00      0.00

     DFT-D   stress (kbar)      0.00      0.00      0.00
                                0.00      0.00      0.00
                                0.00      0.00      0.00

     XDM     stress (kbar)      0.00      0.00      0.00
                                0.00      0.00      0.00
                                0.00      0.00      0.00

     dft-nl  stress (kbar)      0.00      0.00      0.00
                                0.00      0.00      0.00
                                0.00      0.00      0.00

     TS-vdW  stress (kbar)      0.00      0.00      0.00
                                0.00      0.00      0.00
                                0.00      0.00      0.00

[...]

                                0.00      0.00      0.00

     Writing all to output data dir new_calculations/myprefix.save/

     General routines

     Parallel routines

   This run was terminated on:  12:50:59  20May2023

   JOB DONE.