     Program PWSCF v.7.0 starts on 20May2023 at 19:16:40

     Reading input from espresso_16572.pwi
Warning: card &CELL ignored
Warning: card / ignored

     Current dimensions of program PWSCF are:
     Max number of different atomic species (ntypx) = 10
     Max number of k-points (npk) =  40000
     Max angular momentum in pseudopotentials (lmaxx) =  4
     file Al.pbe-n-kjpaw_psl.1.0.0.UPF: wavefunction(s)  3S 3P renormalized

     gamma-point specific algorithms are used
     Message from routine setup:
     using ibrav=0 with symmetry is DISCOURAGED, use correct ibrav instead

     Subspace diagonalization in iterative solution of the eigenvalue problem:
     a serial algorithm will be used

     Using Slab Decomposition

     bravais-lattice index     =            0
     lattice parameter (alat)  =       9.3566  a.u.
     unit-cell volume          =     819.1293 (a.u.)^3
     number of atoms/cell      =            8
     number of atomic types    =            3
     number of electrons       =        91.00
     number of Kohn-Sham states=           55
     kinetic-energy cutoff     =      30.0000  Ry
     charge density cutoff     =     240.0000  Ry
     scf convergence threshold =      1.0E-06
     mixing beta               =       0.7000
     number of iterations used =            8  plain     mixing
     Exchange-correlation= PBE
                           (   1   4   3   4   0   0   0)

     celldm(1)=   9.356588  celldm(2)=   0.000000  celldm(3)=   0.000000
     celldm(4)=   0.000000  celldm(5)=   0.000000  celldm(6)=   0.000000

     crystal axes: (cart. coord. in units of alat)
               a(1) = (   1.000000   0.000000   0.000000 )
               a(2) = (   0.000000   1.000000   0.000000 )
               a(3) = (   0.000000   0.000000   1.000000 )

     reciprocal axes: (cart. coord. in units 2 pi/alat)
               b(1) = (  1.000000  0.000000  0.000000 )
               b(2) = (  0.000000  1.000000  0.000000 )
               b(3) = (  0.000000  0.000000  1.000000 )

     PseudoPot. # 1 for Al read from file:
     /home/pragov/projects/rrg-bengioy-ad/pragov/crystal_structure_design/SSSP/Al.pbe-n-kjpaw_psl.1.0.0.UPF
     MD5 check sum: cfc449ca30b5f3223ec38ddd88ac046d
     Pseudo is Projector augmented-wave + core cor, Zval =  3.0
     Generated using "atomic" code by A. Dal Corso  v.5.1
     Shape of augmentation charge: PSQ
     Using radial grid of 1135 points,  6 beta functions with:
                l(1) =   0
                l(2) =   0
                l(3) =   1
                l(4) =   1
                l(5) =   2
                l(6) =   2
     Q(r) pseudized with 0 coefficients

     PseudoPot. # 2 for Si read from file:
     /home/pragov/projects/rrg-bengioy-ad/pragov/crystal_structure_design/SSSP/Si.pbe-n-rrkjus_psl.1.0.0.UPF
     MD5 check sum: 0b0bb1205258b0d07b9f9672cf965d36
     Pseudo is Ultrasoft + core correction, Zval =  4.0
     Generated using "atomic" code by A. Dal Corso  v.5.1
     Using radial grid of 1141 points,  6 beta functions with:
                l(1) =   0
                l(2) =   0
                l(3) =   1
                l(4) =   1
                l(5) =   2
                l(6) =   2
     Q(r) pseudized with 0 coefficients

     PseudoPot. # 3 for Mo read from file:
     /home/pragov/projects/rrg-bengioy-ad/pragov/crystal_structure_design/SSSP/Mo_ONCV_PBE-1.0.oncvpsp.upf
     MD5 check sum: 1b5d28e075c9ccadda658a603575cd1f
     Pseudo is Norm-conserving, Zval = 14.0
     Generated using ONCVPSP code by D. R. Hamann
     Using radial grid of 1526 points,  6 beta functions with:
                l(1) =   0
                l(2) =   0
                l(3) =   1
                l(4) =   1
                l(5) =   2
                l(6) =   2

     atomic species   valence    mass     pseudopotential
        Al             3.00    26.98154     Al( 1.00)
        Si             4.00    28.08500     Si( 1.00)
        Mo            14.00    95.95000     Mo( 1.00)

     24 Sym. Ops., with inversion, found

                                    s                        frac. trans.

      isym =  1     identity

 cryst.   s( 1) = (     1          0          0      )
                  (     0          1          0      )
                  (     0          0          1      )

 cart.    s( 1) = (  1.0000000  0.0000000  0.0000000 )
                  (  0.0000000  1.0000000  0.0000000 )
                  (  0.0000000  0.0000000  1.0000000 )

      isym =  2     180 deg rotation - cart. axis [0,0,1]

[...]

 cryst.   s( 9) = (     0          1          0      )
                  (     0          0          1      )
                  (     1          0          0      )

 cart.    s( 9) = (  0.0000000  0.0000000  1.0000000 )
                  (  1.0000000  0.0000000  0.0000000 )
                  (  0.0000000  1.0000000  0.0000000 )

[...]

 cryst.   s(10) = (     0         -1          0      )
                  (     0          0         -1      )
                  (     1          0          0      )

 cart.    s(10) = (  0.0000000  0.0000000  1.0000000 )
                  ( -1.0000000  0.0000000  0.0000000 )
                  (  0.0000000 -1.0000000  0.0000000 )

[...]

      isym = 12     120 deg rotation - cart. axis [-1,-1,1]

[...]

      isym = 13     inversion

[...]

      isym = 14     inv. 180 deg rotation - cart. axis [0,0,1]

[...]

      isym = 24     inv. 120 deg rotation - cart. axis [-1,-1,1]

 cryst.   s(24) = (     0         -1          0      )
                  (     0          0          1      )
                  (     1          0          0      )

 cart.    s(24) = (  0.0000000  0.0000000  1.0000000 )
                  ( -1.0000000  0.0000000  0.0000000 )
                  (  0.0000000  1.0000000  0.0000000 )

   Cartesian axes

     site n.     atom                  positions (alat units)
         1           Al  tau(   1) = (   0.5000000   0.5000000   0.5000000  )
         2           Si  tau(   2) = (   0.0000000   0.0000000   0.0000000  )
         3           Mo  tau(   3) = (   0.5000000   0.7516240   0.0000000  )
         4           Mo  tau(   4) = (   0.2483760   0.0000000   0.5000000  )
         5           Mo  tau(   5) = (   0.0000000   0.5000000   0.7516240  )
         6           Mo  tau(   6) = (   0.5000000   0.2483760   0.0000000  )
         7           Mo  tau(   7) = (   0.7516240   0.0000000   0.5000000  )
         8           Mo  tau(   8) = (   0.0000000   0.5000000   0.2483760  )

   Crystallographic axes

     site n.     atom                  positions (cryst. coord.)
         1           Al  tau(   1) = (  0.5000000  0.5000000  0.5000000  )
         2           Si  tau(   2) = (  0.0000000  0.0000000  0.0000000  )
         3           Mo  tau(   3) = (  0.5000000  0.7516240  0.0000000  )
         4           Mo  tau(   4) = (  0.2483760  0.0000000  0.5000000  )
         5           Mo  tau(   5) = (  0.0000000  0.5000000  0.7516240  )
         6           Mo  tau(   6) = (  0.5000000  0.2483760  0.0000000  )
         7           Mo  tau(   7) = (  0.7516240  0.0000000  0.5000000  )
         8           Mo  tau(   8) = (  0.0000000  0.5000000  0.2483760  )

     number of k points=     1  Methfessel-Paxton smearing, width (Ry)=  0.0010
                       cart. coord. in units 2pi/alat
        k(    1) = (   0.0000000   0.0000000   0.0000000), wk =   2.0000000

                       cryst. coord.
        k(    1) = (   0.0000000   0.0000000   0.0000000), wk =   2.0000000

     Initial potential from superposition of free atoms

     starting charge      90.9912, renormalised to      91.0000
     Starting wfcs are   68 randomized atomic wfcs
     Checking if some PAW data can be deallocated...

     Self-consistent Calculation

     iteration #  1     ecut=    30.00 Ry     beta= 0.70
     Davidson diagonalization with overlap

     ethr =  1.00E-02,  avg # of iterations =  2.0

     Threshold (ethr) on eigenvalues was too large:
     Diagonalizing with lowered threshold

     Davidson diagonalization with overlap

[...]

     total energy              =    -874.27076310 Ry
     estimated scf accuracy    <       0.22662728 Ry

[...]

     total energy              =    -874.31849157 Ry
     estimated scf accuracy    <       0.00000996 Ry

     iteration # 16     ecut=    30.00 Ry     beta= 0.70
     Davidson diagonalization with overlap

     ethr =  1.09E-08,  avg # of iterations =  1.0

     End of self-consistent calculation

          k = 0.0000 0.0000 0.0000 (  1151 PWs)   bands (ev):

   -42.2786 -42.1812 -42.1811 -41.8852 -41.8851 -41.8850 -17.5729 -17.5728
   -17.3927 -16.4077 -16.4077 -16.4076 -15.9655 -15.9655 -15.9655 -15.9412
   -15.9412 -15.9411 -15.8175 -15.8174 -15.8174 -15.3909 -15.3908 -15.3908
     8.6921  11.4657  13.7173  13.7174  13.7174  14.3210  14.3211  14.4933
    14.4934  14.4934  14.8192  16.2151  16.2151  16.2152  16.2678  16.9965
    16.9966  16.9966  17.4825  17.4825  20.1958  20.1958  20.1958  21.3581
    21.3581  21.4300  21.4301  21.4301  21.5262  21.5265  21.5265

     occupation numbers
     1.0000   1.0000   1.0000   1.0000   1.0000   1.0000   1.0000   1.0000
     1.0000   1.0000   1.0000   1.0000   1.0000   1.0000   1.0000   1.0000
     1.0000   1.0000   1.0000   1.0000   1.0000   1.0000   1.0000   1.0000
     1.0000   1.0000   1.0000   1.0000   1.0000   1.0000   1.0000   1.0000
     1.0000   1.0000   1.0000   1.0000   1.0000   1.0000   1.0000   1.0000
     1.0000   1.0000   1.0000   1.0000   0.5010   0.4998   0.4992  -0.0000
    -0.0000  -0.0000  -0.0000  -0.0000  -0.0000  -0.0000  -0.0000

     the Fermi energy is    20.1958 ev

!    total energy              =    -874.31849152 Ry
     estimated scf accuracy    <       0.00000029 Ry
     smearing contrib. (-TS)   =      -0.00084628 Ry
     internal energy E=F+TS    =    -874.31764523 Ry

     The total energy is F=E-TS. E is the sum of the following terms:
     one-electron contribution =    -191.43776251 Ry
     hartree contribution      =     144.42449638 Ry
     xc contribution           =    -103.09120675 Ry
     ewald contribution        =    -689.51704516 Ry
     one-center paw contrib.   =     -34.69612720 Ry
      -> PAW hartree energy AE =       1.66864458 Ry
      -> PAW hartree energy PS =      -1.66297586 Ry
      -> PAW xc energy AE      =     -36.72455160 Ry
      -> PAW xc energy PS      =       2.02275569 Ry
      -> total E_H with PAW    =     144.43016509 Ry
      -> total E_XC with PAW   =    -137.79300266 Ry

     convergence has been achieved in  16 iterations

     Forces acting on atoms (cartesian axes, Ry/au):

     atom    1 type  1   force =     0.00000000    0.00000000    0.00000000
     atom    2 type  2   force =     0.00000000    0.00000000    0.00000000
     atom    3 type  3   force =     0.00000000    0.00187788    0.00000000
     atom    4 type  3   force =    -0.00187788    0.00000000    0.00000000
     atom    5 type  3   force =     0.00000000    0.00000000    0.00187788
     atom    6 type  3   force =     0.00000000   -0.00187788    0.00000000
     atom    7 type  3   force =     0.00187788    0.00000000    0.00000000
     atom    8 type  3   force =     0.00000000    0.00000000   -0.00187788
     The non-local contrib.  to forces
     atom    1 type  1   force =     0.00000000    0.00000000    0.00000000
     atom    2 type  2   force =     0.00000000    0.00000000    0.00000000
     atom    3 type  3   force =     0.00000000   -0.00017128   -0.00000000
     atom    4 type  3   force =     0.00017128    0.00000000    0.00000000
     atom    5 type  3   force =     0.00000000    0.00000000   -0.00017128
     atom    6 type  3   force =     0.00000000    0.00017128   -0.00000000
     atom    7 type  3   force =    -0.00017128    0.00000000    0.00000000
     atom    8 type  3   force =     0.00000000    0.00000000    0.00017128
     The ionic contribution  to forces
     atom    1 type  1   force =     0.00000000    0.00000000    0.00000000
     atom    2 type  2   force =    -0.00000000   -0.00000000    0.00000000
     atom    3 type  3   force =     0.00000000   -0.92917596   -0.00000000
     atom    4 type  3   force =     0.92917596   -0.00000000   -0.00000000
     atom    5 type  3   force =     0.00000000    0.00000000   -0.92917596
     atom    6 type  3   force =    -0.00000000    0.92917596   -0.00000000
     atom    7 type  3   force =    -0.92917596    0.00000000    0.00000000
     atom    8 type  3   force =    -0.00000000   -0.00000000    0.92917596
     The local contribution  to forces
     atom    1 type  1   force =    -0.00001919    0.00001059    0.00004937
     atom    2 type  2   force =     0.00002272   -0.00003279   -0.00005368
     atom    3 type  3   force =    -0.00004284    0.93154957   -0.00020807
     atom    4 type  3   force =    -0.93146825   -0.00005384    0.00017466
     atom    5 type  3   force =    -0.00002926    0.00012338    0.93053376
     atom    6 type  3   force =    -0.00011186   -0.93158230   -0.00023394
     atom    7 type  3   force =     0.93150576   -0.00014822    0.00023160
     atom    8 type  3   force =     0.00009414    0.00013147   -0.93054368
     The core correction contribution to forces
     atom    1 type  1   force =    -0.00000016   -0.00000039   -0.00000017
     atom    2 type  2   force =    -0.00000003   -0.00000072    0.00000091
     atom    3 type  3   force =     0.00000000    0.00000000    0.00000000
     atom    4 type  3   force =     0.00000000    0.00000000    0.00000000
     atom    5 type  3   force =     0.00000000    0.00000000    0.00000000
     atom    6 type  3   force =     0.00000000    0.00000000    0.00000000
     atom    7 type  3   force =     0.00000000    0.00000000    0.00000000
     atom    8 type  3   force =     0.00000000    0.00000000    0.00000000
     The Hubbard contrib.    to forces
     atom    1 type  1   force =     0.00000000    0.00000000    0.00000000
     atom    2 type  2   force =     0.00000000    0.00000000    0.00000000
     atom    3 type  3   force =     0.00000000    0.00000000    0.00000000
     atom    4 type  3   force =     0.00000000    0.00000000    0.00000000
     atom    5 type  3   force =     0.00000000    0.00000000    0.00000000
     atom    6 type  3   force =     0.00000000    0.00000000    0.00000000
     atom    7 type  3   force =     0.00000000    0.00000000    0.00000000
     atom    8 type  3   force =     0.00000000    0.00000000    0.00000000
     The SCF correction term to forces
     atom    1 type  1   force =     0.00001591   -0.00000933   -0.00003720
     atom    2 type  2   force =    -0.00002447    0.00002222    0.00005257
     atom    3 type  3   force =     0.00004452   -0.00036206    0.00022875
     atom    4 type  3   force =     0.00020144    0.00007668   -0.00019726
     atom    5 type  3   force =     0.00001032   -0.00011654    0.00066821
     atom    6 type  3   force =     0.00008628    0.00038065    0.00025568
     atom    7 type  3   force =    -0.00023077    0.00011710   -0.00023882
     atom    8 type  3   force =    -0.00006506   -0.00013530   -0.00067413

     Total force =     0.004600     Total SCF correction =     0.001247
     SCF correction compared to forces is large: reduce conv_thr to get better values

     Computing stress (Cartesian axis) and pressure

          total   stress  (Ry/bohr**3)                   (kbar)     P=     -142.20
  -0.00096669   0.00000000   0.00000000         -142.20        0.00        0.00
   0.00000000  -0.00096669   0.00000000            0.00     -142.20        0.00
   0.00000000   0.00000000  -0.00096669            0.00        0.00     -142.20

     kinetic stress (kbar)  31295.20      0.00      0.00
                                0.00  31295.20      0.00
                                0.00      0.00  31295.20

     local   stress (kbar)  -5766.90     -0.31     -0.40
                               -0.31  -5767.77     -0.09
                               -0.40     -0.09  -5767.51

     nonloc. stress (kbar)  12538.69      0.00      0.00
                                0.00  12538.69      0.00
                                0.00      0.00  12538.69

     hartree stress (kbar)   8645.57      0.06      0.08
                                0.06   8645.61      0.02
                                0.08      0.02   8645.60

     exc-cor stress (kbar)  -4754.29      0.00      0.00
                                0.00  -4754.28      0.00
                                0.00      0.00  -4754.28

     corecor stress (kbar)   -823.89      0.00      0.00
                                0.00   -823.89      0.00
                                0.00      0.00   -823.89

     ewald   stress (kbar) -41276.13     -0.00     -0.00
                               -0.00 -41276.13     -0.00
                               -0.00     -0.00 -41276.13

     hubbard stress (kbar)      0.00      0.00      0.00
                                0.00      0.00      0.00
                                0.00      0.00      0.00

     DFT-D   stress (kbar)      0.00      0.00      0.00
                                0.00      0.00      0.00
                                0.00      0.00      0.00

     XDM     stress (kbar)      0.00      0.00      0.00
                                0.00      0.00      0.00
                                0.00      0.00      0.00

     dft-nl  stress (kbar)      0.00      0.00      0.00
                                0.00      0.00      0.00
                                0.00      0.00      0.00

     TS-vdW  stress (kbar)      0.00      0.00      0.00
                                0.00      0.00      0.00
                                0.00      0.00      0.00

[...]

                                0.00      0.00      0.00

     Writing all to output data dir new_calculations/myprefix.save/

     General routines

     Parallel routines

     PAW routines

   This run was terminated on:  19:17: 2  20May2023

   JOB DONE.