     Program PWSCF v.7.0 starts on 21May2023 at  6:49:52

     Reading input from espresso_21669.pwi
Warning: card &CELL ignored
Warning: card / ignored

     Current dimensions of program PWSCF are:
     Max number of different atomic species (ntypx) = 10
     Max number of k-points (npk) =  40000
     Max angular momentum in pseudopotentials (lmaxx) =  4

     gamma-point specific algorithms are used
     Message from routine setup:
     using ibrav=0 with symmetry is DISCOURAGED, use correct ibrav instead

     Subspace diagonalization in iterative solution of the eigenvalue problem:
     a serial algorithm will be used

     Using Slab Decomposition

     bravais-lattice index     =            0
     lattice parameter (alat)  =       7.1305  a.u.
     unit-cell volume          =    1107.8911 (a.u.)^3
     number of atoms/cell      =           12
     number of atomic types    =            2
     number of electrons       =       136.00
     number of Kohn-Sham states=           82
     kinetic-energy cutoff     =      30.0000  Ry
     charge density cutoff     =     240.0000  Ry
     scf convergence threshold =      1.0E-06
     mixing beta               =       0.7000
     number of iterations used =            8  plain     mixing
     Exchange-correlation=  SLA  PW   PBX  PBC
                           (   1   4   3   4   0   0   0)

     celldm(1)=   7.130466  celldm(2)=   0.000000  celldm(3)=   0.000000
     celldm(4)=   0.000000  celldm(5)=   0.000000  celldm(6)=   0.000000

     crystal axes: (cart. coord. in units of alat)
               a(1) = (   1.000000   0.000000   0.000000 )
               a(2) = (   0.000000   1.579710   0.000000 )
               a(3) = (   0.000000   0.000000   1.934487 )

     reciprocal axes: (cart. coord. in units 2 pi/alat)
               b(1) = (  1.000000  0.000000  0.000000 )
               b(2) = (  0.000000  0.633027  0.000000 )
               b(3) = (  0.000000  0.000000  0.516933 )

     PseudoPot. # 1 for Hg read from file:
     /home/pragov/projects/rrg-bengioy-ad/pragov/crystal_structure_design/SSSP/Hg_ONCV_PBE-1.0.oncvpsp.upf
     MD5 check sum: dd5a8773074bfcf4280086d4d95875c4
     Pseudo is Norm-conserving, Zval = 20.0
     Generated using ONCVPSP code by D. R. Hamann
     Using radial grid of 1262 points,  8 beta functions with:
                l(1) =   0
                l(2) =   0
                l(3) =   1
                l(4) =   1
                l(5) =   2
                l(6) =   2
                l(7) =   3
                l(8) =   3

     PseudoPot. # 2 for F  read from file:
     /home/pragov/projects/rrg-bengioy-ad/pragov/crystal_structure_design/SSSP/f_pbe_v1.4.uspp.F.UPF
     MD5 check sum: 4c38b6a325caf53ec0e86aed9459de46
     Pseudo is Ultrasoft, Zval =  7.0
     Generated by new atomic code, or converted to UPF format
     Using radial grid of  799 points,  4 beta functions with:
                l(1) =   0
                l(2) =   0
                l(3) =   1
                l(4) =   1
     Q(r) pseudized with  8 coefficients,  rinner =    0.950   0.950   0.950

     atomic species   valence    mass     pseudopotential
        Hg            20.00   200.59200     Hg( 1.00)
        F              7.00    18.99840     F ( 1.00)

      8 Sym. Ops., with inversion, found ( 6 have fractional translation)

                                    s                        frac. trans.

      isym =  1     identity

 cryst.   s( 1) = (     1          0          0      )
                  (     0          1          0      )
                  (     0          0          1      )

 cart.    s( 1) = (  1.0000000  0.0000000  0.0000000 )
                  (  0.0000000  1.0000000  0.0000000 )
                  (  0.0000000  0.0000000  1.0000000 )

      isym =  2     180 deg rotation - cart. axis [0,0,1]

 cryst.   s( 2) = (    -1          0          0      )    f =(  0.0000000 )
                  (     0         -1          0      )       (  0.5000000 )
                  (     0          0          1      )       (  0.5000000 )

 cart.    s( 2) = ( -1.0000000  0.0000000  0.0000000 )    f =(  0.0000000 )
                  (  0.0000000 -1.0000000  0.0000000 )       (  0.7898552 )
                  (  0.0000000  0.0000000  1.0000000 )       (  0.9672436 )

[...]

      isym =  4     180 deg rotation - cart. axis [1,0,0]

[...]

      isym =  5     inversion

 cryst.   s( 5) = (    -1          0          0      )
                  (     0         -1          0      )
                  (     0          0         -1      )

 cart.    s( 5) = ( -1.0000000  0.0000000  0.0000000 )
                  (  0.0000000 -1.0000000  0.0000000 )
                  (  0.0000000  0.0000000 -1.0000000 )

      isym =  6     inv. 180 deg rotation - cart. axis [0,0,1]

[...]

      isym =  8     inv. 180 deg rotation - cart. axis [1,0,0]

 cryst.   s( 8) = (    -1          0          0      )    f =(  0.5000000 )
                  (     0          1          0      )       (  0.0000000 )
                  (     0          0          1      )       (  0.0000000 )

 cart.    s( 8) = ( -1.0000000  0.0000000  0.0000000 )    f =(  0.5000000 )
                  (  0.0000000  1.0000000  0.0000000 )       (  0.0000000 )
                  (  0.0000000  0.0000000  1.0000000 )       (  0.0000000 )

   Cartesian axes

     site n.     atom                  positions (alat units)
         1           Hg  tau(   1) = (   0.2500000   1.1979924   1.7277099  )
         2           Hg  tau(   2) = (   0.2500000   0.4081372   1.1740210  )
         3           Hg  tau(   3) = (   0.7500000   0.3817181   0.2067773  )
         4           Hg  tau(   4) = (   0.7500000   1.1715733   0.7604663  )
         5           F   tau(   5) = (   0.2500000   0.5678127   1.7791556  )
         6           F   tau(   6) = (   0.2500000   1.3576680   1.1225752  )
         7           F   tau(   7) = (   0.7500000   1.0118978   0.1553316  )
         8           F   tau(   8) = (   0.7500000   0.2220425   0.8119120  )
         9           F   tau(   9) = (   0.2500000   1.5588093   0.3167858  )
        10           F   tau(  10) = (   0.2500000   0.7689541   0.6504578  )
        11           F   tau(  11) = (   0.7500000   0.0209011   1.6177014  )
        12           F   tau(  12) = (   0.7500000   0.8107564   1.2840294  )

   Crystallographic axes

     site n.     atom                  positions (cryst. coord.)
         1           Hg  tau(   1) = (  0.2500000  0.7583620  0.8931100  )
         2           Hg  tau(   2) = (  0.2500000  0.2583620  0.6068900  )
         3           Hg  tau(   3) = (  0.7500000  0.2416380  0.1068900  )
         4           Hg  tau(   4) = (  0.7500000  0.7416380  0.3931100  )
         5           F   tau(   5) = (  0.2500000  0.3594410  0.9197040  )
         6           F   tau(   6) = (  0.2500000  0.8594410  0.5802960  )
         7           F   tau(   7) = (  0.7500000  0.6405590  0.0802960  )
         8           F   tau(   8) = (  0.7500000  0.1405590  0.4197040  )
         9           F   tau(   9) = (  0.2500000  0.9867690  0.1637570  )
        10           F   tau(  10) = (  0.2500000  0.4867690  0.3362430  )
        11           F   tau(  11) = (  0.7500000  0.0132310  0.8362430  )
        12           F   tau(  12) = (  0.7500000  0.5132310  0.6637570  )

     number of k points=     1  Methfessel-Paxton smearing, width (Ry)=  0.0010
                       cart. coord. in units 2pi/alat
        k(    1) = (   0.0000000   0.0000000   0.0000000), wk =   2.0000000

                       cryst. coord.
        k(    1) = (   0.0000000   0.0000000   0.0000000), wk =   2.0000000

     Initial potential from superposition of free atoms

     starting charge     135.9997, renormalised to     136.0000
     Starting wfcs are   72 randomized atomic wfcs +   10 random wfcs

     Self-consistent Calculation

     iteration #  1     ecut=    30.00 Ry     beta= 0.70
     Davidson diagonalization with overlap

     ethr =  1.00E-02,  avg # of iterations =  6.0

     total energy              =   -1627.10207961 Ry
     estimated scf accuracy    <       2.24973776 Ry

[...]

     total energy              =   -1628.19984431 Ry
     estimated scf accuracy    <       0.00000195 Ry

     iteration # 10     ecut=    30.00 Ry     beta= 0.70
     Davidson diagonalization with overlap

     ethr =  1.43E-09,  avg # of iterations =  2.0

     End of self-consistent calculation

          k = 0.0000 0.0000 0.0000 (  1534 PWs)   bands (ev):

  -105.6082-105.6077-105.6077-105.6075 -53.4692 -53.4668 -53.4647 -53.4583
   -53.4535 -53.4508 -53.4490 -53.4479 -53.4441 -53.4433 -53.4424 -53.4380
   -13.4310 -13.2382 -13.0122 -13.0079 -12.5296 -12.4754 -12.4352 -12.3864
     2.5459   2.5652   2.6421   2.7004   2.7870   2.9144   3.1095   3.2045
     3.2052   3.2559   3.3198   3.4752   3.4891   3.5231   3.6025   3.7842
     3.7846   3.8130   3.8168   3.8480   3.8749   3.9581   4.2698   4.9149
     5.4318   5.5358   5.5902   5.6862   5.8531   6.1346   6.3677   6.5258
     6.6205   6.6477   6.6782   6.7870   6.8143   6.9037   6.9619   7.0374
     7.0570   7.2853   7.3277   7.3291   7.8736  11.3812  11.6428  11.9353
    15.6271  16.5387  17.6180  17.7267  18.7256  19.5856  20.0284  20.1602
    20.3328  20.5498

     occupation numbers
     1.0000   1.0000   1.0000   1.0000   1.0000   1.0000   1.0000   1.0000
     1.0000   1.0000   1.0000   1.0000   1.0000   1.0000   1.0000   1.0000
     1.0000   1.0000   1.0000   1.0000   1.0000   1.0000   1.0000   1.0000
     1.0000   1.0000   1.0000   1.0000   1.0000   1.0000   1.0000   1.0000
     1.0000   1.0000   1.0000   1.0000   1.0000   1.0000   1.0000   1.0000
     1.0000   1.0000   1.0000   1.0000   1.0000   1.0000   1.0000   1.0000
     1.0000   1.0000   1.0000   1.0000   1.0000   1.0000   1.0000   1.0000
     1.0000   1.0000   1.0000   1.0000   1.0000   1.0000   1.0000   1.0000
     1.0000   1.0000   1.0000   1.0000  -0.0000  -0.0000  -0.0000  -0.0000
    -0.0000  -0.0000  -0.0000  -0.0000  -0.0000  -0.0000  -0.0000  -0.0000
    -0.0000  -0.0000

     the Fermi energy is     7.5983 ev

!    total energy              =   -1628.19984461 Ry
     estimated scf accuracy    <       0.00000016 Ry
     smearing contrib. (-TS)   =       0.00000000 Ry
     internal energy E=F+TS    =   -1628.19984461 Ry

     The total energy is F=E-TS. E is the sum of the following terms:
     one-electron contribution =    -747.45688002 Ry
     hartree contribution      =     423.90136236 Ry
     xc contribution           =    -184.63210013 Ry
     ewald contribution        =   -1120.01222683 Ry

     convergence has been achieved in  10 iterations

     Forces acting on atoms (cartesian axes, Ry/au):

     atom    1 type  1   force =     0.00000000   -0.00801104   -0.01294586
     atom    2 type  1   force =     0.00000000   -0.00801104    0.01294586
     atom    3 type  1   force =    -0.00000000    0.00801104    0.01294586
     atom    4 type  1   force =     0.00000000    0.00801104   -0.01294586
     atom    5 type  2   force =     0.00000000    0.02282209   -0.04648881
     atom    6 type  2   force =     0.00000000    0.02282209    0.04648881
     atom    7 type  2   force =     0.00000000   -0.02282209    0.04648881
     atom    8 type  2   force =     0.00000000   -0.02282209   -0.04648881
     atom    9 type  2   force =     0.00000000   -0.03575179   -0.00197944
     atom   10 type  2   force =    -0.00000000   -0.03575179    0.00197944
     atom   11 type  2   force =     0.00000000    0.03575179    0.00197944
     atom   12 type  2   force =     0.00000000    0.03575179   -0.00197944
     The non-local contrib.  to forces
     atom    1 type  1   force =    -0.00000000   -0.04262337   -0.03972649
     atom    2 type  1   force =     0.00000000   -0.04262337    0.03972649
     atom    3 type  1   force =     0.00000000    0.04262337    0.03972649
     atom    4 type  1   force =     0.00000000    0.04262337   -0.03972649
     atom    5 type  2   force =     0.00000000    0.20835343   -0.12872565
     atom    6 type  2   force =     0.00000000    0.20835343    0.12872565
     atom    7 type  2   force =     0.00000000   -0.20835343    0.12872565
     atom    8 type  2   force =    -0.00000000   -0.20835343   -0.12872565
     atom    9 type  2   force =     0.00000000    0.14538630   -0.47776535
     atom   10 type  2   force =    -0.00000000    0.14538630    0.47776535
     atom   11 type  2   force =     0.00000000   -0.14538630    0.47776535
     atom   12 type  2   force =     0.00000000   -0.14538630   -0.47776535
     The ionic contribution  to forces
     atom    1 type  1   force =     0.00000000   -1.15037472   -1.43149718
     atom    2 type  1   force =    -0.00000000   -1.15037472    1.43149718
     atom    3 type  1   force =     0.00000000    1.15037472    1.43149718
     atom    4 type  1   force =     0.00000000    1.15037472   -1.43149718
     atom    5 type  2   force =     0.00000000   -0.71891625    0.20054709
     atom    6 type  2   force =    -0.00000000   -0.71891625   -0.20054709
     atom    7 type  2   force =     0.00000000    0.71891625   -0.20054709
     atom    8 type  2   force =    -0.00000000    0.71891625    0.20054709
     atom    9 type  2   force =     0.00000000   -1.25125404    3.96870462
     atom   10 type  2   force =    -0.00000000   -1.25125404   -3.96870462
     atom   11 type  2   force =     0.00000000    1.25125404   -3.96870462
     atom   12 type  2   force =     0.00000000    1.25125404    3.96870462
     The local contribution  to forces
     atom    1 type  1   force =    -0.00004559    1.18485961    1.45782640
     atom    2 type  1   force =    -0.00001359    1.18509905   -1.45798611
     atom    3 type  1   force =     0.00002185   -1.18532038   -1.45810525
     atom    4 type  1   force =     0.00001770   -1.18471825    1.45815248
     atom    5 type  2   force =    -0.00001221    0.53340703   -0.11829588
     atom    6 type  2   force =    -0.00000912    0.53320847    0.11828153
     atom    7 type  2   force =     0.00001183   -0.53323665    0.11830751
     atom    8 type  2   force =     0.00000692   -0.53335593   -0.11828537
     atom    9 type  2   force =    -0.00000018    1.07023058   -3.49312101
     atom   10 type  2   force =     0.00000137    1.07007723    3.49267732
     atom   11 type  2   force =    -0.00000120   -1.07010175    3.49273746
     atom   12 type  2   force =    -0.00000262   -1.07012987   -3.49289598
     The core correction contribution to forces
     atom    1 type  1   force =     0.00000000    0.00000000    0.00000000
     atom    2 type  1   force =     0.00000000    0.00000000    0.00000000
     atom    3 type  1   force =     0.00000000    0.00000000    0.00000000
     atom    4 type  1   force =     0.00000000    0.00000000    0.00000000
     atom    5 type  2   force =     0.00000000    0.00000000    0.00000000
     atom    6 type  2   force =     0.00000000    0.00000000    0.00000000
     atom    7 type  2   force =     0.00000000    0.00000000    0.00000000
     atom    8 type  2   force =     0.00000000    0.00000000    0.00000000
     atom    9 type  2   force =     0.00000000    0.00000000    0.00000000
     atom   10 type  2   force =     0.00000000    0.00000000    0.00000000
     atom   11 type  2   force =     0.00000000    0.00000000    0.00000000
     atom   12 type  2   force =     0.00000000    0.00000000    0.00000000
     The Hubbard contrib.    to forces
     atom    1 type  1   force =     0.00000000    0.00000000    0.00000000
     atom    2 type  1   force =     0.00000000    0.00000000    0.00000000
     atom    3 type  1   force =     0.00000000    0.00000000    0.00000000
     atom    4 type  1   force =     0.00000000    0.00000000    0.00000000
     atom    5 type  2   force =     0.00000000    0.00000000    0.00000000
     atom    6 type  2   force =     0.00000000    0.00000000    0.00000000
     atom    7 type  2   force =     0.00000000    0.00000000    0.00000000
     atom    8 type  2   force =     0.00000000    0.00000000    0.00000000
     atom    9 type  2   force =     0.00000000    0.00000000    0.00000000
     atom   10 type  2   force =     0.00000000    0.00000000    0.00000000
     atom   11 type  2   force =     0.00000000    0.00000000    0.00000000
     atom   12 type  2   force =     0.00000000    0.00000000    0.00000000
     The SCF correction term to forces
     atom    1 type  1   force =     0.00005965    0.00016995    0.00042118
     atom    2 type  1   force =     0.00003266   -0.00015101   -0.00032774
     atom    3 type  1   force =    -0.00003874    0.00038373   -0.00016667
     atom    4 type  1   force =    -0.00000828   -0.00031568    0.00012538
     atom    5 type  2   force =     0.00001616   -0.00001507   -0.00000730
     atom    6 type  2   force =     0.00001306    0.00016975    0.00000120
     atom    7 type  2   force =    -0.00001685   -0.00017045    0.00008195
     atom    8 type  2   force =    -0.00000912   -0.00000640    0.00001974
     atom    9 type  2   force =     0.00000720   -0.00004882    0.00008035
     atom   10 type  2   force =     0.00000063   -0.00000207    0.00015428
     atom   11 type  2   force =    -0.00000300    0.00004585    0.00004687
     atom   12 type  2   force =    -0.00000335   -0.00002110   -0.00012226

     Total force =     0.129552     Total SCF correction =     0.000867

     Computing stress (Cartesian axis) and pressure

          total   stress  (Ry/bohr**3)                   (kbar)     P=     -779.27
  -0.00528170   0.00000000   0.00000000         -776.96        0.00        0.00
   0.00000000  -0.00537296   0.00000000            0.00     -790.39        0.00
   0.00000000   0.00000000  -0.00523746            0.00        0.00     -770.46

     kinetic stress (kbar)  46468.54      0.00      0.00
                                0.00  46084.52      0.00
                                0.00      0.00  46036.63

     local   stress (kbar) -13352.72     -0.00      0.00
                               -0.00 -15496.77      0.00
                                0.00      0.00 -12480.16

     nonloc. stress (kbar)   5392.73      0.00      0.00
                                0.00   5358.17      0.00
                                0.00      0.00   5361.09

     hartree stress (kbar)  18588.12      0.00     -0.00
                                0.00  19487.38     -0.00
                               -0.00     -0.00  18209.85

     exc-cor stress (kbar)  -7759.63      0.00     -0.00
                                0.00  -7760.10      0.00
                               -0.00      0.00  -7760.96

     corecor stress (kbar)      0.00      0.00      0.00
                                0.00      0.00      0.00
                                0.00      0.00      0.00

     ewald   stress (kbar) -50114.01      0.00     -0.00
                                0.00 -48463.60      0.00
                               -0.00      0.00 -50136.91

     hubbard stress (kbar)      0.00      0.00      0.00
                                0.00      0.00      0.00
                                0.00      0.00      0.00

     DFT-D   stress (kbar)      0.00      0.00      0.00
                                0.00      0.00      0.00
                                0.00      0.00      0.00

     XDM     stress (kbar)      0.00      0.00      0.00
                                0.00      0.00      0.00
                                0.00      0.00      0.00

     dft-nl  stress (kbar)      0.00      0.00      0.00
                                0.00      0.00      0.00
                                0.00      0.00      0.00

     TS-vdW  stress (kbar)      0.00      0.00      0.00
                                0.00      0.00      0.00
                                0.00      0.00      0.00

[...]

                                0.00      0.00      0.00

     Writing all to output data dir new_calculations/myprefix.save/

     General routines

     Parallel routines

   This run was terminated on:   6:50: 1  21May2023

   JOB DONE.