     Program PWSCF v.7.0 starts on 20May2023 at 11: 9:57

     Reading input from espresso_16284.pwi
Warning: card &CELL ignored
Warning: card / ignored

     Current dimensions of program PWSCF are:
     Max number of different atomic species (ntypx) = 10
     Max number of k-points (npk) =  40000
     Max angular momentum in pseudopotentials (lmaxx) =  4
     file Mg.pbe-n-kjpaw_psl.0.3.0.UPF: wavefunction(s)  3S renormalized

     gamma-point specific algorithms are used
     Message from routine setup:
     using ibrav=0 with symmetry is DISCOURAGED, use correct ibrav instead

     Subspace diagonalization in iterative solution of the eigenvalue problem:
     a serial algorithm will be used

     Using Slab Decomposition

     bravais-lattice index     =            0
     lattice parameter (alat)  =       5.9273  a.u.
     unit-cell volume          =    1127.7532 (a.u.)^3
     number of atoms/cell      =           10
     number of atomic types    =            3
     number of electrons       =       177.00
     number of Kohn-Sham states=          107
     kinetic-energy cutoff     =      30.0000  Ry
     charge density cutoff     =     240.0000  Ry
     scf convergence threshold =      1.0E-06
     mixing beta               =       0.7000
     number of iterations used =            8  plain     mixing
     Exchange-correlation= PBE
                           (   1   4   3   4   0   0   0)

     celldm(1)=   5.927260  celldm(2)=   0.000000  celldm(3)=   0.000000
     celldm(4)=   0.000000  celldm(5)=   0.000000  celldm(6)=   0.000000

     crystal axes: (cart. coord. in units of alat)
               a(1) = (   1.000000   0.000000   0.000000 )
               a(2) = (   0.000000   1.000000   0.000000 )
               a(3) = (   0.000000   0.000000   5.415669 )

     reciprocal axes: (cart. coord. in units 2 pi/alat)
               b(1) = (  1.000000  0.000000  0.000000 )
               b(2) = (  0.000000  1.000000  0.000000 )
               b(3) = (  0.000000  0.000000  0.184649 )

     PseudoPot. # 1 for Mg read from file:
     /home/pragov/projects/rrg-bengioy-ad/pragov/crystal_structure_design/SSSP/Mg.pbe-n-kjpaw_psl.0.3.0.UPF
     MD5 check sum: 24ecedc7f3e3cbe212e682f4413594e4
     Pseudo is Projector augmented-wave + core cor, Zval =  2.0
     Generated using "atomic" code by A. Dal Corso  v.5.0.99 svn rev. 10869
     Shape of augmentation charge: PSQ
     Using radial grid of 1129 points,  4 beta functions with:
                l(1) =   0
                l(2) =   0
                l(3) =   1
                l(4) =   1
     Q(r) pseudized with 0 coefficients

     PseudoPot. # 2 for Zn read from file:
     /home/pragov/projects/rrg-bengioy-ad/pragov/crystal_structure_design/SSSP/Zn_pbe_v1.uspp.F.UPF
     MD5 check sum: df62231357ef9e81f77b2b3087fa5675
     Pseudo is Ultrasoft, Zval = 20.0
     Generated by new atomic code, or converted to UPF format
     Using radial grid of  943 points,  6 beta functions with:
                l(1) =   0
                l(2) =   0
                l(3) =   1
                l(4) =   1
                l(5) =   2
                l(6) =   2
     Q(r) pseudized with  8 coefficients,  rinner =    1.100   1.100   1.100
                                                       1.100   1.100

     PseudoPot. # 3 for Ag read from file:
     /home/pragov/projects/rrg-bengioy-ad/pragov/crystal_structure_design/SSSP/Ag_ONCV_PBE-1.0.oncvpsp.upf
     MD5 check sum: 94f47bd0669c641108e45594df92fabc
     Pseudo is Norm-conserving, Zval = 19.0
     Generated using ONCVPSP code by D. R. Hamann
     Using radial grid of 1398 points,  6 beta functions with:
                l(1) =   0
                l(2) =   0
                l(3) =   1
                l(4) =   1
                l(5) =   2
                l(6) =   2

     atomic species   valence    mass     pseudopotential
        Mg             2.00    24.30500     Mg( 1.00)
        Zn            20.00    65.38000     Zn( 1.00)
        Ag            19.00   107.86820     Ag( 1.00)

      8 Sym. Ops. (no inversion) found

                                    s                        frac. trans.

      isym =  1     identity

 cryst.   s( 1) = (     1          0          0      )
                  (     0          1          0      )
                  (     0          0          1      )

 cart.    s( 1) = (  1.0000000  0.0000000  0.0000000 )
                  (  0.0000000  1.0000000  0.0000000 )
                  (  0.0000000  0.0000000  1.0000000 )

      isym =  2     180 deg rotation - cart. axis [0,0,1]

[...]

      isym =  4      90 deg rotation - cart. axis [0,0,1]

[...]

      isym =  5     inv. 180 deg rotation - cart. axis [0,1,0]

[...]

      isym =  8     inv. 180 deg rotation - cart. axis [1,-1,0]

 cryst.   s( 8) = (     0          1          0      )
                  (     1          0          0      )
                  (     0          0          1      )

 cart.    s( 8) = (  0.0000000  1.0000000  0.0000000 )
                  (  1.0000000  0.0000000  0.0000000 )
                  (  0.0000000  0.0000000  1.0000000 )

   Cartesian axes

     site n.     atom                  positions (alat units)
         1           Mg  tau(   1) = (   0.5000000   0.5000000   0.5415669  )
         2           Zn  tau(   2) = (   0.5000000   0.5000000   1.6519794  )
         3           Zn  tau(   3) = (   0.5000000   0.5000000   2.7115442  )
         4           Zn  tau(   4) = (   0.5000000   0.5000000   3.7872585  )
         5           Zn  tau(   5) = (   0.5000000   0.5000000   4.8468233  )
         6           Ag  tau(   6) = (   0.0000000   0.0000000   5.3686230  )
         7           Ag  tau(   7) = (   0.0000000   0.0000000   1.1301797  )
         8           Ag  tau(   8) = (   0.0000000   0.0000000   2.1811173  )
         9           Ag  tau(   9) = (   0.0000000   0.0000000   3.2494013  )
        10           Ag  tau(  10) = (   0.0000000   0.0000000   4.3176854  )

   Crystallographic axes

     site n.     atom                  positions (cryst. coord.)
         1           Mg  tau(   1) = (  0.5000000  0.5000000  0.1000000  )
         2           Zn  tau(   2) = (  0.5000000  0.5000000  0.3050370  )
         3           Zn  tau(   3) = (  0.5000000  0.5000000  0.5006850  )
         4           Zn  tau(   4) = (  0.5000000  0.5000000  0.6993150  )
         5           Zn  tau(   5) = (  0.5000000  0.5000000  0.8949630  )
         6           Ag  tau(   6) = (  0.0000000  0.0000000  0.9913130  )
         7           Ag  tau(   7) = (  0.0000000  0.0000000  0.2086870  )
         8           Ag  tau(   8) = (  0.0000000  0.0000000  0.4027420  )
         9           Ag  tau(   9) = (  0.0000000  0.0000000  0.6000000  )
        10           Ag  tau(  10) = (  0.0000000  0.0000000  0.7972580  )

     number of k points=     1  Methfessel-Paxton smearing, width (Ry)=  0.0010
                       cart. coord. in units 2pi/alat
        k(    1) = (   0.0000000   0.0000000   0.0000000), wk =   2.0000000

                       cryst. coord.
        k(    1) = (   0.0000000   0.0000000   0.0000000), wk =   2.0000000

     Initial potential from superposition of free atoms

     starting charge     176.9971, renormalised to     177.0000
     Starting wfcs are  106 randomized atomic wfcs +    1 random wfcs
     Checking if some PAW data can be deallocated...

     Self-consistent Calculation

     iteration #  1     ecut=    30.00 Ry     beta= 0.70
     Davidson diagonalization with overlap

     ethr =  1.00E-02,  avg # of iterations =  3.0

     Threshold (ethr) on eigenvalues was too large:
     Diagonalizing with lowered threshold

     Davidson diagonalization with overlap

[...]

     total energy              =   -3316.94518725 Ry
     estimated scf accuracy    <       0.82057535 Ry

[...]

     total energy              =   -3317.30971334 Ry
     estimated scf accuracy    <       0.00000102 Ry

     iteration # 13     ecut=    30.00 Ry     beta= 0.70
     Davidson diagonalization with overlap

     ethr =  5.79E-10,  avg # of iterations =  2.0

     End of self-consistent calculation

          k = 0.0000 0.0000 0.0000 (  1584 PWs)   bands (ev):

  -112.1773-112.1765-111.9365-111.9330 -78.3165 -78.3145 -78.1491 -78.1484
   -78.0742 -66.3024 -66.3024 -66.3022 -66.3022 -66.2339 -66.2246 -66.0655
   -66.0655 -66.0619 -66.0619 -65.9835 -65.9648 -41.3841 -41.3841 -41.3804
   -41.3804 -41.3791 -41.3766 -41.2385 -41.2311 -41.1862 -41.1862 -41.1839
   -41.1839 -41.1577 -41.1114 -41.1114   5.6500   5.9669   6.5057   6.6108
     6.6197   6.7378   6.7843   6.8428   6.9179   6.9641   7.0170   7.0170
     7.0175   7.0175   7.0466   7.0477   7.0935   7.2636   7.2636   7.2799
     7.2799   7.2824   7.3155   7.9770   8.3770   9.4965   9.5187   9.6870
     9.7019   9.7164   9.7713   9.8276   9.8392   9.8612   9.9674  10.4573
    10.4573  10.4676  10.4676  10.8233  10.8233  10.8397  10.8397  10.9521
    10.9676  11.0309  11.0309  11.1804  11.1953  11.2824  12.4578  12.7109
    15.6608  15.8063  18.6901  20.7079  20.7079  21.3074  21.3074  22.0946
    22.0946  23.0329  23.5131  23.7647  23.7647  24.5288  24.5288  25.5844
    25.6209  25.6697  25.6861

     occupation numbers
     1.0000   1.0000   1.0000   1.0000   1.0000   1.0000   1.0000   1.0000
     1.0000   1.0000   1.0000   1.0000   1.0000   1.0000   1.0000   1.0000
     1.0000   1.0000   1.0000   1.0000   1.0000   1.0000   1.0000   1.0000
     1.0000   1.0000   1.0000   1.0000   1.0000   1.0000   1.0000   1.0000
     1.0000   1.0000   1.0000   1.0000   1.0000   1.0000   1.0000   1.0000
     1.0000   1.0000   1.0000   1.0000   1.0000   1.0000   1.0000   1.0000
     1.0000   1.0000   1.0000   1.0000   1.0000   1.0000   1.0000   1.0000
     1.0000   1.0000   1.0000   1.0000   1.0000   1.0000   1.0000   1.0000
     1.0000   1.0000   1.0000   1.0000   1.0000   1.0000   1.0000   1.0000
     1.0000   1.0000   1.0000   1.0000   1.0000   1.0000   1.0000   1.0000
     1.0000   1.0000   1.0000   1.0000   1.0000   1.0000   1.0000   1.0000
     0.5000  -0.0000  -0.0000  -0.0000  -0.0000  -0.0000  -0.0000  -0.0000
    -0.0000  -0.0000  -0.0000  -0.0000  -0.0000  -0.0000  -0.0000  -0.0000
    -0.0000  -0.0000  -0.0000

     the Fermi energy is    15.6608 ev

!    total energy              =   -3317.30971311 Ry
     estimated scf accuracy    <       0.00000061 Ry
     smearing contrib. (-TS)   =      -0.00028209 Ry
     internal energy E=F+TS    =   -3317.30943102 Ry

     The total energy is F=E-TS. E is the sum of the following terms:
     one-electron contribution =   -2775.51244194 Ry
     hartree contribution      =    1456.05682973 Ry
     xc contribution           =    -305.93373763 Ry
     ewald contribution        =   -1660.62621726 Ry
     one-center paw contrib.   =     -31.29386391 Ry
      -> PAW hartree energy AE =       0.87277147 Ry
      -> PAW hartree energy PS =      -0.87087897 Ry
      -> PAW xc energy AE      =     -32.65315412 Ry
      -> PAW xc energy PS      =       1.35739771 Ry
      -> total E_H with PAW    =    1456.05872223 Ry
      -> total E_XC with PAW   =    -337.22949404 Ry

     convergence has been achieved in  13 iterations

     Forces acting on atoms (cartesian axes, Ry/au):

     atom    1 type  1   force =     0.00000000    0.00000000   -0.00011225
     atom    2 type  2   force =     0.00000000    0.00000000   -0.00361355
     atom    3 type  2   force =     0.00000000    0.00000000    0.00252372
     atom    4 type  2   force =     0.00000000    0.00000000   -0.00456402
     atom    5 type  2   force =     0.00000000    0.00000000    0.00618457
     atom    6 type  3   force =     0.00000000    0.00000000   -0.00312824
     atom    7 type  3   force =     0.00000000    0.00000000    0.00286320
     atom    8 type  3   force =     0.00000000    0.00000000   -0.01513125
     atom    9 type  3   force =     0.00000000    0.00000000   -0.00019329
     atom   10 type  3   force =     0.00000000    0.00000000    0.01517111
     The non-local contrib.  to forces
     atom    1 type  1   force =     0.00000000    0.00000000   -0.00008250
     atom    2 type  2   force =     0.00000000    0.00000000    0.17078772
     atom    3 type  2   force =     0.00000000    0.00000000   -0.25848159
     atom    4 type  2   force =     0.00000000    0.00000000    0.25715149
     atom    5 type  2   force =     0.00000000    0.00000000   -0.16857066
     atom    6 type  3   force =     0.00000000    0.00000000   -0.19420737
     atom    7 type  3   force =     0.00000000    0.00000000    0.19418423
     atom    8 type  3   force =     0.00000000    0.00000000   -0.05991634
     atom    9 type  3   force =     0.00000000    0.00000000    0.00029405
     atom   10 type  3   force =     0.00000000    0.00000000    0.05975408
     The ionic contribution  to forces
     atom    1 type  1   force =     0.00000000    0.00000000   -0.00000000
     atom    2 type  2   force =    -0.00000000   -0.00000000  -91.31824456
     atom    3 type  2   force =     0.00000000    0.00000000  -27.98413755
     atom    4 type  2   force =    -0.00000000   -0.00000000   27.98413755
     atom    5 type  2   force =    -0.00000000   -0.00000000   91.31824456
     atom    6 type  3   force =     0.00000000    0.00000000  105.10278656
     atom    7 type  3   force =     0.00000000    0.00000000 -105.10278656
     atom    8 type  3   force =     0.00000000    0.00000000  -55.52982726
     atom    9 type  3   force =     0.00000000    0.00000000   -0.00000000
     atom   10 type  3   force =     0.00000000    0.00000000   55.52982726
     The local contribution  to forces
     atom    1 type  1   force =    -0.00000008   -0.00000013    0.00016133
     atom    2 type  2   force =     0.00000047   -0.00000068   91.14450346
     atom    3 type  2   force =    -0.00000017   -0.00000016   28.24800339
     atom    4 type  2   force =     0.00000003    0.00000000  -28.24507119
     atom    5 type  2   force =    -0.00000025    0.00000068  -91.14912943
     atom    6 type  3   force =     0.00000343   -0.00000846 -104.91341520
     atom    7 type  3   force =    -0.00000435    0.00000463  104.91325487
     atom    8 type  3   force =    -0.00000003    0.00000038   55.57462860
     atom    9 type  3   force =     0.00000057   -0.00000029    0.00478504
     atom   10 type  3   force =    -0.00000014    0.00000002  -55.57954155
     The core correction contribution to forces
     atom    1 type  1   force =    -0.00000001   -0.00000001    0.00000864
     atom    2 type  2   force =     0.00000000    0.00000000    0.00000000
     atom    3 type  2   force =     0.00000000    0.00000000    0.00000000
     atom    4 type  2   force =     0.00000000    0.00000000    0.00000000
     atom    5 type  2   force =     0.00000000    0.00000000    0.00000000
     atom    6 type  3   force =     0.00000000    0.00000000    0.00000000
     atom    7 type  3   force =     0.00000000    0.00000000    0.00000000
     atom    8 type  3   force =     0.00000000    0.00000000    0.00000000
     atom    9 type  3   force =     0.00000000    0.00000000    0.00000000
     atom   10 type  3   force =     0.00000000    0.00000000    0.00000000
     The Hubbard contrib.    to forces
     atom    1 type  1   force =     0.00000000    0.00000000    0.00000000
     atom    2 type  2   force =     0.00000000    0.00000000    0.00000000
     atom    3 type  2   force =     0.00000000    0.00000000    0.00000000
     atom    4 type  2   force =     0.00000000    0.00000000    0.00000000
     atom    5 type  2   force =     0.00000000    0.00000000    0.00000000
     atom    6 type  3   force =     0.00000000    0.00000000    0.00000000
     atom    7 type  3   force =     0.00000000    0.00000000    0.00000000
     atom    8 type  3   force =     0.00000000    0.00000000    0.00000000
     atom    9 type  3   force =     0.00000000    0.00000000    0.00000000
     atom   10 type  3   force =     0.00000000    0.00000000    0.00000000
     The SCF correction term to forces
     atom    1 type  1   force =     0.00000000    0.00000001   -0.00009091
     atom    2 type  2   force =    -0.00000065    0.00000139   -0.00055136
     atom    3 type  2   force =     0.00000018    0.00000064   -0.00275172
     atom    4 type  2   force =    -0.00000030    0.00000036   -0.00067306
     atom    5 type  2   force =     0.00000071   -0.00000102    0.00574890
     atom    6 type  3   force =    -0.00000352    0.00000930    0.00181657
     atom    7 type  3   force =     0.00000470   -0.00000503   -0.00168053
     atom    8 type  3   force =    -0.00000006   -0.00000063    0.00009255
     atom    9 type  3   force =    -0.00000060    0.00000033   -0.00516359
     atom   10 type  3   force =     0.00000034   -0.00000025    0.00524012

     Total force =     0.023572     Total SCF correction =     0.010082
     SCF correction compared to forces is large: reduce conv_thr to get better values

     Computing stress (Cartesian axis) and pressure

          total   stress  (Ry/bohr**3)                   (kbar)     P=    -1257.40
  -0.01015402   0.00000000   0.00000000        -1493.71        0.00        0.00
   0.00000000  -0.01015402   0.00000000            0.00    -1493.71        0.00
   0.00000000   0.00000000  -0.00533483            0.00        0.00     -784.78

     kinetic stress (kbar)  55156.35      0.00      0.00
                                0.00  55156.35      0.00
                                0.00      0.00  55927.51

     local   stress (kbar) -93171.17      0.00      0.00
                                0.00 -93171.17     -0.00
                                0.00     -0.00  93566.30

     nonloc. stress (kbar)  -4174.10      0.00      0.00
                                0.00  -4174.10      0.00
                                0.00      0.00  -4139.90

     hartree stress (kbar)  94034.28     -0.00     -0.00
                               -0.00  94034.28      0.00
                               -0.00      0.00   1860.71

     exc-cor stress (kbar) -12592.17     -0.00     -0.00
                               -0.00 -12592.17      0.00
                               -0.00      0.00 -12590.88

     corecor stress (kbar)    -96.27      0.00     -0.00
                                0.00    -96.27     -0.00
                               -0.00     -0.00    -96.28

     ewald   stress (kbar) -40650.62      0.00      0.00
                                0.00 -40650.62      0.00
                                0.00      0.00-135312.23

     hubbard stress (kbar)      0.00      0.00      0.00
                                0.00      0.00      0.00
                                0.00      0.00      0.00

     DFT-D   stress (kbar)      0.00      0.00      0.00
                                0.00      0.00      0.00
                                0.00      0.00      0.00

     XDM     stress (kbar)      0.00      0.00      0.00
                                0.00      0.00      0.00
                                0.00      0.00      0.00

     dft-nl  stress (kbar)      0.00      0.00      0.00
                                0.00      0.00      0.00
                                0.00      0.00      0.00

     TS-vdW  stress (kbar)      0.00      0.00      0.00
                                0.00      0.00      0.00
                                0.00      0.00      0.00

[...]

                                0.00      0.00      0.00

     Writing all to output data dir new_calculations/myprefix.save/

     General routines

     Parallel routines

     PAW routines

   This run was terminated on:  11:10:31  20May2023

   JOB DONE.