     Program PWSCF v.7.0 starts on 20May2023 at 23:19: 9

     Reading input from espresso_15361.pwi
Warning: card &CELL ignored
Warning: card / ignored

     Current dimensions of program PWSCF are:
     Max number of different atomic species (ntypx) = 10
     Max number of k-points (npk) =  40000
     Max angular momentum in pseudopotentials (lmaxx) =  4

     gamma-point specific algorithms are used
     Message from routine setup:
     using ibrav=0 with symmetry is DISCOURAGED, use correct ibrav instead

     Subspace diagonalization in iterative solution of the eigenvalue problem:
     a serial algorithm will be used

     Using Slab Decomposition

     bravais-lattice index     =            0
     lattice parameter (alat)  =       6.3999  a.u.
     unit-cell volume          =     790.1174 (a.u.)^3
     number of atoms/cell      =            6
     number of atomic types    =            2
     number of electrons       =        60.00
     number of Kohn-Sham states=           36
     kinetic-energy cutoff     =      30.0000  Ry
     charge density cutoff     =     240.0000  Ry
     scf convergence threshold =      1.0E-06
     mixing beta               =       0.7000
     number of iterations used =            8  plain     mixing
     Exchange-correlation=  SLA  PW   PBX  PBC
                           (   1   4   3   4   0   0   0)

     celldm(1)=   6.399895  celldm(2)=   0.000000  celldm(3)=   0.000000
     celldm(4)=   0.000000  celldm(5)=   0.000000  celldm(6)=   0.000000

     crystal axes: (cart. coord. in units of alat)
               a(1) = (   1.000000   0.000000   0.000000 )
               a(2) = (  -0.500000   0.866025   0.000000 )
               a(3) = (   0.000000   0.000000   3.480507 )

     reciprocal axes: (cart. coord. in units 2 pi/alat)
               b(1) = (  1.000000  0.577351  0.000000 )
               b(2) = (  0.000000  1.154701  0.000000 )
               b(3) = (  0.000000  0.000000  0.287314 )

     PseudoPot. # 1 for Hf read from file:
     /home/pragov/projects/rrg-bengioy-ad/pragov/crystal_structure_design/SSSP/Hf-sp.oncvpsp.upf
     MD5 check sum: 417ed15784afe83d2e06dacf143de3f8
     Pseudo is Norm-conserving + core correction, Zval = 12.0
     Generated using ONCVPSP code by D. R. Hamann
     Using radial grid of 1656 points,  8 beta functions with:
                l(1) =   0
                l(2) =   0
                l(3) =   1
                l(4) =   1
                l(5) =   2
                l(6) =   2
                l(7) =   3
                l(8) =   3

     PseudoPot. # 2 for S  read from file:
     /home/pragov/projects/rrg-bengioy-ad/pragov/crystal_structure_design/SSSP/s_pbe_v1.4.uspp.F.UPF
     MD5 check sum: 88d86576ff6df21479756cfb9bdac1df
     Pseudo is Ultrasoft + core correction, Zval =  6.0
     Generated by new atomic code, or converted to UPF format
     Using radial grid of  907 points,  6 beta functions with:
                l(1) =   0
                l(2) =   0
                l(3) =   1
                l(4) =   1
                l(5) =   2
                l(6) =   2
     Q(r) pseudized with  8 coefficients,  rinner =    1.300   1.300   1.300
                                                       1.300   1.300

     atomic species   valence    mass     pseudopotential
        Hf            12.00   178.49000     Hf( 1.00)
        S              6.00    32.06000     S ( 1.00)

     24 Sym. Ops., with inversion, found (12 have fractional translation)

                                    s                        frac. trans.

      isym =  1     identity

 cryst.   s( 1) = (     1          0          0      )
                  (     0          1          0      )
                  (     0          0          1      )

 cart.    s( 1) = (  1.0000000  0.0000000  0.0000000 )
                  (  0.0000000  1.0000000  0.0000000 )
                  (  0.0000000  0.0000000  1.0000000 )

      isym =  2     180 deg rotation - cart. axis [0,0,1]

 cryst.   s( 2) = (    -1          0          0      )    f =( -0.0000000 )
                  (     0         -1          0      )       (  0.0000000 )
                  (     0          0          1      )       (  0.5000000 )

 cart.    s( 2) = ( -1.0000000 -0.0000000  0.0000000 )    f =( -0.0000000 )
                  (  0.0000000 -1.0000000  0.0000000 )       (  0.0000000 )
                  (  0.0000000  0.0000000  1.0000000 )       (  1.7402534 )

[...]

      isym =  4     180 deg rotation - cart. axis [1,0,0]

[...]

      isym =  5      60 deg rotation - cryst. axis [0,0,1]

[...]

 cryst.   s( 8) = (    -1         -1          0      )
                  (     1          0          0      )
                  (     0          0          1      )

 cart.    s( 8) = ( -0.4999998  0.8660255  0.0000000 )
                  ( -0.8660253 -0.5000002  0.0000000 )
                  (  0.0000000  0.0000000  1.0000000 )

[...]

 cryst.   s( 9) = (     0         -1          0      )    f =(  0.0000000 )
                  (    -1          0          0      )       (  0.0000000 )
                  (     0          0         -1      )       (  0.5000000 )

 cart.    s( 9) = (  0.5000002 -0.8660253  0.0000000 )    f =(  0.0000000 )
                  ( -0.8660253 -0.5000002  0.0000000 )       (  0.0000000 )
                  (  0.0000000  0.0000000 -1.0000000 )       (  1.7402534 )

[...]

 cryst.   s(10) = (     1          1          0      )    f =(  0.0000000 )
                  (     0         -1          0      )       (  0.0000010 )
                  (     0          0         -1      )       (  0.5000000 )

 cart.    s(10) = (  0.4999998  0.8660258  0.0000000 )    f =( -0.0000005 )
                  (  0.8660253 -0.4999998  0.0000000 )       (  0.0000009 )
                  (  0.0000000  0.0000000 -1.0000000 )       (  1.7402534 )

[...]

 cryst.   s(11) = (    -1         -1          0      )
                  (     0          1          0      )
                  (     0          0         -1      )

 cart.    s(11) = ( -0.4999998 -0.8660258  0.0000000 )
                  ( -0.8660253  0.4999998  0.0000000 )
                  (  0.0000000  0.0000000 -1.0000000 )

      isym = 12     180 deg rotation - cryst. axis [1,1,0]

[...]

      isym = 13     inversion

[...]

      isym = 14     inv. 180 deg rotation - cart. axis [0,0,1]

[...]

      isym = 16     inv. 180 deg rotation - cart. axis [1,0,0]

[...]

      isym = 17     inv.  60 deg rotation - cryst. axis [0,0,1]

[...]

 cryst.   s(22) = (    -1         -1          0      )    f =( -0.0000000 )
                  (     0          1          0      )       (  0.0000010 )
                  (     0          0          1      )       (  0.5000000 )

 cart.    s(22) = ( -0.4999998 -0.8660258  0.0000000 )    f =( -0.0000005 )
                  ( -0.8660253  0.4999998  0.0000000 )       (  0.0000009 )
                  (  0.0000000  0.0000000  1.0000000 )       (  1.7402534 )

[...]

      isym = 24     inv. 180 deg rotation - cryst. axis [1,1,0]

 cryst.   s(24) = (     0         -1          0      )
                  (    -1          0          0      )
                  (     0          0          1      )

 cart.    s(24) = (  0.5000002 -0.8660253  0.0000000 )
                  ( -0.8660253 -0.5000002  0.0000000 )
                  (  0.0000000  0.0000000  1.0000000 )

   Cartesian axes

     site n.     atom                  positions (alat units)
         1           Hf  tau(   1) = (   0.5000004   0.2886748   3.1307958  )
         2           Hf  tau(   2) = (  -0.0000006   0.5773505   1.3905425  )
         3           Hf  tau(   3) = (   0.5000004   0.2886748   2.0899642  )
         4           Hf  tau(   4) = (  -0.0000006   0.5773505   0.3497109  )
         5           S   tau(   5) = (   0.0000000   0.0000000   2.6103800  )
         6           S   tau(   6) = (   0.0000000   0.0000000   0.8701267  )

   Crystallographic axes

     site n.     atom                  positions (cryst. coord.)
         1           Hf  tau(   1) = (  0.6666670  0.3333330  0.8995230  )
         2           Hf  tau(   2) = (  0.3333330  0.6666670  0.3995230  )
         3           Hf  tau(   3) = (  0.6666670  0.3333330  0.6004770  )
         4           Hf  tau(   4) = (  0.3333330  0.6666670  0.1004770  )
         5           S   tau(   5) = (  0.0000000  0.0000000  0.7500000  )
         6           S   tau(   6) = (  0.0000000  0.0000000  0.2500000  )

     number of k points=     1  Methfessel-Paxton smearing, width (Ry)=  0.0010
                       cart. coord. in units 2pi/alat
        k(    1) = (   0.0000000   0.0000000   0.0000000), wk =   2.0000000

                       cryst. coord.
        k(    1) = (   0.0000000   0.0000000   0.0000000), wk =   2.0000000

     Initial potential from superposition of free atoms

     starting charge      59.9925, renormalised to      60.0000
     Starting wfcs are   48 randomized atomic wfcs

     Self-consistent Calculation

     iteration #  1     ecut=    30.00 Ry     beta= 0.70
     Davidson diagonalization with overlap

     ethr =  1.00E-02,  avg # of iterations =  2.0

     Threshold (ethr) on eigenvalues was too large:
     Diagonalizing with lowered threshold

     Davidson diagonalization with overlap

[...]

     total energy              =    -498.75359087 Ry
     estimated scf accuracy    <       0.37313210 Ry

[...]

     total energy              =    -498.83174600 Ry
     estimated scf accuracy    <       0.00000181 Ry

     iteration # 24     ecut=    30.00 Ry     beta= 0.70
     Davidson diagonalization with overlap

     ethr =  2.82E-09,  avg # of iterations =  1.0

     End of self-consistent calculation

          k = 0.0000 0.0000 0.0000 (  1112 PWs)   bands (ev):

   -47.6180 -47.5879 -47.5538 -47.5519 -16.6002 -16.4882 -16.2859 -16.2858
   -16.2797 -16.2797 -16.1908 -16.1908 -16.1883 -16.1883 -16.1445 -16.0082
    -0.4624  -0.3272   6.7729   7.9121   9.6574  11.2435  11.2435  11.3380
    11.4427  11.4427  12.9354  14.3541  14.4180  14.8224  14.8224  14.8690
    14.8691  15.1951  15.1951  16.3446

     occupation numbers
     1.0000   1.0000   1.0000   1.0000   1.0000   1.0000   1.0000   1.0000
     1.0000   1.0000   1.0000   1.0000   1.0000   1.0000   1.0000   1.0000
     1.0000   1.0000   1.0000   1.0000   1.0000   1.0000   1.0000   1.0000
     1.0000   1.0000   1.0000   1.0000   1.0000   0.5010   0.4990  -0.0000
    -0.0000  -0.0000  -0.0000  -0.0000

     the Fermi energy is    14.8224 ev

!    total energy              =    -498.83174529 Ry
     estimated scf accuracy    <       0.00000084 Ry
     smearing contrib. (-TS)   =      -0.00056409 Ry
     internal energy E=F+TS    =    -498.83118120 Ry

     The total energy is F=E-TS. E is the sum of the following terms:
     one-electron contribution =     -77.32140565 Ry
     hartree contribution      =      63.50056172 Ry
     xc contribution           =    -131.67223896 Ry
     ewald contribution        =    -353.33809831 Ry

     convergence has been achieved in  24 iterations

     Forces acting on atoms (cartesian axes, Ry/au):

     atom    1 type  1   force =    -0.00000000    0.00000000   -0.13298072
     atom    2 type  1   force =     0.00000000    0.00000000   -0.13298072
     atom    3 type  1   force =    -0.00000000   -0.00000000    0.13298072
     atom    4 type  1   force =     0.00000000   -0.00000000    0.13298072
     atom    5 type  2   force =     0.00000000    0.00000000    0.00000000
     atom    6 type  2   force =    -0.00000000    0.00000000    0.00000000
     The non-local contrib.  to forces
     atom    1 type  1   force =    -0.00000000   -0.00000000   -0.28094519
     atom    2 type  1   force =     0.00000000    0.00000000   -0.28094519
     atom    3 type  1   force =    -0.00000000    0.00000000    0.28094519
     atom    4 type  1   force =     0.00000000    0.00000000    0.28094519
     atom    5 type  2   force =     0.00000000    0.00000000    0.00000000
     atom    6 type  2   force =    -0.00000000   -0.00000000    0.00000000
     The ionic contribution  to forces
     atom    1 type  1   force =    -0.00000565    0.00000326   -0.24533077
     atom    2 type  1   force =     0.00000565   -0.00000326   -0.24533077
     atom    3 type  1   force =    -0.00000565    0.00000326    0.24533077
     atom    4 type  1   force =     0.00000565   -0.00000326    0.24533077
     atom    5 type  2   force =     0.00000361   -0.00000208    0.00000000
     atom    6 type  2   force =    -0.00000361    0.00000208    0.00000000
     The local contribution  to forces
     atom    1 type  1   force =     0.00002281    0.00004830    0.38299681
     atom    2 type  1   force =    -0.00005180   -0.00000244    0.38768522
     atom    3 type  1   force =     0.00006291    0.00002027   -0.38619626
     atom    4 type  1   force =    -0.00002564   -0.00004038   -0.38421949
     atom    5 type  2   force =    -0.00001940   -0.00005712   -0.00159197
     atom    6 type  2   force =     0.00001254    0.00004356    0.00142168
     The core correction contribution to forces
     atom    1 type  1   force =     0.00000339    0.00000783    0.00827720
     atom    2 type  1   force =    -0.00000477   -0.00000572    0.00826841
     atom    3 type  1   force =     0.00000598    0.00000665   -0.00826411
     atom    4 type  1   force =    -0.00000435   -0.00000688   -0.00827306
     atom    5 type  2   force =     0.00000020   -0.00000008    0.00000593
     atom    6 type  2   force =    -0.00000012    0.00000011   -0.00000715
     The Hubbard contrib.    to forces
     atom    1 type  1   force =     0.00000000    0.00000000    0.00000000
     atom    2 type  1   force =     0.00000000    0.00000000    0.00000000
     atom    3 type  1   force =     0.00000000    0.00000000    0.00000000
     atom    4 type  1   force =     0.00000000    0.00000000    0.00000000
     atom    5 type  2   force =     0.00000000    0.00000000    0.00000000
     atom    6 type  2   force =     0.00000000    0.00000000    0.00000000
     The SCF correction term to forces
     atom    1 type  1   force =     0.00000754   -0.00001026    0.00205834
     atom    2 type  1   force =     0.00002182   -0.00003287   -0.00268071
     atom    3 type  1   force =    -0.00002966    0.00001944    0.00122219
     atom    4 type  1   force =    -0.00000403    0.00000247   -0.00084501
     atom    5 type  2   force =     0.00000886    0.00003772    0.00166047
     atom    6 type  2   force =    -0.00000417   -0.00002818   -0.00150492

     Total force =     0.265961     Total SCF correction =     0.004319

     Computing stress (Cartesian axis) and pressure

          total   stress  (Ry/bohr**3)                   (kbar)     P=      105.35
   0.00076244   0.00000000   0.00000000          112.16        0.00        0.00
   0.00000000   0.00076244   0.00000000            0.00      112.16        0.00
   0.00000000   0.00000000   0.00062350            0.00        0.00       91.72

     kinetic stress (kbar)  16472.65      0.00      0.00
                                0.00  16472.65     -0.00
                                0.00     -0.00  16709.99

     local   stress (kbar)   -517.61      0.08      0.03
                                0.08   -518.06     -0.04
                                0.03     -0.04  -4535.33

     nonloc. stress (kbar)   8587.18      0.00     -0.00
                                0.00   8587.18     -0.00
                                0.00      0.00   8650.76

     hartree stress (kbar)   3613.72     -0.02     -0.01
                               -0.02   3613.84      0.01
                               -0.01      0.01   4595.06

     exc-cor stress (kbar)   8193.71     -0.00     -0.00
                               -0.00   8193.71      0.00
                               -0.00      0.00   8207.82

     corecor stress (kbar) -13392.65      0.00      0.00
                                0.00 -13392.67     -0.00
                                0.00     -0.00 -13440.97

     ewald   stress (kbar) -22844.66     -0.00     -0.00
                               -0.00 -22844.66      0.00
                               -0.00      0.00 -20095.62

     hubbard stress (kbar)      0.00      0.00      0.00
                                0.00      0.00      0.00
                                0.00      0.00      0.00

     DFT-D   stress (kbar)      0.00      0.00      0.00
                                0.00      0.00      0.00
                                0.00      0.00      0.00

     XDM     stress (kbar)      0.00      0.00      0.00
                                0.00      0.00      0.00
                                0.00      0.00      0.00

     dft-nl  stress (kbar)      0.00      0.00      0.00
                                0.00      0.00      0.00
                                0.00      0.00      0.00

     TS-vdW  stress (kbar)      0.00      0.00      0.00
                                0.00      0.00      0.00
                                0.00      0.00      0.00

[...]

                                0.00      0.00      0.00

     Writing all to output data dir new_calculations/myprefix.save/

     General routines

     Parallel routines

   This run was terminated on:  23:19:58  20May2023

   JOB DONE.