     Program PWSCF v.7.0 starts on 21May2023 at 13: 9:38

     Reading input from espresso_26741.pwi
Warning: card &CELL ignored
Warning: card / ignored

     Current dimensions of program PWSCF are:
     Max number of different atomic species (ntypx) = 10
     Max number of k-points (npk) =  40000
     Max angular momentum in pseudopotentials (lmaxx) =  4
     file C.pbe-n-kjpaw_psl.1.0.0.UPF: wavefunction(s)  2S 2P renormalized
     file O.pbe-n-kjpaw_psl.0.1.UPF: wavefunction(s)  2P renormalized

     gamma-point specific algorithms are used

     Subspace diagonalization in iterative solution of the eigenvalue problem:
     a serial algorithm will be used

     Using Slab Decomposition

     bravais-lattice index     =            0
     lattice parameter (alat)  =      10.9843  a.u.
     unit-cell volume          =    1003.4500 (a.u.)^3
     number of atoms/cell      =            8
     number of atomic types    =            4
     number of electrons       =        56.00
     number of Kohn-Sham states=           34
     kinetic-energy cutoff     =      30.0000  Ry
     charge density cutoff     =     240.0000  Ry
     scf convergence threshold =      1.0E-06
     mixing beta               =       0.7000
     number of iterations used =            8  plain     mixing
     Exchange-correlation= SLA  PW   PBX  PBC
                           (   1   4   3   4   0   0   0)

     celldm(1)=  10.984288  celldm(2)=   0.000000  celldm(3)=   0.000000
     celldm(4)=   0.000000  celldm(5)=   0.000000  celldm(6)=   0.000000

     crystal axes: (cart. coord. in units of alat)
               a(1) = (   1.000000   0.000000   0.000000 )
               a(2) = (  -0.189034   0.981971   0.000000 )
               a(3) = (  -0.404545  -0.491760   0.771048 )

     reciprocal axes: (cart. coord. in units 2 pi/alat)
               b(1) = (  1.000000  0.192504  0.647445 )
               b(2) = (  0.000000  1.018360  0.649491 )
               b(3) = (  0.000000  0.000000  1.296936 )

     PseudoPot. # 1 for Tl read from file:
     /home/pragov/projects/rrg-bengioy-ad/pragov/crystal_structure_design/SSSP/Tl_pbe_v1.2.uspp.F.UPF
     MD5 check sum: b76cf1f7e72655a2b2c53cf6385d7059
     Pseudo is Ultrasoft + core correction, Zval = 13.0
     Generated by new atomic code, or converted to UPF format
     Using radial grid of  899 points,  6 beta functions with:
                l(1) =   0
                l(2) =   0
                l(3) =   1
                l(4) =   1
                l(5) =   2
                l(6) =   2
     Q(r) pseudized with  6 coefficients,  rinner =    1.100   1.100   1.100
                                                       1.100   1.100

     PseudoPot. # 2 for C  read from file:
     /home/pragov/projects/rrg-bengioy-ad/pragov/crystal_structure_design/SSSP/C.pbe-n-kjpaw_psl.1.0.0.UPF
     MD5 check sum: 5d2aebdfa2cae82b50a7e79e9516da0f
     Pseudo is Projector augmented-wave + core cor, Zval =  4.0
     Generated using "atomic" code by A. Dal Corso  v.5.1
     Shape of augmentation charge: PSQ
     Using radial grid of 1073 points,  4 beta functions with:
                l(1) =   0
                l(2) =   0
                l(3) =   1
                l(4) =   1
     Q(r) pseudized with 0 coefficients

     PseudoPot. # 3 for N  read from file:
     /home/pragov/projects/rrg-bengioy-ad/pragov/crystal_structure_design/SSSP/N.pbe-n-radius_5.UPF
     MD5 check sum: 16739722b17309cd8fe442a2ace49922
     Pseudo is Ultrasoft + core correction, Zval =  5.0
     Generated using "atomic" code by A. Dal Corso  v.5.1
     Using radial grid of 1085 points,  4 beta functions with:
                l(1) =   0
                l(2) =   0
                l(3) =   1
                l(4) =   1
     Q(r) pseudized with 0 coefficients

     PseudoPot. # 4 for O  read from file:
     /home/pragov/projects/rrg-bengioy-ad/pragov/crystal_structure_design/SSSP/O.pbe-n-kjpaw_psl.0.1.UPF
     MD5 check sum: 0234752ac141de4415c5fc33072bef88
     Pseudo is Projector augmented-wave + core cor, Zval =  6.0
     Generated using "atomic" code by A. Dal Corso  v.5.0.99 svn rev. 10869
     Shape of augmentation charge: BESSEL
     Using radial grid of 1095 points,  4 beta functions with:
                l(1) =   0
                l(2) =   0
                l(3) =   1
                l(4) =   1
     Q(r) pseudized with 0 coefficients

     atomic species   valence    mass     pseudopotential
        Tl            13.00   204.38000     Tl( 1.00)
        C              4.00    12.01100     C ( 1.00)
        N              5.00    14.00700     N ( 1.00)
        O              6.00    15.99900     O ( 1.00)

     No symmetry found

                                    s                        frac. trans.

      isym =  1     identity

 cryst.   s( 1) = (     1          0          0      )
                  (     0          1          0      )
                  (     0          0          1      )

 cart.    s( 1) = (  1.0000000  0.0000000  0.0000000 )
                  (  0.0000000  1.0000000 -0.0000000 )
                  (  0.0000000  0.0000000  1.0000000 )

   Cartesian axes

     site n.     atom                  positions (alat units)
         1           Tl  tau(   1) = (   0.1452118  -0.1199241   0.1880332  )
         2           Tl  tau(   2) = (   0.5506950   0.3710612   0.1880332  )
         3           C   tau(   3) = (  -0.3478344  -0.1256668   0.5781667  )
         4           C   tau(   4) = (   0.0547283   0.3677303   0.5819602  )
         5           N   tau(   5) = (  -0.1883112  -0.2574101   0.5802099  )
         6           N   tau(   6) = (   0.4611009   0.8579819   0.0177989  )
         7           O   tau(   7) = (   0.4893115   0.0088272   0.5792423  )
         8           O   tau(   8) = (   0.0553003   0.3672571   0.3707485  )

   Crystallographic axes

     site n.     atom                  positions (cryst. coord.)
         1           Tl  tau(   1) = (  0.2438670  0.0000000  0.2438670  )
         2           Tl  tau(   2) = (  0.7438670  0.5000000  0.2438670  )
         3           C   tau(   3) = (  0.0023050  0.2475400  0.7498450  )
         4           C   tau(   4) = (  0.5023050  0.7524600  0.7547650  )
         5           N   tau(   5) = (  0.1377900  0.1147050  0.7524950  )
         6           N   tau(   6) = (  0.6377900  0.8852950  0.0230840  )
         7           O   tau(   7) = (  0.8660380  0.3852020  0.7512400  )
         8           O   tau(   8) = (  0.3660380  0.6147980  0.4808370  )

     number of k points=     1  Methfessel-Paxton smearing, width (Ry)=  0.0010
                       cart. coord. in units 2pi/alat
        k(    1) = (   0.0000000   0.0000000   0.0000000), wk =   2.0000000

                       cryst. coord.
        k(    1) = (   0.0000000   0.0000000   0.0000000), wk =   2.0000000

     Check: negative core charge=   -0.000013

     Initial potential from superposition of free atoms

     starting charge      55.9902, renormalised to      56.0000

     negative rho (up, down):  1.004E-01 0.000E+00
     Starting wfcs are   42 randomized atomic wfcs
     Checking if some PAW data can be deallocated...

     Self-consistent Calculation

     iteration #  1     ecut=    30.00 Ry     beta= 0.70
     Davidson diagonalization with overlap

     ethr =  1.00E-02,  avg # of iterations =  2.0

     negative rho (up, down):  1.005E-01 0.000E+00

     total energy              =    -449.99186784 Ry
     estimated scf accuracy    <       1.12744382 Ry

[...]

     c_bands:  1 eigenvalues not converged
     ethr =  1.71E-06,  avg # of iterations = 20.0

[...]

     c_bands:  1 eigenvalues not converged
     ethr =  8.41E-07,  avg # of iterations = 20.0

[...]

     total energy              =    -450.48319436 Ry
     estimated scf accuracy    <       0.00000423 Ry

     iteration #  9     ecut=    30.00 Ry     beta= 0.70
     Davidson diagonalization with overlap

     ethr =  7.56E-09,  avg # of iterations =  2.0

[...]

     End of self-consistent calculation

          k = 0.0000 0.0000 0.0000 (  1411 PWs)   bands (ev):

   -18.0847 -18.0207 -13.1276 -13.0654  -5.9432  -5.8840  -5.8560  -5.8108
    -5.8100  -5.7545  -5.7318  -5.6974  -5.6795  -5.6301  -3.7658  -3.4919
    -1.7151  -1.6691  -1.6521  -1.4417  -0.9401   0.1239   1.2018   1.2096
     1.4719   1.8884   1.9750   2.5732   8.0116   8.4454   8.5446   8.6850
     8.7427  10.0973

     occupation numbers
     1.0000   1.0000   1.0000   1.0000   1.0000   1.0000   1.0000   1.0000
     1.0000   1.0000   1.0000   1.0000   1.0000   1.0000   1.0000   1.0000
     1.0000   1.0000   1.0000   1.0000   1.0000   1.0000   1.0000   1.0000
     1.0000   1.0000   1.0000   1.0000  -0.0000  -0.0000  -0.0000  -0.0000
    -0.0000  -0.0000

     the Fermi energy is     3.1198 ev

!    total energy              =    -450.48319556 Ry
     estimated scf accuracy    <       0.00000063 Ry
     smearing contrib. (-TS)   =       0.00000000 Ry
     internal energy E=F+TS    =    -450.48319556 Ry

     The total energy is F=E-TS. E is the sum of the following terms:
     one-electron contribution =    -118.37419779 Ry
     hartree contribution      =      92.19634379 Ry
     xc contribution           =    -158.61670311 Ry
     ewald contribution        =    -234.26759565 Ry
     one-center paw contrib.   =     -31.42104280 Ry
      -> PAW hartree energy AE =      80.40663798 Ry
      -> PAW hartree energy PS =     -80.19327410 Ry
      -> PAW xc energy AE      =     -56.12340248 Ry
      -> PAW xc energy PS      =      24.48899580 Ry
      -> total E_H with PAW    =      92.40970766 Ry
      -> total E_XC with PAW   =    -190.25110978 Ry

     convergence has been achieved in   9 iterations

     negative rho (up, down):  9.938E-02 0.000E+00

     Forces acting on atoms (cartesian axes, Ry/au):

     atom    1 type  1   force =    -0.00323489    0.00278618   -0.00511110
     atom    2 type  1   force =    -0.00352030    0.00287825   -0.00511920
     atom    3 type  2   force =    -0.02038084    0.01680611   -0.00473359
     atom    4 type  2   force =    -0.00285400    0.00248712   -0.02663002
     atom    5 type  3   force =     0.05207244   -0.04310051   -0.00072573
     atom    6 type  3   force =     0.00101202   -0.00103269    0.06447463
     atom    7 type  4   force =    -0.02261653    0.01962924    0.00277606
     atom    8 type  4   force =    -0.00047790   -0.00045372   -0.02493105
     The non-local contrib.  to forces
     atom    1 type  1   force =    -0.01700776    0.01423909   -0.02205713
     atom    2 type  1   force =    -0.01745873    0.01402307   -0.02199264
     atom    3 type  2   force =    -0.34354312    0.28388736   -0.00268831
     atom    4 type  2   force =    -0.00237262    0.00297414   -0.44399010
     atom    5 type  3   force =    -1.52711803    1.26322670   -0.01063942
     atom    6 type  3   force =    -0.01220023    0.01123717   -1.98063010
     atom    7 type  4   force =     2.00293243   -1.65434743   -0.00953489
     atom    8 type  4   force =    -0.00356292    0.00154243    2.59778913
     The ionic contribution  to forces
     atom    1 type  1   force =     0.03697524   -0.03053698    0.04785943
     atom    2 type  1   force =     0.03694304   -0.03051035    0.04785948
     atom    3 type  2   force =     0.76364309   -0.63065965   -0.22292500
     atom    4 type  2   force =    -0.17068049    0.14096111    0.99075329
     atom    5 type  3   force =     5.11370989   -4.22318821   -0.11994042
     atom    6 type  3   force =    -0.08440058    0.06972133    6.63241795
     atom    7 type  4   force =    -5.55209750    4.58523273   -0.17550320
     atom    8 type  4   force =    -0.14409270    0.11898001   -7.20052154
     The local contribution  to forces
     atom    1 type  1   force =    -0.02354340    0.01916593   -0.03030465
     atom    2 type  1   force =    -0.02302621    0.01934347   -0.03047883
     atom    3 type  2   force =    -0.44823177    0.36992358    0.22167542
     atom    4 type  2   force =     0.17013814   -0.14127055   -0.58247963
     atom    5 type  3   force =    -3.54519264    2.92573958    0.13083726
     atom    6 type  3   force =     0.09763857   -0.08189611   -4.59970274
     atom    7 type  4   force =     3.54468882   -2.92634636    0.18851623
     atom    8 type  4   force =     0.14708959   -0.12089425    4.60162325
     The core correction contribution to forces
     atom    1 type  1   force =     0.00016059   -0.00016447    0.00019700
     atom    2 type  1   force =     0.00024667   -0.00008146    0.00017875
     atom    3 type  2   force =     0.00736642   -0.00607153    0.00018550
     atom    4 type  2   force =     0.00011565   -0.00018464    0.00946388
     atom    5 type  3   force =     0.01042831   -0.00867257   -0.00003001
     atom    6 type  3   force =     0.00005004   -0.00008734    0.01349516
     atom    7 type  4   force =    -0.01829920    0.01514470    0.00028354
     atom    8 type  4   force =     0.00009696   -0.00006078   -0.02365910
     The Hubbard contrib.    to forces
     atom    1 type  1   force =     0.00000000    0.00000000    0.00000000
     atom    2 type  1   force =     0.00000000    0.00000000    0.00000000
     atom    3 type  2   force =     0.00000000    0.00000000    0.00000000
     atom    4 type  2   force =     0.00000000    0.00000000    0.00000000
     atom    5 type  3   force =     0.00000000    0.00000000    0.00000000
     atom    6 type  3   force =     0.00000000    0.00000000    0.00000000
     atom    7 type  4   force =     0.00000000    0.00000000    0.00000000
     atom    8 type  4   force =     0.00000000    0.00000000    0.00000000
     The SCF correction term to forces
     atom    1 type  1   force =     0.00016432    0.00009345    0.00011821
     atom    2 type  1   force =    -0.00024119    0.00011435    0.00023801
     atom    3 type  2   force =     0.00036842   -0.00026282   -0.00005725
     atom    4 type  2   force =    -0.00007081    0.00001789    0.00054649
     atom    5 type  3   force =     0.00022879   -0.00019516   -0.00002919
     atom    6 type  3   force =    -0.00009190    0.00000310   -0.00018169
     atom    7 type  4   force =     0.00014280   -0.00004356   -0.00006167
     atom    8 type  4   force =    -0.00002495   -0.00001029    0.00076117

     Total force =     0.108583     Total SCF correction =     0.001195

     Computing stress (Cartesian axis) and pressure

     negative rho (up, down):  9.938E-02 0.000E+00
          total   stress  (Ry/bohr**3)                   (kbar)     P=     -134.67
  -0.00090938   0.00001167   0.00000048         -133.77        1.72        0.07
   0.00001167  -0.00090936  -0.00000198            1.72     -133.77       -0.29
   0.00000048  -0.00000198  -0.00092772            0.07       -0.29     -136.47

     kinetic stress (kbar)   9413.49    287.48     -3.47
                              287.48   9525.08      2.89
                               -3.47      2.89   9176.48

     local   stress (kbar)  -4069.94   2708.82    -28.10
                             2708.82  -3027.40     23.15
                              -28.10     23.15  -6306.31

     nonloc. stress (kbar)   5891.91     -6.21      2.40
                               -6.21   5888.30     -2.23
                                2.40     -2.23   5894.76

     hartree stress (kbar)   4400.77   -711.47      7.27
                             -711.47   4126.89     -5.98
                                7.27     -5.98   4988.26

     exc-cor stress (kbar)  10760.94    -10.86      0.16
                              -10.86  10756.76     -0.13
                                0.16     -0.13  10769.91

     corecor stress (kbar) -14749.70      3.00     -0.09
                                3.00 -14748.56      0.09
                               -0.09      0.09 -14752.19

     ewald   stress (kbar) -11781.24  -2269.04     21.91
                            -2269.04 -12654.84    -18.07
                               21.91    -18.07  -9907.38

     hubbard stress (kbar)      0.00      0.00      0.00
                                0.00      0.00      0.00
                                0.00      0.00      0.00

     DFT-D   stress (kbar)      0.00      0.00      0.00
                                0.00      0.00      0.00
                                0.00      0.00      0.00

     XDM     stress (kbar)      0.00      0.00      0.00
                                0.00      0.00      0.00
                                0.00      0.00      0.00

     dft-nl  stress (kbar)      0.00      0.00      0.00
                                0.00      0.00      0.00
                                0.00      0.00      0.00

     TS-vdW  stress (kbar)      0.00      0.00      0.00
                                0.00      0.00      0.00
                                0.00      0.00      0.00

[...]

                                0.00      0.00      0.00

     Writing all to output data dir new_calculations/myprefix.save/

     General routines

     Parallel routines

     PAW routines

   This run was terminated on:  13: 9:49  21May2023

   JOB DONE.