     Program PWSCF v.7.0 starts on 21May2023 at  5:16:44

     Reading input from espresso_7999.pwi
Warning: card &CELL ignored
Warning: card / ignored

     Current dimensions of program PWSCF are:
     Max number of different atomic species (ntypx) = 10
     Max number of k-points (npk) =  40000
     Max angular momentum in pseudopotentials (lmaxx) =  4
     file K.pbe-spn-kjpaw_psl.1.0.0.UPF: wavefunction(s)  3S renormalized

     gamma-point specific algorithms are used
     Message from routine setup:
     using ibrav=0 with symmetry is DISCOURAGED, use correct ibrav instead

     Subspace diagonalization in iterative solution of the eigenvalue problem:
     a serial algorithm will be used

     Using Slab Decomposition

     bravais-lattice index     =            0
     lattice parameter (alat)  =      14.7117  a.u.
     unit-cell volume          =    2451.1491 (a.u.)^3
     number of atoms/cell      =           11
     number of atomic types    =            3
     number of electrons       =        93.00
     number of Kohn-Sham states=           56
     kinetic-energy cutoff     =      30.0000  Ry
     charge density cutoff     =     240.0000  Ry
     scf convergence threshold =      1.0E-06
     mixing beta               =       0.7000
     number of iterations used =            8  plain     mixing
     Exchange-correlation=  SLA  PW   PBX  PBC
                           (   1   4   3   4   0   0   0)

     celldm(1)=  14.711734  celldm(2)=   0.000000  celldm(3)=   0.000000
     celldm(4)=   0.000000  celldm(5)=   0.000000  celldm(6)=   0.000000

     crystal axes: (cart. coord. in units of alat)
               a(1) = (   1.000000   0.000000   0.000000 )
               a(2) = (  -0.333333   0.942809   0.000000 )
               a(3) = (  -0.333333  -0.471405   0.816497 )

     reciprocal axes: (cart. coord. in units 2 pi/alat)
               b(1) = (  1.000000  0.353553  0.612372 )
               b(2) = (  0.000000  1.060660  0.612372 )
               b(3) = (  0.000000  0.000000  1.224745 )

     PseudoPot. # 1 for K  read from file:
     /home/pragov/projects/rrg-bengioy-ad/pragov/crystal_structure_design/SSSP/K.pbe-spn-kjpaw_psl.1.0.0.UPF
     MD5 check sum: 7d58810084cac21f60fbe77ea2b688fd
     Pseudo is Projector augmented-wave + core cor, Zval =  9.0
     Generated using "atomic" code by A. Dal Corso  v.5.1
     Shape of augmentation charge: PSQ
     Using radial grid of 1165 points,  6 beta functions with:
                l(1) =   0
                l(2) =   0
                l(3) =   1
                l(4) =   1
                l(5) =   2
                l(6) =   2
     Q(r) pseudized with 0 coefficients

     PseudoPot. # 2 for Mn read from file:
     /home/pragov/projects/rrg-bengioy-ad/pragov/crystal_structure_design/SSSP/mn_pbe_v1.5.uspp.F.UPF
     MD5 check sum: 82ef2b46521d7a7d9e736dc3972e4928
     Pseudo is Ultrasoft + core correction, Zval = 15.0
     Generated by new atomic code, or converted to UPF format
     Using radial grid of  859 points,  6 beta functions with:
                l(1) =   0
                l(2) =   0
                l(3) =   1
                l(4) =   1
                l(5) =   2
                l(6) =   2
     Q(r) pseudized with  8 coefficients,  rinner =    0.950   0.950   0.950
                                                       0.950   0.950

     PseudoPot. # 3 for Cl read from file:
     /home/pragov/projects/rrg-bengioy-ad/pragov/crystal_structure_design/SSSP/cl_pbe_v1.4.uspp.F.UPF
     MD5 check sum: fc6f6913ecf08c9257cb748ef0700058
     Pseudo is Ultrasoft + core correction, Zval =  7.0
     Generated by new atomic code, or converted to UPF format
     Using radial grid of  909 points,  6 beta functions with:
                l(1) =   0
                l(2) =   0
                l(3) =   1
                l(4) =   1
                l(5) =   2
                l(6) =   2
     Q(r) pseudized with  8 coefficients,  rinner =    1.300   1.300   1.300
                                                       1.300   1.300

     atomic species   valence    mass     pseudopotential
        K              9.00    39.09830     K ( 1.00)
        Mn            15.00    54.93804     Mn( 1.00)
        Cl             7.00    35.45000     Cl( 1.00)

      4 Sym. Ops., with inversion, found

                                    s                        frac. trans.

      isym =  1     identity

 cryst.   s( 1) = (     1          0          0      )
                  (     0          1          0      )
                  (     0          0          1      )

 cart.    s( 1) = (  1.0000000 -0.0000000 -0.0000000 )
                  (  0.0000000  1.0000000  0.0000000 )
                  (  0.0000000  0.0000000  1.0000000 )

      isym =  2     180 deg rotation - cart. axis [0,0,1]

[...]

      isym =  3     inversion

[...]

      isym =  4     inv. 180 deg rotation - cart. axis [0,0,1]

 cryst.   s( 4) = (     1          0          0      )
                  (     0          1          0      )
                  (    -1         -1         -1      )

 cart.    s( 4) = (  1.0000000 -0.0000000 -0.0000000 )
                  (  0.0000000  1.0000000 -0.0000000 )
                  (  0.0000000  0.0000000 -1.0000000 )

   Cartesian axes

     site n.     atom                  positions (alat units)
         1           K   tau(   1) = (  -0.1666667   0.4714045   0.0000000  )
         2           K   tau(   2) = (   0.5000000   0.0000000   0.0000000  )
         3           K   tau(   3) = (  -0.1666667  -0.2357023   0.4082483  )
         4           K   tau(   4) = (   0.1666667   0.2357023   0.4082483  )
         5           Mn  tau(   5) = (   0.0000000   0.0000000   0.0000000  )
         6           Cl  tau(   6) = (   0.4759933   0.6731562   0.0000000  )
         7           Cl  tau(   7) = (   0.4759933  -0.3365781   0.5829704  )
         8           Cl  tau(   8) = (   0.5240067   0.3365781   0.5829704  )
         9           Cl  tau(   9) = (  -0.1906733   0.1348264   0.2335262  )
        10           Cl  tau(  10) = (   0.1906733   0.2696528   0.0000000  )
        11           Cl  tau(  11) = (   0.1906733  -0.1348264   0.2335262  )

   Crystallographic axes

     site n.     atom                  positions (cryst. coord.)
         1           K   tau(   1) = ( -0.0000000  0.5000000  0.0000000  )
         2           K   tau(   2) = (  0.5000000  0.0000000  0.0000000  )
         3           K   tau(   3) = ( -0.0000000 -0.0000000  0.5000000  )
         4           K   tau(   4) = (  0.5000000  0.5000000  0.5000000  )
         5           Mn  tau(   5) = (  0.0000000  0.0000000  0.0000000  )
         6           Cl  tau(   6) = (  0.7139900  0.7139900  0.0000000  )
         7           Cl  tau(   7) = (  0.7139900 -0.0000000  0.7139900  )
         8           Cl  tau(   8) = (  1.0000000  0.7139900  0.7139900  )
         9           Cl  tau(   9) = ( -0.0000000  0.2860100  0.2860100  )
        10           Cl  tau(  10) = (  0.2860100  0.2860100  0.0000000  )
        11           Cl  tau(  11) = (  0.2860100 -0.0000000  0.2860100  )

     number of k points=     1  Methfessel-Paxton smearing, width (Ry)=  0.0010
                       cart. coord. in units 2pi/alat
        k(    1) = (   0.0000000   0.0000000   0.0000000), wk =   2.0000000

                       cryst. coord.
        k(    1) = (   0.0000000   0.0000000   0.0000000), wk =   2.0000000

     Check: negative core charge=   -0.000005

     Initial potential from superposition of free atoms

     starting charge      92.4245, renormalised to      93.0000

     negative rho (up, down):  9.229E-02 0.000E+00
     Starting wfcs are   69 randomized atomic wfcs
     Checking if some PAW data can be deallocated...

     Self-consistent Calculation

     iteration #  1     ecut=    30.00 Ry     beta= 0.70
     Davidson diagonalization with overlap

     ethr =  1.00E-02,  avg # of iterations = 10.0

     total energy              =    -873.84115138 Ry
     estimated scf accuracy    <      11.18731902 Ry

[...]

     total energy              =    -879.99112436 Ry
     estimated scf accuracy    <       0.00001635 Ry

     iteration # 14     ecut=    30.00 Ry     beta= 0.70
     Davidson diagonalization with overlap

     ethr =  1.76E-08,  avg # of iterations =  4.0

     End of self-consistent calculation

          k = 0.0000 0.0000 0.0000 (  3410 PWs)   bands (ev):

   -77.8312 -45.6300 -44.8770 -44.6206 -35.4505 -34.8165 -32.1249 -24.9938
   -20.3193 -17.9808 -16.4771 -16.3388 -13.4918 -11.1295 -10.8317 -10.5709
   -10.4772 -10.3230 -10.1218  -9.7899  -9.7547  -9.5404  -9.4761  -9.3453
    -9.2066  -8.8705  -2.5348  -1.7153  -1.4859  -1.4829  -1.4184  -1.2516
    -1.1855  -0.9260  -0.6633  -0.3891  -0.2770   0.0785   0.1926   0.4006
     0.4587   0.5558   0.6532   1.6014   2.0706   3.0027   3.1770   3.6086
     4.3559   4.7841   4.9193   5.2367   5.2963   6.1458   6.8250   6.9666

     occupation numbers
     1.0000   1.0000   1.0000   1.0000   1.0000   1.0000   1.0000   1.0000
     1.0000   1.0000   1.0000   1.0000   1.0000   1.0000   1.0000   1.0000
     1.0000   1.0000   1.0000   1.0000   1.0000   1.0000   1.0000   1.0000
     1.0000   1.0000   1.0000   1.0000   1.0000   1.0000   1.0000   1.0000
     1.0000   1.0000   1.0000   1.0000   1.0000   1.0000   1.0000   1.0000
     1.0000   1.0000   1.0000   1.0000   1.0000   1.0000   0.5000  -0.0000
    -0.0000  -0.0000  -0.0000  -0.0000  -0.0000  -0.0000  -0.0000  -0.0000

     the Fermi energy is     3.1770 ev

!    total energy              =    -879.99112669 Ry
     estimated scf accuracy    <       0.00000062 Ry
     smearing contrib. (-TS)   =      -0.00028209 Ry
     internal energy E=F+TS    =    -879.99084459 Ry

     The total energy is F=E-TS. E is the sum of the following terms:
     one-electron contribution =    -445.63331798 Ry
     hartree contribution      =     248.03296388 Ry
     xc contribution           =    -132.50200914 Ry
     ewald contribution        =    -328.97358750 Ry
     one-center paw contrib.   =    -220.91489386 Ry
      -> PAW hartree energy AE =     114.29974020 Ry
      -> PAW hartree energy PS =    -113.70644834 Ry
      -> PAW xc energy AE      =    -257.96359388 Ry
      -> PAW xc energy PS      =      36.45540815 Ry
      -> total E_H with PAW    =     248.62625575 Ry
      -> total E_XC with PAW   =    -354.01019486 Ry

     convergence has been achieved in  14 iterations

     Forces acting on atoms (cartesian axes, Ry/au):

     atom    1 type  1   force =     0.00000000    0.00000000   -0.00000000
     atom    2 type  1   force =     0.00000000    0.00000000    0.00000000
     atom    3 type  1   force =     0.00000000    0.00000000    0.00000000
     atom    4 type  1   force =     0.00000000    0.00000000    0.00000000
     atom    5 type  2   force =     0.00000000    0.00000000   -0.00000000
     atom    6 type  3   force =     0.03880949    0.08489548   -0.00000000
     atom    7 type  3   force =     0.01099350   -0.06034325    0.06207598
     atom    8 type  3   force =    -0.01099350    0.06034325    0.06207598
     atom    9 type  3   force =     0.01099350   -0.06034325   -0.06207598
     atom   10 type  3   force =    -0.03880949   -0.08489548    0.00000000
     atom   11 type  3   force =    -0.01099350    0.06034325   -0.06207598
     The non-local contrib.  to forces
     atom    1 type  1   force =     0.00000000    0.00000000   -0.00000000
     atom    2 type  1   force =     0.00000000    0.00000000    0.00000000
     atom    3 type  1   force =     0.00000000    0.00000000   -0.00000000
     atom    4 type  1   force =     0.00000000    0.00000000    0.00000000
     atom    5 type  2   force =     0.00000000    0.00000000   -0.00000000
     atom    6 type  3   force =     0.06608278    0.29312404   -0.00000000
     atom    7 type  3   force =     0.13796700   -0.11263494    0.17935460
     atom    8 type  3   force =    -0.13796700    0.11263494    0.17935460
     atom    9 type  3   force =     0.13796700   -0.11263494   -0.17935460
     atom   10 type  3   force =    -0.06608278   -0.29312404    0.00000000
     atom   11 type  3   force =    -0.13796700    0.11263494   -0.17935460
     The ionic contribution  to forces
     atom    1 type  1   force =     0.00000000   -0.00000000   -0.00000000
     atom    2 type  1   force =    -0.00000000    0.00000000    0.00000000
     atom    3 type  1   force =     0.00000000    0.00000000   -0.00000000
     atom    4 type  1   force =     0.00000000   -0.00000000    0.00000000
     atom    5 type  2   force =    -0.00000000   -0.00000000   -0.00000000
     atom    6 type  3   force =    -5.77073678   -8.16105422    0.00000000
     atom    7 type  3   force =    -5.77073678    4.08052711   -7.06768028
     atom    8 type  3   force =     5.77073678   -4.08052711   -7.06768028
     atom    9 type  3   force =    -5.77073678    4.08052711    7.06768028
     atom   10 type  3   force =     5.77073678    8.16105422   -0.00000000
     atom   11 type  3   force =     5.77073678   -4.08052711    7.06768028
     The local contribution  to forces
     atom    1 type  1   force =     0.00000572    0.00000713    0.00000735
     atom    2 type  1   force =    -0.00001421   -0.00000655    0.00000886
     atom    3 type  1   force =     0.00000433    0.00000331   -0.00001162
     atom    4 type  1   force =    -0.00000228   -0.00000919   -0.00001630
     atom    5 type  2   force =     0.00004614   -0.00002482    0.00004376
     atom    6 type  3   force =     5.73265992    7.97689821    0.18034564
     atom    7 type  3   force =     5.74621934   -4.19621643    6.94502795
     atom    8 type  3   force =    -5.56467347    3.86711836    7.00144028
     atom    9 type  3   force =     5.56469843   -3.86710173   -7.00141332
     atom   10 type  3   force =    -5.73266716   -7.97690810   -0.18032665
     atom   11 type  3   force =    -5.74621829    4.19621757   -6.94504026
     The core correction contribution to forces
     atom    1 type  1   force =    -0.00000002   -0.00000021   -0.00000013
     atom    2 type  1   force =     0.00000017    0.00000011   -0.00000004
     atom    3 type  1   force =    -0.00000014   -0.00000004    0.00000004
     atom    4 type  1   force =     0.00000002    0.00000011    0.00000007
     atom    5 type  2   force =    -0.00000014   -0.00000022    0.00000023
     atom    6 type  3   force =     0.01038424   -0.02475438    0.04944222
     atom    7 type  3   force =    -0.00450324   -0.03761531   -0.02151297
     atom    8 type  3   force =     0.01945240   -0.04495555   -0.02503244
     atom    9 type  3   force =    -0.01945261    0.04495616    0.02503203
     atom   10 type  3   force =    -0.01038442    0.02475492   -0.04944316
     atom   11 type  3   force =     0.00450294    0.03761541    0.02151339
     The Hubbard contrib.    to forces
     atom    1 type  1   force =     0.00000000    0.00000000    0.00000000
     atom    2 type  1   force =     0.00000000    0.00000000    0.00000000
     atom    3 type  1   force =     0.00000000    0.00000000    0.00000000
     atom    4 type  1   force =     0.00000000    0.00000000    0.00000000
     atom    5 type  2   force =     0.00000000    0.00000000    0.00000000
     atom    6 type  3   force =     0.00000000    0.00000000    0.00000000
     atom    7 type  3   force =     0.00000000    0.00000000    0.00000000
     atom    8 type  3   force =     0.00000000    0.00000000    0.00000000
     atom    9 type  3   force =     0.00000000    0.00000000    0.00000000
     atom   10 type  3   force =     0.00000000    0.00000000    0.00000000
     atom   11 type  3   force =     0.00000000    0.00000000    0.00000000
     The SCF correction term to forces
     atom    1 type  1   force =    -0.00000790   -0.00000861   -0.00000876
     atom    2 type  1   force =     0.00001798    0.00000871   -0.00001055
     atom    3 type  1   force =    -0.00000549   -0.00000419    0.00001245
     atom    4 type  1   force =     0.00000211    0.00001080    0.00002011
     atom    5 type  2   force =    -0.00005684    0.00002923   -0.00004726
     atom    6 type  3   force =     0.00041782    0.00068421   -0.00020465
     atom    7 type  3   force =     0.00019055   -0.00030116    0.00040962
     atom    8 type  3   force =    -0.00039587    0.00018106    0.00047222
     atom    9 type  3   force =     0.00037710   -0.00018810   -0.00049746
     atom   10 type  3   force =    -0.00041342   -0.00067011    0.00018054
     atom   11 type  3   force =    -0.00019126    0.00029826   -0.00039634

     Total force =     0.218836     Total SCF correction =     0.001661

     Computing stress (Cartesian axis) and pressure

          total   stress  (Ry/bohr**3)                   (kbar)     P=      564.78
   0.00000583  -0.00036918   0.00000000            0.86      -54.31        0.00
  -0.00036918   0.00637238  -0.00000000          -54.31      937.41       -0.00
   0.00000000  -0.00000000   0.00513970            0.00       -0.00      756.08

     kinetic stress (kbar)   8873.87    -34.66     -0.00
                              -34.66   9396.70     -0.00
                               -0.00     -0.00   9288.17

     local   stress (kbar)  -8750.12    -36.09    157.95
                              -36.09  -8242.17     54.95
                              157.95     54.95  -8321.04

     nonloc. stress (kbar)   3564.18     -8.62     -0.00
                               -8.62   3631.91     -0.00
                               -0.00     -0.00   3630.32

     hartree stress (kbar)   5065.39     23.88    -42.34
                               23.88   4906.41    -13.30
                              -42.34    -13.30   4913.83

     exc-cor stress (kbar)    151.20      0.43     -1.08
                                0.43    146.86     -0.53
                               -1.08     -0.53    147.81

     corecor stress (kbar)  -2322.57      0.75      1.12
                                0.75  -2321.22      1.66
                                1.12      1.66  -2321.93

     ewald   stress (kbar)  -6581.09     -0.00     -0.00
                               -0.00  -6581.09     -0.00
                               -0.00     -0.00  -6581.09

     hubbard stress (kbar)      0.00      0.00      0.00
                                0.00      0.00      0.00
                                0.00      0.00      0.00

     DFT-D   stress (kbar)      0.00      0.00      0.00
                                0.00      0.00      0.00
                                0.00      0.00      0.00

     XDM     stress (kbar)      0.00      0.00      0.00
                                0.00      0.00      0.00
                                0.00      0.00      0.00

     dft-nl  stress (kbar)      0.00      0.00      0.00
                                0.00      0.00      0.00
                                0.00      0.00      0.00

     TS-vdW  stress (kbar)      0.00      0.00      0.00
                                0.00      0.00      0.00
                                0.00      0.00      0.00

[...]

                                0.00      0.00      0.00

     Writing all to output data dir new_calculations/myprefix.save/

     General routines

     Parallel routines

     PAW routines

   This run was terminated on:   5:17:18  21May2023

   JOB DONE.