     Program PWSCF v.7.0 starts on 20May2023 at 19:31:22

     Reading input from espresso_23074.pwi
Warning: card &CELL ignored
Warning: card / ignored

     Current dimensions of program PWSCF are:
     Max number of different atomic species (ntypx) = 10
     Max number of k-points (npk) =  40000
     Max angular momentum in pseudopotentials (lmaxx) =  4

     gamma-point specific algorithms are used
     Message from routine setup:
     using ibrav=0 with symmetry is DISCOURAGED, use correct ibrav instead

     Subspace diagonalization in iterative solution of the eigenvalue problem:
     a serial algorithm will be used

     Using Slab Decomposition

     bravais-lattice index     =            0
     lattice parameter (alat)  =      11.4063  a.u.
     unit-cell volume          =     806.6436 (a.u.)^3
     number of atoms/cell      =            9
     number of atomic types    =            3
     number of electrons       =        72.00
     number of Kohn-Sham states=           43
     kinetic-energy cutoff     =      30.0000  Ry
     charge density cutoff     =     240.0000  Ry
     scf convergence threshold =      1.0E-06
     mixing beta               =       0.7000
     number of iterations used =            8  plain     mixing
     Exchange-correlation=  SLA  PW   PBX  PBC
                           (   1   4   3   4   0   0   0)

     celldm(1)=  11.406291  celldm(2)=   0.000000  celldm(3)=   0.000000
     celldm(4)=   0.000000  celldm(5)=   0.000000  celldm(6)=   0.000000

     crystal axes: (cart. coord. in units of alat)
               a(1) = (   1.000000   0.000000   0.000000 )
               a(2) = (  -0.500000   0.866025   0.000000 )
               a(3) = (   0.000000   0.000000   0.627650 )

     reciprocal axes: (cart. coord. in units 2 pi/alat)
               b(1) = (  1.000000  0.577350  0.000000 )
               b(2) = (  0.000000  1.154700  0.000000 )
               b(3) = (  0.000000  0.000000  1.593244 )

     PseudoPot. # 1 for Na read from file:
     /home/pragov/projects/rrg-bengioy-ad/pragov/crystal_structure_design/SSSP/na_pbe_v1.5.uspp.F.UPF
     MD5 check sum: 44600605ef58000f06b90626533354dc
     Pseudo is Ultrasoft, Zval =  9.0
     Generated by new atomic code, or converted to UPF format
     Using radial grid of  819 points,  5 beta functions with:
                l(1) =   0
                l(2) =   0
                l(3) =   1
                l(4) =   1
                l(5) =   2
     Q(r) pseudized with  8 coefficients,  rinner =    1.250   1.250   1.250
                                                       1.250   1.250

     PseudoPot. # 2 for Ce read from file:
     /home/pragov/projects/rrg-bengioy-ad/pragov/crystal_structure_design/SSSP/Ce.GGA-PBE-paw-v1.0.UPF
     MD5 check sum: f2b950f613061344c13339c8d844425d
     Pseudo is Projector augmented-wave + core cor, Zval = 12.0
     Generated using ATOMPAW code
     Shape of augmentation charge: BESSEL
     Using radial grid of 1102 points,  8 beta functions with:
                l(1) =   0
                l(2) =   0
                l(3) =   1
                l(4) =   1
                l(5) =   2
                l(6) =   2
                l(7) =   3
                l(8) =   3
     Q(r) pseudized with 0 coefficients

     PseudoPot. # 3 for F  read from file:
     /home/pragov/projects/rrg-bengioy-ad/pragov/crystal_structure_design/SSSP/f_pbe_v1.4.uspp.F.UPF
     MD5 check sum: 4c38b6a325caf53ec0e86aed9459de46
     Pseudo is Ultrasoft, Zval =  7.0
     Generated by new atomic code, or converted to UPF format
     Using radial grid of  799 points,  4 beta functions with:
                l(1) =   0
                l(2) =   0
                l(3) =   1
                l(4) =   1
     Q(r) pseudized with  8 coefficients,  rinner =    0.950   0.950   0.950

     atomic species   valence    mass     pseudopotential
        Na             9.00    22.98977     Na( 1.00)
        Ce            12.00   140.11600     Ce( 1.00)
        F              7.00    18.99840     F ( 1.00)

      6 Sym. Ops. (no inversion) found

                                    s                        frac. trans.

      isym =  1     identity

 cryst.   s( 1) = (     1          0          0      )
                  (     0          1          0      )
                  (     0          0          1      )

 cart.    s( 1) = (  1.0000000 -0.0000000  0.0000000 )
                  (  0.0000000  1.0000000  0.0000000 )
                  (  0.0000000  0.0000000  1.0000000 )

      isym =  2     180 deg rotation - cart. axis [1,0,0]

[...]

      isym =  3     120 deg rotation - cryst. axis [0,0,1]

[...]

      isym =  6     180 deg rotation - cryst. axis [1,1,0]

 cryst.   s( 6) = (     0          1          0      )
                  (     1          0          0      )
                  (     0          0         -1      )

 cart.    s( 6) = ( -0.4999999  0.8660255  0.0000000 )
                  (  0.8660255  0.4999999  0.0000000 )
                  (  0.0000000  0.0000000 -1.0000000 )

   Cartesian axes

     site n.     atom                  positions (alat units)
         1           Na  tau(   1) = (  -0.0000004   0.5773506   0.2490253  )
         2           Na  tau(   2) = (   0.5000005   0.2886749   0.3786250  )
         3           Ce  tau(   3) = (   0.0000000   0.0000000   0.0000000  )
         4           F   tau(   4) = (   0.2515710   0.0000000   0.3138251  )
         5           F   tau(   5) = (   0.8742145   0.2178669   0.3138251  )
         6           F   tau(   6) = (   0.3742146   0.6481586   0.3138251  )
         7           F   tau(   7) = (   0.6333750   0.0000000   0.0000000  )
         8           F   tau(   8) = (   0.6833126   0.5485189   0.0000000  )
         9           F   tau(   9) = (   0.1833126   0.3175066   0.0000000  )

   Crystallographic axes

     site n.     atom                  positions (cryst. coord.)
         1           Na  tau(   1) = (  0.3333330  0.6666670  0.3967580  )
         2           Na  tau(   2) = (  0.6666670  0.3333330  0.6032420  )
         3           Ce  tau(   3) = (  0.0000000  0.0000000  0.0000000  )
         4           F   tau(   4) = (  0.2515710  0.0000000  0.5000000  )
         5           F   tau(   5) = (  1.0000000  0.2515710  0.5000000  )
         6           F   tau(   6) = (  0.7484290  0.7484290  0.5000000  )
         7           F   tau(   7) = (  0.6333750  0.0000000  0.0000000  )
         8           F   tau(   8) = (  1.0000000  0.6333750  0.0000000  )
         9           F   tau(   9) = (  0.3666250  0.3666250  0.0000000  )

     number of k points=     1  Methfessel-Paxton smearing, width (Ry)=  0.0010
                       cart. coord. in units 2pi/alat
        k(    1) = (   0.0000000   0.0000000   0.0000000), wk =   2.0000000

                       cryst. coord.
        k(    1) = (   0.0000000   0.0000000   0.0000000), wk =   2.0000000

     Initial potential from superposition of free atoms

     starting charge      71.9804, renormalised to      72.0000
     Starting wfcs are   66 randomized atomic wfcs
     Checking if some PAW data can be deallocated...

     Self-consistent Calculation

     iteration #  1     ecut=    30.00 Ry     beta= 0.70
     Davidson diagonalization with overlap

     ethr =  1.00E-02,  avg # of iterations =  1.0

     negative rho (up, down):  1.934E-05 0.000E+00

     total energy              =    -964.58285486 Ry
     estimated scf accuracy    <       1.68933909 Ry

[...]

     total energy              =    -965.54327084 Ry
     estimated scf accuracy    <       0.00000524 Ry

     iteration # 20     ecut=    30.00 Ry     beta= 0.70
     Davidson diagonalization with overlap

     ethr =  7.28E-09,  avg # of iterations =  1.0

     End of self-consistent calculation

          k = 0.0000 0.0000 0.0000 (  1111 PWs)   bands (ev):

   -44.6622 -44.6604 -29.1752 -17.5864 -17.5863 -17.3967 -17.1496 -17.1495
   -16.8569 -16.5780 -16.5052 -16.5052 -16.4409 -16.3365 -16.3365 -11.3756
   -10.8823 -10.8823  -0.0686   0.5755   0.5756   0.7824   0.8994   0.8995
     1.1035   1.1036   1.1573   1.1897   1.9159   1.9161   2.0912   2.0913
     2.4456   2.5074   2.5075   2.6439   4.8618   4.8840   4.9365   4.9365
     4.9779   5.0354   5.0354

     occupation numbers
     1.0000   1.0000   1.0000   1.0000   1.0000   1.0000   1.0000   1.0000
     1.0000   1.0000   1.0000   1.0000   1.0000   1.0000   1.0000   1.0000
     1.0000   1.0000   1.0000   1.0000   1.0000   1.0000   1.0000   1.0000
     1.0000   1.0000   1.0000   1.0000   1.0000   1.0000   1.0000   1.0000
     1.0000   1.0000   1.0000   1.0000  -0.0000  -0.0000  -0.0000  -0.0000
    -0.0000  -0.0000  -0.0000

     the Fermi energy is     3.6099 ev

!    total energy              =    -965.54327087 Ry
     estimated scf accuracy    <       0.00000034 Ry
     smearing contrib. (-TS)   =       0.00000000 Ry
     internal energy E=F+TS    =    -965.54327087 Ry

     The total energy is F=E-TS. E is the sum of the following terms:
     one-electron contribution =    -271.46535816 Ry
     hartree contribution      =     175.56585609 Ry
     xc contribution           =     -95.48203224 Ry
     ewald contribution        =    -366.11734851 Ry
     one-center paw contrib.   =    -408.04438805 Ry
      -> PAW hartree energy AE =      41.37695847 Ry
      -> PAW hartree energy PS =     -41.20801447 Ry
      -> PAW xc energy AE      =    -416.51415951 Ry
      -> PAW xc energy PS      =       8.30082746 Ry
      -> total E_H with PAW    =     175.73480010 Ry
      -> total E_XC with PAW   =    -503.69536430 Ry

     convergence has been achieved in  20 iterations

     Forces acting on atoms (cartesian axes, Ry/au):

     atom    1 type  1   force =    -0.00000000   -0.00000000    0.00115622
     atom    2 type  1   force =     0.00000000   -0.00000000   -0.00115622
     atom    3 type  2   force =     0.00000000    0.00000000    0.00000000
     atom    4 type  3   force =    -0.03929404    0.00000001    0.00000000
     atom    5 type  3   force =     0.01964702   -0.03402964   -0.00000000
     atom    6 type  3   force =     0.01964702    0.03402963    0.00000000
     atom    7 type  3   force =     0.02159837   -0.00000000    0.00000000
     atom    8 type  3   force =    -0.01079919    0.01870474    0.00000000
     atom    9 type  3   force =    -0.01079919   -0.01870473   -0.00000000
     The non-local contrib.  to forces
     atom    1 type  1   force =     0.00000000   -0.00000000    0.12085802
     atom    2 type  1   force =     0.00000000   -0.00000000   -0.12085802
     atom    3 type  2   force =     0.00000000   -0.00000000    0.00000000
     atom    4 type  3   force =    -0.30509561    0.00000005    0.00000000
     atom    5 type  3   force =     0.15254780   -0.26422055    0.00000000
     atom    6 type  3   force =     0.15254780    0.26422050   -0.00000000
     atom    7 type  3   force =     0.53827422   -0.00000009    0.00000000
     atom    8 type  3   force =    -0.26913711    0.46615915    0.00000000
     atom    9 type  3   force =    -0.26913711   -0.46615906   -0.00000000
     The ionic contribution  to forces
     atom    1 type  1   force =     0.00005380   -0.00003168    1.13106515
     atom    2 type  1   force =    -0.00005433    0.00003075   -1.13106515
     atom    3 type  2   force =     0.00000099    0.00000172   -0.00000000
     atom    4 type  3   force =     4.21659605    0.00002820    0.00000439
     atom    5 type  3   force =    -2.10827298    3.65169376   -0.00000439
     atom    6 type  3   force =    -2.10832145   -3.65171914   -0.00000000
     atom    7 type  3   force =    -5.21793551   -0.00001582    0.00000455
     atom    8 type  3   force =     2.60895328   -4.51887306   -0.00000455
     atom    9 type  3   force =     2.60898014    4.51888527    0.00000000
     The local contribution  to forces
     atom    1 type  1   force =    -0.00006173    0.00004482   -1.25073498
     atom    2 type  1   force =     0.00007326   -0.00004158    1.25073469
     atom    3 type  2   force =    -0.00004238    0.00004394   -0.00001129
     atom    4 type  3   force =    -3.95129522   -0.00002741   -0.00000133
     atom    5 type  3   force =     1.97561825   -3.42196586    0.00000646
     atom    6 type  3   force =     1.97564606    3.42196806    0.00000000
     atom    7 type  3   force =     4.70169053    0.00001739   -0.00000632
     atom    8 type  3   force =    -2.35082461    4.07179101    0.00000326
     atom    9 type  3   force =    -2.35088267   -4.07184150    0.00000213
     The core correction contribution to forces
     atom    1 type  1   force =     0.00000000    0.00000000    0.00000000
     atom    2 type  1   force =     0.00000000    0.00000000    0.00000000
     atom    3 type  2   force =    -0.00000000    0.00000004   -0.00000001
     atom    4 type  3   force =     0.00000000    0.00000000    0.00000000
     atom    5 type  3   force =     0.00000000    0.00000000    0.00000000
     atom    6 type  3   force =     0.00000000    0.00000000    0.00000000
     atom    7 type  3   force =     0.00000000    0.00000000    0.00000000
     atom    8 type  3   force =     0.00000000    0.00000000    0.00000000
     atom    9 type  3   force =     0.00000000    0.00000000    0.00000000
     The Hubbard contrib.    to forces
     atom    1 type  1   force =     0.00000000    0.00000000    0.00000000
     atom    2 type  1   force =     0.00000000    0.00000000    0.00000000
     atom    3 type  2   force =     0.00000000    0.00000000    0.00000000
     atom    4 type  3   force =     0.00000000    0.00000000    0.00000000
     atom    5 type  3   force =     0.00000000    0.00000000    0.00000000
     atom    6 type  3   force =     0.00000000    0.00000000    0.00000000
     atom    7 type  3   force =     0.00000000    0.00000000    0.00000000
     atom    8 type  3   force =     0.00000000    0.00000000    0.00000000
     atom    9 type  3   force =     0.00000000    0.00000000    0.00000000
     The SCF correction term to forces
     atom    1 type  1   force =    -0.00000642   -0.00003195   -0.00003279
     atom    2 type  1   force =    -0.00003275    0.00004495    0.00003144
     atom    3 type  2   force =     0.00004596   -0.00002693    0.00001086
     atom    4 type  3   force =     0.00049417   -0.00000180   -0.00000679
     atom    5 type  3   force =    -0.00023325    0.00046119   -0.00000433
     atom    6 type  3   force =    -0.00021765   -0.00046104    0.00000003
     atom    7 type  3   force =    -0.00043746   -0.00000059    0.00000290
     atom    8 type  3   force =     0.00020050   -0.00036343   -0.00000095
     atom    9 type  3   force =     0.00024173    0.00041619   -0.00000008

     Total force =     0.077680     Total SCF correction =     0.001173

     Computing stress (Cartesian axis) and pressure

          total   stress  (Ry/bohr**3)                   (kbar)     P=     -164.48
  -0.00126937   0.00000000   0.00000000         -186.73        0.00        0.00
   0.00000000  -0.00126936   0.00000000            0.00     -186.73        0.00
   0.00000000   0.00000000  -0.00081557            0.00        0.00     -119.98

     kinetic stress (kbar)  19921.92     -0.00      0.00
                               -0.00  19921.92      0.00
                               -0.00     -0.00  20000.97

     local   stress (kbar)   7408.09      0.05     -0.00
                                0.05   7408.15      0.00
                               -0.00      0.00   9372.64

     nonloc. stress (kbar) -11092.25      0.00      0.00
                                0.00 -11092.24      0.00
                               -0.00     -0.00 -11019.91

     hartree stress (kbar)  11022.07     -0.02      0.00
                               -0.02  11022.04     -0.00
                                0.00     -0.00   9973.29

     exc-cor stress (kbar)  -5506.99      0.00     -0.00
                                0.00  -5506.99     -0.00
                               -0.00     -0.00  -5508.24

     corecor stress (kbar)    -16.75      0.00      0.00
                                0.00    -16.75      0.00
                                0.00      0.00    -16.73

     ewald   stress (kbar) -21922.83     -0.02     -0.00
                               -0.02 -21922.85      0.00
                               -0.00      0.00 -22922.00

     hubbard stress (kbar)      0.00      0.00      0.00
                                0.00      0.00      0.00
                                0.00      0.00      0.00

     DFT-D   stress (kbar)      0.00      0.00      0.00
                                0.00      0.00      0.00
                                0.00      0.00      0.00

     XDM     stress (kbar)      0.00      0.00      0.00
                                0.00      0.00      0.00
                                0.00      0.00      0.00

     dft-nl  stress (kbar)      0.00      0.00      0.00
                                0.00      0.00      0.00
                                0.00      0.00      0.00

     TS-vdW  stress (kbar)      0.00      0.00      0.00
                                0.00      0.00      0.00
                                0.00      0.00      0.00

[...]

                                0.00      0.00      0.00

     Writing all to output data dir new_calculations/myprefix.save/

     General routines

     Parallel routines

     PAW routines

   This run was terminated on:  19:31:52  20May2023

   JOB DONE.