     Program PWSCF v.7.0 starts on 21May2023 at  1:44: 6

     Reading input from espresso_23283.pwi
Warning: card &CELL ignored
Warning: card / ignored

     Current dimensions of program PWSCF are:
     Max number of different atomic species (ntypx) = 10
     Max number of k-points (npk) =  40000
     Max angular momentum in pseudopotentials (lmaxx) =  4

     gamma-point specific algorithms are used
     Message from routine setup:
     using ibrav=0 with symmetry is DISCOURAGED, use correct ibrav instead

     Subspace diagonalization in iterative solution of the eigenvalue problem:
     a serial algorithm will be used

     Using Slab Decomposition

     bravais-lattice index     =            0
     lattice parameter (alat)  =       8.3775  a.u.
     unit-cell volume          =     918.2070 (a.u.)^3
     number of atoms/cell      =            6
     number of atomic types    =            3
     number of electrons       =        68.00
     number of Kohn-Sham states=           41
     kinetic-energy cutoff     =      30.0000  Ry
     charge density cutoff     =     240.0000  Ry
     scf convergence threshold =      1.0E-06
     mixing beta               =       0.7000
     number of iterations used =            8  plain     mixing
     Exchange-correlation= PBE
                           (   1   4   3   4   0   0   0)

     celldm(1)=   8.377549  celldm(2)=   0.000000  celldm(3)=   0.000000
     celldm(4)=   0.000000  celldm(5)=   0.000000  celldm(6)=   0.000000

     crystal axes: (cart. coord. in units of alat)
               a(1) = (   1.000000   0.000000   0.000000 )
               a(2) = (  -0.500000   0.866025   0.000000 )
               a(3) = (   0.000000   0.000000   1.803263 )

     reciprocal axes: (cart. coord. in units 2 pi/alat)
               b(1) = (  1.000000  0.577350  0.000000 )
               b(2) = (  0.000000  1.154701  0.000000 )
               b(3) = (  0.000000  0.000000  0.554550 )

     PseudoPot. # 1 for La read from file:
     /home/pragov/projects/rrg-bengioy-ad/pragov/crystal_structure_design/SSSP/La.GGA-PBE-paw-v1.0.UPF
     MD5 check sum: 436541e95c1ad8901025bd0b0ed42ae2
     Pseudo is Projector augmented-wave + core cor, Zval = 11.0
     Generated using ATOMPAW code
     Shape of augmentation charge: BESSEL
     Using radial grid of 1101 points,  8 beta functions with:
                l(1) =   0
                l(2) =   0
                l(3) =   1
                l(4) =   1
                l(5) =   2
                l(6) =   2
                l(7) =   3
                l(8) =   3
     Q(r) pseudized with 0 coefficients

     PseudoPot. # 2 for As read from file:
     /home/pragov/projects/rrg-bengioy-ad/pragov/crystal_structure_design/SSSP/As.pbe-n-rrkjus_psl.0.2.UPF
     MD5 check sum: 767315de957beeeb34f87d97bf945c8f
     Pseudo is Ultrasoft + core correction, Zval =  5.0
     Generated using "atomic" code by A. Dal Corso  v.5.0.99 svn rev. 10869
     Using radial grid of 1209 points,  4 beta functions with:
                l(1) =   0
                l(2) =   0
                l(3) =   1
                l(4) =   1
     Q(r) pseudized with 0 coefficients

     PseudoPot. # 3 for Pd read from file:
     /home/pragov/projects/rrg-bengioy-ad/pragov/crystal_structure_design/SSSP/Pd_ONCV_PBE-1.0.oncvpsp.upf
     MD5 check sum: eb77f42b51d86fb18e25f68156a31cf1
     Pseudo is Norm-conserving, Zval = 18.0
     Generated using ONCVPSP code by D. R. Hamann
     Using radial grid of 1410 points,  6 beta functions with:
                l(1) =   0
                l(2) =   0
                l(3) =   1
                l(4) =   1
                l(5) =   2
                l(6) =   2

     atomic species   valence    mass     pseudopotential
        La            11.00   138.90547     La( 1.00)
        As             5.00    74.92159     As( 1.00)
        Pd            18.00   106.42000     Pd( 1.00)

     24 Sym. Ops., with inversion, found (12 have fractional translation)

                                    s                        frac. trans.

      isym =  1     identity

 cryst.   s( 1) = (     1          0          0      )
                  (     0          1          0      )
                  (     0          0          1      )

 cart.    s( 1) = (  1.0000000  0.0000000  0.0000000 )
                  (  0.0000000  1.0000000  0.0000000 )
                  (  0.0000000  0.0000000  1.0000000 )

      isym =  2     180 deg rotation - cart. axis [0,0,1]

 cryst.   s( 2) = (    -1          0          0      )    f =(  0.0000000 )
                  (     0         -1          0      )       (  0.0000000 )
                  (     0          0          1      )       (  0.5000000 )

 cart.    s( 2) = ( -1.0000000 -0.0000000  0.0000000 )    f =(  0.0000000 )
                  (  0.0000000 -1.0000000  0.0000000 )       (  0.0000000 )
                  (  0.0000000  0.0000000  1.0000000 )       (  0.9016313 )

[...]

      isym =  4     180 deg rotation - cart. axis [1,0,0]

[...]

      isym =  5      60 deg rotation - cryst. axis [0,0,1]

[...]

 cryst.   s( 8) = (    -1         -1          0      )
                  (     1          0          0      )
                  (     0          0          1      )

 cart.    s( 8) = ( -0.5000000  0.8660254  0.0000000 )
                  ( -0.8660254 -0.5000000  0.0000000 )
                  (  0.0000000  0.0000000  1.0000000 )

[...]

 cryst.   s( 9) = (     0         -1          0      )    f =(  0.0000000 )
                  (    -1          0          0      )       (  0.0000000 )
                  (     0          0         -1      )       (  0.5000000 )

 cart.    s( 9) = (  0.5000000 -0.8660254  0.0000000 )    f =(  0.0000000 )
                  ( -0.8660254 -0.5000000  0.0000000 )       (  0.0000000 )
                  (  0.0000000  0.0000000 -1.0000000 )       (  0.9016313 )

[...]

 cryst.   s(10) = (     1          1          0      )    f =(  0.0000000 )
                  (     0         -1          0      )       (  0.0000000 )
                  (     0          0         -1      )       (  0.5000000 )

 cart.    s(10) = (  0.5000000  0.8660255  0.0000000 )    f =(  0.0000000 )
                  (  0.8660254 -0.5000000  0.0000000 )       (  0.0000000 )
                  (  0.0000000  0.0000000 -1.0000000 )       (  0.9016313 )

[...]

 cryst.   s(11) = (    -1         -1          0      )
                  (     0          1          0      )
                  (     0          0         -1      )

 cart.    s(11) = ( -0.5000000 -0.8660255  0.0000000 )
                  ( -0.8660254  0.5000000  0.0000000 )
                  (  0.0000000  0.0000000 -1.0000000 )

      isym = 12     180 deg rotation - cryst. axis [1,1,0]

[...]

      isym = 13     inversion

[...]

      isym = 14     inv. 180 deg rotation - cart. axis [0,0,1]

[...]

      isym = 16     inv. 180 deg rotation - cart. axis [1,0,0]

[...]

      isym = 17     inv.  60 deg rotation - cryst. axis [0,0,1]

[...]

 cryst.   s(22) = (    -1         -1          0      )    f =(  0.0000000 )
                  (     0          1          0      )       (  0.0000000 )
                  (     0          0          1      )       (  0.5000000 )

 cart.    s(22) = ( -0.5000000 -0.8660255  0.0000000 )    f =(  0.0000000 )
                  ( -0.8660254  0.5000000  0.0000000 )       (  0.0000000 )
                  (  0.0000000  0.0000000  1.0000000 )       (  0.9016313 )

[...]

      isym = 24     inv. 180 deg rotation - cryst. axis [1,1,0]

 cryst.   s(24) = (     0         -1          0      )
                  (    -1          0          0      )
                  (     0          0          1      )

 cart.    s(24) = (  0.5000000 -0.8660254  0.0000000 )
                  ( -0.8660254 -0.5000000  0.0000000 )
                  (  0.0000000  0.0000000  1.0000000 )

   Cartesian axes

     site n.     atom                  positions (alat units)
         1           La  tau(   1) = (   0.0000000   0.0000000   0.9016313  )
         2           La  tau(   2) = (   0.0000000   0.0000000   0.0000000  )
         3           As  tau(   3) = (   0.5000005   0.2886748   0.4508157  )
         4           As  tau(   4) = (  -0.0000005   0.5773505   1.3524470  )
         5           Pd  tau(   5) = (  -0.0000005   0.5773505   0.4508157  )
         6           Pd  tau(   6) = (   0.5000005   0.2886748   1.3524470  )

   Crystallographic axes

     site n.     atom                  positions (cryst. coord.)
         1           La  tau(   1) = (  0.0000000  0.0000000  0.5000000  )
         2           La  tau(   2) = (  0.0000000  0.0000000  0.0000000  )
         3           As  tau(   3) = (  0.6666670  0.3333330  0.2500000  )
         4           As  tau(   4) = (  0.3333330  0.6666670  0.7500000  )
         5           Pd  tau(   5) = (  0.3333330  0.6666670  0.2500000  )
         6           Pd  tau(   6) = (  0.6666670  0.3333330  0.7500000  )

     number of k points=     1  Methfessel-Paxton smearing, width (Ry)=  0.0010
                       cart. coord. in units 2pi/alat
        k(    1) = (   0.0000000   0.0000000   0.0000000), wk =   2.0000000

                       cryst. coord.
        k(    1) = (   0.0000000   0.0000000   0.0000000), wk =   2.0000000

     Initial potential from superposition of free atoms

     starting charge      67.9818, renormalised to      68.0000
     Starting wfcs are   92 randomized atomic wfcs
     Checking if some PAW data can be deallocated...

     Self-consistent Calculation

     iteration #  1     ecut=    30.00 Ry     beta= 0.70
     Davidson diagonalization with overlap

     ethr =  1.00E-02,  avg # of iterations =  2.0

     Threshold (ethr) on eigenvalues was too large:
     Diagonalizing with lowered threshold

     Davidson diagonalization with overlap

[...]

     total energy              =   -1458.66034965 Ry
     estimated scf accuracy    <       0.21879245 Ry

[...]

     c_bands:  1 eigenvalues not converged
     ethr =  1.18E-06,  avg # of iterations = 20.0

[...]

     total energy              =   -1458.76658456 Ry
     estimated scf accuracy    <       0.00001615 Ry

     iteration # 31     ecut=    30.00 Ry     beta= 0.70
     Davidson diagonalization with overlap

     ethr =  5.18E-09,  avg # of iterations =  1.0

     End of self-consistent calculation

          k = 0.0000 0.0000 0.0000 (  1301 PWs)   bands (ev):

   -73.8102 -73.8102 -39.3583 -39.3582 -39.3567 -39.3567 -38.9218 -38.9215
   -19.0054 -18.9656  -3.4186  -2.7318  -2.7318  -2.6613  -2.6613  -2.6587
     1.4673   2.4092   7.2427   7.2428   7.6651   7.6652   8.8445   8.8446
     8.8989   9.1185   9.2400   9.2400   9.7462  12.0361  12.1658  12.1658
    13.2600  13.2696  13.2696  14.0846  14.3138  14.5129  14.5129  15.2245
    15.2245

     occupation numbers
     1.0000   1.0000   1.0000   1.0000   1.0000   1.0000   1.0000   1.0000
     1.0000   1.0000   1.0000   1.0000   1.0000   1.0000   1.0000   1.0000
     1.0000   1.0000   1.0000   1.0000   1.0000   1.0000   1.0000   1.0000
     1.0000   1.0000   1.0000   1.0000   1.0000   1.0000   1.0000   1.0000
     0.9690   0.5170   0.5141  -0.0000  -0.0000  -0.0000  -0.0000  -0.0000
    -0.0000

     the Fermi energy is    13.2699 ev

!    total energy              =   -1458.76658428 Ry
     estimated scf accuracy    <       0.00000091 Ry
     smearing contrib. (-TS)   =      -0.00055411 Ry
     internal energy E=F+TS    =   -1458.76603017 Ry

     The total energy is F=E-TS. E is the sum of the following terms:
     one-electron contribution =    -295.90783346 Ry
     hartree contribution      =     179.44878332 Ry
     xc contribution           =     -85.63369009 Ry
     ewald contribution        =    -460.42492182 Ry
     one-center paw contrib.   =    -796.24836811 Ry
      -> PAW hartree energy AE =      70.87362028 Ry
      -> PAW hartree energy PS =     -70.95547814 Ry
      -> PAW xc energy AE      =    -810.86800303 Ry
      -> PAW xc energy PS      =      14.70149277 Ry
      -> total E_H with PAW    =     179.36692546 Ry
      -> total E_XC with PAW   =    -881.80020035 Ry

     convergence has been achieved in  31 iterations

     Forces acting on atoms (cartesian axes, Ry/au):

     atom    1 type  1   force =     0.00000000   -0.00000000   -0.00000000
     atom    2 type  1   force =    -0.00000000   -0.00000000    0.00000000
     atom    3 type  2   force =     0.00000000   -0.00000000    0.00000000
     atom    4 type  2   force =    -0.00000000   -0.00000000    0.00000000
     atom    5 type  3   force =     0.00000000    0.00000000    0.00000000
     atom    6 type  3   force =    -0.00000000    0.00000000    0.00000000
     The non-local contrib.  to forces
     atom    1 type  1   force =     0.00000000   -0.00000000    0.00000000
     atom    2 type  1   force =    -0.00000000    0.00000000   -0.00000000
     atom    3 type  2   force =     0.00000000    0.00000000    0.00000000
     atom    4 type  2   force =     0.00000000    0.00000000    0.00000000
     atom    5 type  3   force =     0.00000000   -0.00000000    0.00000000
     atom    6 type  3   force =    -0.00000000    0.00000000    0.00000000
     The ionic contribution  to forces
     atom    1 type  1   force =    -0.00000000   -0.00000000    0.00000000
     atom    2 type  1   force =    -0.00000000   -0.00000000    0.00000000
     atom    3 type  2   force =    -0.00003409    0.00001968   -0.00000000
     atom    4 type  2   force =     0.00003409   -0.00001968   -0.00000000
     atom    5 type  3   force =     0.00004490   -0.00002592    0.00000000
     atom    6 type  3   force =    -0.00004490    0.00002592   -0.00000000
     The local contribution  to forces
     atom    1 type  1   force =    -0.00011894   -0.00024187   -0.00012096
     atom    2 type  1   force =    -0.00005359   -0.00022231    0.00020569
     atom    3 type  2   force =    -0.00017284    0.00031479   -0.00010613
     atom    4 type  2   force =     0.00029973    0.00070181    0.00008267
     atom    5 type  3   force =     0.00196350    0.00297324   -0.00024124
     atom    6 type  3   force =    -0.00159882    0.00045374    0.00015578
     The core correction contribution to forces
     atom    1 type  1   force =    -0.00000006   -0.00000003    0.00000000
     atom    2 type  1   force =    -0.00000002   -0.00000002    0.00000005
     atom    3 type  2   force =    -0.00000861    0.00007832   -0.00000710
     atom    4 type  2   force =     0.00002663    0.00009942    0.00000522
     atom    5 type  3   force =     0.00000000    0.00000000    0.00000000
     atom    6 type  3   force =     0.00000000    0.00000000    0.00000000
     The Hubbard contrib.    to forces
     atom    1 type  1   force =     0.00000000    0.00000000    0.00000000
     atom    2 type  1   force =     0.00000000    0.00000000    0.00000000
     atom    3 type  2   force =     0.00000000    0.00000000    0.00000000
     atom    4 type  2   force =     0.00000000    0.00000000    0.00000000
     atom    5 type  3   force =     0.00000000    0.00000000    0.00000000
     atom    6 type  3   force =     0.00000000    0.00000000    0.00000000
     The SCF correction term to forces
     atom    1 type  1   force =     0.00005856    0.00018279    0.00011940
     atom    2 type  1   force =     0.00003358    0.00017942   -0.00016276
     atom    3 type  2   force =     0.00009597    0.00002069    0.00006306
     atom    4 type  2   force =    -0.00012168   -0.00012754   -0.00005024
     atom    5 type  3   force =    -0.00094700   -0.00172096    0.00026324
     atom    6 type  3   force =     0.00075579   -0.00065375   -0.00017561

     Total force =     0.000000     Total SCF correction =     0.002262

     Computing stress (Cartesian axis) and pressure

          total   stress  (Ry/bohr**3)                   (kbar)     P=     -311.29
  -0.00126792  -0.00000000   0.00000000         -186.52       -0.00        0.00
  -0.00000000  -0.00126792   0.00000000           -0.00     -186.52        0.00
   0.00000000   0.00000000  -0.00381249            0.00        0.00     -560.84

     kinetic stress (kbar)  22883.19      0.00     -0.00
                                0.00  22883.19      0.00
                               -0.00      0.00  23371.21

     local   stress (kbar) -13806.13      0.54      0.00
                                0.54 -13806.97     -0.01
                                0.00     -0.01  -5897.53

     nonloc. stress (kbar)   6751.43      0.00      0.00
                                0.00   6751.43      0.00
                               -0.00      0.00   6596.77

     hartree stress (kbar)  10513.19     -0.22     -0.00
                               -0.22  10513.53      0.00
                               -0.00      0.00   7722.60

     exc-cor stress (kbar)  -1913.82     -0.01     -0.00
                               -0.01  -1913.81      0.00
                               -0.00      0.00  -1915.32

     corecor stress (kbar)  -1966.20      0.02      0.00
                                0.02  -1966.23      0.00
                                0.00      0.00  -1970.17

     ewald   stress (kbar) -22647.93      0.02     -0.00
                                0.02 -22647.91      0.00
                               -0.00      0.00 -28468.40

     hubbard stress (kbar)      0.00      0.00      0.00
                                0.00      0.00      0.00
                                0.00      0.00      0.00

     DFT-D   stress (kbar)      0.00      0.00      0.00
                                0.00      0.00      0.00
                                0.00      0.00      0.00

     XDM     stress (kbar)      0.00      0.00      0.00
                                0.00      0.00      0.00
                                0.00      0.00      0.00

     dft-nl  stress (kbar)      0.00      0.00      0.00
                                0.00      0.00      0.00
                                0.00      0.00      0.00

     TS-vdW  stress (kbar)      0.00      0.00      0.00
                                0.00      0.00      0.00
                                0.00      0.00      0.00

[...]

                                0.00      0.00      0.00

     Writing all to output data dir new_calculations/myprefix.save/

     General routines

     Parallel routines

     PAW routines

   This run was terminated on:   1:44:53  21May2023

   JOB DONE.