     Program PWSCF v.7.0 starts on 20May2023 at 12:53:45

     Reading input from espresso_2440.pwi
Warning: card &CELL ignored
Warning: card / ignored

     Current dimensions of program PWSCF are:
     Max number of different atomic species (ntypx) = 10
     Max number of k-points (npk) =  40000
     Max angular momentum in pseudopotentials (lmaxx) =  4

     gamma-point specific algorithms are used
     Message from routine setup:
     using ibrav=0 with symmetry is DISCOURAGED, use correct ibrav instead

     Subspace diagonalization in iterative solution of the eigenvalue problem:
     a serial algorithm will be used

     Using Slab Decomposition

     bravais-lattice index     =            0
     lattice parameter (alat)  =       8.1092  a.u.
     unit-cell volume          =    1151.4192 (a.u.)^3
     number of atoms/cell      =            6
     number of atomic types    =            4
     number of electrons       =        50.00
     number of Kohn-Sham states=           30
     kinetic-energy cutoff     =      30.0000  Ry
     charge density cutoff     =     240.0000  Ry
     scf convergence threshold =      1.0E-06
     mixing beta               =       0.7000
     number of iterations used =            8  plain     mixing
     Exchange-correlation= SLA  PW   PBE  PBE
                           (   1   4   3   4   0   0   0)

     celldm(1)=   8.109184  celldm(2)=   0.000000  celldm(3)=   0.000000
     celldm(4)=   0.000000  celldm(5)=   0.000000  celldm(6)=   0.000000

     crystal axes: (cart. coord. in units of alat)
               a(1) = (   1.000000   0.000000   0.000000 )
               a(2) = (  -0.500000   0.866025   0.000000 )
               a(3) = (   0.000000   0.000000   2.493282 )

     reciprocal axes: (cart. coord. in units 2 pi/alat)
               b(1) = (  1.000000  0.577350  0.000000 )
               b(2) = (  0.000000  1.154700  0.000000 )
               b(3) = (  0.000000  0.000000  0.401078 )

     PseudoPot. # 1 for Li read from file:
     /home/pragov/projects/rrg-bengioy-ad/pragov/crystal_structure_design/SSSP/li_pbe_v1.4.uspp.F.UPF
     MD5 check sum: e912e257baa3777c20ea3d68f190483c
     Pseudo is Ultrasoft, Zval =  3.0
     Generated by new atomic code, or converted to UPF format
     Using radial grid of  751 points,  5 beta functions with:
                l(1) =   0
                l(2) =   0
                l(3) =   0
                l(4) =   1
                l(5) =   1
     Q(r) pseudized with 10 coefficients,  rinner =    1.150   1.150   1.150

     PseudoPot. # 2 for Ge read from file:
     /home/pragov/projects/rrg-bengioy-ad/pragov/crystal_structure_design/SSSP/ge_pbe_v1.4.uspp.F.UPF
     MD5 check sum: 9c9eaa91e581c3f09632fb3098b2c6b2
     Pseudo is Ultrasoft + core correction, Zval = 14.0
     Generated by new atomic code, or converted to UPF format
     Using radial grid of  873 points,  6 beta functions with:
                l(1) =   0
                l(2) =   0
                l(3) =   1
                l(4) =   1
                l(5) =   2
                l(6) =   2
     Q(r) pseudized with  8 coefficients,  rinner =    1.400   1.400   1.400
                                                       1.400   1.400

     PseudoPot. # 3 for Sb read from file:
     /home/pragov/projects/rrg-bengioy-ad/pragov/crystal_structure_design/SSSP/sb_pbe_v1.4.uspp.F.UPF
     MD5 check sum: 9bc50dfb53373b713f5709b9110fe27f
     Pseudo is Ultrasoft + core correction, Zval = 15.0
     Generated by new atomic code, or converted to UPF format
     Using radial grid of  891 points,  6 beta functions with:
                l(1) =   0
                l(2) =   0
                l(3) =   1
                l(4) =   1
                l(5) =   2
                l(6) =   2
     Q(r) pseudized with  8 coefficients,  rinner =    1.350   1.350   1.350
                                                       1.350   1.350

     PseudoPot. # 4 for Te read from file:
     /home/pragov/projects/rrg-bengioy-ad/pragov/crystal_structure_design/SSSP/Te_pbe_v1.uspp.F.UPF
     MD5 check sum: c319670d6894cc26e93307826a071b75
     Pseudo is Ultrasoft + core correction, Zval =  6.0
     Generated by new atomic code, or converted to UPF format
     Using radial grid of  891 points,  5 beta functions with:
                l(1) =   0
                l(2) =   0
                l(3) =   1
                l(4) =   1
                l(5) =   2
     Q(r) pseudized with  6 coefficients,  rinner =    1.800   1.800   1.800
                                                       1.800   1.800

     atomic species   valence    mass     pseudopotential
        Li             3.00     6.94000     Li( 1.00)
        Ge            14.00    72.63000     Ge( 1.00)
        Sb            15.00   121.76000     Sb( 1.00)
        Te             6.00   127.60000     Te( 1.00)

      6 Sym. Ops. (no inversion) found

                                    s                        frac. trans.

      isym =  1     identity

 cryst.   s( 1) = (     1          0          0      )
                  (     0          1          0      )
                  (     0          0          1      )

 cart.    s( 1) = (  1.0000000  0.0000000  0.0000000 )
                  (  0.0000000  1.0000000  0.0000000 )
                  (  0.0000000  0.0000000  1.0000000 )

      isym =  2     120 deg rotation - cryst. axis [0,0,1]

[...]

      isym =  3     120 deg rotation - cryst. axis [0,0,-1]

[...]

      isym =  4     inv. 180 deg rotation - cart. axis [1,0,0]

[...]

      isym =  5     inv. 180 deg rotation - cryst. axis [0,1,0]

[...]

      isym =  6     inv. 180 deg rotation - cryst. axis [1,1,0]

 cryst.   s( 6) = (     0         -1          0      )
                  (    -1          0          0      )
                  (     0          0          1      )

 cart.    s( 6) = (  0.4999998 -0.8660255  0.0000000 )
                  ( -0.8660255 -0.4999998  0.0000000 )
                  (  0.0000000  0.0000000  1.0000000 )

   Cartesian axes

     site n.     atom                  positions (alat units)
         1           Li  tau(   1) = (  -0.0000004   0.5773506   1.6540654  )
         2           Ge  tau(   2) = (   0.5000006   0.2886749   0.8728854  )
         3           Sb  tau(   3) = (   0.0000000   0.0000000   2.4918628  )
         4           Te  tau(   4) = (   0.5000006   0.2886749   2.0541897  )
         5           Te  tau(   5) = (  -0.0000004   0.5773506   0.4221475  )
         6           Te  tau(   6) = (   0.0000000   0.0000000   1.2313320  )

   Crystallographic axes

     site n.     atom                  positions (cryst. coord.)
         1           Li  tau(   1) = (  0.3333330  0.6666670  0.6634090  )
         2           Ge  tau(   2) = (  0.6666670  0.3333330  0.3500950  )
         3           Sb  tau(   3) = (  0.0000000  0.0000000  0.9994310  )
         4           Te  tau(   4) = (  0.6666670  0.3333330  0.8238900  )
         5           Te  tau(   5) = (  0.3333330  0.6666670  0.1693140  )
         6           Te  tau(   6) = (  0.0000000  0.0000000  0.4938600  )

     number of k points=     1  Methfessel-Paxton smearing, width (Ry)=  0.0010
                       cart. coord. in units 2pi/alat
        k(    1) = (   0.0000000   0.0000000   0.0000000), wk =   2.0000000

                       cryst. coord.
        k(    1) = (   0.0000000   0.0000000   0.0000000), wk =   2.0000000

     Initial potential from superposition of free atoms

     starting charge      48.5477, renormalised to      50.0000
     Starting wfcs are   35 randomized atomic wfcs

     Self-consistent Calculation

     iteration #  1     ecut=    30.00 Ry     beta= 0.70
     Davidson diagonalization with overlap

     ethr =  1.00E-02,  avg # of iterations =  6.0

     total energy              =    -470.43930042 Ry
     estimated scf accuracy    <      25.73318362 Ry

[...]

     total energy              =    -491.19311342 Ry
     estimated scf accuracy    <       0.00000526 Ry

     iteration # 19     ecut=    30.00 Ry     beta= 0.70
     Davidson diagonalization with overlap

     ethr =  3.68E-09,  avg # of iterations =  3.0

     End of self-consistent calculation

          k = 0.0000 0.0000 0.0000 (  1581 PWs)   bands (ev):

   -40.8161 -22.4480 -22.4480 -22.4478 -22.4202 -22.4202 -17.6787 -17.6737
   -17.6737 -17.6449 -17.6449  -5.7740  -4.6396  -4.1362  -1.2096   0.4342
     4.6346   5.1599   5.1599   5.4243   5.7122   5.7122   6.1021   6.1021
     6.9677   7.6094   7.7059   7.7059   9.0816   9.0824

     occupation numbers
     1.0000   1.0000   1.0000   1.0000   1.0000   1.0000   1.0000   1.0000
     1.0000   1.0000   1.0000   1.0000   1.0000   1.0000   1.0000   1.0000
     1.0000   1.0000   1.0000   1.0000   1.0000   1.0000   1.0000   1.0000
     1.0000  -0.0000  -0.0000  -0.0000  -0.0000  -0.0000

     the Fermi energy is     7.2587 ev

!    total energy              =    -491.19311388 Ry
     estimated scf accuracy    <       0.00000005 Ry
     smearing contrib. (-TS)   =       0.00000000 Ry
     internal energy E=F+TS    =    -491.19311388 Ry

     The total energy is F=E-TS. E is the sum of the following terms:
     one-electron contribution =    -297.78492883 Ry
     hartree contribution      =     177.28937270 Ry
     xc contribution           =    -149.48171309 Ry
     ewald contribution        =    -221.21584466 Ry

     convergence has been achieved in  19 iterations

     Forces acting on atoms (cartesian axes, Ry/au):

     atom    1 type  1   force =     0.00000000   -0.00000000   -0.00234730
     atom    2 type  2   force =     0.00000000    0.00000000    0.06704665
     atom    3 type  3   force =     0.00000000    0.00000000   -0.01160064
     atom    4 type  4   force =     0.00000000    0.00000000    0.07660677
     atom    5 type  4   force =     0.00000000    0.00000000   -0.04024089
     atom    6 type  4   force =     0.00000000    0.00000000   -0.08946460
     The non-local contrib.  to forces
     atom    1 type  1   force =     0.00000000   -0.00000000    0.02682819
     atom    2 type  2   force =     0.00000000    0.00000000   -0.06509694
     atom    3 type  3   force =    -0.00000000   -0.00000000   -0.07306536
     atom    4 type  4   force =     0.00000000    0.00000000    0.06290029
     atom    5 type  4   force =     0.00000000    0.00000000   -0.05648621
     atom    6 type  4   force =     0.00000000    0.00000000   -0.38698330
     The ionic contribution  to forces
     atom    1 type  1   force =     0.00000288   -0.00000166    0.22521483
     atom    2 type  2   force =    -0.00001218    0.00000703    9.32699279
     atom    3 type  3   force =     0.00000006   -0.00000003  -10.65754725
     atom    4 type  4   force =    -0.00000599    0.00000346   -7.39216112
     atom    5 type  4   force =     0.00001012   -0.00000584    0.41390606
     atom    6 type  4   force =     0.00000511   -0.00000295    8.08359469
     The local contribution  to forces
     atom    1 type  1   force =     0.00001788    0.00000217   -0.25465832
     atom    2 type  2   force =    -0.00005163   -0.00015753   -9.19567271
     atom    3 type  3   force =     0.00003816    0.00008084   10.71780210
     atom    4 type  4   force =     0.00000837    0.00003303    7.40253930
     atom    5 type  4   force =    -0.00000801    0.00000680   -0.39477243
     atom    6 type  4   force =    -0.00001368   -0.00003377   -7.74488281
     The core correction contribution to forces
     atom    1 type  1   force =     0.00000000    0.00000000    0.00000000
     atom    2 type  2   force =    -0.00000153   -0.00000338    0.00153575
     atom    3 type  3   force =     0.00000177    0.00000234    0.00119711
     atom    4 type  4   force =     0.00000134   -0.00000406    0.00323388
     atom    5 type  4   force =    -0.00000046    0.00000030   -0.00277615
     atom    6 type  4   force =     0.00000043    0.00000342   -0.04156979
     The Hubbard contrib.    to forces
     atom    1 type  1   force =     0.00000000    0.00000000    0.00000000
     atom    2 type  2   force =     0.00000000    0.00000000    0.00000000
     atom    3 type  3   force =     0.00000000    0.00000000    0.00000000
     atom    4 type  4   force =     0.00000000    0.00000000    0.00000000
     atom    5 type  4   force =     0.00000000    0.00000000    0.00000000
     atom    6 type  4   force =     0.00000000    0.00000000    0.00000000
     The SCF correction term to forces
     atom    1 type  1   force =    -0.00001455   -0.00000030    0.00014310
     atom    2 type  2   force =     0.00001262    0.00010367   -0.00083713
     atom    3 type  3   force =    -0.00003598   -0.00007440   -0.00011213
     atom    4 type  4   force =    -0.00001269    0.00000646   -0.00003047
     atom    5 type  4   force =     0.00000209   -0.00000346   -0.00023705
     atom    6 type  4   force =     0.00000438   -0.00000308    0.00025172

     Total force =     0.141870     Total SCF correction =     0.000934

     Computing stress (Cartesian axis) and pressure

          total   stress  (Ry/bohr**3)                   (kbar)     P=      220.10
   0.00230828  -0.00000000   0.00000000          339.56       -0.00        0.00
  -0.00000000   0.00230828   0.00000000           -0.00      339.56        0.00
   0.00000000   0.00000000  -0.00012799            0.00        0.00      -18.83

     kinetic stress (kbar)   6182.86     -0.00      0.00
                               -0.00   6182.86      0.00
                                0.00      0.00   5823.26

     local   stress (kbar)  -2094.07      0.02     -0.00
                                0.02  -2094.06      0.01
                               -0.00      0.01  11226.16

     nonloc. stress (kbar)  -3017.35      0.00      0.00
                                0.00  -3017.35      0.00
                                0.00      0.00  -2931.93

     hartree stress (kbar)   9710.38     -0.01      0.00
                               -0.01   9710.39     -0.00
                                0.00     -0.00   3229.68

     exc-cor stress (kbar)   7754.08     -0.00      0.00
                               -0.00   7754.08     -0.00
                                0.00     -0.00   7755.80

     corecor stress (kbar) -11088.30      0.00     -0.00
                                0.00 -11088.30     -0.00
                               -0.00     -0.00 -11075.41

     ewald   stress (kbar)  -7108.05     -0.00      0.00
                               -0.00  -7108.05     -0.00
                                0.00     -0.00 -14046.39

     hubbard stress (kbar)      0.00      0.00      0.00
                                0.00      0.00      0.00
                                0.00      0.00      0.00

     DFT-D   stress (kbar)      0.00      0.00      0.00
                                0.00      0.00      0.00
                                0.00      0.00      0.00

     XDM     stress (kbar)      0.00      0.00      0.00
                                0.00      0.00      0.00
                                0.00      0.00      0.00

     dft-nl  stress (kbar)      0.00      0.00      0.00
                                0.00      0.00      0.00
                                0.00      0.00      0.00

     TS-vdW  stress (kbar)      0.00      0.00      0.00
                                0.00      0.00      0.00
                                0.00      0.00      0.00

[...]

                                0.00      0.00      0.00

     Writing all to output data dir new_calculations/myprefix.save/

     General routines

     Parallel routines

   This run was terminated on:  12:54:28  20May2023

   JOB DONE.