     Program PWSCF v.7.0 starts on 21May2023 at 14:39: 5

     Reading input from espresso_21006.pwi
Warning: card &CELL ignored
Warning: card / ignored

     Current dimensions of program PWSCF are:
     Max number of different atomic species (ntypx) = 10
     Max number of k-points (npk) =  40000
     Max angular momentum in pseudopotentials (lmaxx) =  4
     file K.pbe-spn-kjpaw_psl.1.0.0.UPF: wavefunction(s)  3S renormalized
     file O.pbe-n-kjpaw_psl.0.1.UPF: wavefunction(s)  2P renormalized

     gamma-point specific algorithms are used
     Message from routine setup:
     using ibrav=0 with symmetry is DISCOURAGED, use correct ibrav instead

     Subspace diagonalization in iterative solution of the eigenvalue problem:
     a serial algorithm will be used

     Using Slab Decomposition

     bravais-lattice index     =            0
     lattice parameter (alat)  =      10.1377  a.u.
     unit-cell volume          =    2298.4676 (a.u.)^3
     number of atoms/cell      =           20
     number of atomic types    =            3
     number of electrons       =       128.00
     number of Kohn-Sham states=           77
     kinetic-energy cutoff     =      30.0000  Ry
     charge density cutoff     =     240.0000  Ry
     scf convergence threshold =      1.0E-06
     mixing beta               =       0.7000
     number of iterations used =            8  plain     mixing
     Exchange-correlation= SLA  PW   PBX  PBC
                           (   1   4   3   4   0   0   0)

     celldm(1)=  10.137698  celldm(2)=   0.000000  celldm(3)=   0.000000
     celldm(4)=   0.000000  celldm(5)=   0.000000  celldm(6)=   0.000000

     crystal axes: (cart. coord. in units of alat)
               a(1) = (   1.000000   0.000000   0.000000 )
               a(2) = (   0.000000   0.872984   0.000000 )
               a(3) = (   0.000000   0.833454   2.527051 )

     reciprocal axes: (cart. coord. in units 2 pi/alat)
               b(1) = (  1.000000  0.000000  0.000000 )
               b(2) = (  0.000000  1.145497 -0.377800 )
               b(3) = (  0.000000  0.000000  0.395718 )

     PseudoPot. # 1 for K  read from file:
     /home/pragov/projects/rrg-bengioy-ad/pragov/crystal_structure_design/SSSP/K.pbe-spn-kjpaw_psl.1.0.0.UPF
     MD5 check sum: 7d58810084cac21f60fbe77ea2b688fd
     Pseudo is Projector augmented-wave + core cor, Zval =  9.0
     Generated using "atomic" code by A. Dal Corso  v.5.1
     Shape of augmentation charge: PSQ
     Using radial grid of 1165 points,  6 beta functions with:
                l(1) =   0
                l(2) =   0
                l(3) =   1
                l(4) =   1
                l(5) =   2
                l(6) =   2
     Q(r) pseudized with 0 coefficients

     PseudoPot. # 2 for N  read from file:
     /home/pragov/projects/rrg-bengioy-ad/pragov/crystal_structure_design/SSSP/N.pbe-n-radius_5.UPF
     MD5 check sum: 16739722b17309cd8fe442a2ace49922
     Pseudo is Ultrasoft + core correction, Zval =  5.0
     Generated using "atomic" code by A. Dal Corso  v.5.1
     Using radial grid of 1085 points,  4 beta functions with:
                l(1) =   0
                l(2) =   0
                l(3) =   1
                l(4) =   1
     Q(r) pseudized with 0 coefficients

     PseudoPot. # 3 for O  read from file:
     /home/pragov/projects/rrg-bengioy-ad/pragov/crystal_structure_design/SSSP/O.pbe-n-kjpaw_psl.0.1.UPF
     MD5 check sum: 0234752ac141de4415c5fc33072bef88
     Pseudo is Projector augmented-wave + core cor, Zval =  6.0
     Generated using "atomic" code by A. Dal Corso  v.5.0.99 svn rev. 10869
     Shape of augmentation charge: BESSEL
     Using radial grid of 1095 points,  4 beta functions with:
                l(1) =   0
                l(2) =   0
                l(3) =   1
                l(4) =   1
     Q(r) pseudized with 0 coefficients

     atomic species   valence    mass     pseudopotential
        K              9.00    39.09830     K ( 1.00)
        N              5.00    14.00700     N ( 1.00)
        O              6.00    15.99900     O ( 1.00)

      4 Sym. Ops., with inversion, found ( 2 have fractional translation)

                                    s                        frac. trans.

      isym =  1     identity

 cryst.   s( 1) = (     1          0          0      )
                  (     0          1          0      )
                  (     0          0          1      )

 cart.    s( 1) = (  1.0000000  0.0000000  0.0000000 )
                  (  0.0000000  1.0000000  0.0000000 )
                  (  0.0000000  0.0000000  1.0000000 )

      isym =  2     180 deg rotation - cart. axis [1,0,0]

 cryst.   s( 2) = (     1          0          0      )    f =(  0.5000000 )
                  (     0         -1          0      )       (  0.0000000 )
                  (     0          0         -1      )       ( -0.5000000 )

 cart.    s( 2) = (  1.0000000  0.0000000  0.0000000 )    f =(  0.5000000 )
                  (  0.0000000 -1.0000000 -0.0000000 )       ( -0.4167271 )
                  (  0.0000000  0.0000000 -1.0000000 )       ( -1.2635257 )

      isym =  3     inversion

 cryst.   s( 3) = (    -1          0          0      )
                  (     0         -1          0      )
                  (     0          0         -1      )

 cart.    s( 3) = ( -1.0000000  0.0000000  0.0000000 )
                  (  0.0000000 -1.0000000 -0.0000000 )
                  (  0.0000000  0.0000000 -1.0000000 )

      isym =  4     inv. 180 deg rotation - cart. axis [1,0,0]

 cryst.   s( 4) = (    -1          0          0      )    f =(  0.5000000 )
                  (     0          1          0      )       (  0.0000000 )
                  (     0          0          1      )       ( -0.5000000 )

 cart.    s( 4) = ( -1.0000000  0.0000000  0.0000000 )    f =(  0.5000000 )
                  (  0.0000000  1.0000000  0.0000000 )       ( -0.4167271 )
                  (  0.0000000  0.0000000  1.0000000 )       ( -1.2635257 )

   Cartesian axes

     site n.     atom                  positions (alat units)
         1           K   tau(   1) = (   0.9014640   1.0431285   1.5746184  )
         2           K   tau(   2) = (   0.4014640   1.0800366   2.2159588  )
         3           K   tau(   3) = (   0.0985360   0.6633095   0.9524331  )
         4           K   tau(   4) = (   0.5985360   0.6264014   0.3110927  )
         5           N   tau(   5) = (   0.4044070   0.5272493   1.5656853  )
         6           N   tau(   6) = (   0.9044070   1.5959159   2.2248919  )
         7           N   tau(   7) = (   0.5955930   1.1791888   0.9613662  )
         8           N   tau(   8) = (   0.0955930   0.1105222   0.3021595  )
         9           O   tau(   9) = (   0.2013670   0.6140324   1.4799222  )
        10           O   tau(  10) = (   0.7013670   1.5091328   2.3106550  )
        11           O   tau(  11) = (   0.7986330   1.0924057   1.0471293  )
        12           O   tau(  12) = (   0.2986330   0.1973053   0.2163965  )
        13           O   tau(  13) = (   0.6116220   0.6193358   1.5034162  )
        14           O   tau(  14) = (   0.1116220   1.5038294   2.2871610  )
        15           O   tau(  15) = (   0.3883780   1.0871023   1.0236353  )
        16           O   tau(  16) = (   0.8883780   0.2026086   0.2398905  )
        17           O   tau(  17) = (   0.8977570   0.9089684   2.0771150  )
        18           O   tau(  18) = (   0.3977570   1.2141968   1.7134622  )
        19           O   tau(  19) = (   0.1022430   0.7974697   0.4499365  )
        20           O   tau(  20) = (   0.6022430   0.4922413   0.8135893  )

   Crystallographic axes

     site n.     atom                  positions (cryst. coord.)
         1           K   tau(   1) = (  0.9014640  0.6000100  0.6231050  )
         2           K   tau(   2) = (  0.4014640  0.3999900  0.8768950  )
         3           K   tau(   3) = (  0.0985360  0.3999900  0.3768950  )
         4           K   tau(   4) = (  0.5985360  0.6000100  0.1231050  )
         5           N   tau(   5) = (  0.4044070  0.0124470  0.6195700  )
         6           N   tau(   6) = (  0.9044070  0.9875530  0.8804300  )
         7           N   tau(   7) = (  0.5955930  0.9875530  0.3804300  )
         8           N   tau(   8) = (  0.0955930  0.0124470  0.1195700  )
         9           O   tau(   9) = (  0.2013670  0.1442580  0.5856320  )
        10           O   tau(  10) = (  0.7013670  0.8557420  0.9143680  )
        11           O   tau(  11) = (  0.7986330  0.8557420  0.4143680  )
        12           O   tau(  12) = (  0.2986330  0.1442580  0.0856320  )
        13           O   tau(  13) = (  0.6116220  0.1414570  0.5949290  )
        14           O   tau(  14) = (  0.1116220  0.8585430  0.9050710  )
        15           O   tau(  15) = (  0.3883780  0.8585430  0.4050710  )
        16           O   tau(  16) = (  0.8883780  0.1414570  0.0949290  )
        17           O   tau(  17) = (  0.8977570  0.2564870  0.8219520  )
        18           O   tau(  18) = (  0.3977570  0.7435130  0.6780480  )
        19           O   tau(  19) = (  0.1022430  0.7435130  0.1780480  )
        20           O   tau(  20) = (  0.6022430  0.2564870  0.3219520  )

     number of k points=     1  Methfessel-Paxton smearing, width (Ry)=  0.0010
                       cart. coord. in units 2pi/alat
        k(    1) = (   0.0000000   0.0000000   0.0000000), wk =   2.0000000

                       cryst. coord.
        k(    1) = (   0.0000000   0.0000000   0.0000000), wk =   2.0000000

     Check: negative core charge=   -0.000012

     Initial potential from superposition of free atoms

     starting charge     127.9246, renormalised to     128.0000
     Starting wfcs are   96 randomized atomic wfcs
     Checking if some PAW data can be deallocated...

     Self-consistent Calculation

     iteration #  1     ecut=    30.00 Ry     beta= 0.70
     Davidson diagonalization with overlap

     ethr =  1.00E-02,  avg # of iterations =  6.0

     total energy              =   -1030.38776244 Ry
     estimated scf accuracy    <       2.86097043 Ry

[...]

     total energy              =   -1031.73503936 Ry
     estimated scf accuracy    <       0.00000447 Ry

     iteration #  9     ecut=    30.00 Ry     beta= 0.70
     Davidson diagonalization with overlap

     ethr =  3.49E-09,  avg # of iterations =  2.0

     End of self-consistent calculation

          k = 0.0000 0.0000 0.0000 (  3203 PWs)   bands (ev):

   -26.4488 -26.4419 -26.4393 -26.4328 -23.9604 -23.9590 -23.9392 -23.9365
   -18.5805 -18.5784 -18.5695 -18.5655 -18.4530 -18.4455 -18.4436 -18.4416
   -10.0732 -10.0728 -10.0348  -9.9622  -9.9501  -9.9359  -9.9253  -9.9221
    -9.9213  -9.9205  -9.8955  -9.8926  -8.1668  -8.0320  -8.0204  -8.0072
    -6.1437  -6.1143  -5.9222  -5.8424  -5.7199  -5.7156  -5.6914  -5.6789
    -5.4918  -5.4856  -5.4627  -5.4582  -0.5783  -0.5189  -0.5001  -0.4954
    -0.4119  -0.3881  -0.3442  -0.3386  -0.3362  -0.3200  -0.2450  -0.2290
    -0.1953  -0.1600  -0.1011  -0.0260   1.3980   1.4357   1.4683   1.5108
     4.8787   4.9192   4.9415   5.1314   6.3575   7.4969   7.7669   9.2229
     9.2619   9.4104   9.5317   9.6072  10.2227

     occupation numbers
     1.0000   1.0000   1.0000   1.0000   1.0000   1.0000   1.0000   1.0000
     1.0000   1.0000   1.0000   1.0000   1.0000   1.0000   1.0000   1.0000
     1.0000   1.0000   1.0000   1.0000   1.0000   1.0000   1.0000   1.0000
     1.0000   1.0000   1.0000   1.0000   1.0000   1.0000   1.0000   1.0000
     1.0000   1.0000   1.0000   1.0000   1.0000   1.0000   1.0000   1.0000
     1.0000   1.0000   1.0000   1.0000   1.0000   1.0000   1.0000   1.0000
     1.0000   1.0000   1.0000   1.0000   1.0000   1.0000   1.0000   1.0000
     1.0000   1.0000   1.0000   1.0000   1.0000   1.0000   1.0000   1.0000
    -0.0000  -0.0000  -0.0000  -0.0000  -0.0000  -0.0000  -0.0000  -0.0000
    -0.0000  -0.0000  -0.0000  -0.0000  -0.0000

     the Fermi energy is     3.4318 ev

!    total energy              =   -1031.73503994 Ry
     estimated scf accuracy    <       0.00000051 Ry
     smearing contrib. (-TS)   =       0.00000000 Ry
     internal energy E=F+TS    =   -1031.73503994 Ry

     The total energy is F=E-TS. E is the sum of the following terms:
     one-electron contribution =    -413.61517699 Ry
     hartree contribution      =     260.18251034 Ry
     xc contribution           =    -155.39519827 Ry
     ewald contribution        =    -386.89486188 Ry
     one-center paw contrib.   =    -336.01231313 Ry
      -> PAW hartree energy AE =     512.70610221 Ry
      -> PAW hartree energy PS =    -510.63222316 Ry
      -> PAW xc energy AE      =    -472.02521262 Ry
      -> PAW xc energy PS      =     133.93902044 Ry
      -> total E_H with PAW    =     262.25638938 Ry
      -> total E_XC with PAW   =    -493.48139045 Ry

     convergence has been achieved in   9 iterations

     Forces acting on atoms (cartesian axes, Ry/au):

     atom    1 type  1   force =    -0.00163962   -0.00075818   -0.00483002
     atom    2 type  1   force =    -0.00163962    0.00075818    0.00483002
     atom    3 type  1   force =     0.00163962    0.00075818    0.00483002
     atom    4 type  1   force =     0.00163962   -0.00075818   -0.00483002
     atom    5 type  2   force =     0.00307437    0.00736248   -0.00774524
     atom    6 type  2   force =     0.00307437   -0.00736248    0.00774524
     atom    7 type  2   force =    -0.00307437   -0.00736248    0.00774524
     atom    8 type  2   force =    -0.00307437    0.00736248   -0.00774524
     atom    9 type  3   force =     0.01554040   -0.00837803    0.00024033
     atom   10 type  3   force =     0.01554040    0.00837803   -0.00024033
     atom   11 type  3   force =    -0.01554040    0.00837803   -0.00024033
     atom   12 type  3   force =    -0.01554040   -0.00837803    0.00024033
     atom   13 type  3   force =    -0.02030412   -0.00608734    0.01026608
     atom   14 type  3   force =    -0.02030412    0.00608734   -0.01026608
     atom   15 type  3   force =     0.02030412    0.00608734   -0.01026608
     atom   16 type  3   force =     0.02030412   -0.00608734    0.01026608
     atom   17 type  3   force =    -0.00159910   -0.00397777   -0.00154244
     atom   18 type  3   force =    -0.00159910    0.00397777    0.00154244
     atom   19 type  3   force =     0.00159910    0.00397777    0.00154244
     atom   20 type  3   force =     0.00159910   -0.00397777   -0.00154244
     The non-local contrib.  to forces
     atom    1 type  1   force =     0.00550184    0.01076845   -0.00284747
     atom    2 type  1   force =     0.00550184   -0.01076845    0.00284747
     atom    3 type  1   force =    -0.00550184   -0.01076845    0.00284747
     atom    4 type  1   force =    -0.00550184    0.01076845   -0.00284747
     atom    5 type  2   force =    -0.00286762   -0.00490519   -0.05207097
     atom    6 type  2   force =    -0.00286762    0.00490519    0.05207097
     atom    7 type  2   force =     0.00286762    0.00490519    0.05207097
     atom    8 type  2   force =     0.00286762   -0.00490519   -0.05207097
     atom    9 type  3   force =     2.17878886   -0.89328181    0.92162889
     atom   10 type  3   force =     2.17878886    0.89328181   -0.92162889
     atom   11 type  3   force =    -2.17878886    0.89328181   -0.92162889
     atom   12 type  3   force =    -2.17878886   -0.89328181    0.92162889
     atom   13 type  3   force =    -2.29294069   -1.02217334    0.73022419
     atom   14 type  3   force =    -2.29294069    1.02217334   -0.73022419
     atom   15 type  3   force =     2.29294069    1.02217334   -0.73022419
     atom   16 type  3   force =     2.29294069   -1.02217334    0.73022419
     atom   17 type  3   force =     0.07008893   -1.86998604    1.61711358
     atom   18 type  3   force =     0.07008893    1.86998604   -1.61711358
     atom   19 type  3   force =    -0.07008893    1.86998604   -1.61711358
     atom   20 type  3   force =    -0.07008893   -1.86998604    1.61711358
     The ionic contribution  to forces
     atom    1 type  1   force =     0.47468848   -0.80318676    1.18208886
     atom    2 type  1   force =     0.47468848    0.80318676   -1.18208886
     atom    3 type  1   force =    -0.47468848    0.80318676   -1.18208886
     atom    4 type  1   force =    -0.47468848   -0.80318676    1.18208886
     atom    5 type  2   force =    -0.20676958    0.75547782    1.23763728
     atom    6 type  2   force =    -0.20676958   -0.75547782   -1.23763728
     atom    7 type  2   force =     0.20676958   -0.75547782   -1.23763728
     atom    8 type  2   force =     0.20676958    0.75547782    1.23763728
     atom    9 type  3   force =   -10.05626712    5.08198990   -3.31811322
     atom   10 type  3   force =   -10.05626712   -5.08198990    3.31811322
     atom   11 type  3   force =    10.05626712   -5.08198990    3.31811322
     atom   12 type  3   force =    10.05626712    5.08198990   -3.31811322
     atom   13 type  3   force =    10.42807059    5.58372679   -2.40960213
     atom   14 type  3   force =    10.42807059   -5.58372679    2.40960213
     atom   15 type  3   force =   -10.42807059   -5.58372679    2.40960213
     atom   16 type  3   force =   -10.42807059    5.58372679   -2.40960213
     atom   17 type  3   force =    -0.39368170    9.14901893   -8.42988566
     atom   18 type  3   force =    -0.39368170   -9.14901893    8.42988566
     atom   19 type  3   force =     0.39368170   -9.14901893    8.42988566
     atom   20 type  3   force =     0.39368170    9.14901893   -8.42988566
     The local contribution  to forces
     atom    1 type  1   force =    -0.48151801    0.79192994   -1.18403855
     atom    2 type  1   force =    -0.48149614   -0.79194191    1.18399537
     atom    3 type  1   force =     0.48151609   -0.79191259    1.18407364
     atom    4 type  1   force =     0.48151384    0.79192257   -1.18406300
     atom    5 type  2   force =     0.21257732   -0.74358238   -1.19329416
     atom    6 type  2   force =     0.21254886    0.74357070    1.19327954
     atom    7 type  2   force =    -0.21259528    0.74352116    1.19338696
     atom    8 type  2   force =    -0.21255388   -0.74357086   -1.19332506
     atom    9 type  3   force =     7.91497371   -4.20574914    2.40619018
     atom   10 type  3   force =     7.91496282    4.20574721   -2.40620383
     atom   11 type  3   force =    -7.91493605    4.20573290   -2.40612685
     atom   12 type  3   force =    -7.91494926   -4.20575128    2.40615658
     atom   13 type  3   force =    -8.17830784   -4.57763164    1.69706973
     atom   14 type  3   force =    -8.17833949    4.57764473   -1.69710172
     atom   15 type  3   force =     8.17827941    4.57762177   -1.69701279
     atom   16 type  3   force =     8.17829820   -4.57763961    1.69703496
     atom   17 type  3   force =     0.32273287   -7.30126633    6.82738189
     atom   18 type  3   force =     0.32274104    7.30125462   -6.82739382
     atom   19 type  3   force =    -0.32273645    7.30126409   -6.82740250
     atom   20 type  3   force =    -0.32274728   -7.30129393    6.82745441
     The core correction contribution to forces
     atom    1 type  1   force =    -0.00033000   -0.00027620    0.00025777
     atom    2 type  1   force =    -0.00033016    0.00027605   -0.00025777
     atom    3 type  1   force =     0.00032976    0.00027622   -0.00025841
     atom    4 type  1   force =     0.00033023   -0.00027659    0.00025864
     atom    5 type  2   force =     0.00021177    0.00010025    0.00036404
     atom    6 type  2   force =     0.00021230   -0.00010035   -0.00036405
     atom    7 type  2   force =    -0.00021217   -0.00009995   -0.00036422
     atom    8 type  2   force =    -0.00021193    0.00010011    0.00036410
     atom    9 type  3   force =    -0.02148969    0.00849178   -0.00910239
     atom   10 type  3   force =    -0.02148949   -0.00849180    0.00910253
     atom   11 type  3   force =     0.02148977   -0.00849161    0.00910225
     atom   12 type  3   force =     0.02148959    0.00849166   -0.00910234
     atom   13 type  3   force =     0.02242841    0.00978349   -0.00709053
     atom   14 type  3   force =     0.02242851   -0.00978350    0.00709051
     atom   15 type  3   force =    -0.02242857   -0.00978327    0.00709037
     atom   16 type  3   force =    -0.02242851    0.00978334   -0.00709044
     atom   17 type  3   force =    -0.00070257    0.01802153   -0.01613211
     atom   18 type  3   force =    -0.00070272   -0.01802155    0.01613216
     atom   19 type  3   force =     0.00070259   -0.01802155    0.01613213
     atom   20 type  3   force =     0.00070275    0.01802164   -0.01613232
     The Hubbard contrib.    to forces
     atom    1 type  1   force =     0.00000000    0.00000000    0.00000000
     atom    2 type  1   force =     0.00000000    0.00000000    0.00000000
     atom    3 type  1   force =     0.00000000    0.00000000    0.00000000
     atom    4 type  1   force =     0.00000000    0.00000000    0.00000000
     atom    5 type  2   force =     0.00000000    0.00000000    0.00000000
     atom    6 type  2   force =     0.00000000    0.00000000    0.00000000
     atom    7 type  2   force =     0.00000000    0.00000000    0.00000000
     atom    8 type  2   force =     0.00000000    0.00000000    0.00000000
     atom    9 type  3   force =     0.00000000    0.00000000    0.00000000
     atom   10 type  3   force =     0.00000000    0.00000000    0.00000000
     atom   11 type  3   force =     0.00000000    0.00000000    0.00000000
     atom   12 type  3   force =     0.00000000    0.00000000    0.00000000
     atom   13 type  3   force =     0.00000000    0.00000000    0.00000000
     atom   14 type  3   force =     0.00000000    0.00000000    0.00000000
     atom   15 type  3   force =     0.00000000    0.00000000    0.00000000
     atom   16 type  3   force =     0.00000000    0.00000000    0.00000000
     atom   17 type  3   force =     0.00000000    0.00000000    0.00000000
     atom   18 type  3   force =     0.00000000    0.00000000    0.00000000
     atom   19 type  3   force =     0.00000000    0.00000000    0.00000000
     atom   20 type  3   force =     0.00000000    0.00000000    0.00000000
     The SCF correction term to forces
     atom    1 type  1   force =     0.00001652    0.00000993   -0.00030501
     atom    2 type  1   force =    -0.00000387    0.00000185    0.00035379
     atom    3 type  1   force =    -0.00002840   -0.00002854    0.00024142
     atom    4 type  1   force =    -0.00000341    0.00000195   -0.00024747
     atom    5 type  2   force =    -0.00010087    0.00028857   -0.00039653
     atom    6 type  2   force =    -0.00002215   -0.00028344    0.00040995
     atom    7 type  2   force =     0.00009710   -0.00017183    0.00025952
     atom    8 type  2   force =     0.00005713    0.00026003   -0.00035088
     atom    9 type  3   force =    -0.00046519    0.00017316   -0.00036670
     atom   10 type  3   force =    -0.00044829   -0.00017465    0.00038637
     atom   11 type  3   force =     0.00043713   -0.00014856    0.00028871
     atom   12 type  3   force =     0.00043806    0.00017284   -0.00032749
     atom   13 type  3   force =     0.00044662    0.00021261   -0.00034221
     atom   14 type  3   force =     0.00047165   -0.00022329    0.00037247
     atom   15 type  3   force =    -0.00041806   -0.00019049    0.00026981
     atom   16 type  3   force =    -0.00043851    0.00021460   -0.00029676
     atom   17 type  3   force =    -0.00003075    0.00023390   -0.00001659
     atom   18 type  3   force =    -0.00004800   -0.00022109    0.00003077
     atom   19 type  3   force =     0.00003651   -0.00023277    0.00003903
     atom   20 type  3   force =     0.00005708    0.00026233   -0.00009894

     Total force =     0.064419     Total SCF correction =     0.002039

     Computing stress (Cartesian axis) and pressure

          total   stress  (Ry/bohr**3)                   (kbar)     P=     -260.57
  -0.00161022   0.00000000   0.00000000         -236.87        0.00        0.00
   0.00000000  -0.00188436  -0.00008464            0.00     -277.20      -12.45
   0.00000000  -0.00008464  -0.00181940            0.00      -12.45     -267.64

     kinetic stress (kbar)  14343.64      0.00      0.00
                                0.00  14563.90    308.80
                                0.00    308.80  14745.59

     local   stress (kbar) -19657.10     -0.01      0.00
                               -0.01 -11670.78   8265.05
                                0.00   8265.05  -5971.34

     nonloc. stress (kbar)   3350.91      0.00      0.00
                                0.00   3364.03     22.43
                                0.00     22.43   3377.29

     hartree stress (kbar)   8086.58      0.01     -0.00
                                0.01   5340.45  -2788.63
                               -0.00  -2788.63   3225.01

     exc-cor stress (kbar)  -1917.20      0.00     -0.00
                                0.00  -1931.59    -17.59
                               -0.00    -17.59  -1940.48

     corecor stress (kbar)  -1110.04      0.00     -0.00
                                0.00  -1109.31      0.22
                               -0.00      0.22  -1109.49

     ewald   stress (kbar)  -3333.67     -0.00      0.00
                               -0.00  -8833.90  -5802.73
                                0.00  -5802.73 -12594.23

     hubbard stress (kbar)      0.00      0.00      0.00
                                0.00      0.00      0.00
                                0.00      0.00      0.00

     DFT-D   stress (kbar)      0.00      0.00      0.00
                                0.00      0.00      0.00
                                0.00      0.00      0.00

     XDM     stress (kbar)      0.00      0.00      0.00
                                0.00      0.00      0.00
                                0.00      0.00      0.00

     dft-nl  stress (kbar)      0.00      0.00      0.00
                                0.00      0.00      0.00
                                0.00      0.00      0.00

     TS-vdW  stress (kbar)      0.00      0.00      0.00
                                0.00      0.00      0.00
                                0.00      0.00      0.00

[...]

                                0.00      0.00      0.00

     Writing all to output data dir new_calculations/myprefix.save/

     General routines

     Parallel routines

     PAW routines

   This run was terminated on:  14:39:30  21May2023

   JOB DONE.