     Program PWSCF v.7.0 starts on 21May2023 at  1:30: 5

     Reading input from espresso_23270.pwi
Warning: card &CELL ignored
Warning: card / ignored

     Current dimensions of program PWSCF are:
     Max number of different atomic species (ntypx) = 10
     Max number of k-points (npk) =  40000
     Max angular momentum in pseudopotentials (lmaxx) =  4

     gamma-point specific algorithms are used
     Message from routine setup:
     using ibrav=0 with symmetry is DISCOURAGED, use correct ibrav instead

     Subspace diagonalization in iterative solution of the eigenvalue problem:
     a serial algorithm will be used

     Using Slab Decomposition

     bravais-lattice index     =            0
     lattice parameter (alat)  =      15.1999  a.u.
     unit-cell volume          =     755.4289 (a.u.)^3
     number of atoms/cell      =            4
     number of atomic types    =            3
     number of electrons       =        40.00
     number of Kohn-Sham states=           24
     kinetic-energy cutoff     =      30.0000  Ry
     charge density cutoff     =     240.0000  Ry
     scf convergence threshold =      1.0E-06
     mixing beta               =       0.7000
     number of iterations used =            8  plain     mixing
     Exchange-correlation=  SLA  PW   PBX  PBC
                           (   1   4   3   4   0   0   0)

     celldm(1)=  15.199873  celldm(2)=   0.000000  celldm(3)=   0.000000
     celldm(4)=   0.000000  celldm(5)=   0.000000  celldm(6)=   0.000000

     crystal axes: (cart. coord. in units of alat)
               a(1) = (   1.000000   0.000000   0.000000 )
               a(2) = (   0.870046   0.492971   0.000000 )
               a(3) = (   0.870045   0.229357   0.436367 )

     reciprocal axes: (cart. coord. in units 2 pi/alat)
               b(1) = (  1.000000 -1.764901 -1.066198 )
               b(2) = (  0.000000  2.028516 -1.066198 )
               b(3) = (  0.000000  0.000000  2.291648 )

     PseudoPot. # 1 for Rb read from file:
     /home/pragov/projects/rrg-bengioy-ad/pragov/crystal_structure_design/SSSP/Rb_ONCV_PBE-1.0.oncvpsp.upf
     MD5 check sum: 55a5172d6bfbce6759a58e35d43f6aa9
     Pseudo is Norm-conserving, Zval =  9.0
     Generated using ONCVPSP code by D. R. Hamann
     Using radial grid of 2308 points,  6 beta functions with:
                l(1) =   0
                l(2) =   0
                l(3) =   1
                l(4) =   1
                l(5) =   2
                l(6) =   2

     PseudoPot. # 2 for Tb read from file:
     /home/pragov/projects/rrg-bengioy-ad/pragov/crystal_structure_design/SSSP/Tb.GGA-PBE-paw-v1.0.UPF
     MD5 check sum: f7bf3d58e9b293961564f5b9598c921e
     Pseudo is Projector augmented-wave + core cor, Zval = 19.0
     Generated using ATOMPAW code
     Shape of augmentation charge: BESSEL
     Using radial grid of 1111 points,  8 beta functions with:
                l(1) =   0
                l(2) =   0
                l(3) =   1
                l(4) =   1
                l(5) =   2
                l(6) =   2
                l(7) =   3
                l(8) =   3
     Q(r) pseudized with 0 coefficients

     PseudoPot. # 3 for S  read from file:
     /home/pragov/projects/rrg-bengioy-ad/pragov/crystal_structure_design/SSSP/s_pbe_v1.4.uspp.F.UPF
     MD5 check sum: 88d86576ff6df21479756cfb9bdac1df
     Pseudo is Ultrasoft + core correction, Zval =  6.0
     Generated by new atomic code, or converted to UPF format
     Using radial grid of  907 points,  6 beta functions with:
                l(1) =   0
                l(2) =   0
                l(3) =   1
                l(4) =   1
                l(5) =   2
                l(6) =   2
     Q(r) pseudized with  8 coefficients,  rinner =    1.300   1.300   1.300
                                                       1.300   1.300

     atomic species   valence    mass     pseudopotential
        Rb             9.00    85.46780     Rb( 1.00)
        Tb            19.00   158.92535     Tb( 1.00)
        S              6.00    32.06000     S ( 1.00)

      2 Sym. Ops., with inversion, found

                                    s                        frac. trans.

      isym =  1     identity

 cryst.   s( 1) = (     1          0          0      )
                  (     0          1          0      )
                  (     0          0          1      )

 cart.    s( 1) = (  1.0000000  0.0000000  0.0000000 )
                  (  0.0000000  1.0000000 -0.0000000 )
                  (  0.0000000  0.0000000  1.0000000 )

      isym =  2     inversion

 cryst.   s( 2) = (    -1          0          0      )
                  (     0         -1          0      )
                  (     0          0         -1      )

 cart.    s( 2) = ( -1.0000000 -0.0000000 -0.0000000 )
                  (  0.0000000 -1.0000000  0.0000000 )
                  (  0.0000000  0.0000000 -1.0000000 )

   Cartesian axes

     site n.     atom                  positions (alat units)
         1           Rb  tau(   1) = (   0.0000000   0.0000000   0.0000000  )
         2           Tb  tau(   2) = (   1.3700455   0.3611640   0.2181836  )
         3           S   tau(   3) = (   2.1075876   0.5555909   0.3356392  )
         4           S   tau(   4) = (   0.6325034   0.1667371   0.1007279  )

   Crystallographic axes

     site n.     atom                  positions (cryst. coord.)
         1           Rb  tau(   1) = (  0.0000000  0.0000000  0.0000000  )
         2           Tb  tau(   2) = (  0.5000000  0.5000000  0.5000000  )
         3           S   tau(   3) = (  0.7691670  0.7691670  0.7691670  )
         4           S   tau(   4) = (  0.2308330  0.2308330  0.2308330  )

     number of k points=     1  Methfessel-Paxton smearing, width (Ry)=  0.0010
                       cart. coord. in units 2pi/alat
        k(    1) = (   0.0000000   0.0000000   0.0000000), wk =   2.0000000

                       cryst. coord.
        k(    1) = (   0.0000000   0.0000000   0.0000000), wk =   2.0000000

     Initial potential from superposition of free atoms

     starting charge      39.9707, renormalised to      40.0000
     Starting wfcs are   45 randomized atomic wfcs
     Checking if some PAW data can be deallocated...

     Self-consistent Calculation

     iteration #  1     ecut=    30.00 Ry     beta= 0.70
     Davidson diagonalization with overlap

     ethr =  1.00E-02,  avg # of iterations =  2.0

     total energy              =    -818.21673221 Ry
     estimated scf accuracy    <       6.68954320 Ry

[...]

     negative rho (up, down):  9.158E-03 0.000E+00

[...]

     ethr =  2.46E-05,  avg # of iterations =  1.0
     Minimization algorithm failed to find Fermi energy: reverting to bisection
     Possible cause: smearing is larger than the electronic band-gap.

[...]

     total energy              =    -825.70769443 Ry
     estimated scf accuracy    <       0.00000198 Ry

     iteration # 93     ecut=    30.00 Ry     beta= 0.70
     Davidson diagonalization with overlap

     ethr =  2.53E-09,  avg # of iterations =  1.0

     End of self-consistent calculation

          k = 0.0000 0.0000 0.0000 (  1045 PWs)   bands (ev):

   -35.5046 -19.6806 -12.9212 -12.4702 -12.4686  -4.5072  -4.4198  -3.6779
    -3.6707  -2.9404   3.9538   5.3088   5.3309   6.2129   6.4294   6.4385
     7.9172   8.0348   8.1428   8.3345   8.3466   8.4968   8.5393   9.7005

     occupation numbers
     1.0000   1.0000   1.0000   1.0000   1.0000   1.0000   1.0000   1.0000
     1.0000   1.0000   1.0000   1.0000   1.0000   1.0000   1.0000   1.0000
     1.0000   1.0000   1.0000   0.8393   0.1607  -0.0000  -0.0000  -0.0000

     the Fermi energy is     8.3406 ev

!    total energy              =    -825.70769427 Ry
     estimated scf accuracy    <       0.00000054 Ry
     smearing contrib. (-TS)   =      -0.00027790 Ry
     internal energy E=F+TS    =    -825.70741637 Ry

     The total energy is F=E-TS. E is the sum of the following terms:
     one-electron contribution =    -223.11505189 Ry
     hartree contribution      =     130.02439426 Ry
     xc contribution           =     -49.88382294 Ry
     ewald contribution        =    -209.44849798 Ry
     one-center paw contrib.   =    -473.28443782 Ry
      -> PAW hartree energy AE =     218.18320654 Ry
      -> PAW hartree energy PS =    -204.49927414 Ry
      -> PAW xc energy AE      =    -510.91960355 Ry
      -> PAW xc energy PS      =      23.95123333 Ry
      -> total E_H with PAW    =     143.70832667 Ry
      -> total E_XC with PAW   =    -536.85219317 Ry

     convergence has been achieved in  93 iterations

     Forces acting on atoms (cartesian axes, Ry/au):

     atom    1 type  1   force =     0.00000000    0.00000000    0.00000000
     atom    2 type  2   force =     0.00000000    0.00000000    0.00000000
     atom    3 type  3   force =     0.08879314    0.02454990    0.01349841
     atom    4 type  3   force =    -0.08879314   -0.02454990   -0.01349841
     The non-local contrib.  to forces
     atom    1 type  1   force =     0.00000000    0.00000000    0.00000000
     atom    2 type  2   force =     0.00000000    0.00000000    0.00000000
     atom    3 type  3   force =    -0.12808023   -0.02343318   -0.02628318
     atom    4 type  3   force =     0.12808023    0.02343318    0.02628318
     The ionic contribution  to forces
     atom    1 type  1   force =    -0.00000000   -0.00000000   -0.00000000
     atom    2 type  2   force =     0.00000000    0.00000000   -0.00000000
     atom    3 type  3   force =    -9.13454894   -2.40800044   -1.45470294
     atom    4 type  3   force =     9.13454894    2.40800044    1.45470295
     The local contribution  to forces
     atom    1 type  1   force =    -0.00000656   -0.00000133   -0.00000080
     atom    2 type  2   force =    -0.00000353   -0.00000013    0.00000244
     atom    3 type  3   force =     9.34409731    2.45472394    1.49294066
     atom    4 type  3   force =    -9.34409280   -2.45472305   -1.49293724
     The core correction contribution to forces
     atom    1 type  1   force =     0.00000000    0.00000000    0.00000000
     atom    2 type  2   force =    -0.00000000   -0.00000000   -0.00000000
     atom    3 type  3   force =     0.00747232    0.00137245    0.00153048
     atom    4 type  3   force =    -0.00747228   -0.00137234   -0.00153030
     The Hubbard contrib.    to forces
     atom    1 type  1   force =     0.00000000    0.00000000    0.00000000
     atom    2 type  2   force =     0.00000000    0.00000000    0.00000000
     atom    3 type  3   force =     0.00000000    0.00000000    0.00000000
     atom    4 type  3   force =     0.00000000    0.00000000    0.00000000
     The SCF correction term to forces
     atom    1 type  1   force =     0.00001065    0.00000251    0.00000164
     atom    2 type  2   force =    -0.00001227   -0.00000730   -0.00000211
     atom    3 type  3   force =    -0.00014800   -0.00011268    0.00001448
     atom    4 type  3   force =     0.00014209    0.00011204   -0.00001590

     Total force =     0.131675     Total SCF correction =     0.000261

     Computing stress (Cartesian axis) and pressure

          total   stress  (Ry/bohr**3)                   (kbar)     P=       73.23
  -0.00046289  -0.00041100  -0.00022794          -68.09      -60.46      -33.53
  -0.00041100   0.00094838  -0.00007628          -60.46      139.51      -11.22
  -0.00022794  -0.00007628   0.00100789          -33.53      -11.22      148.27

     kinetic stress (kbar)   6724.13   -112.07    -38.10
                             -112.07   7063.06    -39.77
                              -38.10    -39.77   7060.40

     local   stress (kbar)  10950.65   6424.28   3872.68
                             6424.28 -11697.86   1019.97
                             3872.68   1019.97 -12781.30

     nonloc. stress (kbar)   5437.73     -9.79    -24.18
                               -9.79   5498.08     19.15
                              -24.18     19.15   5524.01

     hartree stress (kbar)   1140.75  -3030.36  -1830.53
                            -3030.36  11833.97   -479.93
                            -1830.53   -479.93  12345.01

     exc-cor stress (kbar)  -1177.88     -0.54      0.06
                               -0.54  -1176.77     -0.34
                                0.06     -0.34  -1176.92

     corecor stress (kbar)  -1517.19      1.74      0.47
                                1.74  -1522.05      0.60
                                0.47      0.60  -1522.10

     ewald   stress (kbar) -21626.27  -3333.71  -2013.94
                            -3333.71  -9858.92   -530.90
                            -2013.94   -530.90  -9300.83

     hubbard stress (kbar)      0.00      0.00      0.00
                                0.00      0.00      0.00
                                0.00      0.00      0.00

     DFT-D   stress (kbar)      0.00      0.00      0.00
                                0.00      0.00      0.00
                                0.00      0.00      0.00

     XDM     stress (kbar)      0.00      0.00      0.00
                                0.00      0.00      0.00
                                0.00      0.00      0.00

     dft-nl  stress (kbar)      0.00      0.00      0.00
                                0.00      0.00      0.00
                                0.00      0.00      0.00

     TS-vdW  stress (kbar)      0.00      0.00      0.00
                                0.00      0.00      0.00
                                0.00      0.00      0.00

[...]

                                0.00      0.00      0.00

     Writing all to output data dir new_calculations/myprefix.save/

     General routines

     Parallel routines

     PAW routines

   This run was terminated on:   1:32: 2  21May2023

   JOB DONE.