     Program PWSCF v.7.0 starts on 20May2023 at  9:43: 3

     Reading input from espresso_4305.pwi
Warning: card &CELL ignored
Warning: card / ignored

     Current dimensions of program PWSCF are:
     Max number of different atomic species (ntypx) = 10
     Max number of k-points (npk) =  40000
     Max angular momentum in pseudopotentials (lmaxx) =  4
     file O.pbe-n-kjpaw_psl.0.1.UPF: wavefunction(s)  2P renormalized

     gamma-point specific algorithms are used
     Message from routine setup:
     using ibrav=0 with symmetry is DISCOURAGED, use correct ibrav instead

     Subspace diagonalization in iterative solution of the eigenvalue problem:
     a serial algorithm will be used

     Using Slab Decomposition

     bravais-lattice index     =            0
     lattice parameter (alat)  =      12.9858  a.u.
     unit-cell volume          =    1067.4204 (a.u.)^3
     number of atoms/cell      =           10
     number of atomic types    =            3
     number of electrons       =       116.00
     number of Kohn-Sham states=           70
     kinetic-energy cutoff     =      30.0000  Ry
     charge density cutoff     =     240.0000  Ry
     scf convergence threshold =      1.0E-06
     mixing beta               =       0.7000
     number of iterations used =            8  plain     mixing
     Exchange-correlation=  SLA  PW   PBX  PBC
                           (   1   4   3   4   0   0   0)

     celldm(1)=  12.985830  celldm(2)=   0.000000  celldm(3)=   0.000000
     celldm(4)=   0.000000  celldm(5)=   0.000000  celldm(6)=   0.000000

     crystal axes: (cart. coord. in units of alat)
               a(1) = (   1.000000   0.000000   0.000000 )
               a(2) = (   0.546159   0.698223   0.000000 )
               a(3) = (   0.453841  -0.011778   0.698124 )

     reciprocal axes: (cart. coord. in units 2 pi/alat)
               b(1) = (  1.000000 -0.782213 -0.663283 )
               b(2) = (  0.000000  1.432207  0.024162 )
               b(3) = (  0.000000  0.000000  1.432411 )

     PseudoPot. # 1 for Cu read from file:
     /home/pragov/projects/rrg-bengioy-ad/pragov/crystal_structure_design/SSSP/Cu_pbe_v1.2.uspp.F.UPF
     MD5 check sum: 6e991ff952a84172a2a52a1c1e996048
     Pseudo is Ultrasoft + core correction, Zval = 19.0
     Generated by new atomic code, or converted to UPF format
     Using radial grid of  867 points,  6 beta functions with:
                l(1) =   0
                l(2) =   0
                l(3) =   1
                l(4) =   1
                l(5) =   2
                l(6) =   2
     Q(r) pseudized with  8 coefficients,  rinner =    1.150   1.150   1.150
                                                       1.150   1.150

     PseudoPot. # 2 for O  read from file:
     /home/pragov/projects/rrg-bengioy-ad/pragov/crystal_structure_design/SSSP/O.pbe-n-kjpaw_psl.0.1.UPF
     MD5 check sum: 0234752ac141de4415c5fc33072bef88
     Pseudo is Projector augmented-wave + core cor, Zval =  6.0
     Generated using "atomic" code by A. Dal Corso  v.5.0.99 svn rev. 10869
     Shape of augmentation charge: BESSEL
     Using radial grid of 1095 points,  4 beta functions with:
                l(1) =   0
                l(2) =   0
                l(3) =   1
                l(4) =   1
     Q(r) pseudized with 0 coefficients

     PseudoPot. # 3 for F  read from file:
     /home/pragov/projects/rrg-bengioy-ad/pragov/crystal_structure_design/SSSP/f_pbe_v1.4.uspp.F.UPF
     MD5 check sum: 4c38b6a325caf53ec0e86aed9459de46
     Pseudo is Ultrasoft, Zval =  7.0
     Generated by new atomic code, or converted to UPF format
     Using radial grid of  799 points,  4 beta functions with:
                l(1) =   0
                l(2) =   0
                l(3) =   1
                l(4) =   1
     Q(r) pseudized with  8 coefficients,  rinner =    0.950   0.950   0.950

     atomic species   valence    mass     pseudopotential
        Cu            19.00    63.54600     Cu( 1.00)
        O              6.00    15.99900     O ( 1.00)
        F              7.00    18.99840     F ( 1.00)

      2 Sym. Ops., with inversion, found ( 1 have fractional translation)

                                    s                        frac. trans.

      isym =  1     identity

 cryst.   s( 1) = (     1          0          0      )
                  (     0          1          0      )
                  (     0          0          1      )

 cart.    s( 1) = (  1.0000000 -0.0000000 -0.0000000 )
                  (  0.0000000  1.0000000  0.0000000 )
                  (  0.0000000  0.0000000  1.0000000 )

      isym =  2     inversion

 cryst.   s( 2) = (    -1          0          0      )    f =( -0.2500000 )
                  (     0         -1          0      )       ( -0.2500000 )
                  (     0          0         -1      )       ( -0.2500000 )

 cart.    s( 2) = ( -1.0000000  0.0000000  0.0000000 )    f =( -0.5000000 )
                  (  0.0000000 -1.0000000 -0.0000000 )       ( -0.1716113 )
                  (  0.0000000  0.0000000 -1.0000000 )       ( -0.1745309 )

   Cartesian axes

     site n.     atom                  positions (alat units)
         1           Cu  tau(   1) = (   0.4769203   0.0799169   0.4363272  )
         2           Cu  tau(   2) = (   0.2500000   0.0858057   0.0872654  )
         3           Cu  tau(   3) = (   0.5230797   0.4349171   0.0872654  )
         4           Cu  tau(   4) = (   0.7500000   0.0858057   0.0872654  )
         5           O   tau(   5) = (   0.5000000   0.1716113   0.1745309  )
         6           O   tau(   6) = (   0.0000000   0.0000000   0.0000000  )
         7           F   tau(   7) = (   0.7342159   0.1704646   0.5189299  )
         8           F   tau(   8) = (   1.2342159   0.3420760   0.6934608  )
         9           F   tau(   9) = (   1.2657841   0.5159807   0.1791937  )
        10           F   tau(  10) = (   1.7657841   0.6875920   0.3537246  )

   Crystallographic axes

     site n.     atom                  positions (cryst. coord.)
         1           Cu  tau(   1) = (  0.1250000  0.1250000  0.6250000  )
         2           Cu  tau(   2) = (  0.1250000  0.1250000  0.1250000  )
         3           Cu  tau(   3) = (  0.1250000  0.6250000  0.1250000  )
         4           Cu  tau(   4) = (  0.6250000  0.1250000  0.1250000  )
         5           O   tau(   5) = (  0.2500000  0.2500000  0.2500000  )
         6           O   tau(   6) = (  0.0000000  0.0000000  0.0000000  )
         7           F   tau(   7) = (  0.2566790  0.2566790  0.7433210  )
         8           F   tau(   8) = (  0.5066790  0.5066790  0.9933210  )
         9           F   tau(   9) = (  0.7433210  0.7433210  0.2566790  )
        10           F   tau(  10) = (  0.9933210  0.9933210  0.5066790  )

     number of k points=     1  Methfessel-Paxton smearing, width (Ry)=  0.0010
                       cart. coord. in units 2pi/alat
        k(    1) = (   0.0000000   0.0000000   0.0000000), wk =   2.0000000

                       cryst. coord.
        k(    1) = (   0.0000000   0.0000000   0.0000000), wk =   2.0000000

     Check: negative core charge=   -0.000007

     Initial potential from superposition of free atoms

     starting charge     112.0000, renormalised to     116.0000
     Starting wfcs are   76 randomized atomic wfcs
     Checking if some PAW data can be deallocated...

     Self-consistent Calculation

     iteration #  1     ecut=    30.00 Ry     beta= 0.70
     Davidson diagonalization with overlap

     ethr =  1.00E-02,  avg # of iterations =  4.0

     total energy              =   -1890.14730006 Ry
     estimated scf accuracy    <       3.54655358 Ry

[...]

     total energy              =   -1892.29771361 Ry
     estimated scf accuracy    <       0.00000233 Ry

     iteration # 16     ecut=    30.00 Ry     beta= 0.70
     Davidson diagonalization with overlap

     ethr =  2.01E-09,  avg # of iterations =  2.0

     End of self-consistent calculation

          k = 0.0000 0.0000 0.0000 (  1469 PWs)   bands (ev):

  -108.4162-108.4148-108.4143-108.4114 -66.1373 -66.1303 -66.1293 -66.1201
   -65.7976 -65.7944 -65.7891 -65.7877 -65.4457 -65.4452 -65.4447 -65.4441
   -18.8956 -18.7749 -18.7031 -18.6810 -15.2060 -14.8280  -3.2972  -2.9745
    -2.0319  -1.6161  -1.4841  -1.3756  -1.2993  -1.1528  -1.0172  -0.9743
    -0.5822  -0.3373  -0.0890   0.1555   0.3864   0.4925   0.6387   0.9504
     1.3349   1.6625   1.7009   1.7173   1.7542   1.9860   1.9931   2.0133
     2.0291   2.0782   2.1316   2.4441   2.4621   2.5812   2.6588   2.7087
     3.3560   4.3923   4.4850   4.6396   6.3865  10.0763  11.0693  11.1699
    11.2248  11.9655  12.0342  12.2450  13.1098  13.7261

     occupation numbers
     1.0000   1.0000   1.0000   1.0000   1.0000   1.0000   1.0000   1.0000
     1.0000   1.0000   1.0000   1.0000   1.0000   1.0000   1.0000   1.0000
     1.0000   1.0000   1.0000   1.0000   1.0000   1.0000   1.0000   1.0000
     1.0000   1.0000   1.0000   1.0000   1.0000   1.0000   1.0000   1.0000
     1.0000   1.0000   1.0000   1.0000   1.0000   1.0000   1.0000   1.0000
     1.0000   1.0000   1.0000   1.0000   1.0000   1.0000   1.0000   1.0000
     1.0000   1.0000   1.0000   1.0000   1.0000   1.0000   1.0000   1.0000
     1.0000   1.0000  -0.0000  -0.0000  -0.0000  -0.0000  -0.0000  -0.0000
    -0.0000  -0.0000  -0.0000  -0.0000  -0.0000  -0.0000

     the Fermi energy is     4.4386 ev

!    total energy              =   -1892.29771328 Ry
     estimated scf accuracy    <       0.00000066 Ry
     smearing contrib. (-TS)   =       0.00000011 Ry
     internal energy E=F+TS    =   -1892.29771339 Ry

     The total energy is F=E-TS. E is the sum of the following terms:
     one-electron contribution =   -1926.71257439 Ry
     hartree contribution      =    1001.65275691 Ry
     xc contribution           =    -207.03266063 Ry
     ewald contribution        =    -741.15919982 Ry
     one-center paw contrib.   =     -19.04603545 Ry
      -> PAW hartree energy AE =      58.34550982 Ry
      -> PAW hartree energy PS =     -58.14110646 Ry
      -> PAW xc energy AE      =     -34.19396178 Ry
      -> PAW xc energy PS      =      14.94352296 Ry
      -> total E_H with PAW    =    1001.85716027 Ry
      -> total E_XC with PAW   =    -226.28309945 Ry

     convergence has been achieved in  16 iterations

     Forces acting on atoms (cartesian axes, Ry/au):

     atom    1 type  1   force =     0.00000000    0.00000000    0.00000000
     atom    2 type  1   force =     0.00000000    0.00000000    0.00000000
     atom    3 type  1   force =     0.00000000    0.00000000    0.00000000
     atom    4 type  1   force =     0.00000000    0.00000000    0.00000000
     atom    5 type  2   force =    -0.00007416    0.00004122   -0.00003392
     atom    6 type  2   force =     0.00007416   -0.00004122    0.00003392
     atom    7 type  3   force =     0.00036096    0.00018904   -0.00004746
     atom    8 type  3   force =     0.00021581    0.00035857   -0.00018982
     atom    9 type  3   force =    -0.00021581   -0.00035857    0.00018982
     atom   10 type  3   force =    -0.00036096   -0.00018904    0.00004746
     The non-local contrib.  to forces
     atom    1 type  1   force =     0.00000000    0.00000000    0.00000000
     atom    2 type  1   force =     0.00000000    0.00000000    0.00000000
     atom    3 type  1   force =     0.00000000    0.00000000    0.00000000
     atom    4 type  1   force =     0.00000000    0.00000000    0.00000000
     atom    5 type  2   force =    -0.00007535    0.00001813   -0.00002365
     atom    6 type  2   force =     0.00007535   -0.00001813    0.00002365
     atom    7 type  3   force =    -0.74804719   -0.48631398    0.47836260
     atom    8 type  3   force =    -0.74828167   -0.48608889    0.47815987
     atom    9 type  3   force =     0.74828167    0.48608889   -0.47815987
     atom   10 type  3   force =     0.74804719    0.48631398   -0.47836260
     The ionic contribution  to forces
     atom    1 type  1   force =    -0.00000000    0.00000000   -0.00000001
     atom    2 type  1   force =     0.00000000    0.00000000    0.00000001
     atom    3 type  1   force =    -0.00000000   -0.00000000    0.00000000
     atom    4 type  1   force =     0.00000000   -0.00000000   -0.00000000
     atom    5 type  2   force =    -0.00000004    0.00000000    0.00000005
     atom    6 type  2   force =     0.00000004   -0.00000000   -0.00000005
     atom    7 type  3   force =    15.34099355    9.97155353   -9.80474868
     atom    8 type  3   force =    15.34099358    9.97155353   -9.80474871
     atom    9 type  3   force =   -15.34099358   -9.97155353    9.80474871
     atom   10 type  3   force =   -15.34099355   -9.97155353    9.80474868
     The local contribution  to forces
     atom    1 type  1   force =    -0.00000225   -0.00002515    0.00005647
     atom    2 type  1   force =    -0.00005189   -0.00001614   -0.00002465
     atom    3 type  1   force =     0.00000256    0.00004387   -0.00001024
     atom    4 type  1   force =     0.00003469   -0.00001004   -0.00001188
     atom    5 type  2   force =     0.00049510   -0.00030484    0.00023118
     atom    6 type  2   force =    -0.00048426    0.00031466   -0.00023228
     atom    7 type  3   force =   -14.59270051   -9.48503462    9.32579896
     atom    8 type  3   force =   -14.59214987   -9.48565170    9.32632490
     atom    9 type  3   force =    14.59215795    9.48565345   -9.32632739
     atom   10 type  3   force =    14.59269480    9.48502969   -9.32579344
     The core correction contribution to forces
     atom    1 type  1   force =    -0.00000000    0.00000001   -0.00000001
     atom    2 type  1   force =     0.00000001   -0.00000000    0.00000000
     atom    3 type  1   force =     0.00000000   -0.00000001    0.00000001
     atom    4 type  1   force =    -0.00000001   -0.00000000   -0.00000001
     atom    5 type  2   force =     0.00000136   -0.00000058   -0.00000097
     atom    6 type  2   force =    -0.00000132    0.00000063    0.00000107
     atom    7 type  3   force =     0.00000000    0.00000000    0.00000000
     atom    8 type  3   force =     0.00000000    0.00000000    0.00000000
     atom    9 type  3   force =     0.00000000    0.00000000    0.00000000
     atom   10 type  3   force =     0.00000000    0.00000000    0.00000000
     The Hubbard contrib.    to forces
     atom    1 type  1   force =     0.00000000    0.00000000    0.00000000
     atom    2 type  1   force =     0.00000000    0.00000000    0.00000000
     atom    3 type  1   force =     0.00000000    0.00000000    0.00000000
     atom    4 type  1   force =     0.00000000    0.00000000    0.00000000
     atom    5 type  2   force =     0.00000000    0.00000000    0.00000000
     atom    6 type  2   force =     0.00000000    0.00000000    0.00000000
     atom    7 type  3   force =     0.00000000    0.00000000    0.00000000
     atom    8 type  3   force =     0.00000000    0.00000000    0.00000000
     atom    9 type  3   force =     0.00000000    0.00000000    0.00000000
     atom   10 type  3   force =     0.00000000    0.00000000    0.00000000
     The SCF correction term to forces
     atom    1 type  1   force =     0.00000551    0.00002706   -0.00006243
     atom    2 type  1   force =     0.00005721    0.00001168    0.00002304
     atom    3 type  1   force =    -0.00001120   -0.00005327    0.00001949
     atom    4 type  1   force =    -0.00006084    0.00001281    0.00001223
     atom    5 type  2   force =    -0.00049248    0.00032903   -0.00024221
     atom    6 type  2   force =     0.00048711   -0.00033785    0.00023985
     atom    7 type  3   force =     0.00011540   -0.00001556    0.00053922
     atom    8 type  3   force =    -0.00034563    0.00054573    0.00007424
     atom    9 type  3   force =     0.00033873   -0.00054728   -0.00007152
     atom   10 type  3   force =    -0.00010912    0.00002116   -0.00054562

     Total force =     0.000881     Total SCF correction =     0.001514
     SCF correction compared to forces is large: reduce conv_thr to get better values

     Computing stress (Cartesian axis) and pressure

          total   stress  (Ry/bohr**3)                   (kbar)     P=     -512.38
  -0.00343155  -0.00009243   0.00009204         -504.80      -13.60       13.54
  -0.00009243  -0.00350654  -0.00010158          -13.60     -515.83      -14.94
   0.00009204  -0.00010158  -0.00351112           13.54      -14.94     -516.50

     kinetic stress (kbar)  24746.57    -99.15     97.42
                              -99.15  25081.47    314.36
                               97.42    314.36  25092.04

     local   stress (kbar) -61079.04  -5237.45   5150.83
                            -5237.45 -31013.77  29191.01
                             5150.83  29191.01 -30029.52

     nonloc. stress (kbar)  12314.67    -50.00     49.27
                              -50.00  12342.73     15.22
                               49.27     15.22  12343.11

     hartree stress (kbar)  54988.73   2251.08  -2214.28
                             2251.08  41743.20 -12874.96
                            -2214.28 -12874.96  41309.46

     exc-cor stress (kbar)  -8758.20      2.13     -2.09
                                2.13  -8765.83     -7.19
                               -2.09     -7.19  -8766.07

     corecor stress (kbar)   -314.54      0.07     -0.07
                                0.07   -315.15     -0.60
                               -0.07     -0.60   -315.17

     ewald   stress (kbar) -22402.98   3119.73  -3067.55
                             3119.73 -39588.49 -16652.79
                            -3067.55 -16652.79 -40150.37

     hubbard stress (kbar)      0.00      0.00      0.00
                                0.00      0.00      0.00
                                0.00      0.00      0.00

     DFT-D   stress (kbar)      0.00      0.00      0.00
                                0.00      0.00      0.00
                                0.00      0.00      0.00

     XDM     stress (kbar)      0.00      0.00      0.00
                                0.00      0.00      0.00
                                0.00      0.00      0.00

     dft-nl  stress (kbar)      0.00      0.00      0.00
                                0.00      0.00      0.00
                                0.00      0.00      0.00

     TS-vdW  stress (kbar)      0.00      0.00      0.00
                                0.00      0.00      0.00
                                0.00      0.00      0.00

[...]

                                0.00      0.00      0.00

     Writing all to output data dir new_calculations/myprefix.save/

     General routines

     Parallel routines

     PAW routines

   This run was terminated on:   9:43:23  20May2023

   JOB DONE.