     Program PWSCF v.7.0 starts on 20May2023 at 16: 2:46

     Reading input from espresso_5532.pwi
Warning: card &CELL ignored
Warning: card / ignored

     Current dimensions of program PWSCF are:
     Max number of different atomic species (ntypx) = 10
     Max number of k-points (npk) =  40000
     Max angular momentum in pseudopotentials (lmaxx) =  4

     gamma-point specific algorithms are used
     Message from routine setup:
     no reason to have ecutrho>4*ecutwfc
     Message from routine setup:
     using ibrav=0 with symmetry is DISCOURAGED, use correct ibrav instead

     Subspace diagonalization in iterative solution of the eigenvalue problem:
     a serial algorithm will be used

     Using Slab Decomposition

     bravais-lattice index     =            0
     lattice parameter (alat)  =      14.0872  a.u.
     unit-cell volume          =    1943.0406 (a.u.)^3
     number of atoms/cell      =           10
     number of atomic types    =            2
     number of electrons       =       160.00
     number of Kohn-Sham states=           96
     kinetic-energy cutoff     =      30.0000  Ry
     charge density cutoff     =     240.0000  Ry
     scf convergence threshold =      1.0E-06
     mixing beta               =       0.7000
     number of iterations used =            8  plain     mixing
     Exchange-correlation= PBE
                           (   1   4   3   4   0   0   0)

     celldm(1)=  14.087233  celldm(2)=   0.000000  celldm(3)=   0.000000
     celldm(4)=   0.000000  celldm(5)=   0.000000  celldm(6)=   0.000000

     crystal axes: (cart. coord. in units of alat)
               a(1) = (   1.000000   0.000000   0.000000 )
               a(2) = (  -0.709046   0.705162   0.000000 )
               a(3) = (   0.000000   0.000000   0.985635 )

     reciprocal axes: (cart. coord. in units 2 pi/alat)
               b(1) = (  1.000000  1.005509  0.000000 )
               b(2) = (  0.000000  1.418114  0.000000 )
               b(3) = (  0.000000  0.000000  1.014575 )

     PseudoPot. # 1 for Rb read from file:
     /home/pragov/projects/rrg-bengioy-ad/pragov/crystal_structure_design/SSSP/Rb_ONCV_PBE-1.0.oncvpsp.upf
     MD5 check sum: 55a5172d6bfbce6759a58e35d43f6aa9
     Pseudo is Norm-conserving, Zval =  9.0
     Generated using ONCVPSP code by D. R. Hamann
     Using radial grid of 2308 points,  6 beta functions with:
                l(1) =   0
                l(2) =   0
                l(3) =   1
                l(4) =   1
                l(5) =   2
                l(6) =   2

     PseudoPot. # 2 for Au read from file:
     /home/pragov/projects/rrg-bengioy-ad/pragov/crystal_structure_design/SSSP/Au_ONCV_PBE-1.0.oncvpsp.upf
     MD5 check sum: d14007822ba0e19f0206237467fc06c2
     Pseudo is Norm-conserving, Zval = 19.0
     Generated using ONCVPSP code by D. R. Hamann
     Using radial grid of 1278 points,  8 beta functions with:
                l(1) =   0
                l(2) =   0
                l(3) =   1
                l(4) =   1
                l(5) =   2
                l(6) =   2
                l(7) =   3
                l(8) =   3

     atomic species   valence    mass     pseudopotential
        Rb             9.00    85.46780     Rb( 1.00)
        Au            19.00   196.96657     Au( 1.00)

      4 Sym. Ops., with inversion, found

                                    s                        frac. trans.

      isym =  1     identity

 cryst.   s( 1) = (     1          0          0      )
                  (     0          1          0      )
                  (     0          0          1      )

 cart.    s( 1) = (  1.0000000 -0.0000000  0.0000000 )
                  (  0.0000000  1.0000000  0.0000000 )
                  (  0.0000000  0.0000000  1.0000000 )

      isym =  2     180 deg rotation - cart. axis [0,0,1]

[...]

      isym =  3     inversion

[...]

      isym =  4     inv. 180 deg rotation - cart. axis [0,0,1]

 cryst.   s( 4) = (     1          0          0      )
                  (     0          1          0      )
                  (     0          0         -1      )

 cart.    s( 4) = (  1.0000000 -0.0000000  0.0000000 )
                  (  0.0000000  1.0000000  0.0000000 )
                  (  0.0000000  0.0000000 -1.0000000 )

   Cartesian axes

     site n.     atom                  positions (alat units)
         1           Rb  tau(   1) = (   0.1454768   0.3525810   0.0000000  )
         2           Rb  tau(   2) = (   0.4197138   0.2394293   0.4928173  )
         3           Rb  tau(   3) = (  -0.1287601   0.4657326   0.4928173  )
         4           Au  tau(   4) = (   0.0000000   0.0000000   0.4928173  )
         5           Au  tau(   5) = (   0.5000000   0.0000000   0.0000000  )
         6           Au  tau(   6) = (  -0.3545232   0.3525810   0.0000000  )
         7           Au  tau(   7) = (  -0.5258280   0.6295650   0.1922825  )
         8           Au  tau(   8) = (   0.8167817   0.0755969   0.1922825  )
         9           Au  tau(   9) = (   0.8167817   0.0755969   0.7933521  )
        10           Au  tau(  10) = (  -0.5258280   0.6295650   0.7933521  )

   Crystallographic axes

     site n.     atom                  positions (cryst. coord.)
         1           Rb  tau(   1) = (  0.5000000  0.5000000  0.0000000  )
         2           Rb  tau(   2) = (  0.6604620  0.3395380  0.5000000  )
         3           Rb  tau(   3) = (  0.3395380  0.6604620  0.5000000  )
         4           Au  tau(   4) = (  0.0000000  0.0000000  0.5000000  )
         5           Au  tau(   5) = (  0.5000000  0.0000000  0.0000000  )
         6           Au  tau(   6) = (  0.0000000  0.5000000  0.0000000  )
         7           Au  tau(   7) = (  0.1072050  0.8927950  0.1950850  )
         8           Au  tau(   8) = (  0.8927950  0.1072050  0.1950850  )
         9           Au  tau(   9) = (  0.8927950  0.1072050  0.8049150  )
        10           Au  tau(  10) = (  0.1072050  0.8927950  0.8049150  )

     number of k points=     1  Methfessel-Paxton smearing, width (Ry)=  0.0010
                       cart. coord. in units 2pi/alat
        k(    1) = (   0.0000000   0.0000000   0.0000000), wk =   2.0000000

                       cryst. coord.
        k(    1) = (   0.0000000   0.0000000   0.0000000), wk =   2.0000000

     Initial potential from superposition of free atoms

     starting charge     159.9251, renormalised to     160.0000
     Starting wfcs are   85 randomized atomic wfcs +   11 random wfcs

     Self-consistent Calculation

     iteration #  1     ecut=    30.00 Ry     beta= 0.70
     Davidson diagonalization with overlap

     ethr =  1.00E-02,  avg # of iterations =  6.0

     Threshold (ethr) on eigenvalues was too large:
     Diagonalizing with lowered threshold

     Davidson diagonalization with overlap

[...]

     total energy              =   -2068.37315729 Ry
     estimated scf accuracy    <       0.34933381 Ry

[...]

     total energy              =   -2068.50853412 Ry
     estimated scf accuracy    <       0.00000461 Ry

     iteration # 10     ecut=    30.00 Ry     beta= 0.70
     Davidson diagonalization with overlap

     ethr =  2.88E-09,  avg # of iterations =  2.0

     End of self-consistent calculation

          k = 0.0000 0.0000 0.0000 (  2706 PWs)   bands (ev):

   -96.2210 -96.2160 -95.9810 -95.4810 -95.4798 -95.4790 -95.4777 -47.5143
   -47.3794 -47.1863 -47.1692 -47.1571 -47.1435 -47.0712 -47.0605 -46.9350
   -46.6761 -46.6313 -46.6216 -46.6196 -46.5479 -46.5449 -46.5444 -46.5373
   -46.3464 -46.3235 -46.3088 -46.2908 -17.2785 -17.2225 -16.8365  -1.5862
    -1.5383  -1.4892  -1.3357  -1.2625  -1.2125  -1.0832  -1.0628  -0.8792
     2.2816   4.0579   4.5429   4.9434   4.9544   5.1039   5.1170   5.1576
     5.3798   5.3970   5.6530   5.7412   5.7616   6.0665   6.1595   6.1920
     6.4059   6.5174   6.6051   6.6081   6.7199   6.8751   6.8763   6.9092
     6.9401   6.9990   7.0495   7.3483   7.3921   7.4142   7.4828   7.5162
     7.5375   8.1027   8.2436   8.3327   8.3569   8.6897   8.8324  10.9809
    11.2766  11.4844  11.5633  11.6722  11.8009  12.3324  13.3263  13.7157
    13.8483  14.1113  15.1872  15.3874  15.3880  15.6882  16.1072  16.1261

     occupation numbers
     1.0000   1.0000   1.0000   1.0000   1.0000   1.0000   1.0000   1.0000
     1.0000   1.0000   1.0000   1.0000   1.0000   1.0000   1.0000   1.0000
     1.0000   1.0000   1.0000   1.0000   1.0000   1.0000   1.0000   1.0000
     1.0000   1.0000   1.0000   1.0000   1.0000   1.0000   1.0000   1.0000
     1.0000   1.0000   1.0000   1.0000   1.0000   1.0000   1.0000   1.0000
     1.0000   1.0000   1.0000   1.0000   1.0000   1.0000   1.0000   1.0000
     1.0000   1.0000   1.0000   1.0000   1.0000   1.0000   1.0000   1.0000
     1.0000   1.0000   1.0000   1.0000   1.0000   1.0000   1.0000   1.0000
     1.0000   1.0000   1.0000   1.0000   1.0000   1.0000   1.0000   1.0000
     1.0000   1.0000   1.0000   1.0000   1.0000   1.0000   1.0000   1.0000
    -0.0000  -0.0000  -0.0000  -0.0000  -0.0000  -0.0000  -0.0000  -0.0000
    -0.0000  -0.0000  -0.0000  -0.0000  -0.0000  -0.0000  -0.0000  -0.0000

     the Fermi energy is    11.2031 ev

!    total energy              =   -2068.50853471 Ry
     estimated scf accuracy    <       0.00000019 Ry
     smearing contrib. (-TS)   =       0.00000000 Ry
     internal energy E=F+TS    =   -2068.50853471 Ry

     The total energy is F=E-TS. E is the sum of the following terms:
     one-electron contribution =   -1448.64656087 Ry
     hartree contribution      =     747.79113399 Ry
     xc contribution           =    -199.65709546 Ry
     ewald contribution        =   -1167.99601237 Ry

     convergence has been achieved in  10 iterations

     Forces acting on atoms (cartesian axes, Ry/au):

     atom    1 type  1   force =     0.00000000    0.00000000    0.00000000
     atom    2 type  1   force =     0.00470437   -0.00194006   -0.00000000
     atom    3 type  1   force =    -0.00470437    0.00194006   -0.00000000
     atom    4 type  2   force =     0.00000000    0.00000000    0.00000000
     atom    5 type  2   force =     0.00000000    0.00000000    0.00000000
     atom    6 type  2   force =     0.00000000    0.00000000    0.00000000
     atom    7 type  2   force =    -0.02845506    0.01173735   -0.02876816
     atom    8 type  2   force =     0.02845506   -0.01173735   -0.02876816
     atom    9 type  2   force =     0.02845506   -0.01173735    0.02876816
     atom   10 type  2   force =    -0.02845506    0.01173735    0.02876816
     The non-local contrib.  to forces
     atom    1 type  1   force =     0.00000000    0.00000000    0.00000000
     atom    2 type  1   force =    -0.02866166    0.01182586    0.00000000
     atom    3 type  1   force =     0.02866166   -0.01182586    0.00000000
     atom    4 type  2   force =     0.00000000    0.00000000    0.00000000
     atom    5 type  2   force =     0.00000000    0.00000000    0.00000000
     atom    6 type  2   force =     0.00000000    0.00000000    0.00000000
     atom    7 type  2   force =     0.12009876   -0.04955510    0.12432116
     atom    8 type  2   force =    -0.12009876    0.04955510    0.12432116
     atom    9 type  2   force =    -0.12009876    0.04955510   -0.12432116
     atom   10 type  2   force =     0.12009876   -0.04955510   -0.12432116
     The ionic contribution  to forces
     atom    1 type  1   force =    -0.00000000   -0.00000000   -0.00000000
     atom    2 type  1   force =     0.10429760   -0.04303376    0.00000000
     atom    3 type  1   force =    -0.10429760    0.04303376    0.00000000
     atom    4 type  2   force =     0.00000000    0.00000000    0.00000000
     atom    5 type  2   force =    -0.00000000    0.00000000    0.00000000
     atom    6 type  2   force =     0.00000000   -0.00000000    0.00000000
     atom    7 type  2   force =     2.70132759   -1.11458262   22.18800750
     atom    8 type  2   force =    -2.70132759    1.11458262   22.18800750
     atom    9 type  2   force =    -2.70132759    1.11458262  -22.18800750
     atom   10 type  2   force =     2.70132759   -1.11458262  -22.18800750
     The local contribution  to forces
     atom    1 type  1   force =    -0.00000655    0.00000255   -0.00005053
     atom    2 type  1   force =    -0.07067046    0.02915914    0.00005758
     atom    3 type  1   force =     0.07067689   -0.02916215    0.00005664
     atom    4 type  2   force =    -0.00003372    0.00002097    0.00003799
     atom    5 type  2   force =     0.00002313   -0.00000211   -0.00014517
     atom    6 type  2   force =     0.00002284   -0.00001675   -0.00013563
     atom    7 type  2   force =    -2.84965559    1.17579125  -22.34081950
     atom    8 type  2   force =     2.84963396   -1.17577324  -22.34080732
     atom    9 type  2   force =     2.84969789   -1.17580038   22.34084089
     atom   10 type  2   force =    -2.84970438    1.17581246   22.34082659
     The core correction contribution to forces
     atom    1 type  1   force =     0.00000000    0.00000000    0.00000000
     atom    2 type  1   force =     0.00000000    0.00000000    0.00000000
     atom    3 type  1   force =     0.00000000    0.00000000    0.00000000
     atom    4 type  2   force =     0.00000000    0.00000000    0.00000000
     atom    5 type  2   force =     0.00000000    0.00000000    0.00000000
     atom    6 type  2   force =     0.00000000    0.00000000    0.00000000
     atom    7 type  2   force =     0.00000000    0.00000000    0.00000000
     atom    8 type  2   force =     0.00000000    0.00000000    0.00000000
     atom    9 type  2   force =     0.00000000    0.00000000    0.00000000
     atom   10 type  2   force =     0.00000000    0.00000000    0.00000000
     The Hubbard contrib.    to forces
     atom    1 type  1   force =     0.00000000    0.00000000    0.00000000
     atom    2 type  1   force =     0.00000000    0.00000000    0.00000000
     atom    3 type  1   force =     0.00000000    0.00000000    0.00000000
     atom    4 type  2   force =     0.00000000    0.00000000    0.00000000
     atom    5 type  2   force =     0.00000000    0.00000000    0.00000000
     atom    6 type  2   force =     0.00000000    0.00000000    0.00000000
     atom    7 type  2   force =     0.00000000    0.00000000    0.00000000
     atom    8 type  2   force =     0.00000000    0.00000000    0.00000000
     atom    9 type  2   force =     0.00000000    0.00000000    0.00000000
     atom   10 type  2   force =     0.00000000    0.00000000    0.00000000
     The SCF correction term to forces
     atom    1 type  1   force =     0.00000645   -0.00000194    0.00005843
     atom    2 type  1   force =    -0.00026117    0.00010838   -0.00006998
     atom    3 type  1   force =     0.00025462   -0.00010601   -0.00006972
     atom    4 type  2   force =     0.00003185   -0.00001863   -0.00007511
     atom    5 type  2   force =    -0.00002450    0.00000358    0.00020660
     atom    6 type  2   force =    -0.00002392    0.00001947    0.00019964
     atom    7 type  2   force =    -0.00022376    0.00008299   -0.00025559
     atom    8 type  2   force =     0.00024527   -0.00010172   -0.00026518
     atom    9 type  2   force =     0.00018651   -0.00007325    0.00027861
     atom   10 type  2   force =    -0.00017830    0.00006499    0.00029360

     Total force =     0.084570     Total SCF correction =     0.000874

     Computing stress (Cartesian axis) and pressure

          total   stress  (Ry/bohr**3)                   (kbar)     P=     -389.85
  -0.00273130   0.00000256   0.00000000         -401.79        0.38        0.00
   0.00000256  -0.00272616   0.00000000            0.38     -401.03        0.00
   0.00000000   0.00000000  -0.00249294            0.00        0.00     -366.72

     kinetic stress (kbar)  31629.88    -35.34      0.00
                              -35.34  31558.80      0.00
                                0.00      0.00  31733.83

     local   stress (kbar) -30279.27  11715.25     -0.00
                            11715.25  -6719.69      0.00
                               -0.00      0.00 -22690.40

     nonloc. stress (kbar)   3234.50     -5.76      0.00
                               -5.76   3222.92      0.00
                                0.00      0.00   3241.53

     hartree stress (kbar)  23731.30  -5300.19      0.00
                            -5300.19  13072.52     -0.00
                                0.00     -0.00  19810.48

     exc-cor stress (kbar)  -4761.55     -2.45      0.00
                               -2.45  -4766.48     -0.00
                                0.00     -0.00  -4760.45

     corecor stress (kbar)      0.00      0.00      0.00
                                0.00      0.00      0.00
                                0.00      0.00      0.00

     ewald   stress (kbar) -23956.65  -6371.13     -0.00
                            -6371.13 -36769.09     -0.00
                               -0.00     -0.00 -27701.72

     hubbard stress (kbar)      0.00      0.00      0.00
                                0.00      0.00      0.00
                                0.00      0.00      0.00

     DFT-D   stress (kbar)      0.00      0.00      0.00
                                0.00      0.00      0.00
                                0.00      0.00      0.00

     XDM     stress (kbar)      0.00      0.00      0.00
                                0.00      0.00      0.00
                                0.00      0.00      0.00

     dft-nl  stress (kbar)      0.00      0.00      0.00
                                0.00      0.00      0.00
                                0.00      0.00      0.00

     TS-vdW  stress (kbar)      0.00      0.00      0.00
                                0.00      0.00      0.00
                                0.00      0.00      0.00

[...]

                                0.00      0.00      0.00

     Writing all to output data dir new_calculations/myprefix.save/

     General routines

     Parallel routines

   This run was terminated on:  16: 3:30  20May2023

   JOB DONE.