     Program PWSCF v.7.0 starts on 20May2023 at  8: 7:30

     Reading input from espresso_13204.pwi
Warning: card &CELL ignored
Warning: card / ignored

     Current dimensions of program PWSCF are:
     Max number of different atomic species (ntypx) = 10
     Max number of k-points (npk) =  40000
     Max angular momentum in pseudopotentials (lmaxx) =  4

     gamma-point specific algorithms are used
     Message from routine setup:
     using ibrav=0 with symmetry is DISCOURAGED, use correct ibrav instead

     Subspace diagonalization in iterative solution of the eigenvalue problem:
     a serial algorithm will be used

     Using Slab Decomposition

     bravais-lattice index     =            0
     lattice parameter (alat)  =       7.6354  a.u.
     unit-cell volume          =    1070.9601 (a.u.)^3
     number of atoms/cell      =            8
     number of atomic types    =            2
     number of electrons       =       168.00
     number of Kohn-Sham states=          101
     kinetic-energy cutoff     =      30.0000  Ry
     charge density cutoff     =     240.0000  Ry
     scf convergence threshold =      1.0E-06
     mixing beta               =       0.7000
     number of iterations used =            8  plain     mixing
     Exchange-correlation=  SLA  PW   PBX  PBC
                           (   1   4   3   4   0   0   0)

     celldm(1)=   7.635410  celldm(2)=   0.000000  celldm(3)=   0.000000
     celldm(4)=   0.000000  celldm(5)=   0.000000  celldm(6)=   0.000000

     crystal axes: (cart. coord. in units of alat)
               a(1) = (   1.000000   0.000000   0.000000 )
               a(2) = (   0.000000   1.333049   0.000000 )
               a(3) = (   0.000000   0.000000   1.804804 )

     reciprocal axes: (cart. coord. in units 2 pi/alat)
               b(1) = (  1.000000  0.000000  0.000000 )
               b(2) = (  0.000000  0.750160  0.000000 )
               b(3) = (  0.000000  0.000000  0.554077 )

     PseudoPot. # 1 for Yb read from file:
     /home/pragov/projects/rrg-bengioy-ad/pragov/crystal_structure_design/SSSP/Yb.GGA-PBE-paw-v1.0.UPF
     MD5 check sum: 43b6465ad8021f06e3edb42ae292e187
     Pseudo is Projector augmented-wave + core cor, Zval = 24.0
     Generated using ATOMPAW code
     Shape of augmentation charge: BESSEL
     Using radial grid of 1117 points,  8 beta functions with:
                l(1) =   0
                l(2) =   0
                l(3) =   1
                l(4) =   1
                l(5) =   2
                l(6) =   2
                l(7) =   3
                l(8) =   3
     Q(r) pseudized with 0 coefficients

     PseudoPot. # 2 for Ni read from file:
     /home/pragov/projects/rrg-bengioy-ad/pragov/crystal_structure_design/SSSP/ni_pbe_v1.4.uspp.F.UPF
     MD5 check sum: 1ee80287db30b12d2bc1f57a5b5d6409
     Pseudo is Ultrasoft + core correction, Zval = 18.0
     Generated by new atomic code, or converted to UPF format
     Using radial grid of  865 points,  6 beta functions with:
                l(1) =   0
                l(2) =   0
                l(3) =   1
                l(4) =   1
                l(5) =   2
                l(6) =   2
     Q(r) pseudized with 10 coefficients,  rinner =    0.980   0.980   0.980
                                                       0.980   0.980

     atomic species   valence    mass     pseudopotential
        Yb            24.00   173.05400     Yb( 1.00)
        Ni            18.00    58.69340     Ni( 1.00)

      8 Sym. Ops., with inversion, found ( 6 have fractional translation)

                                    s                        frac. trans.

      isym =  1     identity

 cryst.   s( 1) = (     1          0          0      )
                  (     0          1          0      )
                  (     0          0          1      )

 cart.    s( 1) = (  1.0000000  0.0000000  0.0000000 )
                  (  0.0000000  1.0000000  0.0000000 )
                  (  0.0000000  0.0000000  1.0000000 )

      isym =  2     180 deg rotation - cart. axis [0,0,1]

 cryst.   s( 2) = (    -1          0          0      )    f =(  0.5000000 )
                  (     0         -1          0      )       ( -0.5000000 )
                  (     0          0          1      )       (  0.5000000 )

 cart.    s( 2) = ( -1.0000000  0.0000000  0.0000000 )    f =(  0.5000000 )
                  (  0.0000000 -1.0000000  0.0000000 )       ( -0.6665247 )
                  (  0.0000000  0.0000000  1.0000000 )       (  0.9024018 )

[...]

      isym =  4     180 deg rotation - cart. axis [1,0,0]

[...]

      isym =  5     inversion

 cryst.   s( 5) = (    -1          0          0      )
                  (     0         -1          0      )
                  (     0          0         -1      )

 cart.    s( 5) = ( -1.0000000  0.0000000  0.0000000 )
                  (  0.0000000 -1.0000000  0.0000000 )
                  (  0.0000000  0.0000000 -1.0000000 )

      isym =  6     inv. 180 deg rotation - cart. axis [0,0,1]

[...]

      isym =  8     inv. 180 deg rotation - cart. axis [1,0,0]

 cryst.   s( 8) = (    -1          0          0      )    f =(  0.5000000 )
                  (     0          1          0      )       (  0.0000000 )
                  (     0          0          1      )       (  0.0000000 )

 cart.    s( 8) = ( -1.0000000  0.0000000  0.0000000 )    f =(  0.5000000 )
                  (  0.0000000  1.0000000  0.0000000 )       (  0.0000000 )
                  (  0.0000000  0.0000000  1.0000000 )       (  0.0000000 )

   Cartesian axes

     site n.     atom                  positions (alat units)
         1           Yb  tau(   1) = (   0.2500000   0.5046272   1.2270246  )
         2           Yb  tau(   2) = (   0.2500000   0.1618975   0.3246228  )
         3           Yb  tau(   3) = (   0.7500000   0.8284222   0.5777790  )
         4           Yb  tau(   4) = (   0.7500000   1.1711519   1.4801808  )
         5           Ni  tau(   5) = (   0.2500000   1.2001670   0.9540246  )
         6           Ni  tau(   6) = (   0.2500000   0.7994070   0.0516228  )
         7           Ni  tau(   7) = (   0.7500000   0.1328824   0.8507790  )
         8           Ni  tau(   8) = (   0.7500000   0.5336423   1.7531808  )

   Crystallographic axes

     site n.     atom                  positions (cryst. coord.)
         1           Yb  tau(   1) = (  0.2500000  0.3785510  0.6798660  )
         2           Yb  tau(   2) = (  0.2500000  0.1214490  0.1798660  )
         3           Yb  tau(   3) = (  0.7500000  0.6214490  0.3201340  )
         4           Yb  tau(   4) = (  0.7500000  0.8785510  0.8201340  )
         5           Ni  tau(   5) = (  0.2500000  0.9003170  0.5286030  )
         6           Ni  tau(   6) = (  0.2500000  0.5996830  0.0286030  )
         7           Ni  tau(   7) = (  0.7500000  0.0996830  0.4713970  )
         8           Ni  tau(   8) = (  0.7500000  0.4003170  0.9713970  )

     number of k points=     1  Methfessel-Paxton smearing, width (Ry)=  0.0010
                       cart. coord. in units 2pi/alat
        k(    1) = (   0.0000000   0.0000000   0.0000000), wk =   2.0000000

                       cryst. coord.
        k(    1) = (   0.0000000   0.0000000   0.0000000), wk =   2.0000000

     Check: negative core charge=   -0.000005

     Initial potential from superposition of free atoms

     starting charge     159.9840, renormalised to     168.0000
     Starting wfcs are  180 randomized atomic wfcs
     Checking if some PAW data can be deallocated...

     Self-consistent Calculation

     iteration #  1     ecut=    30.00 Ry     beta= 0.70
     Davidson diagonalization with overlap

     ethr =  1.00E-02,  avg # of iterations =  2.0

     total energy              =   -5152.39181795 Ry
     estimated scf accuracy    <     211.80996082 Ry

[...]

     total energy              =   -5417.24473460 Ry
     estimated scf accuracy    <       0.00002934 Ry

     iteration # 95     ecut=    30.00 Ry     beta= 0.70
     Davidson diagonalization with overlap

     ethr =  3.67E-09,  avg # of iterations =  1.0

     End of self-consistent calculation

          k = 0.0000 0.0000 0.0000 (  1485 PWs)   bands (ev):

   -87.9651 -87.9632 -87.9386 -87.9363 -48.4578 -48.4472 -48.3922 -48.3841
   -48.3583 -48.3547 -48.2840 -48.2789 -48.1498 -48.1348 -48.1308 -48.1302
   -36.4552 -36.4426 -36.4304 -36.4235  -8.9050  -8.8785  -8.8541  -8.7685
    -8.7393  -8.7226  -8.6492  -8.6290  -8.5618  -8.5557  -8.5342  -8.5045
     8.4906  10.9958  12.0833  12.2965  12.6379  12.6893  12.8134  12.8986
    12.9060  12.9363  12.9406  13.0350  13.3556  13.4012  13.4173  13.6690
    13.7267  13.8066  13.9372  13.9517  14.0617  14.3218  14.3901  14.4317
    14.5333  14.7534  14.7623  14.7713  14.7858  14.8141  14.8298  14.8330
    14.8332  14.8570  14.8761  14.8766  14.8898  14.8905  14.8986  14.9141
    14.9239  14.9244  14.9304  14.9503  14.9562  14.9671  14.9705  14.9858
    14.9887  14.9951  15.0067  15.0217  15.2123  15.3514  16.0403  16.1927
    16.7520  17.4124  17.6455  17.7971  18.2531  18.3052  18.4973  18.9395
    19.4993  19.5878  19.6469  19.8588  20.5231

     occupation numbers
     1.0000   1.0000   1.0000   1.0000   1.0000   1.0000   1.0000   1.0000
     1.0000   1.0000   1.0000   1.0000   1.0000   1.0000   1.0000   1.0000
     1.0000   1.0000   1.0000   1.0000   1.0000   1.0000   1.0000   1.0000
     1.0000   1.0000   1.0000   1.0000   1.0000   1.0000   1.0000   1.0000
     1.0000   1.0000   1.0000   1.0000   1.0000   1.0000   1.0000   1.0000
     1.0000   1.0000   1.0000   1.0000   1.0000   1.0000   1.0000   1.0000
     1.0000   1.0000   1.0000   1.0000   1.0000   1.0000   1.0000   1.0000
     1.0000   1.0000   1.0000   1.0000   1.0000   1.0000   1.0000   1.0000
     1.0000   1.0000   1.0000   1.0000   1.0000   1.0000   1.0000   1.0000
     1.0000   1.0000   1.0000   1.0000   1.0000   1.0000   1.0000   1.0000
     1.0000   1.0000   1.0000   1.0000  -0.0000  -0.0000  -0.0000  -0.0000
    -0.0000  -0.0000  -0.0000  -0.0000  -0.0000  -0.0000  -0.0000  -0.0000
    -0.0000  -0.0000  -0.0000  -0.0000  -0.0000

     the Fermi energy is    15.1362 ev

!    total energy              =   -5417.24473536 Ry
     estimated scf accuracy    <       0.00000076 Ry
     smearing contrib. (-TS)   =       0.00000000 Ry
     internal energy E=F+TS    =   -5417.24473536 Ry

     The total energy is F=E-TS. E is the sum of the following terms:
     one-electron contribution =   -2346.28516939 Ry
     hartree contribution      =    1132.31598041 Ry
     xc contribution           =    -294.82686166 Ry
     ewald contribution        =   -1970.28450126 Ry
     one-center paw contrib.   =   -1938.16418345 Ry
      -> PAW hartree energy AE =    1800.45432270 Ry
      -> PAW hartree energy PS =   -1548.26407018 Ry
      -> PAW xc energy AE      =   -2339.09470352 Ry
      -> PAW xc energy PS      =     148.74026755 Ry
      -> total E_H with PAW    =    1384.50623293 Ry
      -> total E_XC with PAW   =   -2485.18129763 Ry

     convergence has been achieved in  95 iterations

     Forces acting on atoms (cartesian axes, Ry/au):

     atom    1 type  1   force =     0.00000000   -0.01095065   -0.00105492
     atom    2 type  1   force =     0.00000000    0.01095065   -0.00105492
     atom    3 type  1   force =     0.00000000    0.01095065    0.00105492
     atom    4 type  1   force =     0.00000000   -0.01095065    0.00105492
     atom    5 type  2   force =     0.00000000   -0.02740722    0.00675795
     atom    6 type  2   force =     0.00000000    0.02740722    0.00675795
     atom    7 type  2   force =     0.00000000    0.02740722   -0.00675795
     atom    8 type  2   force =     0.00000000   -0.02740722   -0.00675795
     The non-local contrib.  to forces
     atom    1 type  1   force =     0.00000000   -0.00670503   -0.07737805
     atom    2 type  1   force =     0.00000000    0.00670503   -0.07737805
     atom    3 type  1   force =     0.00000000    0.00670503    0.07737805
     atom    4 type  1   force =     0.00000000   -0.00670503    0.07737805
     atom    5 type  2   force =     0.00000000    0.01933790   -0.10760544
     atom    6 type  2   force =    -0.00000000   -0.01933790   -0.10760544
     atom    7 type  2   force =    -0.00000000   -0.01933790    0.10760544
     atom    8 type  2   force =     0.00000000    0.01933790    0.10760544
     The ionic contribution  to forces
     atom    1 type  1   force =    -0.00000000    6.24258209   -7.54315092
     atom    2 type  1   force =    -0.00000000   -6.24258209   -7.54315092
     atom    3 type  1   force =     0.00000000   -6.24258209    7.54315092
     atom    4 type  1   force =     0.00000000    6.24258209    7.54315092
     atom    5 type  2   force =    -0.00000000  -16.18951639    5.74393056
     atom    6 type  2   force =    -0.00000000   16.18951639    5.74393056
     atom    7 type  2   force =     0.00000000   16.18951639   -5.74393056
     atom    8 type  2   force =     0.00000000  -16.18951639   -5.74393056
     The local contribution  to forces
     atom    1 type  1   force =     0.00000028   -6.24711891    7.62206191
     atom    2 type  1   force =    -0.00000075    6.24678192    7.61702829
     atom    3 type  1   force =    -0.00000115    6.24595709   -7.61963386
     atom    4 type  1   force =    -0.00000022   -6.24714650   -7.61926508
     atom    5 type  2   force =     0.00000006   16.14150838   -5.62717136
     atom    6 type  2   force =    -0.00000002  -16.14088751   -5.63204584
     atom    7 type  2   force =     0.00000000  -16.14067234    5.63168902
     atom    8 type  2   force =     0.00000009   16.14122630    5.62752474
     The core correction contribution to forces
     atom    1 type  1   force =     0.00000000    0.00000027   -0.00000043
     atom    2 type  1   force =    -0.00000000   -0.00000027   -0.00000043
     atom    3 type  1   force =    -0.00000000   -0.00000027    0.00000043
     atom    4 type  1   force =    -0.00000000    0.00000027    0.00000043
     atom    5 type  2   force =    -0.00000000    0.00167961    0.00005276
     atom    6 type  2   force =     0.00000000   -0.00167881    0.00005679
     atom    7 type  2   force =    -0.00000000   -0.00167988   -0.00005702
     atom    8 type  2   force =    -0.00000000    0.00168030   -0.00005289
     The Hubbard contrib.    to forces
     atom    1 type  1   force =     0.00000000    0.00000000    0.00000000
     atom    2 type  1   force =     0.00000000    0.00000000    0.00000000
     atom    3 type  1   force =     0.00000000    0.00000000    0.00000000
     atom    4 type  1   force =     0.00000000    0.00000000    0.00000000
     atom    5 type  2   force =     0.00000000    0.00000000    0.00000000
     atom    6 type  2   force =     0.00000000    0.00000000    0.00000000
     atom    7 type  2   force =     0.00000000    0.00000000    0.00000000
     atom    8 type  2   force =     0.00000000    0.00000000    0.00000000
     The SCF correction term to forces
     atom    1 type  1   force =    -0.00000027    0.00033872   -0.00267782
     atom    2 type  1   force =     0.00000083    0.00007766    0.00256859
     atom    3 type  1   force =     0.00000118    0.00084150    0.00018597
     atom    4 type  1   force =     0.00000027    0.00027295   -0.00020395
     atom    5 type  2   force =    -0.00000007   -0.00042097   -0.00239997
     atom    6 type  2   force =     0.00000004   -0.00017925    0.00236860
     atom    7 type  2   force =    -0.00000001   -0.00041360   -0.00204704
     atom    8 type  2   force =    -0.00000011   -0.00009996    0.00207287

     Total force =     0.060592     Total SCF correction =     0.005916

     Computing stress (Cartesian axis) and pressure

          total   stress  (Ry/bohr**3)                   (kbar)     P=     -632.23
  -0.00505477   0.00000000   0.00000000         -743.58        0.00        0.00
   0.00000000  -0.00387173   0.00000000            0.00     -569.55        0.00
   0.00000000   0.00000000  -0.00396693            0.00        0.00     -583.56

     kinetic stress (kbar)  24783.48      0.00      0.00
                                0.00  24852.84      0.00
                                0.00      0.00  25058.81

     local   stress (kbar)  -7294.69      0.00     -0.00
                                0.00  12274.28      0.21
                               -0.00      0.21  11474.60

     nonloc. stress (kbar)  20145.10      0.00      0.00
                                0.00  20173.58      0.00
                                0.00      0.00  20233.31

     hartree stress (kbar)  57846.79     -0.00      0.00
                               -0.00  48540.76     -0.21
                                0.00     -0.21  49145.26

     exc-cor stress (kbar) -11840.45     -0.00     -0.00
                               -0.00 -11845.97      0.00
                               -0.00      0.00 -11844.57

     corecor stress (kbar)   -987.88     -0.00      0.00
                               -0.00   -988.14      0.00
                                0.00      0.00   -989.20

     ewald   stress (kbar) -83395.93      0.00     -0.00
                                0.00 -93576.90      0.00
                               -0.00      0.00 -93661.77

     hubbard stress (kbar)      0.00      0.00      0.00
                                0.00      0.00      0.00
                                0.00      0.00      0.00

     DFT-D   stress (kbar)      0.00      0.00      0.00
                                0.00      0.00      0.00
                                0.00      0.00      0.00

     XDM     stress (kbar)      0.00      0.00      0.00
                                0.00      0.00      0.00
                                0.00      0.00      0.00

     dft-nl  stress (kbar)      0.00      0.00      0.00
                                0.00      0.00      0.00
                                0.00      0.00      0.00

     TS-vdW  stress (kbar)      0.00      0.00      0.00
                                0.00      0.00      0.00
                                0.00      0.00      0.00

[...]

                                0.00      0.00      0.00

     Writing all to output data dir new_calculations/myprefix.save/

     General routines

     Parallel routines

     PAW routines

   This run was terminated on:   8:10:48  20May2023

   JOB DONE.