     Program PWSCF v.7.0 starts on 20May2023 at 22:42:26

     Reading input from espresso_22289.pwi
Warning: card &CELL ignored
Warning: card / ignored

     Current dimensions of program PWSCF are:
     Max number of different atomic species (ntypx) = 10
     Max number of k-points (npk) =  40000
     Max angular momentum in pseudopotentials (lmaxx) =  4
     file Fe.pbe-spn-kjpaw_psl.0.2.1.UPF: wavefunction(s)  3D renormalized
     file O.pbe-n-kjpaw_psl.0.1.UPF: wavefunction(s)  2P renormalized

     gamma-point specific algorithms are used

     Subspace diagonalization in iterative solution of the eigenvalue problem:
     a serial algorithm will be used

     Using Slab Decomposition

     bravais-lattice index     =            0
     lattice parameter (alat)  =      10.3354  a.u.
     unit-cell volume          =    1293.7408 (a.u.)^3
     number of atoms/cell      =           16
     number of atomic types    =            4
     number of electrons       =       142.00
     number of Kohn-Sham states=           85
     kinetic-energy cutoff     =      30.0000  Ry
     charge density cutoff     =     240.0000  Ry
     scf convergence threshold =      1.0E-06
     mixing beta               =       0.7000
     number of iterations used =            8  plain     mixing
     Exchange-correlation= SLA  PW   PBX  PBC
                           (   1   4   3   4   0   0   0)

     celldm(1)=  10.335379  celldm(2)=   0.000000  celldm(3)=   0.000000
     celldm(4)=   0.000000  celldm(5)=   0.000000  celldm(6)=   0.000000

     crystal axes: (cart. coord. in units of alat)
               a(1) = (   1.000000   0.000000   0.000000 )
               a(2) = (  -0.092944   0.998989   0.000000 )
               a(3) = (  -0.404593  -0.444488   1.173025 )

     reciprocal axes: (cart. coord. in units 2 pi/alat)
               b(1) = (  1.000000  0.093038  0.380168 )
               b(2) = (  0.000000  1.001012  0.379308 )
               b(3) = (  0.000000  0.000000  0.852497 )

     PseudoPot. # 1 for Zn read from file:
     /home/pragov/projects/rrg-bengioy-ad/pragov/crystal_structure_design/SSSP/Zn_pbe_v1.uspp.F.UPF
     MD5 check sum: df62231357ef9e81f77b2b3087fa5675
     Pseudo is Ultrasoft, Zval = 20.0
     Generated by new atomic code, or converted to UPF format
     Using radial grid of  943 points,  6 beta functions with:
                l(1) =   0
                l(2) =   0
                l(3) =   1
                l(4) =   1
                l(5) =   2
                l(6) =   2
     Q(r) pseudized with  8 coefficients,  rinner =    1.100   1.100   1.100
                                                       1.100   1.100

     PseudoPot. # 2 for Fe read from file:
     /home/pragov/projects/rrg-bengioy-ad/pragov/crystal_structure_design/SSSP/Fe.pbe-spn-kjpaw_psl.0.2.1.UPF
     MD5 check sum: e86618425769142926afa95317d90200
     Pseudo is Projector augmented-wave + core cor, Zval = 16.0
     Generated using "atomic" code by A. Dal Corso  v.5.0.99 svn rev. 10869
     Shape of augmentation charge: PSQ
     Using radial grid of 1191 points,  6 beta functions with:
                l(1) =   0
                l(2) =   0
                l(3) =   1
                l(4) =   1
                l(5) =   2
                l(6) =   2
     Q(r) pseudized with 0 coefficients

     PseudoPot. # 3 for P  read from file:
     /home/pragov/projects/rrg-bengioy-ad/pragov/crystal_structure_design/SSSP/P.pbe-n-rrkjus_psl.1.0.0.UPF
     MD5 check sum: 8b930f418f0a4573dca56cd030ffe088
     Pseudo is Ultrasoft + core correction, Zval =  5.0
     Generated using "atomic" code by A. Dal Corso  v.5.1
     Using radial grid of 1147 points,  6 beta functions with:
                l(1) =   0
                l(2) =   0
                l(3) =   1
                l(4) =   1
                l(5) =   2
                l(6) =   2
     Q(r) pseudized with 0 coefficients

     PseudoPot. # 4 for O  read from file:
     /home/pragov/projects/rrg-bengioy-ad/pragov/crystal_structure_design/SSSP/O.pbe-n-kjpaw_psl.0.1.UPF
     MD5 check sum: 0234752ac141de4415c5fc33072bef88
     Pseudo is Projector augmented-wave + core cor, Zval =  6.0
     Generated using "atomic" code by A. Dal Corso  v.5.0.99 svn rev. 10869
     Shape of augmentation charge: BESSEL
     Using radial grid of 1095 points,  4 beta functions with:
                l(1) =   0
                l(2) =   0
                l(3) =   1
                l(4) =   1
     Q(r) pseudized with 0 coefficients

     atomic species   valence    mass     pseudopotential
        Zn            20.00    65.38000     Zn( 1.00)
        Fe            16.00    55.84500     Fe( 1.00)
        P              5.00    30.97376     P ( 1.00)
        O              6.00    15.99900     O ( 1.00)

     No symmetry found

                                    s                        frac. trans.

      isym =  1     identity

 cryst.   s( 1) = (     1          0          0      )
                  (     0          1          0      )
                  (     0          0          1      )

 cart.    s( 1) = (  1.0000000  0.0000000  0.0000000 )
                  (  0.0000000  1.0000000 -0.0000000 )
                  (  0.0000000  0.0000000  1.0000000 )

   Cartesian axes

     site n.     atom                  positions (alat units)
         1           Zn  tau(   1) = (  -0.0108998  -0.1679908   0.9163764  )
         2           Zn  tau(   2) = (   0.5102366   0.6983979   0.3424224  )
         3           Fe  tau(   3) = (  -0.2466737   0.2653288   0.6012761  )
         4           Fe  tau(   4) = (  -0.0482429   0.4911332   0.0152880  )
         5           P   tau(   5) = (   0.2665782   0.5098306   0.8935764  )
         6           P   tau(   6) = (   0.2321101   0.0198568   0.3048398  )
         7           O   tau(   7) = (   0.2929590   0.2962917   1.0741999  )
         8           O   tau(   8) = (   0.4812129   0.5151992   0.7086079  )
         9           O   tau(   9) = (   0.2137356   0.2269833   0.1132168  )
        10           O   tau(  10) = (   0.0108017   0.0216228   0.4791525  )
        11           O   tau(  11) = (   0.4803071   0.0332405   0.4502961  )
        12           O   tau(  12) = (   0.1711350   0.7620810   0.1799831  )
        13           O   tau(  13) = (   0.0125289   0.5050166   0.7592181  )
        14           O   tau(  14) = (   0.3360981  -0.2368864   1.0299393  )
        15           O   tau(  15) = (   0.7559729   0.4635887   0.3076715  )
        16           O   tau(  16) = (  -0.2545363   0.0698815   0.8947846  )

   Crystallographic axes

     site n.     atom                  positions (cryst. coord.)
         1           Zn  tau(   1) = (  0.3218480  0.1794280  0.7812080  )
         2           Zn  tau(   2) = (  0.7053920  0.8289880  0.2919140  )
         3           Fe  tau(   3) = (  0.0065980  0.4936660  0.5125860  )
         4           Fe  tau(   4) = (  0.0032630  0.4974290  0.0130330  )
         5           P   tau(   5) = (  0.6537210  0.8492870  0.7617710  )
         6           P   tau(   6) = (  0.3498480  0.1355050  0.2598750  )
         7           O   tau(   7) = (  0.7289020  0.7040440  0.9157520  )
         8           O   tau(   8) = (  0.7985360  0.7845010  0.6040860  )
         9           O   tau(   9) = (  0.2778950  0.2701570  0.0965170  )
        10           O   tau(  10) = (  0.1949720  0.2033910  0.4084760  )
        11           O   tau(  11) = (  0.6545880  0.2040750  0.3838760  )
        12           O   tau(  12) = (  0.3104610  0.8311210  0.1534350  )
        13           O   tau(  13) = (  0.3481450  0.7935050  0.6472310  )
        14           O   tau(  14) = (  0.7056090  0.1535380  0.8780200  )
        15           O   tau(  15) = (  0.9160710  0.5807600  0.2622890  )
        16           O   tau(  16) = (  0.0921340  0.4093510  0.7628010  )

     number of k points=     1  Methfessel-Paxton smearing, width (Ry)=  0.0010
                       cart. coord. in units 2pi/alat
        k(    1) = (   0.0000000   0.0000000   0.0000000), wk =   2.0000000

                       cryst. coord.
        k(    1) = (   0.0000000   0.0000000   0.0000000), wk =   2.0000000

     Check: negative core charge=   -0.000080

     Initial potential from superposition of free atoms

     starting charge     141.9985, renormalised to     142.0000
     Starting wfcs are  100 randomized atomic wfcs
     Checking if some PAW data can be deallocated...

     Self-consistent Calculation

     iteration #  1     ecut=    30.00 Ry     beta= 0.70
     Davidson diagonalization with overlap

     ethr =  1.00E-02,  avg # of iterations =  3.0

     total energy              =   -2023.65433296 Ry
     estimated scf accuracy    <       3.56799907 Ry

[...]

     negative rho (up, down):  9.443E-06 0.000E+00

[...]

     total energy              =   -2025.40565742 Ry
     estimated scf accuracy    <       0.00000372 Ry

     iteration # 18     ecut=    30.00 Ry     beta= 0.70
     Davidson diagonalization with overlap

     ethr =  7.95E-10,  avg # of iterations =  1.0

[...]

     End of self-consistent calculation

          k = 0.0000 0.0000 0.0000 (  1791 PWs)   bands (ev):

  -118.0465-118.0414 -80.5854 -80.5803 -72.2220 -72.2173 -72.1748 -72.1692
   -72.1264 -72.1198 -46.3361 -46.3203 -46.2570 -46.2319 -45.7424 -45.7258
   -14.8432 -14.6234 -12.4361 -12.3429 -12.2312 -12.1288 -12.0306 -12.0069
   -11.3158 -10.9787  -2.5255  -1.9886  -0.5247  -0.4741  -0.1461   0.0014
     0.0169   0.5510   0.6982   0.8064   0.8654   0.8882   0.9929   1.0279
     1.1599   1.1897   1.2971   1.4291   1.6896   1.7476   2.1255   2.3536
     2.5154   2.7016   3.2422   3.4462   3.5015   3.5745   3.6242   3.9246
     4.0123   4.1475   4.4748   4.6696   4.7388   4.8053   4.9528   5.2164
     5.3468   5.4900   5.9621   6.0067   6.2126   6.2446   6.2856   7.0973
     7.4900   8.3540   8.3984   9.2031   9.5865  11.9901  13.1009  13.5410
    14.4389  14.5718  14.7607  14.8265  15.4049

     occupation numbers
     1.0000   1.0000   1.0000   1.0000   1.0000   1.0000   1.0000   1.0000
     1.0000   1.0000   1.0000   1.0000   1.0000   1.0000   1.0000   1.0000
     1.0000   1.0000   1.0000   1.0000   1.0000   1.0000   1.0000   1.0000
     1.0000   1.0000   1.0000   1.0000   1.0000   1.0000   1.0000   1.0000
     1.0000   1.0000   1.0000   1.0000   1.0000   1.0000   1.0000   1.0000
     1.0000   1.0000   1.0000   1.0000   1.0000   1.0000   1.0000   1.0000
     1.0000   1.0000   1.0000   1.0000   1.0000   1.0000   1.0000   1.0000
     1.0000   1.0000   1.0000   1.0000   1.0000   1.0000   1.0000   1.0000
     1.0000   1.0000   1.0000   1.0000   1.0000   1.0000   1.0000  -0.0000
    -0.0000  -0.0000  -0.0000  -0.0000  -0.0000  -0.0000  -0.0000  -0.0000
    -0.0000  -0.0000  -0.0000  -0.0000  -0.0000

     the Fermi energy is     6.6609 ev

!    total energy              =   -2025.40565722 Ry
     estimated scf accuracy    <       0.00000054 Ry
     smearing contrib. (-TS)   =       0.00000000 Ry
     internal energy E=F+TS    =   -2025.40565722 Ry

     The total energy is F=E-TS. E is the sum of the following terms:
     one-electron contribution =   -1402.94687953 Ry
     hartree contribution      =     763.49337087 Ry
     xc contribution           =    -237.27909117 Ry
     ewald contribution        =    -901.34991316 Ry
     one-center paw contrib.   =    -247.32314423 Ry
      -> PAW hartree energy AE =     716.61479158 Ry
      -> PAW hartree energy PS =    -713.95497590 Ry
      -> PAW xc energy AE      =    -394.86731941 Ry
      -> PAW xc energy PS      =     144.88435950 Ry
      -> total E_H with PAW    =     766.15318656 Ry
      -> total E_XC with PAW   =    -487.26205109 Ry

     convergence has been achieved in  18 iterations

     negative rho (up, down):  6.683E-06 0.000E+00

     Forces acting on atoms (cartesian axes, Ry/au):

     atom    1 type  1   force =     0.00568386   -0.00933467    0.00692684
     atom    2 type  1   force =    -0.00997889    0.00559730    0.00621707
     atom    3 type  2   force =    -0.00680151    0.00430986   -0.00244510
     atom    4 type  2   force =     0.00540356   -0.00507912    0.00165332
     atom    5 type  3   force =     0.01873089   -0.02141296    0.00483846
     atom    6 type  3   force =    -0.01898646    0.01814864    0.00365986
     atom    7 type  4   force =    -0.00290621   -0.00265460    0.01933279
     atom    8 type  4   force =     0.01381139    0.00324491   -0.02777894
     atom    9 type  4   force =     0.00049740    0.01165089   -0.02751174
     atom   10 type  4   force =    -0.00588943   -0.00519462    0.01907976
     atom   11 type  4   force =     0.02316777    0.00016585   -0.00117568
     atom   12 type  4   force =     0.00219833   -0.01903316    0.00333403
     atom   13 type  4   force =    -0.02093471   -0.00118052    0.00163706
     atom   14 type  4   force =    -0.00429920    0.02118540   -0.00352499
     atom   15 type  4   force =     0.01774854   -0.01590676   -0.00255641
     atom   16 type  4   force =    -0.01744534    0.01549356   -0.00168631
     The non-local contrib.  to forces
     atom    1 type  1   force =     0.21649250   -0.27446173   -0.06582453
     atom    2 type  1   force =    -0.18444784    0.29966163   -0.01676224
     atom    3 type  2   force =    -0.02063066    0.01109138    0.00653710
     atom    4 type  2   force =     0.01350909   -0.02322098    0.01439331
     atom    5 type  3   force =    -0.03440233    0.05054426   -0.01226702
     atom    6 type  3   force =     0.05257611   -0.02713803    0.00507419
     atom    7 type  4   force =     0.26237565    1.10176285   -1.01600877
     atom    8 type  4   force =    -1.08434979   -0.25114460    0.83882726
     atom    9 type  4   force =    -0.12025042   -1.05178313    0.92066862
     atom   10 type  4   force =     1.11515276    0.39442891   -0.94403333
     atom   11 type  4   force =    -0.97226811   -0.16205743   -0.88060778
     atom   12 type  4   force =    -0.21625954    1.13001056    0.73743742
     atom   13 type  4   force =     1.07404272   -0.01137110    0.81824015
     atom   14 type  4   force =     0.03012984   -1.05447300   -0.80407483
     atom   15 type  4   force =    -0.18280417    0.23865108    0.06581469
     atom   16 type  4   force =     0.22625140   -0.21890861    0.02530983
     The ionic contribution  to forces
     atom    1 type  1   force =     6.10968967   -3.86028654   -0.26388922
     atom    2 type  1   force =    -5.31829290    4.75516382   -3.36171682
     atom    3 type  2   force =     1.19637598   -0.51774815    0.52786101
     atom    4 type  2   force =    -0.59657090    1.07637988    0.69532522
     atom    5 type  3   force =     1.59743267   -2.17321311    0.25446809
     atom    6 type  3   force =    -1.89670717    1.79888994   -0.04011903
     atom    7 type  4   force =    -2.99192498    2.46983918   -1.30016163
     atom    8 type  4   force =    -3.12814744    0.31637286    3.88017635
     atom    9 type  4   force =     1.20765474   -2.72440780    3.62595533
     atom   10 type  4   force =     3.12462060   -2.05535083   -1.65074220
     atom   11 type  4   force =    -3.95632286    5.06293984    3.04454663
     atom   12 type  4   force =    -3.16074798    1.70251775   -3.43592812
     atom   13 type  4   force =     3.13619856   -3.94250973   -3.39252546
     atom   14 type  4   force =     4.45472059   -2.36297923    3.21917673
     atom   15 type  4   force =     4.48258738   -4.67137315   -1.52456592
     atom   16 type  4   force =    -4.26056597    5.12576526   -0.27786097
     The local contribution  to forces
     atom    1 type  1   force =    -6.32015051    4.12522374    0.33734907
     atom    2 type  1   force =     5.49241684   -5.04895546    3.38425886
     atom    3 type  2   force =    -1.17930451    0.51022183   -0.53589134
     atom    4 type  2   force =     0.58642338   -1.05675508   -0.70738597
     atom    5 type  3   force =    -1.54559491    2.10398378   -0.23828678
     atom    6 type  3   force =     1.82796237   -1.75452241    0.03873058
     atom    7 type  4   force =     2.72993440   -3.56488250    2.32665884
     atom    8 type  4   force =     4.21680023   -0.06472376   -4.73936269
     atom    9 type  4   force =    -1.08876977    3.77896904   -4.56639343
     atom   10 type  4   force =    -4.23565833    1.65975647    2.60537695
     atom   11 type  4   force =     4.94349237   -4.90195984   -2.17310279
     atom   12 type  4   force =     3.37659602   -2.84223276    2.70823346
     atom   13 type  4   force =    -4.22179780    3.95213954    2.58359822
     atom   14 type  4   force =    -4.48829484    3.42997519   -2.42562228
     atom   15 type  4   force =    -4.28333245    4.41928299    1.45630137
     atom   16 type  4   force =     4.01878548   -4.89371823    0.25183863
     The core correction contribution to forces
     atom    1 type  1   force =     0.00000000    0.00000000    0.00000000
     atom    2 type  1   force =     0.00000000    0.00000000    0.00000000
     atom    3 type  2   force =    -0.00314174    0.00054556   -0.00069954
     atom    4 type  2   force =     0.00213922   -0.00177569   -0.00093225
     atom    5 type  3   force =     0.00136604   -0.00269097    0.00111428
     atom    6 type  3   force =    -0.00276103    0.00091940   -0.00005971
     atom    7 type  4   force =    -0.00299061   -0.00953263    0.00897690
     atom    8 type  4   force =     0.00929622    0.00284520   -0.00708217
     atom    9 type  4   force =     0.00170342    0.00896915   -0.00784388
     atom   10 type  4   force =    -0.00969249   -0.00421389    0.00835657
     atom   11 type  4   force =     0.00812797    0.00106014    0.00792993
     atom   12 type  4   force =     0.00249883   -0.00951138   -0.00652790
     atom   13 type  4   force =    -0.00904776    0.00067128   -0.00738757
     atom   14 type  4   force =    -0.00056523    0.00878074    0.00717651
     atom   15 type  4   force =     0.00162803   -0.00238333   -0.00074291
     atom   16 type  4   force =    -0.00211937    0.00210983   -0.00024343
     The Hubbard contrib.    to forces
     atom    1 type  1   force =     0.00000000    0.00000000    0.00000000
     atom    2 type  1   force =     0.00000000    0.00000000    0.00000000
     atom    3 type  2   force =     0.00000000    0.00000000    0.00000000
     atom    4 type  2   force =     0.00000000    0.00000000    0.00000000
     atom    5 type  3   force =     0.00000000    0.00000000    0.00000000
     atom    6 type  3   force =     0.00000000    0.00000000    0.00000000
     atom    7 type  4   force =     0.00000000    0.00000000    0.00000000
     atom    8 type  4   force =     0.00000000    0.00000000    0.00000000
     atom    9 type  4   force =     0.00000000    0.00000000    0.00000000
     atom   10 type  4   force =     0.00000000    0.00000000    0.00000000
     atom   11 type  4   force =     0.00000000    0.00000000    0.00000000
     atom   12 type  4   force =     0.00000000    0.00000000    0.00000000
     atom   13 type  4   force =     0.00000000    0.00000000    0.00000000
     atom   14 type  4   force =     0.00000000    0.00000000    0.00000000
     atom   15 type  4   force =     0.00000000    0.00000000    0.00000000
     atom   16 type  4   force =     0.00000000    0.00000000    0.00000000
     The SCF correction term to forces
     atom    1 type  1   force =    -0.00027459    0.00014325   -0.00064580
     atom    2 type  1   force =     0.00041823   -0.00031929    0.00049995
     atom    3 type  2   force =    -0.00002737    0.00015263   -0.00018965
     atom    4 type  2   force =    -0.00002402    0.00024614    0.00031569
     atom    5 type  3   force =     0.00000263   -0.00008352   -0.00012742
     atom    6 type  3   force =     0.00001648   -0.00004686    0.00009652
     atom    7 type  4   force =    -0.00022747    0.00011191   -0.00006988
     atom    8 type  4   force =     0.00028538   -0.00015140   -0.00027501
     atom    9 type  4   force =     0.00023265   -0.00014298    0.00016430
     atom   10 type  4   force =    -0.00023876    0.00013813    0.00018445
     atom   11 type  4   force =     0.00021162    0.00013654    0.00012101
     atom   12 type  4   force =     0.00018421    0.00013606    0.00018185
     atom   13 type  4   force =    -0.00025723   -0.00015712   -0.00022559
     atom   14 type  4   force =    -0.00021636   -0.00016489   -0.00011844
     atom   15 type  4   force =    -0.00025703   -0.00013096    0.00069904
     atom   16 type  4   force =     0.00027633    0.00019872   -0.00066769

     Total force =     0.087422     Total SCF correction =     0.001812

     Computing stress (Cartesian axis) and pressure

     negative rho (up, down):  6.683E-06 0.000E+00
          total   stress  (Ry/bohr**3)                   (kbar)     P=     -652.39
  -0.00438465  -0.00009077   0.00010051         -645.00      -13.35       14.79
  -0.00009077  -0.00432119   0.00014929          -13.35     -635.67       21.96
   0.00010051   0.00014929  -0.00459870           14.79       21.96     -676.49

     kinetic stress (kbar)  27274.38    197.73    -17.88
                              197.73  27306.92    -19.27
                              -17.88    -19.27  27539.10

     local   stress (kbar) -14128.74  20426.28    898.46
                            20426.28 -12387.17     52.85
                              898.46     52.85  -6579.31

     nonloc. stress (kbar)  -3446.11    -89.45     20.14
                              -89.45  -3454.84     24.87
                               20.14     24.87  -3554.10

     hartree stress (kbar)  30006.83  -8299.43   -181.92
                            -8299.43  29396.62    237.66
                             -181.92    237.66  27409.73

     exc-cor stress (kbar)  -5600.13    -10.85     -3.92
                              -10.85  -5601.77     -4.40
                               -3.92     -4.40  -5601.59

     corecor stress (kbar)  -2684.65      4.72      1.00
                                4.72  -2683.79      1.25
                                1.00      1.25  -2680.36

     ewald   stress (kbar) -32066.58 -12242.36   -701.09
                           -12242.36 -33211.64   -271.01
                             -701.09   -271.01 -37209.97

     hubbard stress (kbar)      0.00      0.00      0.00
                                0.00      0.00      0.00
                                0.00      0.00      0.00

     DFT-D   stress (kbar)      0.00      0.00      0.00
                                0.00      0.00      0.00
                                0.00      0.00      0.00

     XDM     stress (kbar)      0.00      0.00      0.00
                                0.00      0.00      0.00
                                0.00      0.00      0.00

     dft-nl  stress (kbar)      0.00      0.00      0.00
                                0.00      0.00      0.00
                                0.00      0.00      0.00

     TS-vdW  stress (kbar)      0.00      0.00      0.00
                                0.00      0.00      0.00
                                0.00      0.00      0.00

[...]

                                0.00      0.00      0.00

     Writing all to output data dir new_calculations/myprefix.save/

     General routines

     Parallel routines

     PAW routines

   This run was terminated on:  22:43: 3  20May2023

   JOB DONE.