     Program PWSCF v.7.0 starts on 21May2023 at  8:34: 9

     Reading input from espresso_19870.pwi
Warning: card &CELL ignored
Warning: card / ignored

     Current dimensions of program PWSCF are:
     Max number of different atomic species (ntypx) = 10
     Max number of k-points (npk) =  40000
     Max angular momentum in pseudopotentials (lmaxx) =  4
     file K.pbe-spn-kjpaw_psl.1.0.0.UPF: wavefunction(s)  3S renormalized
     file O.pbe-n-kjpaw_psl.0.1.UPF: wavefunction(s)  2P renormalized

     gamma-point specific algorithms are used

     Subspace diagonalization in iterative solution of the eigenvalue problem:
     a serial algorithm will be used

     Using Slab Decomposition

     bravais-lattice index     =            0
     lattice parameter (alat)  =      12.4842  a.u.
     unit-cell volume          =    1833.6371 (a.u.)^3
     number of atoms/cell      =           20
     number of atomic types    =            4
     number of electrons       =       112.00
     number of Kohn-Sham states=           67
     kinetic-energy cutoff     =      30.0000  Ry
     charge density cutoff     =     240.0000  Ry
     scf convergence threshold =      1.0E-06
     mixing beta               =       0.7000
     number of iterations used =            8  plain     mixing
     Exchange-correlation= SLA  PW   PBX  PBC
                           (   1   4   3   4   0   0   0)

     celldm(1)=  12.484241  celldm(2)=   0.000000  celldm(3)=   0.000000
     celldm(4)=   0.000000  celldm(5)=   0.000000  celldm(6)=   0.000000

     crystal axes: (cart. coord. in units of alat)
               a(1) = (   1.000000   0.000000   0.000000 )
               a(2) = (  -0.182377   0.983229   0.000000 )
               a(3) = (  -0.182377  -0.219317   0.958457 )

     reciprocal axes: (cart. coord. in units 2 pi/alat)
               b(1) = (  1.000000  0.185488  0.232726 )
               b(2) = (  0.000000  1.017057  0.232726 )
               b(3) = (  0.000000  0.000000  1.043344 )

     PseudoPot. # 1 for K  read from file:
     /home/pragov/projects/rrg-bengioy-ad/pragov/crystal_structure_design/SSSP/K.pbe-spn-kjpaw_psl.1.0.0.UPF
     MD5 check sum: 7d58810084cac21f60fbe77ea2b688fd
     Pseudo is Projector augmented-wave + core cor, Zval =  9.0
     Generated using "atomic" code by A. Dal Corso  v.5.1
     Shape of augmentation charge: PSQ
     Using radial grid of 1165 points,  6 beta functions with:
                l(1) =   0
                l(2) =   0
                l(3) =   1
                l(4) =   1
                l(5) =   2
                l(6) =   2
     Q(r) pseudized with 0 coefficients

     PseudoPot. # 2 for B  read from file:
     /home/pragov/projects/rrg-bengioy-ad/pragov/crystal_structure_design/SSSP/b_pbe_v1.4.uspp.F.UPF
     MD5 check sum: cc6de2960df11db49a60e589f9ebb39b
     Pseudo is Ultrasoft + core correction, Zval =  3.0
     Generated by new atomic code, or converted to UPF format
     Using radial grid of  781 points,  4 beta functions with:
                l(1) =   0
                l(2) =   0
                l(3) =   1
                l(4) =   1
     Q(r) pseudized with  8 coefficients,  rinner =    1.100   1.100   1.100

     PseudoPot. # 3 for Cl read from file:
     /home/pragov/projects/rrg-bengioy-ad/pragov/crystal_structure_design/SSSP/cl_pbe_v1.4.uspp.F.UPF
     MD5 check sum: fc6f6913ecf08c9257cb748ef0700058
     Pseudo is Ultrasoft + core correction, Zval =  7.0
     Generated by new atomic code, or converted to UPF format
     Using radial grid of  909 points,  6 beta functions with:
                l(1) =   0
                l(2) =   0
                l(3) =   1
                l(4) =   1
                l(5) =   2
                l(6) =   2
     Q(r) pseudized with  8 coefficients,  rinner =    1.300   1.300   1.300
                                                       1.300   1.300

     PseudoPot. # 4 for O  read from file:
     /home/pragov/projects/rrg-bengioy-ad/pragov/crystal_structure_design/SSSP/O.pbe-n-kjpaw_psl.0.1.UPF
     MD5 check sum: 0234752ac141de4415c5fc33072bef88
     Pseudo is Projector augmented-wave + core cor, Zval =  6.0
     Generated using "atomic" code by A. Dal Corso  v.5.0.99 svn rev. 10869
     Shape of augmentation charge: BESSEL
     Using radial grid of 1095 points,  4 beta functions with:
                l(1) =   0
                l(2) =   0
                l(3) =   1
                l(4) =   1
     Q(r) pseudized with 0 coefficients

     atomic species   valence    mass     pseudopotential
        K              9.00    39.09830     K ( 1.00)
        B              3.00    10.81000     B ( 1.00)
        Cl             7.00    35.45000     Cl( 1.00)
        O              6.00    15.99900     O ( 1.00)

     No symmetry found

                                    s                        frac. trans.

      isym =  1     identity

 cryst.   s( 1) = (     1          0          0      )
                  (     0          1          0      )
                  (     0          0          1      )

 cart.    s( 1) = (  1.0000000 -0.0000000  0.0000000 )
                  (  0.0000000  1.0000000  0.0000000 )
                  (  0.0000000  0.0000000  1.0000000 )

   Cartesian axes

     site n.     atom                  positions (alat units)
         1           K   tau(   1) = (   0.1462663   0.8226664   0.3686828  )
         2           K   tau(   2) = (   0.1462662   0.1758917   0.8841771  )
         3           K   tau(   3) = (   0.7821936   0.2938486   0.3686828  )
         4           B   tau(   4) = (   0.6503425  -0.1039618   0.7784910  )
         5           B   tau(   5) = (   0.6503427   0.7820665   0.0723060  )
         6           B   tau(   6) = (  -0.2208257   0.6204752   0.7784910  )
         7           B   tau(   7) = (   0.6735661   0.8099937   0.4643914  )
         8           B   tau(   8) = (   0.1446107   0.7118788   0.8931722  )
         9           B   tau(   9) = (   0.6735660   0.2720157   0.8931722  )
        10           Cl  tau(  10) = (   0.2782866   0.3346522   0.4198778  )
        11           O   tau(  11) = (   0.7026076  -0.0750886   0.5639050  )
        12           O   tau(  12) = (   0.4288071   0.7941309   0.0525867  )
        13           O   tau(  13) = (  -0.2019687   0.3986585   0.7858529  )
        14           O   tau(  14) = (   0.4288069  -0.1258753   0.7858529  )
        15           O   tau(  15) = (   0.7026077   0.5664466   0.0525867  )
        16           O   tau(  16) = (  -0.2019687   0.6771296   0.5639050  )
        17           O   tau(  17) = (   0.7167743   0.8619535   0.2671458  )
        18           O   tau(  18) = (  -0.0637164   0.7171819   0.8998258  )
        19           O   tau(  19) = (   0.7167742   0.0681497   0.8998258  )
        20           O   tau(  20) = (   0.5697361   0.6851335   0.8596157  )

   Crystallographic axes

     site n.     atom                  positions (cryst. coord.)
         1           K   tau(   1) = (  0.3846630  0.9225010  0.3846630  )
         2           K   tau(   2) = (  0.3846630  0.3846630  0.9225010  )
         3           K   tau(   3) = (  0.9225010  0.3846630  0.3846630  )
         4           B   tau(   4) = (  0.8122340  0.0754400  0.8122340  )
         5           B   tau(   5) = (  0.8122340  0.8122340  0.0754400  )
         6           B   tau(   6) = (  0.0754400  0.8122340  0.8122340  )
         7           B   tau(   7) = (  0.9318860  0.9318860  0.4845200  )
         8           B   tau(   8) = (  0.4845200  0.9318860  0.9318860  )
         9           B   tau(   9) = (  0.9318860  0.4845200  0.9318860  )
        10           Cl  tau(  10) = (  0.4380770  0.4380770  0.4380770  )
        11           O   tau(  11) = (  0.8199150  0.0548660  0.5883470  )
        12           O   tau(  12) = (  0.5883470  0.8199150  0.0548660  )
        13           O   tau(  13) = (  0.0548660  0.5883470  0.8199150  )
        14           O   tau(  14) = (  0.5883470  0.0548660  0.8199150  )
        15           O   tau(  15) = (  0.8199150  0.5883470  0.0548660  )
        16           O   tau(  16) = (  0.0548660  0.8199150  0.5883470  )
        17           O   tau(  17) = (  0.9388280  0.9388280  0.2787250  )
        18           O   tau(  18) = (  0.2787250  0.9388280  0.9388280  )
        19           O   tau(  19) = (  0.9388280  0.2787250  0.9388280  )
        20           O   tau(  20) = (  0.8968750  0.8968750  0.8968750  )

     number of k points=     1  Methfessel-Paxton smearing, width (Ry)=  0.0010
                       cart. coord. in units 2pi/alat
        k(    1) = (   0.0000000   0.0000000   0.0000000), wk =   2.0000000

                       cryst. coord.
        k(    1) = (   0.0000000   0.0000000   0.0000000), wk =   2.0000000

     Check: negative core charge=   -0.000011

     Initial potential from superposition of free atoms

     starting charge     111.9418, renormalised to     112.0000

     negative rho (up, down):  1.467E-02 0.000E+00
     Starting wfcs are   92 randomized atomic wfcs
     Checking if some PAW data can be deallocated...

     Self-consistent Calculation

     iteration #  1     ecut=    30.00 Ry     beta= 0.70
     Davidson diagonalization with overlap

     ethr =  1.00E-02,  avg # of iterations =  6.0

     negative rho (up, down):  1.529E-02 0.000E+00

     total energy              =    -827.73413003 Ry
     estimated scf accuracy    <       2.50113485 Ry

[...]

     total energy              =    -828.69525686 Ry
     estimated scf accuracy    <       0.00000407 Ry

     iteration #  9     ecut=    30.00 Ry     beta= 0.70
     Davidson diagonalization with overlap

     ethr =  3.64E-09,  avg # of iterations =  2.0

[...]

     End of self-consistent calculation

          k = 0.0000 0.0000 0.0000 (  2538 PWs)   bands (ev):

   -24.6699 -24.6577 -24.6577 -17.9344 -16.5608 -16.5608 -16.2800 -16.2799
   -15.8767 -15.2589 -15.1916 -15.1795 -15.1794  -8.7704  -8.2564  -8.2564
    -8.2027  -8.1775  -8.1775  -8.1753  -8.1523  -8.1523  -8.1297  -6.1955
    -5.2914  -5.2913  -4.5183  -4.5183  -3.9639  -3.9639  -3.4033  -2.8140
    -2.8139  -2.5742  -1.4699  -1.1125  -1.1124  -0.4377   0.0088   0.4135
     0.4136   0.6433   0.8367   0.8367   1.3024   1.3024   1.4310   1.6043
     1.6043   1.6992   2.1421   2.1421   2.4975   2.8555   2.8555   2.9265
     8.0538   9.6275   9.6993   9.6993  10.1400  10.1400  11.4367  11.4367
    11.5141  11.6826  12.3097

     occupation numbers
     1.0000   1.0000   1.0000   1.0000   1.0000   1.0000   1.0000   1.0000
     1.0000   1.0000   1.0000   1.0000   1.0000   1.0000   1.0000   1.0000
     1.0000   1.0000   1.0000   1.0000   1.0000   1.0000   1.0000   1.0000
     1.0000   1.0000   1.0000   1.0000   1.0000   1.0000   1.0000   1.0000
     1.0000   1.0000   1.0000   1.0000   1.0000   1.0000   1.0000   1.0000
     1.0000   1.0000   1.0000   1.0000   1.0000   1.0000   1.0000   1.0000
     1.0000   1.0000   1.0000   1.0000   1.0000   1.0000   1.0000   1.0000
    -0.0000  -0.0000  -0.0000  -0.0000  -0.0000  -0.0000  -0.0000  -0.0000
    -0.0000  -0.0000  -0.0000

     the Fermi energy is     3.1328 ev

!    total energy              =    -828.69525794 Ry
     estimated scf accuracy    <       0.00000011 Ry
     smearing contrib. (-TS)   =       0.00000000 Ry
     internal energy E=F+TS    =    -828.69525794 Ry

     The total energy is F=E-TS. E is the sum of the following terms:
     one-electron contribution =    -309.48213806 Ry
     hartree contribution      =     209.53003997 Ry
     xc contribution           =    -136.65275355 Ry
     ewald contribution        =    -330.77932229 Ry
     one-center paw contrib.   =    -261.31108402 Ry
      -> PAW hartree energy AE =     436.87365452 Ry
      -> PAW hartree energy PS =    -435.05111812 Ry
      -> PAW xc energy AE      =    -374.47608476 Ry
      -> PAW xc energy PS      =     111.34246433 Ry
      -> total E_H with PAW    =     211.35257638 Ry
      -> total E_XC with PAW   =    -399.78637397 Ry

     convergence has been achieved in   9 iterations

     negative rho (up, down):  1.438E-02 0.000E+00

     Forces acting on atoms (cartesian axes, Ry/au):

     atom    1 type  1   force =    -0.00272744    0.00128350   -0.00307435
     atom    2 type  1   force =    -0.00272077   -0.00327418    0.00057184
     atom    3 type  1   force =     0.00175720   -0.00244938   -0.00307461
     atom    4 type  2   force =    -0.00434951    0.00031677   -0.00529367
     atom    5 type  2   force =    -0.00434907   -0.00523081   -0.00087363
     atom    6 type  2   force =     0.00110360   -0.00421859   -0.00529196
     atom    7 type  2   force =     0.00173691    0.00208867   -0.00446202
     atom    8 type  2   force =    -0.00505204    0.00082814    0.00104087
     atom    9 type  2   force =     0.00173646   -0.00481576    0.00104064
     atom   10 type  3   force =     0.00451280    0.00543110    0.00681156
     atom   11 type  4   force =    -0.00788467    0.00533012    0.00705231
     atom   12 type  4   force =     0.00702983   -0.00671657    0.00676665
     atom   13 type  4   force =     0.00667923    0.00839095   -0.00503376
     atom   14 type  4   force =     0.00703160    0.00809689   -0.00503554
     atom   15 type  4   force =    -0.00788438    0.00568619    0.00676848
     atom   16 type  4   force =     0.00667907   -0.00677955    0.00705462
     atom   17 type  4   force =    -0.00270812   -0.00325655    0.00192669
     atom   18 type  4   force =     0.00304851   -0.00218854   -0.00274468
     atom   19 type  4   force =    -0.00270788    0.00260016   -0.00274519
     atom   20 type  4   force =    -0.00093132   -0.00112255   -0.00140427
     The non-local contrib.  to forces
     atom    1 type  1   force =    -0.00179529   -0.00682297   -0.00377775
     atom    2 type  1   force =    -0.00179911   -0.00216302   -0.00749103
     atom    3 type  1   force =    -0.00638063   -0.00301039   -0.00377821
     atom    4 type  2   force =     0.04339722   -0.05670880    0.04055639
     atom    5 type  2   force =     0.04339807    0.05218809   -0.04623368
     atom    6 type  2   force =    -0.06367266    0.03232832    0.04055935
     atom    7 type  2   force =     0.01602280    0.01926768   -0.02719224
     atom    8 type  2   force =    -0.03321465    0.01013395    0.01271733
     atom    9 type  2   force =     0.01602180   -0.03080855    0.01271721
     atom   10 type  3   force =    -0.01822390   -0.02191401   -0.02748740
     atom   11 type  4   force =     0.87672847   -0.95414427    0.52800902
     atom   12 type  4   force =     0.55544267    0.99471023   -0.81233340
     atom   13 type  4   force =    -1.09803831    0.36124583    0.78845787
     atom   14 type  4   force =     0.55544119   -1.01374470    0.78845945
     atom   15 type  4   force =     0.87672457    0.72753576   -0.81232834
     atom   16 type  4   force =    -1.09803773    0.68801216    0.52801500
     atom   17 type  4   force =    -0.69325408   -0.83366828    0.32692492
     atom   18 type  4   force =     0.62261183   -0.58958490   -0.73974303
     atom   19 type  4   force =    -0.69325055    0.50464044   -0.73974390
     atom   20 type  4   force =     0.04378845    0.05266318    0.06607490
     The ionic contribution  to forces
     atom    1 type  1   force =     0.15081036    0.20516298    0.23298969
     atom    2 type  1   force =     0.15081050    0.18135645    0.25196462
     atom    3 type  1   force =     0.17421779    0.18569808    0.23298969
     atom    4 type  2   force =    -0.41844974    0.86079946   -0.31924088
     atom    5 type  2   force =    -0.41844871   -0.50320352    0.76790221
     atom    6 type  2   force =     0.92267832   -0.25444178   -0.31924088
     atom    7 type  2   force =     0.01099613    0.01322335   -0.92804607
     atom    8 type  2   force =    -0.89439501   -0.15471509   -0.19411844
     atom    9 type  2   force =     0.01099676   -0.90761130   -0.19411844
     atom   10 type  3   force =    -0.18891653   -0.22718068   -0.28503676
     atom   11 type  4   force =    -4.04302072    4.95034934   -4.72313064
     atom   12 type  4   force =    -4.87525651   -5.01628420    3.77209500
     atom   13 type  4   force =     5.60467739   -3.91881563   -4.04850604
     atom   14 type  4   force =    -4.87525609    4.79597776   -4.04850604
     atom   15 type  4   force =    -4.04301990   -5.70834681    3.77209500
     atom   16 type  4   force =     5.60467937   -3.07238412   -4.72313064
     atom   17 type  4   force =     3.79411866    4.56259941    1.37255131
     atom   18 type  4   force =    -0.37708534    3.78889135    4.75380436
     atom   19 type  4   force =     3.79411833    0.32024547    4.75380436
     atom   20 type  4   force =    -0.08425506   -0.10132052   -0.12712142
     The local contribution  to forces
     atom    1 type  1   force =    -0.15185728   -0.19738679   -0.23248509
     atom    2 type  1   force =    -0.15187391   -0.18264634   -0.24429878
     atom    3 type  1   force =    -0.16638986   -0.18530005   -0.23247606
     atom    4 type  2   force =     0.37297813   -0.80721122    0.27540506
     atom    5 type  2   force =     0.37297325    0.44851691   -0.72544240
     atom    6 type  2   force =    -0.86169669    0.21950718    0.27540174
     atom    7 type  2   force =    -0.02529306   -0.03041484    0.94842566
     atom    8 type  2   force =     0.92030061    0.14498569    0.18190567
     atom    9 type  2   force =    -0.02529130    0.93130780    0.18190621
     atom   10 type  3   force =     0.21123206    0.25401887    0.31869578
     atom   11 type  4   force =     3.16598523   -3.99956478    4.20759997
     atom   12 type  4   force =     4.33258270    4.02364361   -2.96023759
     atom   13 type  4   force =    -4.50988775    3.56994065    3.26193464
     atom   14 type  4   force =     4.33256803   -3.78317186    3.26194242
     atom   15 type  4   force =     3.16598960    4.99374128   -2.96024337
     atom   16 type  4   force =    -4.50988736    2.38346022    4.20759932
     atom   17 type  4   force =    -3.10973644   -3.73960308   -1.69510494
     atom   18 type  4   force =    -0.23736777   -3.20678851   -4.02347491
     atom   19 type  4   force =    -3.10971693   -0.81824765   -4.02347764
     atom   20 type  4   force =     0.04004568    0.04815966    0.06042835
     The core correction contribution to forces
     atom    1 type  1   force =     0.00017869    0.00035712    0.00030232
     atom    2 type  1   force =     0.00017888    0.00021495    0.00041534
     atom    3 type  1   force =     0.00031849    0.00024095    0.00030239
     atom    4 type  2   force =    -0.00226408    0.00350283   -0.00199141
     atom    5 type  2   force =    -0.00226415   -0.00272277    0.00297040
     atom    6 type  2   force =     0.00385696   -0.00158734   -0.00199155
     atom    7 type  2   force =     0.00002812    0.00003382    0.00232117
     atom    8 type  2   force =     0.00221233    0.00043901    0.00055066
     atom    9 type  2   force =     0.00002816    0.00225525    0.00055069
     atom   10 type  3   force =     0.00051253    0.00061612    0.00077277
     atom   11 type  4   force =    -0.00764200    0.00875744   -0.00551378
     atom   12 type  4   force =    -0.00581165   -0.00885025    0.00730707
     atom   13 type  4   force =     0.01000430   -0.00405520   -0.00699761
     atom   14 type  4   force =    -0.00581169    0.00909703   -0.00699760
     atom   15 type  4   force =    -0.00764190   -0.00732822    0.00730697
     atom   16 type  4   force =     0.01000432   -0.00591669   -0.00551389
     atom   17 type  4   force =     0.00621367    0.00747217   -0.00241547
     atom   18 type  4   force =    -0.00508698    0.00537602    0.00674523
     atom   19 type  4   force =     0.00621367   -0.00402123    0.00674524
     atom   20 type  4   force =    -0.00051247   -0.00061632   -0.00077328
     The Hubbard contrib.    to forces
     atom    1 type  1   force =     0.00000000    0.00000000    0.00000000
     atom    2 type  1   force =     0.00000000    0.00000000    0.00000000
     atom    3 type  1   force =     0.00000000    0.00000000    0.00000000
     atom    4 type  2   force =     0.00000000    0.00000000    0.00000000
     atom    5 type  2   force =     0.00000000    0.00000000    0.00000000
     atom    6 type  2   force =     0.00000000    0.00000000    0.00000000
     atom    7 type  2   force =     0.00000000    0.00000000    0.00000000
     atom    8 type  2   force =     0.00000000    0.00000000    0.00000000
     atom    9 type  2   force =     0.00000000    0.00000000    0.00000000
     atom   10 type  3   force =     0.00000000    0.00000000    0.00000000
     atom   11 type  4   force =     0.00000000    0.00000000    0.00000000
     atom   12 type  4   force =     0.00000000    0.00000000    0.00000000
     atom   13 type  4   force =     0.00000000    0.00000000    0.00000000
     atom   14 type  4   force =     0.00000000    0.00000000    0.00000000
     atom   15 type  4   force =     0.00000000    0.00000000    0.00000000
     atom   16 type  4   force =     0.00000000    0.00000000    0.00000000
     atom   17 type  4   force =     0.00000000    0.00000000    0.00000000
     atom   18 type  4   force =     0.00000000    0.00000000    0.00000000
     atom   19 type  4   force =     0.00000000    0.00000000    0.00000000
     atom   20 type  4   force =     0.00000000    0.00000000    0.00000000
     The SCF correction term to forces
     atom    1 type  1   force =    -0.00005274   -0.00001323   -0.00008660
     atom    2 type  1   force =    -0.00002595   -0.00002259   -0.00000139
     atom    3 type  1   force =     0.00000259   -0.00006434   -0.00009550
     atom    4 type  2   force =     0.00000014   -0.00005186   -0.00000591
     atom    5 type  2   force =     0.00000365    0.00000410   -0.00005323
     atom    6 type  2   force =    -0.00005115   -0.00001135   -0.00000370
     atom    7 type  2   force =    -0.00000591   -0.00000770    0.00004637
     atom    8 type  2   force =     0.00005586   -0.00000179    0.00000256
     atom    9 type  2   force =    -0.00000777    0.00005466    0.00000189
     atom   10 type  3   force =    -0.00008018   -0.00009557   -0.00011591
     atom   11 type  4   force =     0.00007552   -0.00005397    0.00010467
     atom   12 type  4   force =     0.00008379    0.00007769   -0.00004752
     atom   13 type  4   force =    -0.00006521    0.00008894    0.00009429
     atom   14 type  4   force =     0.00010133   -0.00004771    0.00008315
     atom   15 type  4   force =     0.00007443    0.00009782   -0.00004486
     atom   16 type  4   force =    -0.00006836    0.00006252    0.00010175
     atom   17 type  4   force =    -0.00003875   -0.00004313   -0.00001220
     atom   18 type  4   force =    -0.00001205   -0.00006888   -0.00005941
     atom   19 type  4   force =    -0.00006121   -0.00000324   -0.00005632
     atom   20 type  4   force =     0.00001327    0.00000509    0.00000409

     Total force =     0.035857     Total SCF correction =     0.000449

     Computing stress (Cartesian axis) and pressure

     negative rho (up, down):  1.438E-02 0.000E+00
          total   stress  (Ry/bohr**3)                   (kbar)     P=     -268.80
  -0.00181430  -0.00002710  -0.00003401         -266.89       -3.99       -5.00
  -0.00002710  -0.00182434  -0.00004090           -3.99     -268.37       -6.02
  -0.00003401  -0.00004090  -0.00184307           -5.00       -6.02     -271.12

     kinetic stress (kbar)  14714.35     53.50     67.13
                               53.50  14734.20     80.72
                               67.13     80.72  14771.14

     local   stress (kbar) -13178.13   2597.63   3259.16
                             2597.63 -12214.47   3919.29
                             3259.16   3919.29 -10420.82

     nonloc. stress (kbar)   3396.09     -0.57     -0.72
                               -0.57   3395.88     -0.86
                               -0.72     -0.86   3395.49

     hartree stress (kbar)   6072.51   -982.80  -1233.09
                             -982.80   5707.91  -1482.84
                            -1233.09  -1482.84   5029.30

     exc-cor stress (kbar)  -1560.30     -4.05     -5.08
                               -4.05  -1561.80     -6.11
                               -5.08     -6.11  -1564.60

     corecor stress (kbar)  -1662.57      1.13      1.42
                                1.13  -1662.15      1.70
                                1.42      1.70  -1661.37

     ewald   stress (kbar)  -8048.85  -1668.83  -2093.83
                            -1668.83  -8667.94  -2517.93
                            -2093.83  -2517.93  -9820.26

     hubbard stress (kbar)      0.00      0.00      0.00
                                0.00      0.00      0.00
                                0.00      0.00      0.00

     DFT-D   stress (kbar)      0.00      0.00      0.00
                                0.00      0.00      0.00
                                0.00      0.00      0.00

     XDM     stress (kbar)      0.00      0.00      0.00
                                0.00      0.00      0.00
                                0.00      0.00      0.00

     dft-nl  stress (kbar)      0.00      0.00      0.00
                                0.00      0.00      0.00
                                0.00      0.00      0.00

     TS-vdW  stress (kbar)      0.00      0.00      0.00
                                0.00      0.00      0.00
                                0.00      0.00      0.00

[...]

                                0.00      0.00      0.00

     Writing all to output data dir new_calculations/myprefix.save/

     General routines

     Parallel routines

     PAW routines

   This run was terminated on:   8:34:40  21May2023

   JOB DONE.