     Program PWSCF v.7.0 starts on 20May2023 at 16:46:20

     Reading input from espresso_18458.pwi
Warning: card &CELL ignored
Warning: card / ignored

     Current dimensions of program PWSCF are:
     Max number of different atomic species (ntypx) = 10
     Max number of k-points (npk) =  40000
     Max angular momentum in pseudopotentials (lmaxx) =  4

     gamma-point specific algorithms are used
     Message from routine setup:
     using ibrav=0 with symmetry is DISCOURAGED, use correct ibrav instead

     Subspace diagonalization in iterative solution of the eigenvalue problem:
     a serial algorithm will be used

     Using Slab Decomposition

     bravais-lattice index     =            0
     lattice parameter (alat)  =      14.2880  a.u.
     unit-cell volume          =    2245.4143 (a.u.)^3
     number of atoms/cell      =           17
     number of atomic types    =            3
     number of electrons       =       245.00
     number of Kohn-Sham states=          148
     kinetic-energy cutoff     =      30.0000  Ry
     charge density cutoff     =     240.0000  Ry
     scf convergence threshold =      1.0E-06
     mixing beta               =       0.7000
     number of iterations used =            8  plain     mixing
     Exchange-correlation=  SLA  PW   PBX  PBC
                           (   1   4   3   4   0   0   0)

     celldm(1)=  14.288044  celldm(2)=   0.000000  celldm(3)=   0.000000
     celldm(4)=   0.000000  celldm(5)=   0.000000  celldm(6)=   0.000000

     crystal axes: (cart. coord. in units of alat)
               a(1) = (   1.000000   0.000000   0.000000 )
               a(2) = (  -0.333333   0.942809   0.000000 )
               a(3) = (  -0.333333  -0.471405   0.816497 )

     reciprocal axes: (cart. coord. in units 2 pi/alat)
               b(1) = (  1.000000  0.353553  0.612372 )
               b(2) = (  0.000000  1.060660  0.612372 )
               b(3) = (  0.000000  0.000000  1.224745 )

     PseudoPot. # 1 for Pr read from file:
     /home/pragov/projects/rrg-bengioy-ad/pragov/crystal_structure_design/SSSP/Pr.GGA-PBE-paw-v1.0.UPF
     MD5 check sum: b5e1e58e76df433569641143f671cc27
     Pseudo is Projector augmented-wave + core cor, Zval = 13.0
     Generated using ATOMPAW code
     Shape of augmentation charge: BESSEL
     Using radial grid of 1103 points,  8 beta functions with:
                l(1) =   0
                l(2) =   0
                l(3) =   1
                l(4) =   1
                l(5) =   2
                l(6) =   2
                l(7) =   3
                l(8) =   3
     Q(r) pseudized with 0 coefficients

     PseudoPot. # 2 for Ge read from file:
     /home/pragov/projects/rrg-bengioy-ad/pragov/crystal_structure_design/SSSP/ge_pbe_v1.4.uspp.F.UPF
     MD5 check sum: 9c9eaa91e581c3f09632fb3098b2c6b2
     Pseudo is Ultrasoft + core correction, Zval = 14.0
     Generated by new atomic code, or converted to UPF format
     Using radial grid of  873 points,  6 beta functions with:
                l(1) =   0
                l(2) =   0
                l(3) =   1
                l(4) =   1
                l(5) =   2
                l(6) =   2
     Q(r) pseudized with  8 coefficients,  rinner =    1.400   1.400   1.400
                                                       1.400   1.400

     PseudoPot. # 3 for Pt read from file:
     /home/pragov/projects/rrg-bengioy-ad/pragov/crystal_structure_design/SSSP/pt_pbe_v1.4.uspp.F.UPF
     MD5 check sum: f09d6de1a584b5a045c4fc126da2d0c4
     Pseudo is Ultrasoft + core correction, Zval = 16.0
     Generated by new atomic code, or converted to UPF format
     Using radial grid of  985 points,  6 beta functions with:
                l(1) =   0
                l(2) =   0
                l(3) =   1
                l(4) =   1
                l(5) =   2
                l(6) =   2
     Q(r) pseudized with  8 coefficients,  rinner =    1.300   1.300   1.300
                                                       1.300   1.300

     atomic species   valence    mass     pseudopotential
        Pr            13.00   140.90766     Pr( 1.00)
        Ge            14.00    72.63000     Ge( 1.00)
        Pt            16.00   195.08400     Pt( 1.00)

      2 Sym. Ops., with inversion, found

                                    s                        frac. trans.

      isym =  1     identity

 cryst.   s( 1) = (     1          0          0      )
                  (     0          1          0      )
                  (     0          0          1      )

 cart.    s( 1) = (  1.0000000 -0.0000000 -0.0000000 )
                  (  0.0000000  1.0000000 -0.0000000 )
                  (  0.0000000  0.0000000  1.0000000 )

      isym =  2     inversion

 cryst.   s( 2) = (    -1          0          0      )
                  (     0         -1          0      )
                  (     0          0         -1      )

 cart.    s( 2) = ( -1.0000000  0.0000000  0.0000000 )
                  (  0.0000000 -1.0000000  0.0000000 )
                  (  0.0000000  0.0000000 -1.0000000 )

   Cartesian axes

     site n.     atom                  positions (alat units)
         1           Pr  tau(   1) = (   0.0000000   0.0000000   0.0000000  )
         2           Ge  tau(   2) = (   0.0038867  -0.2087879   0.6927794  )
         3           Ge  tau(   3) = (   0.3294467   0.6801924   0.1237172  )
         4           Ge  tau(   4) = (   0.1981427   0.0659316   0.6927794  )
         5           Ge  tau(   5) = (   0.1351907   0.4054729   0.1237172  )
         6           Ge  tau(   6) = (  -0.1981427   0.6329303   0.2892913  )
         7           Ge  tau(   7) = (   0.5314760  -0.1615258   0.5272053  )
         8           Ge  tau(   8) = (  -0.0038867   0.4955706   0.5272053  )
         9           Ge  tau(   9) = (   0.3372200  -0.0241661   0.2892913  )
        10           Ge  tau(  10) = (   0.6627800   0.2384505   0.1655741  )
        11           Ge  tau(  11) = (  -0.3294467   0.2329540   0.6509225  )
        12           Ge  tau(  12) = (   0.4685240   0.3758103   0.4034881  )
        13           Ge  tau(  13) = (  -0.1351907   0.0955942   0.4130085  )
        14           Pt  tau(  14) = (  -0.1666667  -0.2357023   0.4082483  )
        15           Pt  tau(  15) = (   0.5000000   0.0000000   0.0000000  )
        16           Pt  tau(  16) = (  -0.1666667   0.4714045   0.0000000  )
        17           Pt  tau(  17) = (   0.1666667   0.2357023   0.4082483  )

   Crystallographic axes

     site n.     atom                  positions (cryst. coord.)
         1           Pr  tau(   1) = (  0.0000000  0.0000000  0.0000000  )
         2           Ge  tau(   2) = (  0.3543080  0.2027860  0.8484780  )
         3           Ge  tau(   3) = (  0.6456920  0.7972140  0.1515220  )
         4           Ge  tau(   4) = (  0.6456920  0.4941700  0.8484780  )
         5           Ge  tau(   5) = (  0.3543080  0.5058300  0.1515220  )
         6           Ge  tau(   6) = (  0.2027860  0.8484780  0.3543080  )
         7           Ge  tau(   7) = (  0.7972140  0.1515220  0.6456920  )
         8           Ge  tau(   8) = (  0.4941700  0.8484780  0.6456920  )
         9           Ge  tau(   9) = (  0.5058300  0.1515220  0.3543080  )
        10           Ge  tau(  10) = (  0.8484780  0.3543080  0.2027860  )
        11           Ge  tau(  11) = (  0.1515220  0.6456920  0.7972140  )
        12           Ge  tau(  12) = (  0.8484780  0.6456920  0.4941700  )
        13           Ge  tau(  13) = (  0.1515220  0.3543080  0.5058300  )
        14           Pt  tau(  14) = (  0.0000000  0.0000000  0.5000000  )
        15           Pt  tau(  15) = (  0.5000000  0.0000000  0.0000000  )
        16           Pt  tau(  16) = (  0.0000000  0.5000000  0.0000000  )
        17           Pt  tau(  17) = (  0.5000000  0.5000000  0.5000000  )

     number of k points=     1  Methfessel-Paxton smearing, width (Ry)=  0.0010
                       cart. coord. in units 2pi/alat
        k(    1) = (   0.0000000   0.0000000   0.0000000), wk =   2.0000000

                       cryst. coord.
        k(    1) = (   0.0000000   0.0000000   0.0000000), wk =   2.0000000

     Check: negative core charge=   -0.000001

     Initial potential from superposition of free atoms

     starting charge     242.9821, renormalised to     245.0000

     negative rho (up, down):  7.631E-01 0.000E+00
     Starting wfcs are  188 randomized atomic wfcs
     Checking if some PAW data can be deallocated...

     Self-consistent Calculation

     iteration #  1     ecut=    30.00 Ry     beta= 0.70
     Davidson diagonalization with overlap

     ethr =  1.00E-02,  avg # of iterations =  6.0

     negative rho (up, down):  5.512E-01 0.000E+00

     total energy              =   -3880.26991202 Ry
     estimated scf accuracy    <      27.36528797 Ry

[...]

     ethr =  4.20E-08,  avg # of iterations =  1.0
     Minimization algorithm failed to find Fermi energy: reverting to bisection
     Possible cause: smearing is larger than the electronic band-gap.

[...]

     total energy              =   -3903.06826123 Ry
     estimated scf accuracy    <       0.00000329 Ry

     iteration # 93     ecut=    30.00 Ry     beta= 0.70
     Davidson diagonalization with overlap

     ethr =  1.34E-09,  avg # of iterations =  1.0

[...]

     End of self-consistent calculation

          k = 0.0000 0.0000 0.0000 (  3170 PWs)   bands (ev):

   -42.8829 -42.8313 -42.3970 -41.8103 -41.6447 -41.1005 -41.0489 -40.7278
   -40.4453 -40.2469 -39.4973 -38.2454 -23.2985 -11.7181 -11.7091 -11.6509
   -11.6253 -11.6143 -11.6091 -11.5374 -11.5009 -11.4860 -11.4800 -11.4690
   -11.4335 -11.4288 -11.3521 -11.3334 -11.3198 -11.3114 -11.2824 -11.2790
   -11.2228 -11.2209 -11.1769 -11.1561 -11.1467 -11.1377 -11.0671 -11.0601
   -11.0274 -10.9994 -10.9675 -10.9457 -10.9225 -10.9225 -10.8769 -10.8418
   -10.8128 -10.7724 -10.6793 -10.6594 -10.6236 -10.5925 -10.5776 -10.5271
   -10.4520 -10.4124 -10.3968 -10.3731 -10.3088 -10.2533 -10.1112 -10.0697
   -10.0571  -9.9385  -9.9291  -9.8883  -9.8226  -9.7902  -9.6899  -9.6850
    -9.5002  -8.1913  -7.4814  -5.8731   0.0687   2.1132   2.1851   3.2925
     3.5130   3.5479   3.6089   3.7788   3.8809   4.0196   4.0970   4.2535
     6.0962   6.2759   6.5359   6.6055   6.6661   6.7818   6.8125   6.8744
     6.8960   7.7707   7.9388   8.0239   8.1610   8.2704   8.4211   8.5362
     8.6989   8.8173   9.0634   9.2178   9.4767   9.4948   9.5200   9.5641
    10.6147  10.8808  10.9259  11.1032  11.1541  11.2059  11.9144  11.9350
    11.9800  12.2885  12.3141  12.3176  12.3179  12.5302  12.6230  12.6585
    12.7080  12.8460  12.8911  12.9518  13.1042  13.2328  13.4214  13.5686
    14.0812  14.2339  14.3944  14.9943  15.1576  15.2634  15.4247  15.9968
    16.2412  16.4161  16.4819  16.7541

     occupation numbers
     1.0000   1.0000   1.0000   1.0000   1.0000   1.0000   1.0000   1.0000
     1.0000   1.0000   1.0000   1.0000   1.0000   1.0000   1.0000   1.0000
     1.0000   1.0000   1.0000   1.0000   1.0000   1.0000   1.0000   1.0000
     1.0000   1.0000   1.0000   1.0000   1.0000   1.0000   1.0000   1.0000
     1.0000   1.0000   1.0000   1.0000   1.0000   1.0000   1.0000   1.0000
     1.0000   1.0000   1.0000   1.0000   1.0000   1.0000   1.0000   1.0000
     1.0000   1.0000   1.0000   1.0000   1.0000   1.0000   1.0000   1.0000
     1.0000   1.0000   1.0000   1.0000   1.0000   1.0000   1.0000   1.0000
     1.0000   1.0000   1.0000   1.0000   1.0000   1.0000   1.0000   1.0000
     1.0000   1.0000   1.0000   1.0000   1.0000   1.0000   1.0000   1.0000
     1.0000   1.0000   1.0000   1.0000   1.0000   1.0000   1.0000   1.0000
     1.0000   1.0000   1.0000   1.0000   1.0000   1.0000   1.0000   1.0000
     1.0000   1.0000   1.0000   1.0000   1.0000   1.0000   1.0000   1.0000
     1.0000   1.0000   1.0000   1.0000   1.0000   1.0000   1.0000   1.0000
     1.0000   1.0000   1.0000   1.0000   1.0000   1.0000   1.0000   1.0000
     1.0000   1.0233   0.2723   0.1078   0.0966  -0.0000  -0.0000  -0.0000
    -0.0000  -0.0000  -0.0000  -0.0000  -0.0000  -0.0000  -0.0000  -0.0000
    -0.0000  -0.0000  -0.0000  -0.0000  -0.0000  -0.0000  -0.0000  -0.0000
    -0.0000  -0.0000  -0.0000  -0.0000

     the Fermi energy is    12.3102 ev

!    total energy              =   -3903.06826098 Ry
     estimated scf accuracy    <       0.00000041 Ry
     smearing contrib. (-TS)   =      -0.00029037 Ry
     internal energy E=F+TS    =   -3903.06797061 Ry

     The total energy is F=E-TS. E is the sum of the following terms:
     one-electron contribution =   -1679.25184902 Ry
     hartree contribution      =    1067.81987278 Ry
     xc contribution           =    -939.32976132 Ry
     ewald contribution        =   -1933.17860800 Ry
     one-center paw contrib.   =    -419.12762505 Ry
      -> PAW hartree energy AE =      57.51913433 Ry
      -> PAW hartree energy PS =     -57.53402191 Ry
      -> PAW xc energy AE      =    -429.09854826 Ry
      -> PAW xc energy PS      =       9.98581079 Ry
      -> total E_H with PAW    =    1067.80498521 Ry
      -> total E_XC with PAW   =   -1358.44249879 Ry

     convergence has been achieved in  93 iterations

     negative rho (up, down):  4.863E-01 0.000E+00

     Forces acting on atoms (cartesian axes, Ry/au):

     atom    1 type  1   force =     0.00000000    0.00000000    0.00000000
     atom    2 type  2   force =    -0.04906321    0.00895783    0.04983201
     atom    3 type  2   force =     0.04906321   -0.00895783   -0.04983201
     atom    4 type  2   force =    -0.02172254   -0.03595660    0.02274396
     atom    5 type  2   force =     0.02172254    0.03595660   -0.02274396
     atom    6 type  2   force =     0.03852224    0.05353539   -0.07508740
     atom    7 type  2   force =    -0.03852224   -0.05353539    0.07508740
     atom    8 type  2   force =    -0.02116779   -0.04785263    0.02097196
     atom    9 type  2   force =     0.02116779    0.04785263   -0.02097196
     atom   10 type  2   force =    -0.00324597   -0.02727653   -0.00669153
     atom   11 type  2   force =     0.00324597    0.02727653    0.00669153
     atom   12 type  2   force =     0.02772414    0.04479454   -0.01968752
     atom   13 type  2   force =    -0.02772414   -0.04479454    0.01968752
     atom   14 type  3   force =     0.00000000    0.00000000    0.00000000
     atom   15 type  3   force =     0.00000000    0.00000000    0.00000000
     atom   16 type  3   force =     0.00000000    0.00000000    0.00000000
     atom   17 type  3   force =     0.00000000    0.00000000    0.00000000
     The non-local contrib.  to forces
     atom    1 type  1   force =     0.00000000    0.00000000    0.00000000
     atom    2 type  2   force =     0.06946978    0.12462071    0.17228177
     atom    3 type  2   force =    -0.06946978   -0.12462071   -0.17228177
     atom    4 type  2   force =     0.00238365   -0.06562419    0.13115181
     atom    5 type  2   force =    -0.00238365    0.06562419   -0.13115181
     atom    6 type  2   force =     0.10772027   -0.05874248    0.15028481
     atom    7 type  2   force =    -0.10772027    0.05874248   -0.15028481
     atom    8 type  2   force =    -0.06636585    0.05849773    0.07048214
     atom    9 type  2   force =     0.06636585   -0.05849773   -0.07048214
     atom   10 type  2   force =     0.07705181    0.06040528    0.11793266
     atom   11 type  2   force =    -0.07705181   -0.06040528   -0.11793266
     atom   12 type  2   force =     0.04104490   -0.26649807    0.01964060
     atom   13 type  2   force =    -0.04104490    0.26649807   -0.01964060
     atom   14 type  3   force =     0.00000000    0.00000000    0.00000000
     atom   15 type  3   force =     0.00000000    0.00000000    0.00000000
     atom   16 type  3   force =     0.00000000    0.00000000    0.00000000
     atom   17 type  3   force =     0.00000000    0.00000000    0.00000000
     The ionic contribution  to forces
     atom    1 type  1   force =     0.00000000    0.00000000   -0.00000000
     atom    2 type  2   force =    -3.31896613   -0.66810613    2.32419323
     atom    3 type  2   force =     3.31896613    0.66810613   -2.32419324
     atom    4 type  2   force =    -0.47642554    3.35185331    2.32419324
     atom    5 type  2   force =     0.47642554   -3.35185331   -2.32419324
     atom    6 type  2   force =     0.47642554    3.68873704   -1.74069351
     atom    7 type  2   force =    -0.47642555   -3.68873704    1.74069351
     atom    8 type  2   force =     3.31896612    1.67875732    1.74069350
     atom    9 type  2   force =    -3.31896612   -1.67875733   -1.74069350
     atom   10 type  2   force =     3.31896612   -2.34686346    0.58349974
     atom   11 type  2   force =    -3.31896612    2.34686346   -0.58349974
     atom   12 type  2   force =     0.47642555   -0.33688373    4.06488674
     atom   13 type  2   force =    -0.47642554    0.33688373   -4.06488674
     atom   14 type  3   force =     0.00000000   -0.00000000   -0.00000000
     atom   15 type  3   force =     0.00000000   -0.00000000   -0.00000000
     atom   16 type  3   force =     0.00000000   -0.00000000    0.00000000
     atom   17 type  3   force =    -0.00000000    0.00000000    0.00000000
     The local contribution  to forces
     atom    1 type  1   force =    -0.00001948    0.00014928   -0.00009754
     atom    2 type  2   force =     3.19803493    0.56037294   -2.44087968
     atom    3 type  2   force =    -3.19862062   -0.56025103    2.44086182
     atom    4 type  2   force =     0.46063728   -3.32508185   -2.42855029
     atom    5 type  2   force =    -0.46111247    3.32552592    2.42861024
     atom    6 type  2   force =    -0.54050620   -3.58999613    1.52357156
     atom    7 type  2   force =     0.54063300    3.58966904   -1.52368007
     atom    8 type  2   force =    -3.27924067   -1.77996008   -1.78337500
     atom    9 type  2   force =     3.27930593    1.77992414    1.78308145
     atom   10 type  2   force =    -3.39518152    2.25939925   -0.70226416
     atom   11 type  2   force =     3.39519815   -2.25952998    0.70245942
     atom   12 type  2   force =    -0.48664518    0.63225698   -4.10393119
     atom   13 type  2   force =     0.48656453   -0.63219517    4.10382395
     atom   14 type  3   force =     0.00010952   -0.00028510   -0.00026189
     atom   15 type  3   force =     0.00000754   -0.00010488    0.00002107
     atom   16 type  3   force =     0.00020075    0.00012608    0.00028426
     atom   17 type  3   force =     0.00012144    0.00030250   -0.00028715
     The core correction contribution to forces
     atom    1 type  1   force =    -0.00000001    0.00000003   -0.00000002
     atom    2 type  2   force =     0.00234202   -0.00759320   -0.00590858
     atom    3 type  2   force =    -0.00235399    0.00759967    0.00590331
     atom    4 type  2   force =    -0.00870115    0.00283757   -0.00420467
     atom    5 type  2   force =     0.00868448   -0.00282567    0.00419766
     atom    6 type  2   force =    -0.00501117    0.01310708   -0.00800660
     atom    7 type  2   force =     0.00501434   -0.01311187    0.00800652
     atom    8 type  2   force =     0.00532483   -0.00523871   -0.00733091
     atom    9 type  2   force =    -0.00532233    0.00523928    0.00732899
     atom   10 type  2   force =    -0.00434602   -0.00006099   -0.00556316
     atom   11 type  2   force =     0.00434616    0.00005476    0.00556494
     atom   12 type  2   force =    -0.00313007    0.01588072   -0.00066246
     atom   13 type  2   force =     0.00312935   -0.01588160    0.00066060
     atom   14 type  3   force =     0.00000097   -0.00000801    0.00000003
     atom   15 type  3   force =     0.00000390   -0.00000416    0.00000367
     atom   16 type  3   force =     0.00001250    0.00000242    0.00000825
     atom   17 type  3   force =     0.00000750    0.00000400    0.00000111
     The Hubbard contrib.    to forces
     atom    1 type  1   force =     0.00000000    0.00000000    0.00000000
     atom    2 type  2   force =     0.00000000    0.00000000    0.00000000
     atom    3 type  2   force =     0.00000000    0.00000000    0.00000000
     atom    4 type  2   force =     0.00000000    0.00000000    0.00000000
     atom    5 type  2   force =     0.00000000    0.00000000    0.00000000
     atom    6 type  2   force =     0.00000000    0.00000000    0.00000000
     atom    7 type  2   force =     0.00000000    0.00000000    0.00000000
     atom    8 type  2   force =     0.00000000    0.00000000    0.00000000
     atom    9 type  2   force =     0.00000000    0.00000000    0.00000000
     atom   10 type  2   force =     0.00000000    0.00000000    0.00000000
     atom   11 type  2   force =     0.00000000    0.00000000    0.00000000
     atom   12 type  2   force =     0.00000000    0.00000000    0.00000000
     atom   13 type  2   force =     0.00000000    0.00000000    0.00000000
     atom   14 type  3   force =     0.00000000    0.00000000    0.00000000
     atom   15 type  3   force =     0.00000000    0.00000000    0.00000000
     atom   16 type  3   force =     0.00000000    0.00000000    0.00000000
     atom   17 type  3   force =     0.00000000    0.00000000    0.00000000
     The SCF correction term to forces
     atom    1 type  1   force =    -0.00000960   -0.00008746    0.00004440
     atom    2 type  2   force =     0.00001482   -0.00029968    0.00011606
     atom    3 type  2   force =     0.00050012    0.00024495   -0.00015136
     atom    4 type  2   force =     0.00033746    0.00008911    0.00013131
     atom    5 type  2   force =     0.00006287   -0.00048396   -0.00022937
     atom    6 type  2   force =    -0.00010238    0.00042742   -0.00023742
     atom    7 type  2   force =    -0.00001993   -0.00010046    0.00035850
     atom    8 type  2   force =     0.00015530    0.00010094    0.00051092
     atom    9 type  2   force =    -0.00020802   -0.00004590   -0.00019807
     atom   10 type  2   force =     0.00026003   -0.00018904   -0.00029546
     atom   11 type  2   force =    -0.00028402    0.00026115    0.00010071
     atom   12 type  2   force =     0.00002478    0.00001800    0.00038216
     atom   13 type  2   force =     0.00004826   -0.00012021   -0.00026633
     atom   14 type  3   force =    -0.00008979    0.00024482    0.00022364
     atom   15 type  3   force =     0.00000097    0.00011815   -0.00002089
     atom   16 type  3   force =    -0.00022294   -0.00011525   -0.00027059
     atom   17 type  3   force =    -0.00009020   -0.00028261    0.00026277

     Total force =     0.220820     Total SCF correction =     0.001629

     Computing stress (Cartesian axis) and pressure

     negative rho (up, down):  4.863E-01 0.000E+00
          total   stress  (Ry/bohr**3)                   (kbar)     P=     -304.57
  -0.00182190  -0.00027654  -0.00094481         -268.01      -40.68     -138.99
  -0.00027654  -0.00241371   0.00012429          -40.68     -355.07       18.28
  -0.00094481   0.00012429  -0.00197563         -138.99       18.28     -290.62

     kinetic stress (kbar)  19402.44    -48.65   -110.26
                              -48.65  19164.25     -9.52
                             -110.26     -9.52  19119.75

     local   stress (kbar)   7870.19    -79.99    -39.85
                              -79.99   7930.00    -27.95
                              -39.85    -27.95   8025.46

     nonloc. stress (kbar)   2382.50     33.58    -23.90
                               33.58   2441.93     35.11
                              -23.90     35.11   2495.76

     hartree stress (kbar)  23314.08     54.53     34.76
                               54.53  23342.26     20.60
                               34.76     20.60  23300.34

     exc-cor stress (kbar)  23204.12      0.70      0.09
                                0.70  23202.98      0.41
                                0.09      0.41  23201.97

     corecor stress (kbar) -34224.87     -0.84      0.17
                               -0.84 -34220.02     -0.36
                                0.17     -0.36 -34217.43

     ewald   stress (kbar) -42216.47     -0.00     -0.00
                               -0.00 -42216.47     -0.00
                               -0.00     -0.00 -42216.47

     hubbard stress (kbar)      0.00      0.00      0.00
                                0.00      0.00      0.00
                                0.00      0.00      0.00

     DFT-D   stress (kbar)      0.00      0.00      0.00
                                0.00      0.00      0.00
                                0.00      0.00      0.00

     XDM     stress (kbar)      0.00      0.00      0.00
                                0.00      0.00      0.00
                                0.00      0.00      0.00

     dft-nl  stress (kbar)      0.00      0.00      0.00
                                0.00      0.00      0.00
                                0.00      0.00      0.00

     TS-vdW  stress (kbar)      0.00      0.00      0.00
                                0.00      0.00      0.00
                                0.00      0.00      0.00

[...]

                                0.00      0.00      0.00

     Writing all to output data dir new_calculations/myprefix.save/

     General routines

     Parallel routines

     PAW routines

   This run was terminated on:  16:52:47  20May2023

   JOB DONE.