     Program PWSCF v.7.0 starts on 20May2023 at 15:10:40

     Reading input from espresso_14481.pwi
Warning: card &CELL ignored
Warning: card / ignored

     Current dimensions of program PWSCF are:
     Max number of different atomic species (ntypx) = 10
     Max number of k-points (npk) =  40000
     Max angular momentum in pseudopotentials (lmaxx) =  4
     file Mg.pbe-n-kjpaw_psl.0.3.0.UPF: wavefunction(s)  3S renormalized

     gamma-point specific algorithms are used
     Message from routine setup:
     using ibrav=0 with symmetry is DISCOURAGED, use correct ibrav instead

     Subspace diagonalization in iterative solution of the eigenvalue problem:
     a serial algorithm will be used

     Using Slab Decomposition

     bravais-lattice index     =            0
     lattice parameter (alat)  =       9.6048  a.u.
     unit-cell volume          =    1520.3977 (a.u.)^3
     number of atoms/cell      =            8
     number of atomic types    =            3
     number of electrons       =        68.00
     number of Kohn-Sham states=           41
     kinetic-energy cutoff     =      30.0000  Ry
     charge density cutoff     =     240.0000  Ry
     scf convergence threshold =      1.0E-06
     mixing beta               =       0.7000
     number of iterations used =            8  plain     mixing
     Exchange-correlation= SLA  PW   PBE  PBE
                           (   1   4   3   4   0   0   0)

     celldm(1)=   9.604760  celldm(2)=   0.000000  celldm(3)=   0.000000
     celldm(4)=   0.000000  celldm(5)=   0.000000  celldm(6)=   0.000000

     crystal axes: (cart. coord. in units of alat)
               a(1) = (   1.000000   0.000000   0.000000 )
               a(2) = (  -0.500000   0.866025   0.000000 )
               a(3) = (   0.000000   0.000000   1.981377 )

     reciprocal axes: (cart. coord. in units 2 pi/alat)
               b(1) = (  1.000000  0.577350  0.000000 )
               b(2) = (  0.000000  1.154701  0.000000 )
               b(3) = (  0.000000  0.000000  0.504700 )

     PseudoPot. # 1 for Na read from file:
     /home/pragov/projects/rrg-bengioy-ad/pragov/crystal_structure_design/SSSP/na_pbe_v1.5.uspp.F.UPF
     MD5 check sum: 44600605ef58000f06b90626533354dc
     Pseudo is Ultrasoft, Zval =  9.0
     Generated by new atomic code, or converted to UPF format
     Using radial grid of  819 points,  5 beta functions with:
                l(1) =   0
                l(2) =   0
                l(3) =   1
                l(4) =   1
                l(5) =   2
     Q(r) pseudized with  8 coefficients,  rinner =    1.250   1.250   1.250
                                                       1.250   1.250

     PseudoPot. # 2 for Mg read from file:
     /home/pragov/projects/rrg-bengioy-ad/pragov/crystal_structure_design/SSSP/Mg.pbe-n-kjpaw_psl.0.3.0.UPF
     MD5 check sum: 24ecedc7f3e3cbe212e682f4413594e4
     Pseudo is Projector augmented-wave + core cor, Zval =  2.0
     Generated using "atomic" code by A. Dal Corso  v.5.0.99 svn rev. 10869
     Shape of augmentation charge: PSQ
     Using radial grid of 1129 points,  4 beta functions with:
                l(1) =   0
                l(2) =   0
                l(3) =   1
                l(4) =   1
     Q(r) pseudized with 0 coefficients

     PseudoPot. # 3 for Sn read from file:
     /home/pragov/projects/rrg-bengioy-ad/pragov/crystal_structure_design/SSSP/Sn_pbe_v1.uspp.F.UPF
     MD5 check sum: 4cf58ce39ec5d5d420df3dd08604eb00
     Pseudo is Ultrasoft + core correction, Zval = 14.0
     Generated by new atomic code, or converted to UPF format
     Using radial grid of  891 points,  6 beta functions with:
                l(1) =   0
                l(2) =   0
                l(3) =   1
                l(4) =   1
                l(5) =   2
                l(6) =   2
     Q(r) pseudized with  6 coefficients,  rinner =    1.200   1.200   1.200
                                                       1.200   1.200

     atomic species   valence    mass     pseudopotential
        Na             9.00    22.98977     Na( 1.00)
        Mg             2.00    24.30500     Mg( 1.00)
        Sn            14.00   118.71000     Sn( 1.00)

     24 Sym. Ops., with inversion, found (12 have fractional translation)

                                    s                        frac. trans.

      isym =  1     identity

 cryst.   s( 1) = (     1          0          0      )
                  (     0          1          0      )
                  (     0          0          1      )

 cart.    s( 1) = (  1.0000000 -0.0000000  0.0000000 )
                  (  0.0000000  1.0000000  0.0000000 )
                  (  0.0000000  0.0000000  1.0000000 )

      isym =  2     180 deg rotation - cart. axis [0,0,1]

 cryst.   s( 2) = (    -1          0          0      )    f =(  0.0000000 )
                  (     0         -1          0      )       ( -0.0000000 )
                  (     0          0          1      )       ( -0.5000000 )

 cart.    s( 2) = ( -1.0000000  0.0000000  0.0000000 )    f =(  0.0000000 )
                  (  0.0000000 -1.0000000  0.0000000 )       ( -0.0000000 )
                  (  0.0000000  0.0000000  1.0000000 )       ( -0.9906884 )

[...]

      isym =  4     180 deg rotation - cart. axis [1,0,0]

[...]

      isym =  5      60 deg rotation - cryst. axis [0,0,1]

[...]

 cryst.   s( 8) = (    -1         -1          0      )
                  (     1          0          0      )
                  (     0          0          1      )

 cart.    s( 8) = ( -0.5000000  0.8660254  0.0000000 )
                  ( -0.8660254 -0.5000000  0.0000000 )
                  (  0.0000000  0.0000000  1.0000000 )

[...]

 cryst.   s( 9) = (     0         -1          0      )    f =( -0.0000000 )
                  (    -1          0          0      )       ( -0.0000000 )
                  (     0          0         -1      )       ( -0.5000000 )

 cart.    s( 9) = (  0.5000000 -0.8660254  0.0000000 )    f =( -0.0000000 )
                  ( -0.8660254 -0.5000000  0.0000000 )       ( -0.0000000 )
                  (  0.0000000  0.0000000 -1.0000000 )       ( -0.9906884 )

[...]

 cryst.   s(10) = (     1          1          0      )    f =(  0.0000000 )
                  (     0         -1          0      )       (  0.0000010 )
                  (     0          0         -1      )       ( -0.5000000 )

 cart.    s(10) = (  0.5000000  0.8660254  0.0000000 )    f =( -0.0000005 )
                  (  0.8660254 -0.5000000  0.0000000 )       (  0.0000009 )
                  (  0.0000000  0.0000000 -1.0000000 )       ( -0.9906884 )

[...]

 cryst.   s(11) = (    -1         -1          0      )
                  (     0          1          0      )
                  (     0          0         -1      )

 cart.    s(11) = ( -0.5000000 -0.8660254  0.0000000 )
                  ( -0.8660254  0.5000000  0.0000000 )
                  (  0.0000000  0.0000000 -1.0000000 )

      isym = 12     180 deg rotation - cryst. axis [1,1,0]

[...]

      isym = 13     inversion

[...]

      isym = 14     inv. 180 deg rotation - cart. axis [0,0,1]

[...]

      isym = 16     inv. 180 deg rotation - cart. axis [1,0,0]

[...]

      isym = 17     inv.  60 deg rotation - cryst. axis [0,0,1]

[...]

 cryst.   s(22) = (    -1         -1          0      )    f =(  0.0000000 )
                  (     0          1          0      )       (  0.0000010 )
                  (     0          0          1      )       ( -0.5000000 )

 cart.    s(22) = ( -0.5000000 -0.8660254  0.0000000 )    f =( -0.0000005 )
                  ( -0.8660254  0.5000000  0.0000000 )       (  0.0000009 )
                  (  0.0000000  0.0000000  1.0000000 )       ( -0.9906884 )

[...]

      isym = 24     inv. 180 deg rotation - cryst. axis [1,1,0]

 cryst.   s(24) = (     0         -1          0      )
                  (    -1          0          0      )
                  (     0          0          1      )

 cart.    s(24) = (  0.5000000 -0.8660254  0.0000000 )
                  ( -0.8660254 -0.5000000  0.0000000 )
                  (  0.0000000  0.0000000  1.0000000 )

   Cartesian axes

     site n.     atom                  positions (alat units)
         1           Na  tau(   1) = (   0.5000005   0.2886748   0.1578206  )
         2           Na  tau(   2) = (   0.5000005   0.2886748   0.8328678  )
         3           Na  tau(   3) = (  -0.0000005   0.5773506   1.1485090  )
         4           Na  tau(   4) = (  -0.0000005   0.5773506   1.8235561  )
         5           Mg  tau(   5) = (   0.0000000   0.0000000   0.4953442  )
         6           Mg  tau(   6) = (   0.0000000   0.0000000   1.4860326  )
         7           Sn  tau(   7) = (  -0.0000005   0.5773506   0.4953442  )
         8           Sn  tau(   8) = (   0.5000005   0.2886748   1.4860326  )

   Crystallographic axes

     site n.     atom                  positions (cryst. coord.)
         1           Na  tau(   1) = (  0.6666670  0.3333330  0.0796520  )
         2           Na  tau(   2) = (  0.6666670  0.3333330  0.4203480  )
         3           Na  tau(   3) = (  0.3333330  0.6666670  0.5796520  )
         4           Na  tau(   4) = (  0.3333330  0.6666670  0.9203480  )
         5           Mg  tau(   5) = (  0.0000000  0.0000000  0.2500000  )
         6           Mg  tau(   6) = (  0.0000000  0.0000000  0.7500000  )
         7           Sn  tau(   7) = (  0.3333330  0.6666670  0.2500000  )
         8           Sn  tau(   8) = (  0.6666670  0.3333330  0.7500000  )

     number of k points=     1  Methfessel-Paxton smearing, width (Ry)=  0.0010
                       cart. coord. in units 2pi/alat
        k(    1) = (   0.0000000   0.0000000   0.0000000), wk =   2.0000000

                       cryst. coord.
        k(    1) = (   0.0000000   0.0000000   0.0000000), wk =   2.0000000

     Initial potential from superposition of free atoms

     starting charge      65.9729, renormalised to      68.0000
     Starting wfcs are   46 randomized atomic wfcs
     Checking if some PAW data can be deallocated...

     Self-consistent Calculation

     iteration #  1     ecut=    30.00 Ry     beta= 0.70
     Davidson diagonalization with overlap

     ethr =  1.00E-02,  avg # of iterations =  4.0

     total energy              =    -773.94116284 Ry
     estimated scf accuracy    <       1.57059861 Ry

[...]

     total energy              =    -774.38367767 Ry
     estimated scf accuracy    <       0.00000137 Ry

     iteration # 48     ecut=    30.00 Ry     beta= 0.70
     Davidson diagonalization with overlap

     ethr =  2.02E-09,  avg # of iterations =  1.0

     End of self-consistent calculation

          k = 0.0000 0.0000 0.0000 (  2138 PWs)   bands (ev):

   -48.7009 -48.6989 -48.6964 -48.6959 -20.6504 -20.6325 -20.6260 -20.6171
   -20.6076 -20.6076 -20.6072 -20.6072 -20.5832 -20.5832 -20.5788 -20.5788
   -15.5086 -15.5081 -15.4327 -15.4327 -15.4327 -15.4326 -15.3087 -15.3087
   -15.3086 -15.3086  -2.9612  -2.6203   1.4438   3.8416   4.4523   4.4523
     4.4976   4.4976   4.5001   5.5448   6.3733   7.0918   7.0918   7.2671
     7.2671

     occupation numbers
     1.0000   1.0000   1.0000   1.0000   1.0000   1.0000   1.0000   1.0000
     1.0000   1.0000   1.0000   1.0000   1.0000   1.0000   1.0000   1.0000
     1.0000   1.0000   1.0000   1.0000   1.0000   1.0000   1.0000   1.0000
     1.0000   1.0000   1.0000   1.0000   1.0000   1.0000   1.0000   1.0000
     0.7169   0.7161   0.5670  -0.0000  -0.0000  -0.0000  -0.0000  -0.0000
    -0.0000

     the Fermi energy is     4.5012 ev

!    total energy              =    -774.38367750 Ry
     estimated scf accuracy    <       0.00000028 Ry
     smearing contrib. (-TS)   =      -0.00072803 Ry
     internal energy E=F+TS    =    -774.38294947 Ry

     The total energy is F=E-TS. E is the sum of the following terms:
     one-electron contribution =    -512.96024669 Ry
     hartree contribution      =     279.37178368 Ry
     xc contribution           =    -155.84768655 Ry
     ewald contribution        =    -322.41138629 Ry
     one-center paw contrib.   =     -62.53541362 Ry
      -> PAW hartree energy AE =       0.93636906 Ry
      -> PAW hartree energy PS =      -0.93371768 Ry
      -> PAW xc energy AE      =     -64.80018476 Ry
      -> PAW xc energy PS      =       2.26211976 Ry
      -> total E_H with PAW    =     279.37443506 Ry
      -> total E_XC with PAW   =    -218.38575155 Ry

     convergence has been achieved in  48 iterations

     Forces acting on atoms (cartesian axes, Ry/au):

     atom    1 type  1   force =     0.00000000    0.00000000   -0.00947460
     atom    2 type  1   force =    -0.00000000   -0.00000000    0.00947460
     atom    3 type  1   force =     0.00000000    0.00000000   -0.00947460
     atom    4 type  1   force =     0.00000000   -0.00000000    0.00947460
     atom    5 type  2   force =    -0.00000000   -0.00000000    0.00000000
     atom    6 type  2   force =     0.00000000    0.00000000    0.00000000
     atom    7 type  3   force =     0.00000000    0.00000000    0.00000000
     atom    8 type  3   force =     0.00000000   -0.00000000    0.00000000
     The non-local contrib.  to forces
     atom    1 type  1   force =     0.00000000    0.00000000    0.19901064
     atom    2 type  1   force =     0.00000000    0.00000000   -0.19901064
     atom    3 type  1   force =    -0.00000000   -0.00000000    0.19901064
     atom    4 type  1   force =     0.00000000    0.00000000   -0.19901064
     atom    5 type  2   force =    -0.00000000   -0.00000000    0.00000000
     atom    6 type  2   force =     0.00000000   -0.00000000    0.00000000
     atom    7 type  3   force =     0.00000000    0.00000000    0.00000000
     atom    8 type  3   force =     0.00000000   -0.00000000    0.00000000
     The ionic contribution  to forces
     atom    1 type  1   force =    -0.00002170    0.00001253   -0.54542986
     atom    2 type  1   force =    -0.00002170    0.00001253    0.54542986
     atom    3 type  1   force =     0.00002170   -0.00001253   -0.54542986
     atom    4 type  1   force =     0.00002170   -0.00001253    0.54542986
     atom    5 type  2   force =    -0.00000203    0.00000117   -0.00000000
     atom    6 type  2   force =     0.00000203   -0.00000117    0.00000000
     atom    7 type  3   force =     0.00002794   -0.00001613    0.00000000
     atom    8 type  3   force =    -0.00002794    0.00001613    0.00000000
     The local contribution  to forces
     atom    1 type  1   force =     0.00006001   -0.00006486    0.33630691
     atom    2 type  1   force =     0.00006123   -0.00006727   -0.33609680
     atom    3 type  1   force =    -0.00008310   -0.00002941    0.33727984
     atom    4 type  1   force =    -0.00008683   -0.00002616   -0.33749485
     atom    5 type  2   force =    -0.00009934    0.00007580    0.00006008
     atom    6 type  2   force =     0.00006221   -0.00000390   -0.00005922
     atom    7 type  3   force =     0.00164277    0.00088907    0.00053467
     atom    8 type  3   force =     0.00143233    0.00000416   -0.00052488
     The core correction contribution to forces
     atom    1 type  1   force =     0.00000000    0.00000000    0.00000000
     atom    2 type  1   force =     0.00000000    0.00000000    0.00000000
     atom    3 type  1   force =     0.00000000    0.00000000    0.00000000
     atom    4 type  1   force =     0.00000000    0.00000000    0.00000000
     atom    5 type  2   force =    -0.00000057    0.00000737    0.00000102
     atom    6 type  2   force =     0.00000836   -0.00000053   -0.00000099
     atom    7 type  3   force =     0.00005120    0.00002925    0.00000637
     atom    8 type  3   force =     0.00004714    0.00000183   -0.00000613
     The Hubbard contrib.    to forces
     atom    1 type  1   force =     0.00000000    0.00000000    0.00000000
     atom    2 type  1   force =     0.00000000    0.00000000    0.00000000
     atom    3 type  1   force =     0.00000000    0.00000000    0.00000000
     atom    4 type  1   force =     0.00000000    0.00000000    0.00000000
     atom    5 type  2   force =     0.00000000    0.00000000    0.00000000
     atom    6 type  2   force =     0.00000000    0.00000000    0.00000000
     atom    7 type  3   force =     0.00000000    0.00000000    0.00000000
     atom    8 type  3   force =     0.00000000    0.00000000    0.00000000
     The SCF correction term to forces
     atom    1 type  1   force =    -0.00002676    0.00004709    0.00059149
     atom    2 type  1   force =    -0.00005010    0.00006603   -0.00087149
     atom    3 type  1   force =     0.00005483    0.00002667   -0.00028739
     atom    4 type  1   force =     0.00002824    0.00004326    0.00057550
     atom    5 type  2   force =     0.00004139   -0.00000551   -0.00005251
     atom    6 type  2   force =     0.00000418   -0.00000027    0.00005223
     atom    7 type  3   force =    -0.00113651   -0.00064254   -0.00054988
     atom    8 type  3   force =    -0.00093600    0.00004355    0.00054047

     Total force =     0.018949     Total SCF correction =     0.002173
     SCF correction compared to forces is large: reduce conv_thr to get better values

     Computing stress (Cartesian axis) and pressure

          total   stress  (Ry/bohr**3)                   (kbar)     P=       14.87
   0.00004540  -0.00000000   0.00000000            6.68       -0.00        0.00
  -0.00000000   0.00004540   0.00000000           -0.00        6.68        0.00
   0.00000000   0.00000000   0.00021237            0.00        0.00       31.24

     kinetic stress (kbar)   7286.72     -0.00      0.00
                               -0.00   7286.72      0.00
                                0.00      0.00   7266.13

     local   stress (kbar)  13173.91     -0.26      0.00
                               -0.26  13173.70     -0.00
                                0.00     -0.00   7689.88

     nonloc. stress (kbar) -13711.91      0.00      0.00
                                0.00 -13711.91      0.00
                                0.00      0.00 -13814.19

     hartree stress (kbar)   8087.43      0.13     -0.00
                                0.13   8087.55      0.00
                               -0.00      0.00  10855.46

     exc-cor stress (kbar)   2231.30      0.00     -0.00
                                0.00   2231.30      0.00
                               -0.00      0.00   2227.44

     corecor stress (kbar)  -5708.71     -0.00      0.00
                               -0.00  -5708.72      0.00
                                0.00      0.00  -5702.79

     ewald   stress (kbar) -11352.03      0.03     -0.00
                                0.03 -11351.99      0.00
                               -0.00      0.00  -8490.68

     hubbard stress (kbar)      0.00      0.00      0.00
                                0.00      0.00      0.00
                                0.00      0.00      0.00

     DFT-D   stress (kbar)      0.00      0.00      0.00
                                0.00      0.00      0.00
                                0.00      0.00      0.00

     XDM     stress (kbar)      0.00      0.00      0.00
                                0.00      0.00      0.00
                                0.00      0.00      0.00

     dft-nl  stress (kbar)      0.00      0.00      0.00
                                0.00      0.00      0.00
                                0.00      0.00      0.00

     TS-vdW  stress (kbar)      0.00      0.00      0.00
                                0.00      0.00      0.00
                                0.00      0.00      0.00

[...]

                                0.00      0.00      0.00

     Writing all to output data dir new_calculations/myprefix.save/

     General routines

     Parallel routines

     PAW routines

   This run was terminated on:  15:11:10  20May2023

   JOB DONE.