     Program PWSCF v.7.0 starts on 20May2023 at 19:16: 4

     Reading input from espresso_736.pwi
Warning: card &CELL ignored
Warning: card / ignored

     Current dimensions of program PWSCF are:
     Max number of different atomic species (ntypx) = 10
     Max number of k-points (npk) =  40000
     Max angular momentum in pseudopotentials (lmaxx) =  4

     gamma-point specific algorithms are used
     Message from routine setup:
     using ibrav=0 with symmetry is DISCOURAGED, use correct ibrav instead

     Subspace diagonalization in iterative solution of the eigenvalue problem:
     a serial algorithm will be used

     Using Slab Decomposition

     bravais-lattice index     =            0
     lattice parameter (alat)  =      12.3656  a.u.
     unit-cell volume          =    2731.2160 (a.u.)^3
     number of atoms/cell      =           20
     number of atomic types    =            3
     number of electrons       =       184.00
     number of Kohn-Sham states=          110
     kinetic-energy cutoff     =      30.0000  Ry
     charge density cutoff     =     240.0000  Ry
     scf convergence threshold =      1.0E-06
     mixing beta               =       0.7000
     number of iterations used =            8  plain     mixing
     Exchange-correlation=  SLA  PW   PBX  PBC
                           (   1   4   3   4   0   0   0)

     celldm(1)=  12.365612  celldm(2)=   0.000000  celldm(3)=   0.000000
     celldm(4)=   0.000000  celldm(5)=   0.000000  celldm(6)=   0.000000

     crystal axes: (cart. coord. in units of alat)
               a(1) = (   1.000000   0.000000   0.000000 )
               a(2) = (   0.000000   1.000000   0.000000 )
               a(3) = (   0.000000   0.000000   1.444472 )

     reciprocal axes: (cart. coord. in units 2 pi/alat)
               b(1) = (  1.000000  0.000000  0.000000 )
               b(2) = (  0.000000  1.000000  0.000000 )
               b(3) = (  0.000000  0.000000  0.692294 )

     PseudoPot. # 1 for Sc read from file:
     /home/pragov/projects/rrg-bengioy-ad/pragov/crystal_structure_design/SSSP/Sc_ONCV_PBE-1.0.oncvpsp.upf
     MD5 check sum: e21af8023abb52e52cb7cd3133e4a229
     Pseudo is Norm-conserving, Zval = 11.0
     Generated using ONCVPSP code by D. R. Hamann
     Using radial grid of 1662 points,  6 beta functions with:
                l(1) =   0
                l(2) =   0
                l(3) =   1
                l(4) =   1
                l(5) =   2
                l(6) =   2

     PseudoPot. # 2 for Tl read from file:
     /home/pragov/projects/rrg-bengioy-ad/pragov/crystal_structure_design/SSSP/Tl_pbe_v1.2.uspp.F.UPF
     MD5 check sum: b76cf1f7e72655a2b2c53cf6385d7059
     Pseudo is Ultrasoft + core correction, Zval = 13.0
     Generated by new atomic code, or converted to UPF format
     Using radial grid of  899 points,  6 beta functions with:
                l(1) =   0
                l(2) =   0
                l(3) =   1
                l(4) =   1
                l(5) =   2
                l(6) =   2
     Q(r) pseudized with  6 coefficients,  rinner =    1.100   1.100   1.100
                                                       1.100   1.100

     PseudoPot. # 3 for F  read from file:
     /home/pragov/projects/rrg-bengioy-ad/pragov/crystal_structure_design/SSSP/f_pbe_v1.4.uspp.F.UPF
     MD5 check sum: 4c38b6a325caf53ec0e86aed9459de46
     Pseudo is Ultrasoft, Zval =  7.0
     Generated by new atomic code, or converted to UPF format
     Using radial grid of  799 points,  4 beta functions with:
                l(1) =   0
                l(2) =   0
                l(3) =   1
                l(4) =   1
     Q(r) pseudized with  8 coefficients,  rinner =    0.950   0.950   0.950

     atomic species   valence    mass     pseudopotential
        Sc            11.00    44.95591     Sc( 1.00)
        Tl            13.00   204.38000     Tl( 1.00)
        F              7.00    18.99840     F ( 1.00)

     16 Sym. Ops., with inversion, found ( 8 have fractional translation)

                                    s                        frac. trans.

      isym =  1     identity

 cryst.   s( 1) = (     1          0          0      )
                  (     0          1          0      )
                  (     0          0          1      )

 cart.    s( 1) = (  1.0000000  0.0000000  0.0000000 )
                  (  0.0000000  1.0000000  0.0000000 )
                  (  0.0000000  0.0000000  1.0000000 )

      isym =  2     180 deg rotation - cart. axis [0,0,1]

[...]

 cryst.   s( 3) = (    -1          0          0      )    f =(  0.5000000 )
                  (     0          1          0      )       ( -0.5000000 )
                  (     0          0         -1      )       ( -0.5000000 )

 cart.    s( 3) = ( -1.0000000  0.0000000  0.0000000 )    f =(  0.5000000 )
                  (  0.0000000  1.0000000  0.0000000 )       ( -0.5000000 )
                  (  0.0000000  0.0000000 -1.0000000 )       ( -0.7222362 )

[...]

 cryst.   s( 6) = (     0         -1          0      )    f =(  0.5000000 )
                  (    -1          0          0      )       (  0.5000000 )
                  (     0          0         -1      )       ( -0.5000000 )

 cart.    s( 6) = (  0.0000000 -1.0000000  0.0000000 )    f =(  0.5000000 )
                  ( -1.0000000  0.0000000  0.0000000 )       (  0.5000000 )
                  (  0.0000000  0.0000000 -1.0000000 )       ( -0.7222362 )

[...]

      isym =  8      90 deg rotation - cart. axis [0,0,1]

[...]

      isym =  9     inversion

 cryst.   s( 9) = (    -1          0          0      )
                  (     0         -1          0      )
                  (     0          0         -1      )

 cart.    s( 9) = ( -1.0000000  0.0000000  0.0000000 )
                  (  0.0000000 -1.0000000  0.0000000 )
                  (  0.0000000  0.0000000 -1.0000000 )

      isym = 10     inv. 180 deg rotation - cart. axis [0,0,1]

 cryst.   s(10) = (     1          0          0      )
                  (     0          1          0      )
                  (     0          0         -1      )

 cart.    s(10) = (  1.0000000  0.0000000  0.0000000 )
                  (  0.0000000  1.0000000  0.0000000 )
                  (  0.0000000  0.0000000 -1.0000000 )

[...]

 cryst.   s(11) = (     1          0          0      )    f =( -0.5000000 )
                  (     0         -1          0      )       (  0.5000000 )
                  (     0          0          1      )       (  0.5000000 )

 cart.    s(11) = (  1.0000000  0.0000000  0.0000000 )    f =( -0.5000000 )
                  (  0.0000000 -1.0000000  0.0000000 )       (  0.5000000 )
                  (  0.0000000  0.0000000  1.0000000 )       (  0.7222362 )

[...]

 cryst.   s(14) = (     0          1          0      )    f =( -0.5000000 )
                  (     1          0          0      )       ( -0.5000000 )
                  (     0          0          1      )       (  0.5000000 )

 cart.    s(14) = (  0.0000000  1.0000000  0.0000000 )    f =( -0.5000000 )
                  (  1.0000000  0.0000000  0.0000000 )       ( -0.5000000 )
                  (  0.0000000  0.0000000  1.0000000 )       (  0.7222362 )

[...]

      isym = 16     inv.  90 deg rotation - cart. axis [0,0,1]

 cryst.   s(16) = (     0         -1          0      )
                  (     1          0          0      )
                  (     0          0         -1      )

 cart.    s(16) = (  0.0000000  1.0000000  0.0000000 )
                  ( -1.0000000  0.0000000  0.0000000 )
                  (  0.0000000  0.0000000 -1.0000000 )

   Cartesian axes

     site n.     atom                  positions (alat units)
         1           Sc  tau(   1) = (   0.0000000   0.0000000   0.0000000  )
         2           Sc  tau(   2) = (   0.5000000   0.5000000   0.7222362  )
         3           Tl  tau(   3) = (   0.0000000   0.5000000   0.3611181  )
         4           Tl  tau(   4) = (   0.0000000   0.5000000   1.0833542  )
         5           Tl  tau(   5) = (   0.5000000   0.0000000   0.3611181  )
         6           Tl  tau(   6) = (   0.5000000   0.0000000   1.0833542  )
         7           Tl  tau(   7) = (   0.0000000   0.0000000   0.7222362  )
         8           Tl  tau(   8) = (   0.5000000   0.5000000   0.0000000  )
         9           F   tau(   9) = (   0.1416790   0.2781000   0.0000000  )
        10           F   tau(  10) = (   0.8583210   0.7219000   0.0000000  )
        11           F   tau(  11) = (   0.7219000   0.1416790   0.0000000  )
        12           F   tau(  12) = (   0.3583210   0.7781000   0.7222362  )
        13           F   tau(  13) = (   0.2781000   0.8583210   0.0000000  )
        14           F   tau(  14) = (   0.6416790   0.2219000   0.7222362  )
        15           F   tau(  15) = (   0.7781000   0.6416790   0.7222362  )
        16           F   tau(  16) = (   0.2219000   0.3583210   0.7222362  )
        17           F   tau(  17) = (   0.0000000   0.0000000   0.3119540  )
        18           F   tau(  18) = (   0.0000000   0.0000000   1.1325183  )
        19           F   tau(  19) = (   0.5000000   0.5000000   0.4102821  )
        20           F   tau(  20) = (   0.5000000   0.5000000   1.0341902  )

   Crystallographic axes

     site n.     atom                  positions (cryst. coord.)
         1           Sc  tau(   1) = (  0.0000000  0.0000000  0.0000000  )
         2           Sc  tau(   2) = (  0.5000000  0.5000000  0.5000000  )
         3           Tl  tau(   3) = (  0.0000000  0.5000000  0.2500000  )
         4           Tl  tau(   4) = (  0.0000000  0.5000000  0.7500000  )
         5           Tl  tau(   5) = (  0.5000000  0.0000000  0.2500000  )
         6           Tl  tau(   6) = (  0.5000000  0.0000000  0.7500000  )
         7           Tl  tau(   7) = (  0.0000000  0.0000000  0.5000000  )
         8           Tl  tau(   8) = (  0.5000000  0.5000000  0.0000000  )
         9           F   tau(   9) = (  0.1416790  0.2781000  0.0000000  )
        10           F   tau(  10) = (  0.8583210  0.7219000  0.0000000  )
        11           F   tau(  11) = (  0.7219000  0.1416790  0.0000000  )
        12           F   tau(  12) = (  0.3583210  0.7781000  0.5000000  )
        13           F   tau(  13) = (  0.2781000  0.8583210  0.0000000  )
        14           F   tau(  14) = (  0.6416790  0.2219000  0.5000000  )
        15           F   tau(  15) = (  0.7781000  0.6416790  0.5000000  )
        16           F   tau(  16) = (  0.2219000  0.3583210  0.5000000  )
        17           F   tau(  17) = (  0.0000000  0.0000000  0.2159640  )
        18           F   tau(  18) = (  0.0000000  0.0000000  0.7840360  )
        19           F   tau(  19) = (  0.5000000  0.5000000  0.2840360  )
        20           F   tau(  20) = (  0.5000000  0.5000000  0.7159640  )

     number of k points=     1  Methfessel-Paxton smearing, width (Ry)=  0.0010
                       cart. coord. in units 2pi/alat
        k(    1) = (   0.0000000   0.0000000   0.0000000), wk =   2.0000000

                       cryst. coord.
        k(    1) = (   0.0000000   0.0000000   0.0000000), wk =   2.0000000

[...]
     estimated scf accuracy    <       0.00000301 Ry

     iteration # 10     ecut=    30.00 Ry     beta= 0.70
     Davidson diagonalization with overlap

     ethr =  1.63E-09,  avg # of iterations =  2.0

[...]

     End of self-consistent calculation

          k = 0.0000 0.0000 0.0000 (  3790 PWs)   bands (ev):

   -43.7755 -43.7754 -22.6303 -22.6297 -22.5837 -22.5837 -22.5837 -22.5837
   -17.5532 -17.5401 -17.2211 -17.2156 -17.1269 -17.1242 -17.1233 -17.1204
   -16.7737 -16.7736 -16.7726 -16.7725  -5.5465  -5.5371  -5.5128  -5.5092
    -5.5011  -5.4967  -5.4967  -5.4966  -5.4957  -5.4952  -5.4947  -5.4947
    -5.4590  -5.4590  -5.4506  -5.4481  -5.4260  -5.4237  -5.4237  -5.4137
    -4.8496  -4.8464  -4.8456  -4.8451  -4.8451  -4.8410  -4.8367  -4.8367
    -4.8337  -4.8325  -1.0440  -0.7669  -0.5077  -0.2626   0.2880   0.3253
     0.3599   0.3599   0.4280   0.4466   0.5397   0.6640   0.6640   0.6995
     0.6995   0.7309   0.7358   0.7836   0.7949   0.9535   0.9535   1.1527
     1.1528   1.4653   1.4653   1.4788   1.5302   1.6923   1.7938   1.8043
     1.8043   1.8372   1.8372   1.8423   1.8424   1.8919   1.8919   2.0858
     2.5090   2.7788   2.9649   3.3778   7.6706   7.6706   8.6098   8.6098
     8.6889   9.1657   9.1657   9.2654   9.2655   9.2814   9.2837   9.3877
     9.3879   9.4062   9.5849  10.3528  10.3532  10.5164

     occupation numbers
     1.0000   1.0000   1.0000   1.0000   1.0000   1.0000   1.0000   1.0000
     1.0000   1.0000   1.0000   1.0000   1.0000   1.0000   1.0000   1.0000
     1.0000   1.0000   1.0000   1.0000   1.0000   1.0000   1.0000   1.0000
     1.0000   1.0000   1.0000   1.0000   1.0000   1.0000   1.0000   1.0000
     1.0000   1.0000   1.0000   1.0000   1.0000   1.0000   1.0000   1.0000
     1.0000   1.0000   1.0000   1.0000   1.0000   1.0000   1.0000   1.0000
     1.0000   1.0000   1.0000   1.0000   1.0000   1.0000   1.0000   1.0000
     1.0000   1.0000   1.0000   1.0000   1.0000   1.0000   1.0000   1.0000
     1.0000   1.0000   1.0000   1.0000   1.0000   1.0000   1.0000   1.0000
     1.0000   1.0000   1.0000   1.0000   1.0000   1.0000   1.0000   1.0000
     1.0000   1.0000   1.0000   1.0000   1.0000   1.0000   1.0000   1.0000
     1.0000   1.0000   1.0000   1.0000  -0.0000  -0.0000  -0.0000  -0.0000
    -0.0000  -0.0000  -0.0000  -0.0000  -0.0000  -0.0000  -0.0000  -0.0000
    -0.0000  -0.0000  -0.0000  -0.0000  -0.0000  -0.0000

     the Fermi energy is     3.8320 ev

!    total energy              =   -1638.77321985 Ry
     estimated scf accuracy    <       0.00000032 Ry
     smearing contrib. (-TS)   =       0.00000000 Ry
     internal energy E=F+TS    =   -1638.77321985 Ry

     The total energy is F=E-TS. E is the sum of the following terms:
     one-electron contribution =    -622.37748145 Ry
     hartree contribution      =     424.70705593 Ry
     xc contribution           =    -508.47269736 Ry
     ewald contribution        =    -932.63009696 Ry

     convergence has been achieved in  10 iterations

     negative rho (up, down):  3.032E-01 0.000E+00

     Forces acting on atoms (cartesian axes, Ry/au):

     atom    1 type  1   force =     0.00000000    0.00000000   -0.00000000
     atom    2 type  1   force =     0.00000000    0.00000000    0.00000000
     atom    3 type  2   force =     0.00000000    0.00000000    0.00000000
     atom    4 type  2   force =     0.00000000    0.00000000   -0.00000000
     atom    5 type  2   force =     0.00000000    0.00000000    0.00000000
     atom    6 type  2   force =     0.00000000    0.00000000    0.00000000
     atom    7 type  2   force =     0.00000000    0.00000000    0.00000000
     atom    8 type  2   force =     0.00000000    0.00000000    0.00000000
     atom    9 type  3   force =    -0.00178721    0.00197761   -0.00000000
     atom   10 type  3   force =     0.00178721   -0.00197761    0.00000000
     atom   11 type  3   force =    -0.00197761   -0.00178721   -0.00000000
     atom   12 type  3   force =     0.00178721    0.00197761   -0.00000000
     atom   13 type  3   force =     0.00197761    0.00178721    0.00000000
     atom   14 type  3   force =    -0.00178721   -0.00197761    0.00000000
     atom   15 type  3   force =     0.00197761   -0.00178721   -0.00000000
     atom   16 type  3   force =    -0.00197761    0.00178721   -0.00000000
     atom   17 type  3   force =     0.00000000    0.00000000    0.01222909
     atom   18 type  3   force =     0.00000000    0.00000000   -0.01222909
     atom   19 type  3   force =     0.00000000    0.00000000   -0.01222909
     atom   20 type  3   force =     0.00000000    0.00000000    0.01222909
     The non-local contrib.  to forces
     atom    1 type  1   force =     0.00000000    0.00000000    0.00000000
     atom    2 type  1   force =     0.00000000    0.00000000    0.00000000
     atom    3 type  2   force =     0.00000000    0.00000000    0.00000000
     atom    4 type  2   force =     0.00000000    0.00000000    0.00000000
     atom    5 type  2   force =     0.00000000    0.00000000   -0.00000000
     atom    6 type  2   force =     0.00000000    0.00000000    0.00000000
     atom    7 type  2   force =     0.00000000    0.00000000   -0.00000000
     atom    8 type  2   force =     0.00000000    0.00000000    0.00000000
     atom    9 type  3   force =    -0.26064405   -0.47298537    0.00000000
     atom   10 type  3   force =     0.26064405    0.47298537    0.00000000
     atom   11 type  3   force =     0.47298537   -0.26064405   -0.00000000
     atom   12 type  3   force =     0.26064405   -0.47298537   -0.00000000
     atom   13 type  3   force =    -0.47298537    0.26064405   -0.00000000
     atom   14 type  3   force =    -0.26064405    0.47298537   -0.00000000
     atom   15 type  3   force =    -0.47298537   -0.26064405    0.00000000
     atom   16 type  3   force =     0.47298537    0.26064405    0.00000000
     atom   17 type  3   force =     0.00000000    0.00000000   -0.54844118
     atom   18 type  3   force =     0.00000000    0.00000000    0.54844118
     atom   19 type  3   force =     0.00000000    0.00000000    0.54844118
     atom   20 type  3   force =     0.00000000    0.00000000   -0.54844118
     The ionic contribution  to forces
     atom    1 type  1   force =     0.00000000   -0.00000000   -0.00000000
     atom    2 type  1   force =     0.00000000    0.00000000    0.00000000
     atom    3 type  2   force =    -0.00000000    0.00000000    0.00000000
     atom    4 type  2   force =    -0.00000000    0.00000000    0.00000000
     atom    5 type  2   force =     0.00000000   -0.00000000    0.00000000
     atom    6 type  2   force =     0.00000000   -0.00000000    0.00000000
     atom    7 type  2   force =    -0.00000000    0.00000000    0.00000000
     atom    8 type  2   force =     0.00000000    0.00000000   -0.00000000
     atom    9 type  3   force =     3.69524087    6.48285585   -0.00000000
     atom   10 type  3   force =    -3.69524087   -6.48285585   -0.00000000
     atom   11 type  3   force =    -6.48285585    3.69524087   -0.00000000
     atom   12 type  3   force =    -3.69524087    6.48285585    0.00000000
     atom   13 type  3   force =     6.48285585   -3.69524087   -0.00000000
     atom   14 type  3   force =     3.69524087   -6.48285585    0.00000000
     atom   15 type  3   force =     6.48285585    3.69524087    0.00000000
     atom   16 type  3   force =    -6.48285585   -3.69524087    0.00000000
     atom   17 type  3   force =    -0.00000000   -0.00000000    7.65042302
     atom   18 type  3   force =    -0.00000000   -0.00000000   -7.65042302
     atom   19 type  3   force =     0.00000000    0.00000000   -7.65042302
     atom   20 type  3   force =     0.00000000    0.00000000    7.65042302
     The local contribution  to forces
     atom    1 type  1   force =     0.00001671    0.00001230    0.00021478
     atom    2 type  1   force =    -0.00000044   -0.00006410   -0.00019137
     atom    3 type  2   force =     0.00000416    0.00001354   -0.00001256
     atom    4 type  2   force =     0.00001326    0.00000396   -0.00000753
     atom    5 type  2   force =    -0.00000097    0.00003160    0.00000406
     atom    6 type  2   force =    -0.00001585    0.00002315   -0.00001753
     atom    7 type  2   force =    -0.00000425   -0.00000764   -0.00022126
     atom    8 type  2   force =    -0.00000926    0.00000765    0.00022500
     atom    9 type  3   force =    -3.43636030   -6.00780879    0.00006998
     atom   10 type  3   force =     3.43636537    6.00780961    0.00007352
     atom   11 type  3   force =     6.00781814   -3.43636245    0.00007256
     atom   12 type  3   force =     3.43634870   -6.00777598   -0.00007277
     atom   13 type  3   force =    -6.00780949    3.43634952    0.00007067
     atom   14 type  3   force =    -3.43634688    6.00777535   -0.00006691
     atom   15 type  3   force =    -6.00779324   -3.43633982   -0.00006329
     atom   16 type  3   force =     6.00779465    3.43632733   -0.00006565
     atom   17 type  3   force =    -0.00000464   -0.00000051   -7.08969843
     atom   18 type  3   force =     0.00000044    0.00000087    7.08976392
     atom   19 type  3   force =    -0.00000829   -0.00000224    7.08964636
     atom   20 type  3   force =    -0.00000074   -0.00000886   -7.08972522
     The core correction contribution to forces
     atom    1 type  1   force =     0.00000000    0.00000000    0.00000000
     atom    2 type  1   force =     0.00000000    0.00000000    0.00000000
     atom    3 type  2   force =    -0.00000144    0.00000102   -0.00000051
     atom    4 type  2   force =     0.00000105    0.00000014   -0.00000273
     atom    5 type  2   force =     0.00000053    0.00000003   -0.00000098
     atom    6 type  2   force =    -0.00000069    0.00000129   -0.00000363
     atom    7 type  2   force =     0.00000217   -0.00000228   -0.00000131
     atom    8 type  2   force =     0.00000035    0.00000153    0.00000113
     atom    9 type  3   force =     0.00000000    0.00000000    0.00000000
     atom   10 type  3   force =     0.00000000    0.00000000    0.00000000
     atom   11 type  3   force =     0.00000000    0.00000000    0.00000000
     atom   12 type  3   force =     0.00000000    0.00000000    0.00000000
     atom   13 type  3   force =     0.00000000    0.00000000    0.00000000
     atom   14 type  3   force =     0.00000000    0.00000000    0.00000000
     atom   15 type  3   force =     0.00000000    0.00000000    0.00000000
     atom   16 type  3   force =     0.00000000    0.00000000    0.00000000
     atom   17 type  3   force =     0.00000000    0.00000000    0.00000000
     atom   18 type  3   force =     0.00000000    0.00000000    0.00000000
     atom   19 type  3   force =     0.00000000    0.00000000    0.00000000
     atom   20 type  3   force =     0.00000000    0.00000000    0.00000000
     The Hubbard contrib.    to forces
     atom    1 type  1   force =     0.00000000    0.00000000    0.00000000
     atom    2 type  1   force =     0.00000000    0.00000000    0.00000000
     atom    3 type  2   force =     0.00000000    0.00000000    0.00000000
     atom    4 type  2   force =     0.00000000    0.00000000    0.00000000
     atom    5 type  2   force =     0.00000000    0.00000000    0.00000000
     atom    6 type  2   force =     0.00000000    0.00000000    0.00000000
     atom    7 type  2   force =     0.00000000    0.00000000    0.00000000
     atom    8 type  2   force =     0.00000000    0.00000000    0.00000000
     atom    9 type  3   force =     0.00000000    0.00000000    0.00000000
     atom   10 type  3   force =     0.00000000    0.00000000    0.00000000
     atom   11 type  3   force =     0.00000000    0.00000000    0.00000000
     atom   12 type  3   force =     0.00000000    0.00000000    0.00000000
     atom   13 type  3   force =     0.00000000    0.00000000    0.00000000
     atom   14 type  3   force =     0.00000000    0.00000000    0.00000000
     atom   15 type  3   force =     0.00000000    0.00000000    0.00000000
     atom   16 type  3   force =     0.00000000    0.00000000    0.00000000
     atom   17 type  3   force =     0.00000000    0.00000000    0.00000000
     atom   18 type  3   force =     0.00000000    0.00000000    0.00000000
     atom   19 type  3   force =     0.00000000    0.00000000    0.00000000
     atom   20 type  3   force =     0.00000000    0.00000000    0.00000000
     The SCF correction term to forces
     atom    1 type  1   force =    -0.00002133   -0.00001175   -0.00027868
     atom    2 type  1   force =     0.00000269    0.00009289    0.00024491
     atom    3 type  2   force =    -0.00001371   -0.00000783    0.00004478
     atom    4 type  2   force =    -0.00001942    0.00000454   -0.00004221
     atom    5 type  2   force =     0.00000346   -0.00003105    0.00001142
     atom    6 type  2   force =     0.00000061   -0.00002698   -0.00002191
     atom    7 type  2   force =     0.00002842   -0.00002220    0.00030938
     atom    8 type  2   force =     0.00002546   -0.00001116   -0.00031012
     atom    9 type  3   force =    -0.00002392   -0.00009000   -0.00010934
     atom   10 type  3   force =     0.00001287    0.00008114   -0.00011351
     atom   11 type  3   force =     0.00006368   -0.00002691   -0.00011934
     atom   12 type  3   force =     0.00003415   -0.00014207    0.00012287
     atom   13 type  3   force =    -0.00007733    0.00004008   -0.00011572
     atom   14 type  3   force =    -0.00003368    0.00012656    0.00010800
     atom   15 type  3   force =    -0.00008911   -0.00003910    0.00009636
     atom   16 type  3   force =     0.00008774    0.00006120    0.00009808
     atom   17 type  3   force =     0.00000864    0.00000588   -0.00005293
     atom   18 type  3   force =     0.00000095   -0.00000176   -0.00001663
     atom   19 type  3   force =     0.00001342    0.00000345    0.00011362
     atom   20 type  3   force =     0.00000188    0.00001308   -0.00002716

     Total force =     0.025594     Total SCF correction =     0.000742

     Computing stress (Cartesian axis) and pressure

     negative rho (up, down):  3.032E-01 0.000E+00
          total   stress  (Ry/bohr**3)                   (kbar)     P=      -83.52
  -0.00063070   0.00000000   0.00000000          -92.78        0.00        0.00
   0.00000000  -0.00063070   0.00000000            0.00      -92.78        0.00
   0.00000000   0.00000000  -0.00044193            0.00        0.00      -65.01

     kinetic stress (kbar)  12709.64      0.00      0.00
                                0.00  12709.64      0.00
                                0.00      0.00  12736.03

     local   stress (kbar)  -2235.64      0.00     -0.00
                                0.00  -2235.64      0.00
                               -0.00      0.00  -4919.57

     nonloc. stress (kbar)   4490.54      0.00      0.00
                                0.00   4490.54      0.00
                                0.00      0.00   4518.26

     hartree stress (kbar)   7304.45     -0.00      0.00
                               -0.00   7304.45     -0.00
                                0.00     -0.00   8266.10

     exc-cor stress (kbar)  10584.90      0.00      0.00
                                0.00  10584.90      0.00
                                0.00      0.00  10587.95

     corecor stress (kbar) -15638.03      0.00      0.00
                                0.00 -15638.03      0.00
                                0.00      0.00 -15638.99

     ewald   stress (kbar) -17308.63      0.00     -0.00
                                0.00 -17308.63     -0.00
                               -0.00     -0.00 -15614.80

     hubbard stress (kbar)      0.00      0.00      0.00
                                0.00      0.00      0.00
                                0.00      0.00      0.00

     DFT-D   stress (kbar)      0.00      0.00      0.00
                                0.00      0.00      0.00
                                0.00      0.00      0.00

     XDM     stress (kbar)      0.00      0.00      0.00
                                0.00      0.00      0.00
                                0.00      0.00      0.00

     dft-nl  stress (kbar)      0.00      0.00      0.00
                                0.00      0.00      0.00
                                0.00      0.00      0.00

     TS-vdW  stress (kbar)      0.00      0.00      0.00
                                0.00      0.00      0.00
                                0.00      0.00      0.00

[...]

                                0.00      0.00      0.00

     Writing all to output data dir new_calculations/myprefix.save/

     General routines

     Parallel routines

   This run was terminated on:  19:16:30  20May2023

   JOB DONE.