     Program PWSCF v.7.0 starts on 21May2023 at  5:17: 6

     Reading input from espresso_8111.pwi
Warning: card &CELL ignored
Warning: card / ignored

     Current dimensions of program PWSCF are:
     Max number of different atomic species (ntypx) = 10
     Max number of k-points (npk) =  40000
     Max angular momentum in pseudopotentials (lmaxx) =  4
     file Cd.pbe-dn-rrkjus_psl.0.3.1.UPF: wavefunction(s)  4D renormalized
     file In.pbe-dn-rrkjus_psl.0.2.2.UPF: wavefunction(s)  5S renormalized

     gamma-point specific algorithms are used
     Message from routine setup:
     using ibrav=0 with symmetry is DISCOURAGED, use correct ibrav instead

     Subspace diagonalization in iterative solution of the eigenvalue problem:
     a serial algorithm will be used

     Using Slab Decomposition

     bravais-lattice index     =            0
     lattice parameter (alat)  =      12.1470  a.u.
     unit-cell volume          =    2757.1730 (a.u.)^3
     number of atoms/cell      =           11
     number of atomic types    =            3
     number of electrons       =        98.00
     number of Kohn-Sham states=           59
     kinetic-energy cutoff     =      30.0000  Ry
     charge density cutoff     =     240.0000  Ry
     scf convergence threshold =      1.0E-06
     mixing beta               =       0.7000
     number of iterations used =            8  plain     mixing
     Exchange-correlation= SLA  PW   PBE  PBE
                           (   1   4   3   4   0   0   0)

     celldm(1)=  12.147014  celldm(2)=   0.000000  celldm(3)=   0.000000
     celldm(4)=   0.000000  celldm(5)=   0.000000  celldm(6)=   0.000000

     crystal axes: (cart. coord. in units of alat)
               a(1) = (   1.000000   0.000000   0.000000 )
               a(2) = (   0.000000   1.428985   0.000000 )
               a(3) = (   0.500000   0.379809   1.076534 )

     reciprocal axes: (cart. coord. in units 2 pi/alat)
               b(1) = (  1.000000  0.000000 -0.464454 )
               b(2) = (  0.000000  0.699797 -0.246894 )
               b(3) = (  0.000000  0.000000  0.928907 )

     PseudoPot. # 1 for Cd read from file:
     /home/pragov/projects/rrg-bengioy-ad/pragov/crystal_structure_design/SSSP/Cd.pbe-dn-rrkjus_psl.0.3.1.UPF
     MD5 check sum: 558e9f355611b531a870a69ef6ace9e2
     Pseudo is Ultrasoft + core correction, Zval = 12.0
     Generated using "atomic" code by A. Dal Corso  v.5.0.99 svn rev. 10869
     Using radial grid of 1239 points,  6 beta functions with:
                l(1) =   0
                l(2) =   0
                l(3) =   1
                l(4) =   1
                l(5) =   2
                l(6) =   2
     Q(r) pseudized with 0 coefficients

     PseudoPot. # 2 for In read from file:
     /home/pragov/projects/rrg-bengioy-ad/pragov/crystal_structure_design/SSSP/In.pbe-dn-rrkjus_psl.0.2.2.UPF
     MD5 check sum: 25e7c42c3b55b68f4bf926be2e7201a4
     Pseudo is Ultrasoft + core correction, Zval = 13.0
     Generated using "atomic" code by A. Dal Corso  v.5.0.99 svn rev. 10869
     Using radial grid of 1241 points,  6 beta functions with:
                l(1) =   0
                l(2) =   0
                l(3) =   1
                l(4) =   1
                l(5) =   2
                l(6) =   2
     Q(r) pseudized with 0 coefficients

     PseudoPot. # 3 for Te read from file:
     /home/pragov/projects/rrg-bengioy-ad/pragov/crystal_structure_design/SSSP/Te_pbe_v1.uspp.F.UPF
     MD5 check sum: c319670d6894cc26e93307826a071b75
     Pseudo is Ultrasoft + core correction, Zval =  6.0
     Generated by new atomic code, or converted to UPF format
     Using radial grid of  891 points,  5 beta functions with:
                l(1) =   0
                l(2) =   0
                l(3) =   1
                l(4) =   1
                l(5) =   2
     Q(r) pseudized with  6 coefficients,  rinner =    1.800   1.800   1.800
                                                       1.800   1.800

     atomic species   valence    mass     pseudopotential
        Cd            12.00   112.41400     Cd( 1.00)
        In            13.00   114.81800     In( 1.00)
        Te             6.00   127.60000     Te( 1.00)

      2 Sym. Ops. (no inversion) found ( 1 have fractional translation)

                                    s                        frac. trans.

      isym =  1     identity

 cryst.   s( 1) = (     1          0          0      )
                  (     0          1          0      )
                  (     0          0          1      )

 cart.    s( 1) = (  1.0000000  0.0000000 -0.0000000 )
                  (  0.0000000  1.0000000  0.0000000 )
                  (  0.0000000  0.0000000  1.0000000 )

      isym =  2     180 deg rotation - cart. axis [1,0,0]

 cryst.   s( 2) = (     1          0          0      )    f =(  0.3333340 )
                  (     0         -1          0      )       ( -0.3333330 )
                  (     1          0         -1      )       (  0.3333330 )

 cart.    s( 2) = (  1.0000000  0.0000000  0.0000001 )    f =(  0.5000005 )
                  (  0.0000000 -1.0000000 -0.0000000 )       ( -0.3497250 )
                  (  0.0000000  0.0000000 -1.0000000 )       (  0.3588442 )

   Cartesian axes

     site n.     atom                  positions (alat units)
         1           Cd  tau(   1) = (   0.9974750   1.4186333   0.0145354  )
         2           Cd  tau(   2) = (   0.5329595   0.3647677   0.3588442  )
         3           Cd  tau(   3) = (   0.9974754   0.7398863   0.7031542  )
         4           In  tau(   4) = (   0.9862595   0.7227017   0.0023113  )
         5           In  tau(   5) = (   0.9862599   1.4358179   0.7153782  )
         6           Te  tau(   6) = (   0.2717315   1.0643384   0.0258293  )
         7           Te  tau(   7) = (   0.7277855   1.3994447   0.3644465  )
         8           Te  tau(   8) = (   1.2502674   0.3693439   0.7163439  )
         9           Te  tau(   9) = (   0.2502680   0.3601904   0.0013457  )
        10           Te  tau(  10) = (   0.7277865   0.7590759   0.3532420  )
        11           Te  tau(  11) = (   1.2717319   1.0941812   0.6918603  )

   Crystallographic axes

     site n.     atom                  positions (cryst. coord.)
         1           Cd  tau(   1) = (  0.9907240  0.9891670  0.0135020  )
         2           Cd  tau(   2) = (  0.3662930  0.1666670  0.3333330  )
         3           Cd  tau(   3) = (  0.6708930  0.3441660  0.6531650  )
         4           In  tau(   4) = (  0.9851860  0.5051740  0.0021470  )
         5           In  tau(   5) = (  0.6540000  0.8281590  0.6645200  )
         6           Te  tau(   6) = (  0.2597350  0.7384440  0.0239930  )
         7           Te  tau(   7) = (  0.5585170  0.8893480  0.3385370  )
         8           Te  tau(   8) = (  0.9175590  0.0816050  0.6654170  )
         9           Te  tau(   9) = (  0.2496430  0.2517280  0.0012500  )
        10           Te  tau(  10) = (  0.5637220  0.4439860  0.3281290  )
        11           Te  tau(  11) = (  0.9503950  0.5948890  0.6426740  )

     number of k points=     1  Methfessel-Paxton smearing, width (Ry)=  0.0010
                       cart. coord. in units 2pi/alat
        k(    1) = (   0.0000000   0.0000000   0.0000000), wk =   2.0000000

                       cryst. coord.
        k(    1) = (   0.0000000   0.0000000   0.0000000), wk =   2.0000000

     Initial potential from superposition of free atoms

     starting charge      97.9766, renormalised to      98.0000
     Starting wfcs are   69 randomized atomic wfcs

     Self-consistent Calculation

     iteration #  1     ecut=    30.00 Ry     beta= 0.70
     Davidson diagonalization with overlap

     ethr =  1.00E-02,  avg # of iterations =  3.0

     Threshold (ethr) on eigenvalues was too large:
     Diagonalizing with lowered threshold

     Davidson diagonalization with overlap

[...]

     total energy              =    -815.33939953 Ry
     estimated scf accuracy    <       0.31724943 Ry

[...]

     total energy              =    -815.46559991 Ry
     estimated scf accuracy    <       0.00000183 Ry

     iteration #  9     ecut=    30.00 Ry     beta= 0.70
     Davidson diagonalization with overlap

     ethr =  1.87E-09,  avg # of iterations =  2.0

     End of self-consistent calculation

          k = 0.0000 0.0000 0.0000 (  3814 PWs)   bands (ev):

   -10.0138 -10.0108  -9.9887  -9.9828  -9.9823  -9.9401  -9.9159  -9.9112
    -9.8973  -9.8909  -6.6121  -6.0517  -5.9544  -5.7645  -5.7153  -5.6707
    -3.6103  -3.6059  -3.5758  -3.5385  -3.5126  -3.4981  -3.4793  -3.4682
    -3.4533  -3.4455  -3.4326  -3.3990  -3.3235  -3.2007  -3.1869  -0.7373
    -0.4772   0.4822   0.5966   1.5718   1.8273   1.8647   2.3181   2.3217
     2.6272   2.7038   3.0973   3.1969   3.2230   3.4192   4.3257   4.4445
     4.4649   5.0542   6.6519   6.6708   6.8937   7.0955   7.3387   8.0222
     8.4531   8.6096   8.7419

     occupation numbers
     1.0000   1.0000   1.0000   1.0000   1.0000   1.0000   1.0000   1.0000
     1.0000   1.0000   1.0000   1.0000   1.0000   1.0000   1.0000   1.0000
     1.0000   1.0000   1.0000   1.0000   1.0000   1.0000   1.0000   1.0000
     1.0000   1.0000   1.0000   1.0000   1.0000   1.0000   1.0000   1.0000
     1.0000   1.0000   1.0000   1.0000   1.0000   1.0000   1.0000   1.0000
     1.0000   1.0000   1.0000   1.0000   1.0000   1.0000   1.0000   1.0000
     1.0000  -0.0000  -0.0000  -0.0000  -0.0000  -0.0000  -0.0000  -0.0000
    -0.0000  -0.0000  -0.0000

     the Fermi energy is     4.7156 ev

!    total energy              =    -815.46560027 Ry
     estimated scf accuracy    <       0.00000036 Ry
     smearing contrib. (-TS)   =       0.00000000 Ry
     internal energy E=F+TS    =    -815.46560027 Ry

     The total energy is F=E-TS. E is the sum of the following terms:
     one-electron contribution =    -341.73086725 Ry
     hartree contribution      =     236.67496645 Ry
     xc contribution           =    -310.57369361 Ry
     ewald contribution        =    -399.83600586 Ry

     convergence has been achieved in   9 iterations

     Forces acting on atoms (cartesian axes, Ry/au):

     atom    1 type  1   force =    -0.00676179   -0.00085617    0.00201011
     atom    2 type  1   force =    -0.00355196    0.00000000   -0.00000000
     atom    3 type  1   force =    -0.00676179    0.00085617   -0.00201011
     atom    4 type  2   force =    -0.00694166   -0.00191488   -0.00060274
     atom    5 type  2   force =    -0.00694166    0.00191488    0.00060274
     atom    6 type  3   force =     0.00663446    0.00081611   -0.00102447
     atom    7 type  3   force =     0.00397978    0.00937245    0.00035966
     atom    8 type  3   force =     0.00486519   -0.00071050    0.00220788
     atom    9 type  3   force =     0.00486519    0.00071050   -0.00220788
     atom   10 type  3   force =     0.00397978   -0.00937245   -0.00035966
     atom   11 type  3   force =     0.00663446   -0.00081611    0.00102447
     The non-local contrib.  to forces
     atom    1 type  1   force =     0.06650287    0.02563781   -0.04398521
     atom    2 type  1   force =    -0.02460598    0.00000000   -0.00000000
     atom    3 type  1   force =     0.06650287   -0.02563781    0.04398522
     atom    4 type  2   force =     0.07104099   -0.02696884   -0.02614987
     atom    5 type  2   force =     0.07104099    0.02696884    0.02614988
     atom    6 type  3   force =     0.18028883    0.02182088    0.24444202
     atom    7 type  3   force =    -0.14969842   -0.22066686   -0.01270612
     atom    8 type  3   force =     0.06403668    0.03858609    0.00775012
     atom    9 type  3   force =     0.06403668   -0.03858609   -0.00775011
     atom   10 type  3   force =    -0.14969842    0.22066686    0.01270610
     atom   11 type  3   force =     0.18028883   -0.02182088   -0.24444199
     The ionic contribution  to forces
     atom    1 type  1   force =     0.23840483   -1.04016301    0.95063461
     atom    2 type  1   force =    -0.52559124    0.00001069    0.00004065
     atom    3 type  1   force =     0.23837087    1.04016441   -0.95065059
     atom    4 type  2   force =     0.13373822    0.95142078   -0.01290537
     atom    5 type  2   force =     0.13368514   -0.95143230    0.01286692
     atom    6 type  3   force =     2.09594952    0.27639117    3.41544735
     atom    7 type  3   force =    -2.45694680   -3.48093238   -0.37303940
     atom    8 type  3   force =     0.25171444    0.15733386   -0.15610273
     atom    9 type  3   force =     0.25168663   -0.15734285    0.15607963
     atom   10 type  3   force =    -2.45696046    3.48093457    0.37309937
     atom   11 type  3   force =     2.09594884   -0.27638493   -3.41547044
     The local contribution  to forces
     atom    1 type  1   force =    -0.30961007    1.01434692   -0.90683920
     atom    2 type  1   force =     0.54554128    0.00000359   -0.00004240
     atom    3 type  1   force =    -0.30955773   -1.01434843    0.90684555
     atom    4 type  2   force =    -0.20999514   -0.92776979    0.03692089
     atom    5 type  2   force =    -0.20995611    0.92778501   -0.03693062
     atom    6 type  3   force =    -2.29493220   -0.30100212   -3.69654545
     atom    7 type  3   force =     2.63366830    3.74318082    0.38896240
     atom    8 type  3   force =    -0.31946304   -0.20210709    0.15032492
     atom    9 type  3   force =    -0.31943021    0.20211645   -0.15030249
     atom   10 type  3   force =     2.63367481   -3.74317368   -0.38900627
     atom   11 type  3   force =    -2.29493322    0.30101775    3.69656685
     The core correction contribution to forces
     atom    1 type  1   force =    -0.00189465   -0.00078810    0.00172016
     atom    2 type  1   force =     0.00017703    0.00000088   -0.00000016
     atom    3 type  1   force =    -0.00189349    0.00078717   -0.00172037
     atom    4 type  2   force =    -0.00138720    0.00151534    0.00088398
     atom    5 type  2   force =    -0.00138871   -0.00151602   -0.00088541
     atom    6 type  3   force =     0.02526882    0.00363790    0.03552349
     atom    7 type  3   force =    -0.02309173   -0.03224227   -0.00290147
     atom    8 type  3   force =     0.00855870    0.00552084    0.00030384
     atom    9 type  3   force =     0.00855827   -0.00552091   -0.00030391
     atom   10 type  3   force =    -0.02309148    0.03224054    0.00290148
     atom   11 type  3   force =     0.02526902   -0.00364027   -0.03552405
     The Hubbard contrib.    to forces
     atom    1 type  1   force =     0.00000000    0.00000000    0.00000000
     atom    2 type  1   force =     0.00000000    0.00000000    0.00000000
     atom    3 type  1   force =     0.00000000    0.00000000    0.00000000
     atom    4 type  2   force =     0.00000000    0.00000000    0.00000000
     atom    5 type  2   force =     0.00000000    0.00000000    0.00000000
     atom    6 type  3   force =     0.00000000    0.00000000    0.00000000
     atom    7 type  3   force =     0.00000000    0.00000000    0.00000000
     atom    8 type  3   force =     0.00000000    0.00000000    0.00000000
     atom    9 type  3   force =     0.00000000    0.00000000    0.00000000
     atom   10 type  3   force =     0.00000000    0.00000000    0.00000000
     atom   11 type  3   force =     0.00000000    0.00000000    0.00000000
     The SCF correction term to forces
     atom    1 type  1   force =    -0.00016225    0.00010710    0.00048658
     atom    2 type  1   force =     0.00092588   -0.00003505   -0.00000837
     atom    3 type  1   force =    -0.00018896   -0.00011228   -0.00046308
     atom    4 type  2   force =    -0.00033930   -0.00010150    0.00066457
     atom    5 type  2   force =    -0.00032435    0.00012021   -0.00058111
     atom    6 type  3   force =     0.00006067   -0.00002082    0.00011122
     atom    7 type  3   force =     0.00004981    0.00004133    0.00004464
     atom    8 type  3   force =     0.00001471   -0.00004287   -0.00006829
     atom    9 type  3   force =     0.00001539    0.00004523    0.00006900
     atom   10 type  3   force =     0.00005182   -0.00003257   -0.00005995
     atom   11 type  3   force =     0.00005769    0.00002311   -0.00010281

     Total force =     0.023984     Total SCF correction =     0.001574

     Computing stress (Cartesian axis) and pressure

          total   stress  (Ry/bohr**3)                   (kbar)     P=      -39.22
  -0.00018211   0.00000000  -0.00000000          -26.79        0.00       -0.00
   0.00000000  -0.00015869  -0.00008381            0.00      -23.34      -12.33
  -0.00000000  -0.00008381  -0.00045904           -0.00      -12.33      -67.53

     kinetic stress (kbar)   7295.47      0.00      0.00
                                0.00   7306.07    -17.30
                                0.00    -17.30   7259.40

     local   stress (kbar)   1418.38     -0.00     -0.00
                               -0.00   1235.43     54.09
                               -0.00     54.09   1339.62

     nonloc. stress (kbar)  -3227.42      0.00     -0.00
                                0.00  -3253.26      1.07
                               -0.00      1.07  -3236.82

     hartree stress (kbar)   4181.18      0.00      0.00
                                0.00   4247.44    -37.17
                                0.00    -37.17   4198.84

     exc-cor stress (kbar)   8236.67     -0.00      0.00
                               -0.00   8237.45      0.05
                                0.00      0.05   8237.39

     corecor stress (kbar) -10752.25     -0.00      0.00
                               -0.00 -10755.58      0.40
                                0.00      0.40 -10753.00

     ewald   stress (kbar)  -7178.82     -0.00      0.00
                               -0.00  -7040.90    -13.48
                                0.00    -13.48  -7112.97

     hubbard stress (kbar)      0.00      0.00      0.00
                                0.00      0.00      0.00
                                0.00      0.00      0.00

     DFT-D   stress (kbar)      0.00      0.00      0.00
                                0.00      0.00      0.00
                                0.00      0.00      0.00

     XDM     stress (kbar)      0.00      0.00      0.00
                                0.00      0.00      0.00
                                0.00      0.00      0.00

     dft-nl  stress (kbar)      0.00      0.00      0.00
                                0.00      0.00      0.00
                                0.00      0.00      0.00

     TS-vdW  stress (kbar)      0.00      0.00      0.00
                                0.00      0.00      0.00
                                0.00      0.00      0.00

[...]

                                0.00      0.00      0.00

     Writing all to output data dir new_calculations/myprefix.save/

     General routines

     Parallel routines

   This run was terminated on:   5:17:30  21May2023

   JOB DONE.