     Program PWSCF v.7.0 starts on 21May2023 at  0: 1:54

     Reading input from espresso_3859.pwi
Warning: card &CELL ignored
Warning: card / ignored

     Current dimensions of program PWSCF are:
     Max number of different atomic species (ntypx) = 10
     Max number of k-points (npk) =  40000
     Max angular momentum in pseudopotentials (lmaxx) =  4
     file O.pbe-n-kjpaw_psl.0.1.UPF: wavefunction(s)  2P renormalized

     gamma-point specific algorithms are used
     Message from routine setup:
     using ibrav=0 with symmetry is DISCOURAGED, use correct ibrav instead

     Subspace diagonalization in iterative solution of the eigenvalue problem:
     a serial algorithm will be used

     Using Slab Decomposition

     bravais-lattice index     =            0
     lattice parameter (alat)  =      14.5564  a.u.
     unit-cell volume          =    1445.2206 (a.u.)^3
     number of atoms/cell      =           17
     number of atomic types    =            3
     number of electrons       =       144.00
     number of Kohn-Sham states=           86
     kinetic-energy cutoff     =      30.0000  Ry
     charge density cutoff     =     240.0000  Ry
     scf convergence threshold =      1.0E-06
     mixing beta               =       0.7000
     number of iterations used =            8  plain     mixing
     Exchange-correlation= SLA  PW   PBX  PBC
                           (   1   4   3   4   0   0   0)

     celldm(1)=  14.556427  celldm(2)=   0.000000  celldm(3)=   0.000000
     celldm(4)=   0.000000  celldm(5)=   0.000000  celldm(6)=   0.000000

     crystal axes: (cart. coord. in units of alat)
               a(1) = (   1.000000   0.000000   0.000000 )
               a(2) = (   0.878514   0.477717   0.000000 )
               a(3) = (   0.882847   0.224513   0.980843 )

     reciprocal axes: (cart. coord. in units 2 pi/alat)
               b(1) = (  1.000000 -1.838986 -0.479150 )
               b(2) = (  0.000000  2.093292 -0.479150 )
               b(3) = (  0.000000  0.000000  1.019531 )

     PseudoPot. # 1 for Ti read from file:
     /home/pragov/projects/rrg-bengioy-ad/pragov/crystal_structure_design/SSSP/ti_pbe_v1.4.uspp.F.UPF
     MD5 check sum: 88a00a6731bd790ddea75d31a80cb452
     Pseudo is Ultrasoft + core correction, Zval = 12.0
     Generated by new atomic code, or converted to UPF format
     Using radial grid of  851 points,  6 beta functions with:
                l(1) =   0
                l(2) =   0
                l(3) =   1
                l(4) =   1
                l(5) =   2
                l(6) =   2
     Q(r) pseudized with  6 coefficients,  rinner =    1.000   1.000   1.000
                                                       1.000   1.000

     PseudoPot. # 2 for Bi read from file:
     /home/pragov/projects/rrg-bengioy-ad/pragov/crystal_structure_design/SSSP/Bi_pbe_v1.uspp.F.UPF
     MD5 check sum: cceb9f28ec65b6d7ff33140f5b0b1758
     Pseudo is Ultrasoft + core correction, Zval = 15.0
     Generated by new atomic code, or converted to UPF format
     Using radial grid of  899 points,  6 beta functions with:
                l(1) =   0
                l(2) =   0
                l(3) =   1
                l(4) =   1
                l(5) =   2
                l(6) =   2
     Q(r) pseudized with  6 coefficients,  rinner =    1.000   1.000   1.000
                                                       1.000   1.000

     PseudoPot. # 3 for O  read from file:
     /home/pragov/projects/rrg-bengioy-ad/pragov/crystal_structure_design/SSSP/O.pbe-n-kjpaw_psl.0.1.UPF
     MD5 check sum: 0234752ac141de4415c5fc33072bef88
     Pseudo is Projector augmented-wave + core cor, Zval =  6.0
     Generated using "atomic" code by A. Dal Corso  v.5.0.99 svn rev. 10869
     Shape of augmentation charge: BESSEL
     Using radial grid of 1095 points,  4 beta functions with:
                l(1) =   0
                l(2) =   0
                l(3) =   1
                l(4) =   1
     Q(r) pseudized with 0 coefficients

     atomic species   valence    mass     pseudopotential
        Ti            12.00    47.86700     Ti( 1.00)
        Bi            15.00   208.98040     Bi( 1.00)
        O              6.00    15.99900     O ( 1.00)

      2 Sym. Ops., with inversion, found

                                    s                        frac. trans.

      isym =  1     identity

 cryst.   s( 1) = (     1          0          0      )
                  (     0          1          0      )
                  (     0          0          1      )

 cart.    s( 1) = (  1.0000000  0.0000000  0.0000000 )
                  (  0.0000000  1.0000000  0.0000000 )
                  (  0.0000000  0.0000000  1.0000000 )

      isym =  2     inversion

 cryst.   s( 2) = (    -1          0          0      )
                  (     0         -1          0      )
                  (     0          0         -1      )

 cart.    s( 2) = ( -1.0000000 -0.0000000 -0.0000000 )
                  (  0.0000000 -1.0000000 -0.0000000 )
                  (  0.0000000  0.0000000 -1.0000000 )

   Cartesian axes

     site n.     atom                  positions (alat units)
         1           Ti  tau(   1) = (   1.5758507   0.4007476   0.4593210  )
         2           Ti  tau(   2) = (   1.1855099   0.3014817   0.5215221  )
         3           Ti  tau(   3) = (   1.9318113   0.4912703   0.7670713  )
         4           Ti  tau(   4) = (   0.8295494   0.2109590   0.2137718  )
         5           Bi  tau(   5) = (   0.3333314   0.0847680   0.1391865  )
         6           Bi  tau(   6) = (   2.4280292   0.6174613   0.8416566  )
         7           O   tau(   7) = (   2.1686734   0.5515057   0.9330594  )
         8           O   tau(   8) = (   0.5926873   0.1507237   0.0477837  )
         9           O   tau(   9) = (   1.7426069   0.4431546   0.6348262  )
        10           O   tau(  10) = (   1.0187537   0.2590747   0.3460169  )
        11           O   tau(  11) = (   1.4097492   0.3585070   0.6543606  )
        12           O   tau(  12) = (   1.3516115   0.3437223   0.3264824  )
        13           O   tau(  13) = (   1.7145860   0.4360287   0.2372228  )
        14           O   tau(  14) = (   1.0467747   0.2662006   0.7436203  )
        15           O   tau(  15) = (   0.6531361   0.1660961   0.4213957  )
        16           O   tau(  16) = (   2.1082245   0.5361332   0.5594474  )
        17           O   tau(  17) = (   0.9392570   0.2388583   0.0000000  )

   Crystallographic axes

     site n.     atom                  positions (cryst. coord.)
         1           Ti  tau(   1) = (  0.6187980  0.6187980  0.4682920  )
         2           Ti  tau(   2) = (  0.3812020  0.3812020  0.5317080  )
         3           Ti  tau(   3) = (  0.6608300  0.6608300  0.7820530  )
         4           Ti  tau(   4) = (  0.3391700  0.3391700  0.2179470  )
         5           Bi  tau(   5) = (  0.1107530  0.1107530  0.1419050  )
         6           Bi  tau(   6) = (  0.8892470  0.8892470  0.8580950  )
         7           O   tau(   7) = (  0.7073870  0.7073870  0.9512830  )
         8           O   tau(   8) = (  0.2926130  0.2926130  0.0487170  )
         9           O   tau(   9) = (  0.6234750  0.6234750  0.6472250  )
        10           O   tau(  10) = (  0.3765250  0.3765250  0.3527750  )
        11           O   tau(  11) = (  0.4369230  0.4369230  0.6671410  )
        12           O   tau(  12) = (  0.5630770  0.5630770  0.3328590  )
        13           O   tau(  13) = (  0.7990700  0.7990700  0.2418560  )
        14           O   tau(  14) = (  0.2009300  0.2009300  0.7581440  )
        15           O   tau(  15) = (  0.1457760  0.1457760  0.4296260  )
        16           O   tau(  16) = (  0.8542240  0.8542240  0.5703740  )
        17           O   tau(  17) = (  0.5000000  0.5000000  0.0000000  )

     number of k points=     1  Methfessel-Paxton smearing, width (Ry)=  0.0010
                       cart. coord. in units 2pi/alat
        k(    1) = (   0.0000000   0.0000000   0.0000000), wk =   2.0000000

                       cryst. coord.
        k(    1) = (   0.0000000   0.0000000   0.0000000), wk =   2.0000000

     Check: negative core charge=   -0.000015

     Initial potential from superposition of free atoms

     starting charge     137.9997, renormalised to     144.0000

     negative rho (up, down):  9.208E-02 0.000E+00
     Starting wfcs are  102 randomized atomic wfcs
     Checking if some PAW data can be deallocated...

     Self-consistent Calculation

     iteration #  1     ecut=    30.00 Ry     beta= 0.70
     Davidson diagonalization with overlap

     ethr =  1.00E-02,  avg # of iterations =  2.0

     negative rho (up, down):  8.387E-02 0.000E+00

     total energy              =   -1303.89334472 Ry
     estimated scf accuracy    <       4.21061519 Ry

[...]

     total energy              =   -1306.02180769 Ry
     estimated scf accuracy    <       0.00000149 Ry

     iteration # 14     ecut=    30.00 Ry     beta= 0.70
     Davidson diagonalization with overlap

     ethr =  1.04E-09,  avg # of iterations =  4.0

[...]

     End of self-consistent calculation

          k = 0.0000 0.0000 0.0000 (  2003 PWs)   bands (ev):

   -48.1850 -48.1754 -47.9700 -47.9671 -24.5054 -24.4810 -24.4737 -24.4286
   -24.3679 -24.3413 -24.3125 -24.2849 -24.2378 -24.2338 -24.1477 -24.1170
   -13.6426 -13.5800 -13.5529 -13.5011 -13.4995 -13.4975 -13.4692 -13.4560
   -13.4438 -13.3809  -9.3536  -8.4476  -8.3535  -8.1699  -8.0719  -8.0208
    -7.9554  -7.8309  -7.5572  -7.5320  -7.4238  -0.8676   0.3510   4.4072
     4.4550   4.6859   4.8594   5.0260   5.1695   5.2092   5.3022   5.3526
     5.5103   5.6605   5.8303   5.8313   5.9273   6.0885   6.3225   6.4720
     6.5031   6.6713   6.9730   6.9846   7.1309   7.3703   7.4153   7.4671
     7.6610   7.8016   7.9317   7.9433   8.0648   8.1670   8.4106   8.4916
    10.7841  11.0987  11.1803  11.4694  11.5075  11.7645  11.7797  12.1484
    12.1649  12.2453  12.2918  12.6627  12.7090  13.0055

     occupation numbers
     1.0000   1.0000   1.0000   1.0000   1.0000   1.0000   1.0000   1.0000
     1.0000   1.0000   1.0000   1.0000   1.0000   1.0000   1.0000   1.0000
     1.0000   1.0000   1.0000   1.0000   1.0000   1.0000   1.0000   1.0000
     1.0000   1.0000   1.0000   1.0000   1.0000   1.0000   1.0000   1.0000
     1.0000   1.0000   1.0000   1.0000   1.0000   1.0000   1.0000   1.0000
     1.0000   1.0000   1.0000   1.0000   1.0000   1.0000   1.0000   1.0000
     1.0000   1.0000   1.0000   1.0000   1.0000   1.0000   1.0000   1.0000
     1.0000   1.0000   1.0000   1.0000   1.0000   1.0000   1.0000   1.0000
     1.0000   1.0000   1.0000   1.0000   1.0000   1.0000   1.0000   1.0000
    -0.0000  -0.0000  -0.0000  -0.0000  -0.0000  -0.0000  -0.0000  -0.0000
    -0.0000  -0.0000  -0.0000  -0.0000  -0.0000  -0.0000

     the Fermi energy is     9.3002 ev

!    total energy              =   -1306.02180756 Ry
     estimated scf accuracy    <       0.00000075 Ry
     smearing contrib. (-TS)   =       0.00000000 Ry
     internal energy E=F+TS    =   -1306.02180756 Ry

     The total energy is F=E-TS. E is the sum of the following terms:
     one-electron contribution =    -398.81818840 Ry
     hartree contribution      =     280.01837170 Ry
     xc contribution           =    -283.14415171 Ry
     ewald contribution        =    -799.33561155 Ry
     one-center paw contrib.   =    -104.74222760 Ry
      -> PAW hartree energy AE =     329.62694565 Ry
      -> PAW hartree energy PS =    -328.46116841 Ry
      -> PAW xc energy AE      =    -189.45176092 Ry
      -> PAW xc energy PS      =      83.54375608 Ry
      -> total E_H with PAW    =     281.18414893 Ry
      -> total E_XC with PAW   =    -389.05215654 Ry

     convergence has been achieved in  14 iterations

     negative rho (up, down):  8.569E-02 0.000E+00

     Forces acting on atoms (cartesian axes, Ry/au):

     atom    1 type  1   force =    -0.12662356   -0.03220177    0.23832848
     atom    2 type  1   force =     0.12662356    0.03220177   -0.23832848
     atom    3 type  1   force =    -0.17110359   -0.04351393    0.05602319
     atom    4 type  1   force =     0.17110359    0.04351393   -0.05602319
     atom    5 type  2   force =     0.02767113    0.00704162   -0.01181002
     atom    6 type  2   force =    -0.02767113   -0.00704162    0.01181002
     atom    7 type  3   force =     0.00820926    0.00208650    0.01022723
     atom    8 type  3   force =    -0.00820926   -0.00208650   -0.01022723
     atom    9 type  3   force =    -0.00075697   -0.00019250   -0.00613511
     atom   10 type  3   force =     0.00075697    0.00019250    0.00613511
     atom   11 type  3   force =     0.00269577    0.00068548   -0.03115735
     atom   12 type  3   force =    -0.00269577   -0.00068548    0.03115735
     atom   13 type  3   force =    -0.17704008   -0.04502260    0.05591661
     atom   14 type  3   force =     0.17704008    0.04502260   -0.05591661
     atom   15 type  3   force =     0.10322585    0.02625036   -0.21460887
     atom   16 type  3   force =    -0.10322585   -0.02625036    0.21460887
     atom   17 type  3   force =     0.00000000    0.00000000    0.00000000
     The non-local contrib.  to forces
     atom    1 type  1   force =     0.04304592    0.01094629   -0.08265540
     atom    2 type  1   force =    -0.04304592   -0.01094629    0.08265540
     atom    3 type  1   force =     0.09695511    0.02465557   -0.02868294
     atom    4 type  1   force =    -0.09695511   -0.02465557    0.02868294
     atom    5 type  2   force =     0.40528006    0.10307088   -0.10305781
     atom    6 type  2   force =    -0.40528006   -0.10307088    0.10305781
     atom    7 type  3   force =     0.48212652    0.12260863   -0.05409275
     atom    8 type  3   force =    -0.48212652   -0.12260863    0.05409275
     atom    9 type  3   force =     0.04665787    0.01186581    0.03361855
     atom   10 type  3   force =    -0.04665787   -0.01186581   -0.03361855
     atom   11 type  3   force =     0.05966391    0.01517401   -0.39249007
     atom   12 type  3   force =    -0.05966391   -0.01517401    0.39249007
     atom   13 type  3   force =     0.56832471    0.14452844   -0.02026176
     atom   14 type  3   force =    -0.56832471   -0.14452844    0.02026176
     atom   15 type  3   force =    -0.04303100   -0.01094575    0.40229392
     atom   16 type  3   force =     0.04303100    0.01094575   -0.40229392
     atom   17 type  3   force =     0.00000000    0.00000000    0.00000000
     The ionic contribution  to forces
     atom    1 type  1   force =     1.78181231    0.45312475    2.58234173
     atom    2 type  1   force =    -1.78181231   -0.45312475   -2.58234173
     atom    3 type  1   force =    -4.04788596   -1.02939985    5.48211081
     atom    4 type  1   force =     4.04788596    1.02939985   -5.48211081
     atom    5 type  2   force =   -10.57152201   -2.68839667    0.81098904
     atom    6 type  2   force =    10.57152201    2.68839667   -0.81098904
     atom    7 type  3   force =    -2.43346440   -0.61884349    1.09188884
     atom    8 type  3   force =     2.43346440    0.61884349   -1.09188885
     atom    9 type  3   force =    -0.90603827   -0.23041056    2.04802312
     atom   10 type  3   force =     0.90603827    0.23041056   -2.04802312
     atom   11 type  3   force =     0.77157413    0.19621558    5.52186267
     atom   12 type  3   force =    -0.77157413   -0.19621558   -5.52186267
     atom   13 type  3   force =     3.18517596    0.81000791   -5.26213470
     atom   14 type  3   force =    -3.18517596   -0.81000791    5.26213470
     atom   15 type  3   force =    -0.89467952   -0.22752197    2.72020573
     atom   16 type  3   force =     0.89467952    0.22752196   -2.72020573
     atom   17 type  3   force =     0.00000000   -0.00000000   -0.00000000
     The local contribution  to forces
     atom    1 type  1   force =    -1.94126830   -0.49367084   -2.28000036
     atom    2 type  1   force =     1.94198318    0.49385031    2.27906703
     atom    3 type  1   force =     3.79036277    0.96391254   -5.40545641
     atom    4 type  1   force =    -3.79149564   -0.96420646    5.40551087
     atom    5 type  2   force =    10.21055482    2.59658972   -0.71943572
     atom    6 type  2   force =   -10.20937896   -2.59630046    0.72052206
     atom    7 type  3   force =     1.96503064    0.49971252   -1.02844631
     atom    8 type  3   force =    -1.96445039   -0.49957069    1.02899420
     atom    9 type  3   force =     0.85773329    0.21812757   -2.08777114
     atom   10 type  3   force =    -0.85895063   -0.21843542    2.08683724
     atom   11 type  3   force =    -0.82773075   -0.21049935   -5.16421055
     atom   12 type  3   force =     0.82858425    0.21071518    5.16386413
     atom   13 type  3   force =    -3.92311007   -0.99766594    5.33668133
     atom   14 type  3   force =     3.92275058    0.99757825   -5.33661180
     atom   15 type  3   force =     1.03972679    0.26440978   -3.33171721
     atom   16 type  3   force =    -1.03941457   -0.26432983    3.33111307
     atom   17 type  3   force =    -0.00051652   -0.00013715    0.00068518
     The core correction contribution to forces
     atom    1 type  1   force =    -0.00998908   -0.00254027    0.01787839
     atom    2 type  1   force =     0.00999167    0.00254073   -0.01788564
     atom    3 type  1   force =    -0.01089946   -0.00277173    0.00844312
     atom    4 type  1   force =     0.01088743    0.00276854   -0.00844015
     atom    5 type  2   force =    -0.01665895   -0.00423701    0.00043423
     atom    6 type  2   force =     0.01666017    0.00423663   -0.00042288
     atom    7 type  3   force =    -0.00533599   -0.00135703    0.00119736
     atom    8 type  3   force =     0.00533372    0.00135640   -0.00119931
     atom    9 type  3   force =     0.00019032    0.00004841   -0.00030124
     atom   10 type  3   force =    -0.00018754   -0.00004768    0.00030334
     atom   11 type  3   force =    -0.00037911   -0.00009644    0.00361713
     atom   12 type  3   force =     0.00037624    0.00009569   -0.00361721
     atom   13 type  3   force =    -0.00760234   -0.00193331    0.00145332
     atom   14 type  3   force =     0.00760126    0.00193305   -0.00145375
     atom   15 type  3   force =     0.00122053    0.00031044   -0.00570984
     atom   16 type  3   force =    -0.00122118   -0.00031059    0.00571036
     atom   17 type  3   force =     0.00000193    0.00000044   -0.00000192
     The Hubbard contrib.    to forces
     atom    1 type  1   force =     0.00000000    0.00000000    0.00000000
     atom    2 type  1   force =     0.00000000    0.00000000    0.00000000
     atom    3 type  1   force =     0.00000000    0.00000000    0.00000000
     atom    4 type  1   force =     0.00000000    0.00000000    0.00000000
     atom    5 type  2   force =     0.00000000    0.00000000    0.00000000
     atom    6 type  2   force =     0.00000000    0.00000000    0.00000000
     atom    7 type  3   force =     0.00000000    0.00000000    0.00000000
     atom    8 type  3   force =     0.00000000    0.00000000    0.00000000
     atom    9 type  3   force =     0.00000000    0.00000000    0.00000000
     atom   10 type  3   force =     0.00000000    0.00000000    0.00000000
     atom   11 type  3   force =     0.00000000    0.00000000    0.00000000
     atom   12 type  3   force =     0.00000000    0.00000000    0.00000000
     atom   13 type  3   force =     0.00000000    0.00000000    0.00000000
     atom   14 type  3   force =     0.00000000    0.00000000    0.00000000
     atom   15 type  3   force =     0.00000000    0.00000000    0.00000000
     atom   16 type  3   force =     0.00000000    0.00000000    0.00000000
     atom   17 type  3   force =     0.00000000    0.00000000    0.00000000
     The SCF correction term to forces
     atom    1 type  1   force =    -0.00021682   -0.00006053    0.00077666
     atom    2 type  1   force =    -0.00048548   -0.00011706    0.00018900
     atom    3 type  1   force =     0.00036067    0.00008849   -0.00039032
     atom    4 type  1   force =     0.00077768    0.00020654    0.00033505
     atom    5 type  2   force =    -0.00000799    0.00000642   -0.00072002
     atom    6 type  2   force =    -0.00121950   -0.00031186   -0.00033818
     atom    7 type  3   force =    -0.00023135   -0.00005694   -0.00039962
     atom    8 type  3   force =    -0.00051432   -0.00012989   -0.00030571
     atom    9 type  3   force =     0.00077172    0.00019416    0.00034828
     atom   10 type  3   force =     0.00058663    0.00014874    0.00068890
     atom   11 type  3   force =    -0.00053983   -0.00013681    0.00006108
     atom   12 type  3   force =    -0.00052564   -0.00013523    0.00028063
     atom   13 type  3   force =     0.00014865    0.00003472    0.00016466
     atom   14 type  3   force =     0.00016591    0.00004205   -0.00026127
     atom   15 type  3   force =    -0.00003825   -0.00000870    0.00034623
     atom   16 type  3   force =    -0.00032792   -0.00008418    0.00031277
     atom   17 type  3   force =     0.00063315    0.00016440   -0.00078604

     Total force =     0.639102     Total SCF correction =     0.002934

     Computing stress (Cartesian axis) and pressure

     negative rho (up, down):  8.569E-02 0.000E+00
          total   stress  (Ry/bohr**3)                   (kbar)     P=     -310.84
  -0.00265163  -0.00050228  -0.00035180         -390.07      -73.89      -51.75
  -0.00050228  -0.00080426  -0.00008947          -73.89     -118.31      -13.16
  -0.00035180  -0.00008947  -0.00288324          -51.75      -13.16     -424.14

     kinetic stress (kbar)  21460.39    -19.31     16.98
                              -19.31  21531.42      4.32
                               16.98      4.32  21480.42

     local   stress (kbar)  -4713.44   1517.90   3254.37
                             1517.90 -10296.23    827.60
                             3254.37    827.60  -7638.38

     nonloc. stress (kbar)  10172.15    -16.95    -42.03
                              -16.95  10234.51    -10.69
                              -42.03    -10.69  10109.79

     hartree stress (kbar)   8460.40   -565.79  -1212.40
                             -565.79  10541.35   -308.32
                            -1212.40   -308.32   9500.55

     exc-cor stress (kbar)   4887.64      0.26     -1.98
                                0.26   4886.69     -0.50
                               -1.98     -0.50   4888.83

     corecor stress (kbar) -11692.41      0.43      1.39
                                0.43 -11694.00      0.35
                                1.39      0.35 -11690.03

     ewald   stress (kbar) -28964.81   -990.42  -2068.07
                             -990.42 -25322.06   -525.92
                            -2068.07   -525.92 -27075.33

     hubbard stress (kbar)      0.00      0.00      0.00
                                0.00      0.00      0.00
                                0.00      0.00      0.00

     DFT-D   stress (kbar)      0.00      0.00      0.00
                                0.00      0.00      0.00
                                0.00      0.00      0.00

     XDM     stress (kbar)      0.00      0.00      0.00
                                0.00      0.00      0.00
                                0.00      0.00      0.00

     dft-nl  stress (kbar)      0.00      0.00      0.00
                                0.00      0.00      0.00
                                0.00      0.00      0.00

     TS-vdW  stress (kbar)      0.00      0.00      0.00
                                0.00      0.00      0.00
                                0.00      0.00      0.00

[...]

                                0.00      0.00      0.00

     Writing all to output data dir new_calculations/myprefix.save/

     General routines

     Parallel routines

     PAW routines

   This run was terminated on:   0: 2:44  21May2023

   JOB DONE.