     Program PWSCF v.7.0 starts on 20May2023 at  2:22: 6

     Reading input from espresso_2091.pwi
Warning: card &CELL ignored
Warning: card / ignored

     Current dimensions of program PWSCF are:
     Max number of different atomic species (ntypx) = 10
     Max number of k-points (npk) =  40000
     Max angular momentum in pseudopotentials (lmaxx) =  4
     file O.pbe-n-kjpaw_psl.0.1.UPF: wavefunction(s)  2P renormalized

     gamma-point specific algorithms are used
     Message from routine setup:
     using ibrav=0 with symmetry is DISCOURAGED, use correct ibrav instead

     Subspace diagonalization in iterative solution of the eigenvalue problem:
     a serial algorithm will be used

     Using Slab Decomposition

     bravais-lattice index     =            0
     lattice parameter (alat)  =      11.6002  a.u.
     unit-cell volume          =    1189.5721 (a.u.)^3
     number of atoms/cell      =           12
     number of atomic types    =            4
     number of electrons       =       106.00
     number of Kohn-Sham states=           64
     kinetic-energy cutoff     =      30.0000  Ry
     charge density cutoff     =     240.0000  Ry
     scf convergence threshold =      1.0E-06
     mixing beta               =       0.7000
     number of iterations used =            8  plain     mixing
     Exchange-correlation= SLA  PW   PBX  PBC
                           (   1   4   3   4   0   0   0)

     celldm(1)=  11.600206  celldm(2)=   0.000000  celldm(3)=   0.000000
     celldm(4)=   0.000000  celldm(5)=   0.000000  celldm(6)=   0.000000

     crystal axes: (cart. coord. in units of alat)
               a(1) = (   1.000000   0.000000   0.000000 )
               a(2) = (  -0.439393   0.898295   0.000000 )
               a(3) = (  -0.280304  -0.449148   0.848349 )

     reciprocal axes: (cart. coord. in units 2 pi/alat)
               b(1) = (  1.000000  0.489141  0.589380 )
               b(2) = (  0.000000  1.113220  0.589380 )
               b(3) = (  0.000000  0.000000  1.178760 )

     PseudoPot. # 1 for Eu read from file:
     /home/pragov/projects/rrg-bengioy-ad/pragov/crystal_structure_design/SSSP/Eu.GGA-PBE-paw-v1.0.UPF
     MD5 check sum: acec5fd9176fb57ec8e299eae1ecaf48
     Pseudo is Projector augmented-wave + core cor, Zval = 17.0
     Generated using ATOMPAW code
     Shape of augmentation charge: BESSEL
     Using radial grid of 1109 points,  8 beta functions with:
                l(1) =   0
                l(2) =   0
                l(3) =   1
                l(4) =   1
                l(5) =   2
                l(6) =   2
                l(7) =   3
                l(8) =   3
     Q(r) pseudized with 0 coefficients

     PseudoPot. # 2 for V  read from file:
     /home/pragov/projects/rrg-bengioy-ad/pragov/crystal_structure_design/SSSP/v_pbe_v1.4.uspp.F.UPF
     MD5 check sum: 22b79981416ebb76fdaf5b1b8640f6fb
     Pseudo is Ultrasoft + core correction, Zval = 13.0
     Generated by new atomic code, or converted to UPF format
     Using radial grid of  853 points,  6 beta functions with:
                l(1) =   0
                l(2) =   0
                l(3) =   1
                l(4) =   1
                l(5) =   2
                l(6) =   2
     Q(r) pseudized with  8 coefficients,  rinner =    1.100   1.100   1.100
                                                       1.100   1.100

     PseudoPot. # 3 for Bi read from file:
     /home/pragov/projects/rrg-bengioy-ad/pragov/crystal_structure_design/SSSP/Bi_pbe_v1.uspp.F.UPF
     MD5 check sum: cceb9f28ec65b6d7ff33140f5b0b1758
     Pseudo is Ultrasoft + core correction, Zval = 15.0
     Generated by new atomic code, or converted to UPF format
     Using radial grid of  899 points,  6 beta functions with:
                l(1) =   0
                l(2) =   0
                l(3) =   1
                l(4) =   1
                l(5) =   2
                l(6) =   2
     Q(r) pseudized with  6 coefficients,  rinner =    1.000   1.000   1.000
                                                       1.000   1.000

     PseudoPot. # 4 for O  read from file:
     /home/pragov/projects/rrg-bengioy-ad/pragov/crystal_structure_design/SSSP/O.pbe-n-kjpaw_psl.0.1.UPF
     MD5 check sum: 0234752ac141de4415c5fc33072bef88
     Pseudo is Projector augmented-wave + core cor, Zval =  6.0
     Generated using "atomic" code by A. Dal Corso  v.5.0.99 svn rev. 10869
     Shape of augmentation charge: BESSEL
     Using radial grid of 1095 points,  4 beta functions with:
                l(1) =   0
                l(2) =   0
                l(3) =   1
                l(4) =   1
     Q(r) pseudized with 0 coefficients

     atomic species   valence    mass     pseudopotential
        Eu            17.00   151.96400     Eu( 1.00)
        V             13.00    50.94150     V ( 1.00)
        Bi            15.00   208.98040     Bi( 1.00)
        O              6.00    15.99900     O ( 1.00)

      2 Sym. Ops. (no inversion) found

                                    s                        frac. trans.

      isym =  1     identity

 cryst.   s( 1) = (     1          0          0      )
                  (     0          1          0      )
                  (     0          0          1      )

 cart.    s( 1) = (  1.0000000  0.0000000  0.0000000 )
                  (  0.0000000  1.0000000 -0.0000000 )
                  (  0.0000000  0.0000000  1.0000000 )

      isym =  2     180 deg rotation - cart. axis [0,0,1]

 cryst.   s( 2) = (    -1          0          0      )
                  (     0         -1          0      )
                  (     1          1          1      )

 cart.    s( 2) = ( -1.0000000 -0.0000000 -0.0000000 )
                  (  0.0000000 -1.0000000 -0.0000000 )
                  (  0.0000000  0.0000000  1.0000000 )

   Cartesian axes

     site n.     atom                  positions (alat units)
         1           Eu  tau(   1) = (  -0.2196963   0.4491475   0.4241746  )
         2           V   tau(   2) = (   0.5000000  -0.0000000   0.4241746  )
         3           V   tau(   3) = (   0.2803037   0.4491475   0.0000000  )
         4           Bi  tau(   4) = (   0.0000000   0.0000000   0.0000000  )
         5           O   tau(   5) = (   0.4644950   0.2353596   0.5789033  )
         6           O   tau(   6) = (  -0.0353663   0.2359359   0.6934330  )
         7           O   tau(   7) = (   0.5077834   0.5210466   0.1549162  )
         8           O   tau(   8) = (   0.7270230   0.0715214   0.2694459  )
         9           O   tau(   9) = (   0.0353663  -0.2359359   0.6934330  )
        10           O   tau(  10) = (   0.5355050  -0.2353596   0.5789033  )
        11           O   tau(  11) = (   0.2729770  -0.0715214   0.2694459  )
        12           O   tau(  12) = (   0.0528239   0.3772485   0.1549162  )

   Crystallographic axes

     site n.     atom                  positions (cryst. coord.)
         1           Eu  tau(   1) = (  0.2500000  0.7500000  0.5000000  )
         2           V   tau(   2) = (  0.7500000  0.2500000  0.5000000  )
         3           V   tau(   3) = (  0.5000000  0.5000000  0.0000000  )
         4           Bi  tau(   4) = (  0.0000000  0.0000000  0.0000000  )
         5           O   tau(   5) = (  0.9208130  0.6032010  0.6823880  )
         6           O   tau(   6) = (  0.4887350  0.6713440  0.8173910  )
         7           O   tau(   7) = (  0.8539530  0.6713440  0.1826090  )
         8           O   tau(   8) = (  0.9208130  0.2384250  0.3176120  )
         9           O   tau(   9) = (  0.3286560  0.1460470  0.8173910  )
        10           O   tau(  10) = (  0.7615750  0.0791870  0.6823880  )
        11           O   tau(  11) = (  0.3967990  0.0791870  0.3176120  )
        12           O   tau(  12) = (  0.3286560  0.5112650  0.1826090  )

     number of k points=     1  Methfessel-Paxton smearing, width (Ry)=  0.0010
                       cart. coord. in units 2pi/alat
        k(    1) = (   0.0000000   0.0000000   0.0000000), wk =   2.0000000

                       cryst. coord.
        k(    1) = (   0.0000000   0.0000000   0.0000000), wk =   2.0000000

     Check: negative core charge=   -0.000013

     Initial potential from superposition of free atoms

     starting charge     104.9928, renormalised to     106.0000

     negative rho (up, down):  4.304E-02 0.000E+00
     Starting wfcs are   93 randomized atomic wfcs
     Checking if some PAW data can be deallocated...

     Self-consistent Calculation

     iteration #  1     ecut=    30.00 Ry     beta= 0.70
     Davidson diagonalization with overlap

     ethr =  1.00E-02,  avg # of iterations =  2.0

     negative rho (up, down):  4.187E-02 0.000E+00

     total energy              =   -1446.79563062 Ry
     estimated scf accuracy    <       6.18562462 Ry

[...]

     total energy              =   -1451.18573138 Ry
     estimated scf accuracy    <       0.00000199 Ry

     iteration # 40     ecut=    30.00 Ry     beta= 0.70
     Davidson diagonalization with overlap

     ethr =  9.43E-10,  avg # of iterations =  2.0

[...]

     End of self-consistent calculation

          k = 0.0000 0.0000 0.0000 (  1634 PWs)   bands (ev):

   -57.6074 -57.3675 -32.8121 -31.6189 -31.4703 -31.4702 -31.3080 -31.3061
   -31.2429 -15.1804 -15.1597 -15.1258 -15.1258 -15.1035 -12.0025 -12.0008
   -11.9022 -10.8107  -9.9468  -9.8522  -9.8519  -9.7732  -9.2683  -9.2220
    -9.2216  -2.5719   2.4897   2.4898   2.5399   2.8547   3.1412   3.3005
     3.4241   3.5153   3.5154   3.8243   3.8245   3.9928   4.4115   4.5681
     4.7925   4.7928   4.8440   5.2277   5.6355   5.6357   5.7742   5.9281
     5.9283   6.2023   7.4512   7.4649   7.5195   7.7414   7.7586   7.8632
     7.8667   9.1974   9.7808   9.9072   9.9847  10.1578  10.8950  10.8950

     occupation numbers
     1.0000   1.0000   1.0000   1.0000   1.0000   1.0000   1.0000   1.0000
     1.0000   1.0000   1.0000   1.0000   1.0000   1.0000   1.0000   1.0000
     1.0000   1.0000   1.0000   1.0000   1.0000   1.0000   1.0000   1.0000
     1.0000   1.0000   1.0000   1.0000   1.0000   1.0000   1.0000   1.0000
     1.0000   1.0000   1.0000   1.0000   1.0000   1.0000   1.0000   1.0000
     1.0000   1.0000   1.0000   1.0000   1.0000   1.0000   1.0000   1.0000
     1.0000   1.0000   1.0000   1.0000   1.0000  -0.0000  -0.0000  -0.0000
    -0.0000  -0.0000  -0.0000  -0.0000  -0.0000  -0.0000  -0.0000  -0.0000

     the Fermi energy is     7.6729 ev

!    total energy              =   -1451.18573634 Ry
     estimated scf accuracy    <       0.00000073 Ry
     smearing contrib. (-TS)   =       0.00000000 Ry
     internal energy E=F+TS    =   -1451.18573634 Ry

     The total energy is F=E-TS. E is the sum of the following terms:
     one-electron contribution =    -418.94172080 Ry
     hartree contribution      =     265.64189702 Ry
     xc contribution           =    -182.97188990 Ry
     ewald contribution        =    -581.39780667 Ry
     one-center paw contrib.   =    -533.51621599 Ry
      -> PAW hartree energy AE =     389.42812640 Ry
      -> PAW hartree energy PS =    -381.82380228 Ry
      -> PAW xc energy AE      =    -620.17705730 Ry
      -> PAW xc energy PS      =      79.05651718 Ry
      -> total E_H with PAW    =     273.24622114 Ry
      -> total E_XC with PAW   =    -724.09243001 Ry

     convergence has been achieved in  40 iterations

     negative rho (up, down):  4.220E-02 0.000E+00

     Forces acting on atoms (cartesian axes, Ry/au):

     atom    1 type  1   force =     0.00000000    0.00000000    0.00112417
     atom    2 type  2   force =     0.00000000    0.00000000   -0.00151861
     atom    3 type  2   force =     0.00000000    0.00000000   -0.00214997
     atom    4 type  3   force =     0.00000000    0.00000000    0.00043259
     atom    5 type  4   force =     0.03174382   -0.00885908   -0.03060572
     atom    6 type  4   force =     0.01106986   -0.01887282    0.02043103
     atom    7 type  4   force =    -0.02346603    0.00248565   -0.02022345
     atom    8 type  4   force =    -0.02096531    0.02383838    0.03145405
     atom    9 type  4   force =    -0.01106986    0.01887282    0.02043103
     atom   10 type  4   force =    -0.03174382    0.00885908   -0.03060572
     atom   11 type  4   force =     0.02096531   -0.02383838    0.03145405
     atom   12 type  4   force =     0.02346603   -0.00248565   -0.02022345
     The non-local contrib.  to forces
     atom    1 type  1   force =     0.00000000    0.00000000    0.00143047
     atom    2 type  2   force =     0.00000000    0.00000000   -0.00317822
     atom    3 type  2   force =     0.00000000    0.00000000    0.00057085
     atom    4 type  3   force =     0.00000000    0.00000000   -0.00155999
     atom    5 type  4   force =     0.03852479   -0.51927418   -0.30364073
     atom    6 type  4   force =     0.16872507   -0.43315915    0.36455997
     atom    7 type  4   force =    -0.45904871   -0.03961644   -0.37572048
     atom    8 type  4   force =    -0.47796462   -0.18935605    0.30927085
     atom    9 type  4   force =    -0.16872507    0.43315915    0.36455997
     atom   10 type  4   force =    -0.03852479    0.51927418   -0.30364073
     atom   11 type  4   force =     0.47796462    0.18935605    0.30927085
     atom   12 type  4   force =     0.45904871    0.03961644   -0.37572048
     The ionic contribution  to forces
     atom    1 type  1   force =     0.00000000    0.00000000   -0.00000000
     atom    2 type  2   force =    -0.00000000    0.00000000    0.00000000
     atom    3 type  2   force =    -0.00000000   -0.00000000    0.00000000
     atom    4 type  3   force =    -0.00000000    0.00000000    0.00000000
     atom    5 type  4   force =    -2.73429759    5.07853741    5.00840535
     atom    6 type  4   force =    -1.78280397    4.89459005   -4.10381796
     atom    7 type  4   force =     5.18013725    0.54916291    4.10381796
     atom    8 type  4   force =     5.76345557   -0.22473403   -5.00840535
     atom    9 type  4   force =     1.78280397   -4.89459005   -4.10381796
     atom   10 type  4   force =     2.73429759   -5.07853741    5.00840535
     atom   11 type  4   force =    -5.76345557    0.22473403   -5.00840535
     atom   12 type  4   force =    -5.18013724   -0.54916291    4.10381796
     The local contribution  to forces
     atom    1 type  1   force =    -0.00019331    0.00026238   -0.00064168
     atom    2 type  2   force =    -0.00053813    0.00008818    0.00147012
     atom    3 type  2   force =     0.00000972   -0.00029053   -0.00207617
     atom    4 type  3   force =     0.00046468   -0.00009639    0.00221507
     atom    5 type  4   force =     2.72723833   -4.57200517   -4.73720448
     atom    6 type  4   force =     1.62664871   -4.48330350    3.76235787
     atom    7 type  4   force =    -4.74771518   -0.50693822   -3.75110937
     atom    8 type  4   force =    -5.30982452    0.43615339    4.73258101
     atom    9 type  4   force =    -1.62667202    4.48321524    3.76236026
     atom   10 type  4   force =    -2.72735145    4.57214513   -4.73730287
     atom   11 type  4   force =     5.30964819   -0.43612933    4.73249353
     atom   12 type  4   force =     4.74778033    0.50693951   -3.75112942
     The core correction contribution to forces
     atom    1 type  1   force =    -0.00000000    0.00000000    0.00000024
     atom    2 type  2   force =    -0.00000604    0.00000092    0.00005030
     atom    3 type  2   force =    -0.00000003   -0.00000295   -0.00019212
     atom    4 type  3   force =     0.00000322   -0.00000106    0.00008802
     atom    5 type  4   force =     0.00026213    0.00418507    0.00194365
     atom    6 type  4   force =    -0.00159259    0.00302790   -0.00284827
     atom    7 type  4   force =     0.00336732   -0.00008391    0.00299812
     atom    8 type  4   force =     0.00357390    0.00201552   -0.00201569
     atom    9 type  4   force =     0.00159231   -0.00302769   -0.00284823
     atom   10 type  4   force =    -0.00026276   -0.00418481    0.00194339
     atom   11 type  4   force =    -0.00357444   -0.00201524   -0.00201580
     atom   12 type  4   force =    -0.00336742    0.00008406    0.00299814
     The Hubbard contrib.    to forces
     atom    1 type  1   force =     0.00000000    0.00000000    0.00000000
     atom    2 type  2   force =     0.00000000    0.00000000    0.00000000
     atom    3 type  2   force =     0.00000000    0.00000000    0.00000000
     atom    4 type  3   force =     0.00000000    0.00000000    0.00000000
     atom    5 type  4   force =     0.00000000    0.00000000    0.00000000
     atom    6 type  4   force =     0.00000000    0.00000000    0.00000000
     atom    7 type  4   force =     0.00000000    0.00000000    0.00000000
     atom    8 type  4   force =     0.00000000    0.00000000    0.00000000
     atom    9 type  4   force =     0.00000000    0.00000000    0.00000000
     atom   10 type  4   force =     0.00000000    0.00000000    0.00000000
     atom   11 type  4   force =     0.00000000    0.00000000    0.00000000
     atom   12 type  4   force =     0.00000000    0.00000000    0.00000000
     The SCF correction term to forces
     atom    1 type  1   force =     0.00015878   -0.00027814    0.00033899
     atom    2 type  2   force =     0.00052902   -0.00007691    0.00014304
     atom    3 type  2   force =    -0.00000461    0.00029515   -0.00044868
     atom    4 type  3   force =    -0.00044926    0.00008126   -0.00030666
     atom    5 type  4   force =     0.00000016   -0.00028037   -0.00009434
     atom    6 type  4   force =     0.00008598   -0.00002719    0.00018610
     atom    7 type  4   force =    -0.00021170   -0.00003375   -0.00020702
     atom    8 type  4   force =    -0.00023595   -0.00023542    0.00004087
     atom    9 type  4   force =    -0.00007569    0.00011709    0.00017801
     atom   10 type  4   force =     0.00008160    0.00018384   -0.00001835
     atom   11 type  4   force =     0.00035220    0.00022115    0.00010087
     atom   12 type  4   force =     0.00013666    0.00004216   -0.00018461

     Total force =     0.108501     Total SCF correction =     0.001333

     Computing stress (Cartesian axis) and pressure

     negative rho (up, down):  4.220E-02 0.000E+00
          total   stress  (Ry/bohr**3)                   (kbar)     P=     -391.80
  -0.00265928  -0.00008257  -0.00000000         -391.19      -12.15       -0.00
  -0.00008257  -0.00272457  -0.00000000          -12.15     -400.80       -0.00
  -0.00000000  -0.00000000  -0.00260627           -0.00       -0.00     -383.40

     kinetic stress (kbar)  19995.67    -66.15      0.00
                              -66.15  19938.49      0.00
                                0.00      0.00  20038.75

     local   stress (kbar)  -7243.96 -10211.80     -0.02
                           -10211.80 -17221.54     -0.02
                               -0.02     -0.02   -867.11

     nonloc. stress (kbar)   6874.92     -5.27      0.00
                               -5.27   6855.79      0.00
                                0.00      0.00   6873.93

     hartree stress (kbar)  10472.73   4056.22      0.01
                             4056.22  14437.00      0.03
                                0.01      0.03   7940.12

     exc-cor stress (kbar)   1176.10      5.75     -0.00
                                5.75   1181.81     -0.00
                               -0.00     -0.00   1172.53

     corecor stress (kbar)  -6967.93      0.08      0.00
                                0.08  -6967.81      0.00
                                0.00      0.00  -6967.97

     ewald   stress (kbar) -24698.72   6209.03      0.00
                             6209.03 -18624.55     -0.00
                                0.00     -0.00 -28573.65

     hubbard stress (kbar)      0.00      0.00      0.00
                                0.00      0.00      0.00
                                0.00      0.00      0.00

     DFT-D   stress (kbar)      0.00      0.00      0.00
                                0.00      0.00      0.00
                                0.00      0.00      0.00

     XDM     stress (kbar)      0.00      0.00      0.00
                                0.00      0.00      0.00
                                0.00      0.00      0.00

     dft-nl  stress (kbar)      0.00      0.00      0.00
                                0.00      0.00      0.00
                                0.00      0.00      0.00

     TS-vdW  stress (kbar)      0.00      0.00      0.00
                                0.00      0.00      0.00
                                0.00      0.00      0.00

[...]

                                0.00      0.00      0.00

     Writing all to output data dir new_calculations/myprefix.save/

     General routines

     Parallel routines

     PAW routines

   This run was terminated on:   2:23:16  20May2023

   JOB DONE.