     Program PWSCF v.7.0 starts on 21May2023 at  2:31:28

     Reading input from espresso_24320.pwi
Warning: card &CELL ignored
Warning: card / ignored

     Current dimensions of program PWSCF are:
     Max number of different atomic species (ntypx) = 10
     Max number of k-points (npk) =  40000
     Max angular momentum in pseudopotentials (lmaxx) =  4

     gamma-point specific algorithms are used
     Message from routine setup:
     using ibrav=0 with symmetry is DISCOURAGED, use correct ibrav instead

     Subspace diagonalization in iterative solution of the eigenvalue problem:
     a serial algorithm will be used

     Using Slab Decomposition

     bravais-lattice index     =            0
     lattice parameter (alat)  =       8.3746  a.u.
     unit-cell volume          =    1529.7209 (a.u.)^3
     number of atoms/cell      =           12
     number of atomic types    =            2
     number of electrons       =       176.00
     number of Kohn-Sham states=          106
     kinetic-energy cutoff     =      30.0000  Ry
     charge density cutoff     =     240.0000  Ry
     scf convergence threshold =      1.0E-06
     mixing beta               =       0.7000
     number of iterations used =            8  plain     mixing
     Exchange-correlation=  SLA  PW   PBX  PBC
                           (   1   4   3   4   0   0   0)

     celldm(1)=   8.374554  celldm(2)=   0.000000  celldm(3)=   0.000000
     celldm(4)=   0.000000  celldm(5)=   0.000000  celldm(6)=   0.000000

     crystal axes: (cart. coord. in units of alat)
               a(1) = (   1.000000   0.000000   0.000000 )
               a(2) = (   0.000000   1.580281   0.000000 )
               a(3) = (   0.000000   0.000000   1.648135 )

     reciprocal axes: (cart. coord. in units 2 pi/alat)
               b(1) = (  1.000000  0.000000  0.000000 )
               b(2) = (  0.000000  0.632799  0.000000 )
               b(3) = (  0.000000  0.000000  0.606746 )

     PseudoPot. # 1 for Ag read from file:
     /home/pragov/projects/rrg-bengioy-ad/pragov/crystal_structure_design/SSSP/Ag_ONCV_PBE-1.0.oncvpsp.upf
     MD5 check sum: 94f47bd0669c641108e45594df92fabc
     Pseudo is Norm-conserving, Zval = 19.0
     Generated using ONCVPSP code by D. R. Hamann
     Using radial grid of 1398 points,  6 beta functions with:
                l(1) =   0
                l(2) =   0
                l(3) =   1
                l(4) =   1
                l(5) =   2
                l(6) =   2

     PseudoPot. # 2 for S  read from file:
     /home/pragov/projects/rrg-bengioy-ad/pragov/crystal_structure_design/SSSP/s_pbe_v1.4.uspp.F.UPF
     MD5 check sum: 88d86576ff6df21479756cfb9bdac1df
     Pseudo is Ultrasoft + core correction, Zval =  6.0
     Generated by new atomic code, or converted to UPF format
     Using radial grid of  907 points,  6 beta functions with:
                l(1) =   0
                l(2) =   0
                l(3) =   1
                l(4) =   1
                l(5) =   2
                l(6) =   2
     Q(r) pseudized with  8 coefficients,  rinner =    1.300   1.300   1.300
                                                       1.300   1.300

     atomic species   valence    mass     pseudopotential
        Ag            19.00   107.86820     Ag( 1.00)
        S              6.00    32.06000     S ( 1.00)

      4 Sym. Ops. (no inversion) found ( 3 have fractional translation)

                                    s                        frac. trans.

      isym =  1     identity

 cryst.   s( 1) = (     1          0          0      )
                  (     0          1          0      )
                  (     0          0          1      )

 cart.    s( 1) = (  1.0000000  0.0000000  0.0000000 )
                  (  0.0000000  1.0000000  0.0000000 )
                  (  0.0000000  0.0000000  1.0000000 )

      isym =  2     180 deg rotation - cart. axis [0,0,1]

 cryst.   s( 2) = (    -1          0          0      )    f =( -0.5000000 )
                  (     0         -1          0      )       ( -0.0000000 )
                  (     0          0          1      )       ( -0.5000000 )

 cart.    s( 2) = ( -1.0000000  0.0000000  0.0000000 )    f =( -0.5000000 )
                  (  0.0000000 -1.0000000  0.0000000 )       ( -0.0000000 )
                  (  0.0000000  0.0000000  1.0000000 )       ( -0.8240676 )

[...]

      isym =  4     180 deg rotation - cart. axis [1,0,0]

 cryst.   s( 4) = (     1          0          0      )    f =(  0.5000000 )
                  (     0         -1          0      )       (  0.5000000 )
                  (     0          0         -1      )       (  0.0000000 )

 cart.    s( 4) = (  1.0000000  0.0000000  0.0000000 )    f =(  0.5000000 )
                  (  0.0000000 -1.0000000  0.0000000 )       (  0.7901405 )
                  (  0.0000000  0.0000000 -1.0000000 )       (  0.0000000 )

   Cartesian axes

     site n.     atom                  positions (alat units)
         1           Ag  tau(   1) = (   0.0040850   1.2261638   1.0633109  )
         2           Ag  tau(   2) = (   0.4959150   0.3541173   0.2392433  )
         3           Ag  tau(   3) = (   0.9959150   0.4360233   1.4088919  )
         4           Ag  tau(   4) = (   0.5040850   1.1442578   0.5848243  )
         5           Ag  tau(   5) = (   0.8618310   1.4042678   0.0714895  )
         6           Ag  tau(   6) = (   0.6381690   0.1760133   0.8955571  )
         7           Ag  tau(   7) = (   0.1381690   0.6141273   0.7525781  )
         8           Ag  tau(   8) = (   0.3618310   0.9661538   1.5766457  )
         9           S   tau(   9) = (   0.1215070   0.0027971   0.5779994  )
        10           S   tau(  10) = (   0.3784930   1.5774840   1.4020670  )
        11           S   tau(  11) = (   0.8784930   0.7929376   0.2460682  )
        12           S   tau(  12) = (   0.6215070   0.7873434   1.0701359  )

   Crystallographic axes

     site n.     atom                  positions (cryst. coord.)
         1           Ag  tau(   1) = (  0.0040850  0.7759150  0.6451600  )
         2           Ag  tau(   2) = (  0.4959150  0.2240850  0.1451600  )
         3           Ag  tau(   3) = (  0.9959150  0.2759150  0.8548400  )
         4           Ag  tau(   4) = (  0.5040850  0.7240850  0.3548400  )
         5           Ag  tau(   5) = (  0.8618310  0.8886190  0.0433760  )
         6           Ag  tau(   6) = (  0.6381690  0.1113810  0.5433760  )
         7           Ag  tau(   7) = (  0.1381690  0.3886190  0.4566240  )
         8           Ag  tau(   8) = (  0.3618310  0.6113810  0.9566240  )
         9           S   tau(   9) = (  0.1215070  0.0017700  0.3506990  )
        10           S   tau(  10) = (  0.3784930  0.9982300  0.8506990  )
        11           S   tau(  11) = (  0.8784930  0.5017700  0.1493010  )
        12           S   tau(  12) = (  0.6215070  0.4982300  0.6493010  )

     number of k points=     1  Methfessel-Paxton smearing, width (Ry)=  0.0010
                       cart. coord. in units 2pi/alat
        k(    1) = (   0.0000000   0.0000000   0.0000000), wk =   2.0000000

                       cryst. coord.
        k(    1) = (   0.0000000   0.0000000   0.0000000), wk =   2.0000000

     Initial potential from superposition of free atoms

     starting charge     175.9975, renormalised to     176.0000
     Starting wfcs are   96 randomized atomic wfcs +   10 random wfcs

     Self-consistent Calculation

     iteration #  1     ecut=    30.00 Ry     beta= 0.70
     Davidson diagonalization with overlap

     ethr =  1.00E-02,  avg # of iterations =  8.0

     Threshold (ethr) on eigenvalues was too large:
     Diagonalizing with lowered threshold

     Davidson diagonalization with overlap

[...]

     total energy              =   -2392.78446951 Ry
     estimated scf accuracy    <       0.33180268 Ry

[...]

     total energy              =   -2392.82849724 Ry
     estimated scf accuracy    <       0.00000308 Ry

     iteration # 16     ecut=    30.00 Ry     beta= 0.70
     Davidson diagonalization with overlap

     ethr =  1.75E-09,  avg # of iterations =  1.0

     End of self-consistent calculation

          k = 0.0000 0.0000 0.0000 (  2129 PWs)   bands (ev):

   -80.2011 -80.2008 -80.1990 -80.1989 -80.1607 -80.1605 -80.1580 -80.1579
   -43.2783 -43.2705 -43.2607 -43.2595 -43.2590 -43.2562 -43.2532 -43.2507
   -43.2476 -43.2460 -43.2387 -43.2345 -43.2216 -43.2191 -43.2172 -43.2095
   -43.1939 -43.1867 -43.1848 -43.1768 -43.1349 -43.1338 -43.1257 -43.1236
    -0.4489   0.1014   0.1516   0.2975   6.7033   6.7703   6.8675   7.0133
     7.1117   7.3269   7.3958   7.5282   7.5748   7.6007   7.7228   7.7792
     7.8756   7.8761   8.0142   8.0915   8.1178   8.2276   8.2431   8.4456
     8.4930   8.5401   8.6097   8.6123   8.6197   8.6333   8.8340   8.8343
     8.8753   8.9031   8.9810   8.9940   9.0392   9.0467   9.2555   9.2949
     9.3376   9.3898   9.4163   9.4808   9.5129   9.7945   9.9879  10.2061
    10.6020  11.0314  11.3518  11.3868  11.6680  11.8239  11.9929  12.5538
    12.5666  13.5819  14.6813  15.0937  15.4645  16.6403  16.8345  17.0329
    17.1628  18.2812  18.3594  18.5768  19.1425  19.3317  19.9241  20.1669
    20.3546  20.4348

     occupation numbers
     1.0000   1.0000   1.0000   1.0000   1.0000   1.0000   1.0000   1.0000
     1.0000   1.0000   1.0000   1.0000   1.0000   1.0000   1.0000   1.0000
     1.0000   1.0000   1.0000   1.0000   1.0000   1.0000   1.0000   1.0000
     1.0000   1.0000   1.0000   1.0000   1.0000   1.0000   1.0000   1.0000
     1.0000   1.0000   1.0000   1.0000   1.0000   1.0000   1.0000   1.0000
     1.0000   1.0000   1.0000   1.0000   1.0000   1.0000   1.0000   1.0000
     1.0000   1.0000   1.0000   1.0000   1.0000   1.0000   1.0000   1.0000
     1.0000   1.0000   1.0000   1.0000   1.0000   1.0000   1.0000   1.0000
     1.0000   1.0000   1.0000   1.0000   1.0000   1.0000   1.0000   1.0000
     1.0000   1.0000   1.0000   1.0000   1.0000   1.0000   1.0000   1.0000
     1.0000   1.0000   1.0000   1.0000   1.0000   1.0000   1.0000   0.8536
     0.1464  -0.0000  -0.0000  -0.0000  -0.0000  -0.0000  -0.0000  -0.0000
    -0.0000  -0.0000  -0.0000  -0.0000  -0.0000  -0.0000  -0.0000  -0.0000
    -0.0000  -0.0000

     the Fermi energy is    12.5602 ev

!    total energy              =   -2392.82849720 Ry
     estimated scf accuracy    <       0.00000020 Ry
     smearing contrib. (-TS)   =      -0.00025174 Ry
     internal energy E=F+TS    =   -2392.82824546 Ry

     The total energy is F=E-TS. E is the sum of the following terms:
     one-electron contribution =   -1182.63152078 Ry
     hartree contribution      =     655.37475062 Ry
     xc contribution           =    -250.02424568 Ry
     ewald contribution        =   -1615.54722962 Ry

     convergence has been achieved in  16 iterations

     Forces acting on atoms (cartesian axes, Ry/au):

     atom    1 type  1   force =     0.00613817    0.00929168   -0.00361690
     atom    2 type  1   force =    -0.00613817   -0.00929168   -0.00361690
     atom    3 type  1   force =    -0.00613817    0.00929168    0.00361690
     atom    4 type  1   force =     0.00613817   -0.00929168    0.00361690
     atom    5 type  1   force =     0.00965422   -0.00922848    0.04400592
     atom    6 type  1   force =    -0.00965422    0.00922848    0.04400592
     atom    7 type  1   force =    -0.00965422   -0.00922848   -0.04400592
     atom    8 type  1   force =     0.00965422    0.00922848   -0.04400592
     atom    9 type  2   force =     0.01269434   -0.01020111   -0.01123143
     atom   10 type  2   force =    -0.01269434    0.01020111   -0.01123143
     atom   11 type  2   force =    -0.01269434   -0.01020111    0.01123143
     atom   12 type  2   force =     0.01269434    0.01020111    0.01123143
     The non-local contrib.  to forces
     atom    1 type  1   force =     0.06719995    0.05040509    0.00590222
     atom    2 type  1   force =    -0.06719995   -0.05040509    0.00590222
     atom    3 type  1   force =    -0.06719995    0.05040509   -0.00590222
     atom    4 type  1   force =     0.06719995   -0.05040509   -0.00590222
     atom    5 type  1   force =     0.04226992    0.07836020   -0.11171664
     atom    6 type  1   force =    -0.04226992   -0.07836020   -0.11171664
     atom    7 type  1   force =    -0.04226992    0.07836020    0.11171664
     atom    8 type  1   force =     0.04226992   -0.07836020    0.11171664
     atom    9 type  2   force =     0.02893490   -0.03171578   -0.01183353
     atom   10 type  2   force =    -0.02893490    0.03171578   -0.01183353
     atom   11 type  2   force =    -0.02893490   -0.03171578    0.01183353
     atom   12 type  2   force =     0.02893490    0.03171578    0.01183353
     The ionic contribution  to forces
     atom    1 type  1   force =     0.39867097    0.54583766    0.69983483
     atom    2 type  1   force =    -0.39867097   -0.54583766    0.69983483
     atom    3 type  1   force =    -0.39867097    0.54583766   -0.69983483
     atom    4 type  1   force =     0.39867097   -0.54583766   -0.69983483
     atom    5 type  1   force =     2.77451204    0.74435147    2.39192622
     atom    6 type  1   force =    -2.77451204   -0.74435147    2.39192622
     atom    7 type  1   force =    -2.77451204    0.74435147   -2.39192622
     atom    8 type  1   force =     2.77451204   -0.74435147   -2.39192622
     atom    9 type  2   force =    -0.88792909    0.13454113   -1.34990970
     atom   10 type  2   force =     0.88792909   -0.13454113   -1.34990970
     atom   11 type  2   force =     0.88792909    0.13454113    1.34990970
     atom   12 type  2   force =    -0.88792909   -0.13454113    1.34990970
     The local contribution  to forces
     atom    1 type  1   force =    -0.45981930   -0.58784595   -0.70942342
     atom    2 type  1   force =     0.45983611    0.58782120   -0.70960020
     atom    3 type  1   force =     0.45967746   -0.58600897    0.70926939
     atom    4 type  1   force =    -0.45968858    0.58589630    0.70980235
     atom    5 type  1   force =    -2.80712906   -0.83254321   -2.23655198
     atom    6 type  1   force =     2.80712392    0.83244868   -2.23597128
     atom    7 type  1   force =     2.80697170   -0.83110882    2.23627529
     atom    8 type  1   force =    -2.80697455    0.83133790    2.23571068
     atom    9 type  2   force =     0.87321026   -0.11503344    1.34980833
     atom   10 type  2   force =    -0.87322369    0.11496957    1.34958151
     atom   11 type  2   force =    -0.87321535   -0.11502272   -1.34984298
     atom   12 type  2   force =     0.87323325    0.11509530   -1.34981176
     The core correction contribution to forces
     atom    1 type  1   force =     0.00000000    0.00000000    0.00000000
     atom    2 type  1   force =     0.00000000    0.00000000    0.00000000
     atom    3 type  1   force =     0.00000000    0.00000000    0.00000000
     atom    4 type  1   force =     0.00000000    0.00000000    0.00000000
     atom    5 type  1   force =     0.00000000    0.00000000    0.00000000
     atom    6 type  1   force =     0.00000000    0.00000000    0.00000000
     atom    7 type  1   force =     0.00000000    0.00000000    0.00000000
     atom    8 type  1   force =     0.00000000    0.00000000    0.00000000
     atom    9 type  2   force =    -0.00157196    0.00196597    0.00072533
     atom   10 type  2   force =     0.00157135   -0.00196709    0.00072213
     atom   11 type  2   force =     0.00156999    0.00196472   -0.00073360
     atom   12 type  2   force =    -0.00156913   -0.00196355   -0.00073293
     The Hubbard contrib.    to forces
     atom    1 type  1   force =     0.00000000    0.00000000    0.00000000
     atom    2 type  1   force =     0.00000000    0.00000000    0.00000000
     atom    3 type  1   force =     0.00000000    0.00000000    0.00000000
     atom    4 type  1   force =     0.00000000    0.00000000    0.00000000
     atom    5 type  1   force =     0.00000000    0.00000000    0.00000000
     atom    6 type  1   force =     0.00000000    0.00000000    0.00000000
     atom    7 type  1   force =     0.00000000    0.00000000    0.00000000
     atom    8 type  1   force =     0.00000000    0.00000000    0.00000000
     atom    9 type  2   force =     0.00000000    0.00000000    0.00000000
     atom   10 type  2   force =     0.00000000    0.00000000    0.00000000
     atom   11 type  2   force =     0.00000000    0.00000000    0.00000000
     atom   12 type  2   force =     0.00000000    0.00000000    0.00000000
     The SCF correction term to forces
     atom    1 type  1   force =     0.00007391    0.00091560    0.00003522
     atom    2 type  1   force =    -0.00008775   -0.00088991    0.00022620
     atom    3 type  1   force =     0.00003979   -0.00095681    0.00008873
     atom    4 type  1   force =    -0.00003142    0.00108058   -0.00050686
     atom    5 type  1   force =    -0.00002032    0.00060054    0.00034312
     atom    6 type  1   force =     0.00003337   -0.00051176   -0.00030464
     atom    7 type  1   force =     0.00012615   -0.00084274   -0.00014058
     atom    8 type  1   force =    -0.00013189    0.00059155    0.00048446
     atom    9 type  2   force =     0.00003605    0.00003990   -0.00006191
     atom   10 type  2   force =    -0.00003019    0.00000851    0.00011167
     atom   11 type  2   force =    -0.00004664    0.00003589   -0.00001167
     atom   12 type  2   force =     0.00004110   -0.00008657   -0.00002720

     Total force =     0.102827     Total SCF correction =     0.002503

     Computing stress (Cartesian axis) and pressure

          total   stress  (Ry/bohr**3)                   (kbar)     P=    -1027.40
  -0.00684346   0.00000000   0.00000000        -1006.71        0.00        0.00
   0.00000000  -0.00685202   0.00000000            0.00    -1007.97        0.00
   0.00000000   0.00000000  -0.00725694            0.00        0.00    -1067.53

     kinetic stress (kbar)  50855.80      0.00      0.00
                                0.00  50945.61      0.00
                                0.00      0.00  50813.97

     local   stress (kbar)  -9050.41      0.03      0.00
                                0.03 -15577.88      0.01
                                0.00      0.01 -12919.11

     nonloc. stress (kbar)  -1278.31      0.00      0.00
                                0.00  -1394.12      0.00
                                0.00      0.00  -1410.99

     hartree stress (kbar)  19408.86     -0.04     -0.00
                               -0.04  22315.71     -0.00
                               -0.00     -0.00  21299.32

     exc-cor stress (kbar)  -5745.03      0.00     -0.00
                                0.00  -5744.26     -0.00
                               -0.00     -0.00  -5745.81

     corecor stress (kbar)  -1503.46     -0.00      0.00
                               -0.00  -1497.58      0.00
                                0.00      0.00  -1495.97

     ewald   stress (kbar) -53694.15     -0.00      0.00
                               -0.00 -50055.45     -0.00
                                0.00     -0.00 -51608.93

     hubbard stress (kbar)      0.00      0.00      0.00
                                0.00      0.00      0.00
                                0.00      0.00      0.00

     DFT-D   stress (kbar)      0.00      0.00      0.00
                                0.00      0.00      0.00
                                0.00      0.00      0.00

     XDM     stress (kbar)      0.00      0.00      0.00
                                0.00      0.00      0.00
                                0.00      0.00      0.00

     dft-nl  stress (kbar)      0.00      0.00      0.00
                                0.00      0.00      0.00
                                0.00      0.00      0.00

     TS-vdW  stress (kbar)      0.00      0.00      0.00
                                0.00      0.00      0.00
                                0.00      0.00      0.00

[...]

                                0.00      0.00      0.00

     Writing all to output data dir new_calculations/myprefix.save/

     General routines

     Parallel routines

   This run was terminated on:   2:32: 0  21May2023

   JOB DONE.