     Program PWSCF v.7.0 starts on 20May2023 at 17:45:35

     Reading input from espresso_22109.pwi
Warning: card &CELL ignored
Warning: card / ignored

     Current dimensions of program PWSCF are:
     Max number of different atomic species (ntypx) = 10
     Max number of k-points (npk) =  40000
     Max angular momentum in pseudopotentials (lmaxx) =  4

     gamma-point specific algorithms are used
     Message from routine setup:
     using ibrav=0 with symmetry is DISCOURAGED, use correct ibrav instead

     Subspace diagonalization in iterative solution of the eigenvalue problem:
     a serial algorithm will be used

     Using Slab Decomposition

     bravais-lattice index     =            0
     lattice parameter (alat)  =      12.4981  a.u.
     unit-cell volume          =    1414.1936 (a.u.)^3
     number of atoms/cell      =           14
     number of atomic types    =            2
     number of electrons       =       275.00
     number of Kohn-Sham states=          166
     kinetic-energy cutoff     =      30.0000  Ry
     charge density cutoff     =     240.0000  Ry
     scf convergence threshold =      1.0E-06
     mixing beta               =       0.7000
     number of iterations used =            8  plain     mixing
     Exchange-correlation= SLA  PW   PBE  PBE
                           (   1   4   3   4   0   0   0)

     celldm(1)=  12.498138  celldm(2)=   0.000000  celldm(3)=   0.000000
     celldm(4)=   0.000000  celldm(5)=   0.000000  celldm(6)=   0.000000

     crystal axes: (cart. coord. in units of alat)
               a(1) = (   1.000000   0.000000   0.000000 )
               a(2) = (   0.338848   0.940841   0.000000 )
               a(3) = (   0.116316   0.081738   0.769940 )

     reciprocal axes: (cart. coord. in units 2 pi/alat)
               b(1) = (  1.000000 -0.360155 -0.112837 )
               b(2) = (  0.000000  1.062879 -0.112837 )
               b(3) = (  0.000000  0.000000  1.298803 )

     PseudoPot. # 1 for Mn read from file:
     /home/pragov/projects/rrg-bengioy-ad/pragov/crystal_structure_design/SSSP/mn_pbe_v1.5.uspp.F.UPF
     MD5 check sum: 82ef2b46521d7a7d9e736dc3972e4928
     Pseudo is Ultrasoft + core correction, Zval = 15.0
     Generated by new atomic code, or converted to UPF format
     Using radial grid of  859 points,  6 beta functions with:
                l(1) =   0
                l(2) =   0
                l(3) =   1
                l(4) =   1
                l(5) =   2
                l(6) =   2
     Q(r) pseudized with  8 coefficients,  rinner =    0.950   0.950   0.950
                                                       0.950   0.950

     PseudoPot. # 2 for Zn read from file:
     /home/pragov/projects/rrg-bengioy-ad/pragov/crystal_structure_design/SSSP/Zn_pbe_v1.uspp.F.UPF
     MD5 check sum: df62231357ef9e81f77b2b3087fa5675
     Pseudo is Ultrasoft, Zval = 20.0
     Generated by new atomic code, or converted to UPF format
     Using radial grid of  943 points,  6 beta functions with:
                l(1) =   0
                l(2) =   0
                l(3) =   1
                l(4) =   1
                l(5) =   2
                l(6) =   2
     Q(r) pseudized with  8 coefficients,  rinner =    1.100   1.100   1.100
                                                       1.100   1.100

     atomic species   valence    mass     pseudopotential
        Mn            15.00    54.93804     Mn( 1.00)
        Zn            20.00    65.38000     Zn( 1.00)

      2 Sym. Ops., with inversion, found

                                    s                        frac. trans.

      isym =  1     identity

 cryst.   s( 1) = (     1          0          0      )
                  (     0          1          0      )
                  (     0          0          1      )

 cart.    s( 1) = (  1.0000000 -0.0000000  0.0000000 )
                  (  0.0000000  1.0000000  0.0000000 )
                  (  0.0000000  0.0000000  1.0000000 )

      isym =  2     inversion

 cryst.   s( 2) = (    -1          0          0      )
                  (     0         -1          0      )
                  (     0          0         -1      )

 cart.    s( 2) = ( -1.0000000  0.0000000 -0.0000000 )
                  (  0.0000000 -1.0000000 -0.0000000 )
                  (  0.0000000  0.0000000 -1.0000000 )

   Cartesian axes

     site n.     atom                  positions (alat units)
         1           Mn  tau(   1) = (   0.0581580   0.0408690   0.3849698  )
         2           Zn  tau(   2) = (   0.7171465   0.9541852   0.1521424  )
         3           Zn  tau(   3) = (   0.7380177   0.0683938   0.6177973  )
         4           Zn  tau(   4) = (   0.3144237   0.6711822   0.6177973  )
         5           Zn  tau(   5) = (   1.1407405   0.3513969   0.1521424  )
         6           Zn  tau(   6) = (   0.7376432   0.2322730   0.2472684  )
         7           Zn  tau(   7) = (   0.7175210   0.7903061   0.5226713  )
         8           Zn  tau(   8) = (   0.9866832   0.4072794   0.5226713  )
         9           Zn  tau(   9) = (   0.4684810   0.6152997   0.2472684  )
        10           Zn  tau(  10) = (   0.0000000   0.0000000   0.0000000  )
        11           Zn  tau(  11) = (   0.8284568   0.5821766   0.0513057  )
        12           Zn  tau(  12) = (   0.6267074   0.4404025   0.7186340  )
        13           Zn  tau(  13) = (   1.0853953   0.7627335   0.2795474  )
        14           Zn  tau(  14) = (   0.3697689   0.2598456   0.4903923  )

   Crystallographic axes

     site n.     atom                  positions (cryst. coord.)
         1           Mn  tau(   1) = (  0.0000000  0.0000000  0.5000000  )
         2           Zn  tau(   2) = (  0.3563250  0.9970160  0.1976030  )
         3           Zn  tau(   3) = (  0.6436750  0.0029840  0.8023970  )
         4           Zn  tau(   4) = (  0.0029840  0.6436750  0.8023970  )
         5           Zn  tau(   5) = (  0.9970160  0.3563250  0.1976030  )
         6           Zn  tau(   6) = (  0.6260880  0.2189770  0.3211530  )
         7           Zn  tau(   7) = (  0.3739120  0.7810230  0.6788470  )
         8           Zn  tau(   8) = (  0.7810230  0.3739120  0.6788470  )
         9           Zn  tau(   9) = (  0.2189770  0.6260880  0.3211530  )
        10           Zn  tau(  10) = (  0.0000000  0.0000000  0.0000000  )
        11           Zn  tau(  11) = (  0.6129940  0.6129940  0.0666360  )
        12           Zn  tau(  12) = (  0.3870060  0.3870060  0.9333640  )
        13           Zn  tau(  13) = (  0.7791500  0.7791500  0.3630770  )
        14           Zn  tau(  14) = (  0.2208500  0.2208500  0.6369230  )

     number of k points=     1  Methfessel-Paxton smearing, width (Ry)=  0.0010
                       cart. coord. in units 2pi/alat
        k(    1) = (   0.0000000   0.0000000   0.0000000), wk =   2.0000000

                       cryst. coord.
        k(    1) = (   0.0000000   0.0000000   0.0000000), wk =   2.0000000

     Check: negative core charge=   -0.000007

     Initial potential from superposition of free atoms

     starting charge     274.4981, renormalised to     275.0000
     Starting wfcs are  182 randomized atomic wfcs

     Self-consistent Calculation

     iteration #  1     ecut=    30.00 Ry     beta= 0.70
     Davidson diagonalization with overlap

     ethr =  1.00E-02,  avg # of iterations =  2.0

     total energy              =   -6200.93920501 Ry
     estimated scf accuracy    <      12.22369996 Ry

[...]

     total energy              =   -6210.43553522 Ry
     estimated scf accuracy    <       0.00000298 Ry

     iteration # 21     ecut=    30.00 Ry     beta= 0.70
     Davidson diagonalization with overlap

     ethr =  1.08E-09,  avg # of iterations =  2.0

     End of self-consistent calculation

          k = 0.0000 0.0000 0.0000 (  1964 PWs)   bands (ev):

  -113.1984-113.1971-113.0206-113.0196-112.9216-112.9203-112.9197-112.9196
  -112.9191-112.9180-112.9172-112.9165-112.6454 -67.3063 -67.3043 -67.3018
   -67.3003 -67.2671 -67.2607 -67.1429 -67.1402 -67.1189 -67.1138 -67.0708
   -67.0697 -67.0525 -67.0512 -67.0485 -67.0440 -67.0423 -67.0416 -67.0382
   -67.0354 -67.0102 -67.0078 -67.0065 -67.0058 -66.9992 -66.9960 -66.9944
   -66.9828 -66.9793 -66.9756 -66.9744 -66.9674 -66.9672 -66.9667 -66.9628
   -66.9625 -66.7853 -66.7651 -66.6687 -65.0654 -34.2584 -33.7788 -33.3992
     3.4606   5.3912   5.4173   5.4339   5.5264   5.5292   5.5314   5.5892
     5.6069   5.6234   5.7018   5.7208   5.7349   5.7687   5.7817   5.7998
     5.8008   5.8245   5.8940   5.9111   5.9216   5.9269   5.9289   5.9788
     5.9865   6.0167   6.0338   6.0410   6.0765   6.1015   6.1030   6.1176
     6.1305   6.1513   6.1652   6.1767   6.2124   6.2139   6.2156   6.2811
     6.2971   6.3132   6.3507   6.3540   6.3691   6.3793   6.3922   6.4607
     6.5057   6.5171   6.5516   6.5689   6.5694   6.5758   6.6038   6.6095
     6.6097   6.6213   6.6357   6.6605   6.6741   6.7126   6.7584   6.7841
     6.7934   6.8582   7.9578   8.0899   8.2290   8.2724   9.3892   9.5303
     9.7740  10.1366  12.1111  12.1596  12.3695  12.5581  12.9291  13.0095
    13.5266  13.6295  13.9408  14.1383  14.2863  15.0582  15.3486  15.3598
    16.0440  16.2323  16.5668  17.4713  18.6315  18.8559  19.1805  19.3257
    19.8128  19.9223  20.2456  20.5432  20.5971  20.8902  21.2312  21.2358
    21.5668  22.0124  22.1875  22.3727  22.8020  24.1539

     occupation numbers
     1.0000   1.0000   1.0000   1.0000   1.0000   1.0000   1.0000   1.0000
     1.0000   1.0000   1.0000   1.0000   1.0000   1.0000   1.0000   1.0000
     1.0000   1.0000   1.0000   1.0000   1.0000   1.0000   1.0000   1.0000
     1.0000   1.0000   1.0000   1.0000   1.0000   1.0000   1.0000   1.0000
     1.0000   1.0000   1.0000   1.0000   1.0000   1.0000   1.0000   1.0000
     1.0000   1.0000   1.0000   1.0000   1.0000   1.0000   1.0000   1.0000
     1.0000   1.0000   1.0000   1.0000   1.0000   1.0000   1.0000   1.0000
     1.0000   1.0000   1.0000   1.0000   1.0000   1.0000   1.0000   1.0000
     1.0000   1.0000   1.0000   1.0000   1.0000   1.0000   1.0000   1.0000
     1.0000   1.0000   1.0000   1.0000   1.0000   1.0000   1.0000   1.0000
     1.0000   1.0000   1.0000   1.0000   1.0000   1.0000   1.0000   1.0000
     1.0000   1.0000   1.0000   1.0000   1.0000   1.0000   1.0000   1.0000
     1.0000   1.0000   1.0000   1.0000   1.0000   1.0000   1.0000   1.0000
     1.0000   1.0000   1.0000   1.0000   1.0000   1.0000   1.0000   1.0000
     1.0000   1.0000   1.0000   1.0000   1.0000   1.0000   1.0000   1.0000
     1.0000   1.0000   1.0000   1.0000   1.0000   1.0000   1.0000   1.0000
     1.0000   1.0000   1.0000   1.0000   1.0000   1.0000   1.0000   1.0000
     1.0000   0.5000  -0.0000  -0.0000  -0.0000  -0.0000  -0.0000  -0.0000
    -0.0000  -0.0000  -0.0000  -0.0000  -0.0000  -0.0000  -0.0000  -0.0000
    -0.0000  -0.0000  -0.0000  -0.0000  -0.0000  -0.0000  -0.0000  -0.0000
    -0.0000  -0.0000  -0.0000  -0.0000  -0.0000  -0.0000

     the Fermi energy is    13.6295 ev

!    total energy              =   -6210.43553548 Ry
     estimated scf accuracy    <       0.00000057 Ry
     smearing contrib. (-TS)   =      -0.00028209 Ry
     internal energy E=F+TS    =   -6210.43525338 Ry

     The total energy is F=E-TS. E is the sum of the following terms:
     one-electron contribution =   -4800.37946699 Ry
     hartree contribution      =    2503.42018095 Ry
     xc contribution           =    -574.58636902 Ry
     ewald contribution        =   -3338.88959832 Ry

     convergence has been achieved in  21 iterations

     Forces acting on atoms (cartesian axes, Ry/au):

     atom    1 type  1   force =     0.00000000    0.00000000    0.00000000
     atom    2 type  2   force =    -0.02224416    0.00233064   -0.00161350
     atom    3 type  2   force =     0.02224416   -0.00233064    0.00161350
     atom    4 type  2   force =     0.00536030    0.02208767    0.00158966
     atom    5 type  2   force =    -0.00536030   -0.02208767   -0.00158966
     atom    6 type  2   force =     0.00752703    0.00128045    0.00741922
     atom    7 type  2   force =    -0.00752703   -0.00128045   -0.00741922
     atom    8 type  2   force =    -0.00410882   -0.00686042   -0.00723014
     atom    9 type  2   force =     0.00410882    0.00686042    0.00723014
     atom   10 type  2   force =     0.00000000    0.00000000    0.00000000
     atom   11 type  2   force =    -0.00698990   -0.00453525   -0.00747088
     atom   12 type  2   force =     0.00698990    0.00453525    0.00747088
     atom   13 type  2   force =    -0.00273321   -0.00141876    0.00098036
     atom   14 type  2   force =     0.00273321    0.00141876   -0.00098036
     The non-local contrib.  to forces
     atom    1 type  1   force =     0.00000000    0.00000000    0.00000000
     atom    2 type  2   force =     0.24746591   -0.02838582   -0.29526296
     atom    3 type  2   force =    -0.24746591    0.02838582    0.29526296
     atom    4 type  2   force =    -0.05712821   -0.24210001    0.29522750
     atom    5 type  2   force =     0.05712821    0.24210001   -0.29522750
     atom    6 type  2   force =    -0.44246561    0.11276965   -0.01875830
     atom    7 type  2   force =     0.44246561   -0.11276965    0.01875830
     atom    8 type  2   force =     0.04347190    0.45434015    0.01891586
     atom    9 type  2   force =    -0.04347190   -0.45434015   -0.01891586
     atom   10 type  2   force =     0.00000000    0.00000000    0.00000000
     atom   11 type  2   force =     0.09675389    0.06827615    0.01649335
     atom   12 type  2   force =    -0.09675389   -0.06827615   -0.01649335
     atom   13 type  2   force =    -0.26282301   -0.18424360   -0.04214318
     atom   14 type  2   force =     0.26282301    0.18424360    0.04214318
     The ionic contribution  to forces
     atom    1 type  1   force =    -0.00000000   -0.00000000    0.00000000
     atom    2 type  2   force =     4.31403374   -0.32863434   -0.11446051
     atom    3 type  2   force =    -4.31403374    0.32863433    0.11446051
     atom    4 type  2   force =    -1.15261012   -4.17017716    0.11446051
     atom    5 type  2   force =     1.15261013    4.17017716   -0.11446051
     atom    6 type  2   force =    -7.13048038    8.17599861    2.10420577
     atom    7 type  2   force =     7.13048039   -8.17599861   -2.10420577
     atom    8 type  2   force =    -5.27616422    9.47907142   -2.10420577
     atom    9 type  2   force =     5.27616421   -9.47907142    2.10420577
     atom   10 type  2   force =     0.00000000   -0.00000000   -0.00000000
     atom   11 type  2   force =    -1.21397412   -0.85308897    5.43753296
     atom   12 type  2   force =     1.21397412    0.85308897   -5.43753296
     atom   13 type  2   force =    -7.87984485   -5.53735751    2.73767278
     atom   14 type  2   force =     7.87984485    5.53735751   -2.73767278
     The local contribution  to forces
     atom    1 type  1   force =     0.00070035    0.00040160   -0.00017366
     atom    2 type  2   force =    -4.58503532    0.35831256    0.40810021
     atom    3 type  2   force =     4.58425297   -0.35871584   -0.40774177
     atom    4 type  2   force =     1.21592707    4.43386364   -0.40770236
     atom    5 type  2   force =    -1.21644167   -4.43446345    0.40806023
     atom    6 type  2   force =     7.58179811   -8.28534379   -2.07870786
     atom    7 type  2   force =    -7.58125008    8.28578290    2.07865330
     atom    8 type  2   force =     5.22752912   -9.93994220    2.07832188
     atom    9 type  2   force =    -5.22693660    9.94044879   -2.07837108
     atom   10 type  2   force =     0.00052160    0.00026929   -0.00012378
     atom   11 type  2   force =     1.10925771    0.77893801   -5.46126227
     atom   12 type  2   force =    -1.10912560   -0.77871404    5.46097260
     atom   13 type  2   force =     8.13960148    5.71890442   -2.69503628
     atom   14 type  2   force =    -8.14069558   -5.71973676    2.69509171
     The core correction contribution to forces
     atom    1 type  1   force =     0.00000073    0.00000043   -0.00000004
     atom    2 type  2   force =     0.00000000    0.00000000    0.00000000
     atom    3 type  2   force =     0.00000000    0.00000000    0.00000000
     atom    4 type  2   force =     0.00000000    0.00000000    0.00000000
     atom    5 type  2   force =     0.00000000    0.00000000    0.00000000
     atom    6 type  2   force =     0.00000000    0.00000000    0.00000000
     atom    7 type  2   force =     0.00000000    0.00000000    0.00000000
     atom    8 type  2   force =     0.00000000    0.00000000    0.00000000
     atom    9 type  2   force =     0.00000000    0.00000000    0.00000000
     atom   10 type  2   force =     0.00000000    0.00000000    0.00000000
     atom   11 type  2   force =     0.00000000    0.00000000    0.00000000
     atom   12 type  2   force =     0.00000000    0.00000000    0.00000000
     atom   13 type  2   force =     0.00000000    0.00000000    0.00000000
     atom   14 type  2   force =     0.00000000    0.00000000    0.00000000
     The Hubbard contrib.    to forces
     atom    1 type  1   force =     0.00000000    0.00000000    0.00000000
     atom    2 type  2   force =     0.00000000    0.00000000    0.00000000
     atom    3 type  2   force =     0.00000000    0.00000000    0.00000000
     atom    4 type  2   force =     0.00000000    0.00000000    0.00000000
     atom    5 type  2   force =     0.00000000    0.00000000    0.00000000
     atom    6 type  2   force =     0.00000000    0.00000000    0.00000000
     atom    7 type  2   force =     0.00000000    0.00000000    0.00000000
     atom    8 type  2   force =     0.00000000    0.00000000    0.00000000
     atom    9 type  2   force =     0.00000000    0.00000000    0.00000000
     atom   10 type  2   force =     0.00000000    0.00000000    0.00000000
     atom   11 type  2   force =     0.00000000    0.00000000    0.00000000
     atom   12 type  2   force =     0.00000000    0.00000000    0.00000000
     atom   13 type  2   force =     0.00000000    0.00000000    0.00000000
     atom   14 type  2   force =     0.00000000    0.00000000    0.00000000
     The SCF correction term to forces
     atom    1 type  1   force =    -0.00078931   -0.00046039    0.00021851
     atom    2 type  2   force =     0.00137333    0.00105206   -0.00000802
     atom    3 type  2   force =    -0.00042733   -0.00062112   -0.00038596
     atom    4 type  2   force =    -0.00076597    0.00059262   -0.00043638
     atom    5 type  2   force =     0.00140551    0.00019002   -0.00000227
     atom    6 type  2   force =    -0.00132837   -0.00225651    0.00064889
     atom    7 type  2   force =     0.00077376    0.00159242   -0.00065577
     atom    8 type  2   force =     0.00095153   -0.00034045   -0.00027830
     atom    9 type  2   force =    -0.00174974   -0.00018746    0.00029512
     atom   10 type  2   force =    -0.00067566   -0.00036898    0.00013066
     atom   11 type  2   force =     0.00095736    0.00133552   -0.00015764
     atom   12 type  2   force =    -0.00111997   -0.00156756    0.00060187
     atom   13 type  2   force =     0.00042857    0.00135505    0.00050470
     atom   14 type  2   force =     0.00085633   -0.00036846   -0.00052479

     Total force =     0.052673     Total SCF correction =     0.005804
     SCF correction compared to forces is large: reduce conv_thr to get better values

     Computing stress (Cartesian axis) and pressure

          total   stress  (Ry/bohr**3)                   (kbar)     P=     -671.85
  -0.00516254   0.00037274   0.00123797         -759.44       54.83      182.11
   0.00037274  -0.00543130   0.00086991           54.83     -798.97      127.97
   0.00123797   0.00086991  -0.00310759          182.11      127.97     -457.14

     kinetic stress (kbar)  39378.59     52.17    150.19
                               52.17  39341.02    105.54
                              150.19    105.54  39698.46

     local   stress (kbar)   8553.51  -1569.87  -1164.83
                            -1569.87   9684.07   -818.54
                            -1164.83   -818.54  14025.24

     nonloc. stress (kbar)  -2874.58      1.79     29.58
                                1.79  -2875.86     20.79
                               29.58     20.79  -2685.03

     hartree stress (kbar)  87766.77    723.61    524.68
                              723.61  87245.72    368.69
                              524.68    368.69  85394.44

     exc-cor stress (kbar) -18744.36      0.94      1.08
                                0.94 -18745.03      0.76
                                1.08      0.76 -18744.11

     corecor stress (kbar)   -372.88      0.60      0.57
                                0.60   -373.31      0.40
                                0.57      0.40   -375.38

     ewald   stress (kbar)-114466.49    845.60    640.84
                              845.60-115075.58    450.33
                              640.84    450.33-117770.78

     hubbard stress (kbar)      0.00      0.00      0.00
                                0.00      0.00      0.00
                                0.00      0.00      0.00

     DFT-D   stress (kbar)      0.00      0.00      0.00
                                0.00      0.00      0.00
                                0.00      0.00      0.00

     XDM     stress (kbar)      0.00      0.00      0.00
                                0.00      0.00      0.00
                                0.00      0.00      0.00

     dft-nl  stress (kbar)      0.00      0.00      0.00
                                0.00      0.00      0.00
                                0.00      0.00      0.00

     TS-vdW  stress (kbar)      0.00      0.00      0.00
                                0.00      0.00      0.00
                                0.00      0.00      0.00

[...]

                                0.00      0.00      0.00

     Writing all to output data dir new_calculations/myprefix.save/

     General routines

     Parallel routines

   This run was terminated on:  17:46:19  20May2023

   JOB DONE.