     Program PWSCF v.7.0 starts on 21May2023 at  1: 1:44

     Reading input from espresso_985.pwi
Warning: card &CELL ignored
Warning: card / ignored

     Current dimensions of program PWSCF are:
     Max number of different atomic species (ntypx) = 10
     Max number of k-points (npk) =  40000
     Max angular momentum in pseudopotentials (lmaxx) =  4
     file O.pbe-n-kjpaw_psl.0.1.UPF: wavefunction(s)  2P renormalized

     gamma-point specific algorithms are used
     Message from routine setup:
     using ibrav=0 with symmetry is DISCOURAGED, use correct ibrav instead

     Subspace diagonalization in iterative solution of the eigenvalue problem:
     a serial algorithm will be used

     Using Slab Decomposition

     bravais-lattice index     =            0
     lattice parameter (alat)  =      10.7696  a.u.
     unit-cell volume          =    1011.8855 (a.u.)^3
     number of atoms/cell      =           12
     number of atomic types    =            3
     number of electrons       =        96.00
     number of Kohn-Sham states=           58
     kinetic-energy cutoff     =      30.0000  Ry
     charge density cutoff     =     240.0000  Ry
     scf convergence threshold =      1.0E-06
     mixing beta               =       0.7000
     number of iterations used =            8  plain     mixing
     Exchange-correlation= SLA  PW   PBX  PBC
                           (   1   4   3   4   0   0   0)

     celldm(1)=  10.769627  celldm(2)=   0.000000  celldm(3)=   0.000000
     celldm(4)=   0.000000  celldm(5)=   0.000000  celldm(6)=   0.000000

     crystal axes: (cart. coord. in units of alat)
               a(1) = (   1.000000   0.000000   0.000000 )
               a(2) = (  -0.491056   0.871128   0.000000 )
               a(3) = (   0.178854   0.306134   0.929924 )

     reciprocal axes: (cart. coord. in units 2 pi/alat)
               b(1) = (  1.000000  0.563701 -0.377904 )
               b(2) = (  0.000000  1.147937 -0.377904 )
               b(3) = (  0.000000  0.000000  1.075357 )

     PseudoPot. # 1 for Na read from file:
     /home/pragov/projects/rrg-bengioy-ad/pragov/crystal_structure_design/SSSP/na_pbe_v1.5.uspp.F.UPF
     MD5 check sum: 44600605ef58000f06b90626533354dc
     Pseudo is Ultrasoft, Zval =  9.0
     Generated by new atomic code, or converted to UPF format
     Using radial grid of  819 points,  5 beta functions with:
                l(1) =   0
                l(2) =   0
                l(3) =   1
                l(4) =   1
                l(5) =   2
     Q(r) pseudized with  8 coefficients,  rinner =    1.250   1.250   1.250
                                                       1.250   1.250

     PseudoPot. # 2 for Re read from file:
     /home/pragov/projects/rrg-bengioy-ad/pragov/crystal_structure_design/SSSP/Re_pbe_v1.2.uspp.F.UPF
     MD5 check sum: 85f993410f3e006da9d71c142b4ad953
     Pseudo is Ultrasoft + core correction, Zval = 15.0
     Generated by new atomic code, or converted to UPF format
     Using radial grid of  981 points,  8 beta functions with:
                l(1) =   0
                l(2) =   0
                l(3) =   1
                l(4) =   1
                l(5) =   2
                l(6) =   2
                l(7) =   3
                l(8) =   3
     Q(r) pseudized with  8 coefficients,  rinner =    1.150   1.150   1.150
                                                       1.150   1.150   1.150
                                                       1.150

     PseudoPot. # 3 for O  read from file:
     /home/pragov/projects/rrg-bengioy-ad/pragov/crystal_structure_design/SSSP/O.pbe-n-kjpaw_psl.0.1.UPF
     MD5 check sum: 0234752ac141de4415c5fc33072bef88
     Pseudo is Projector augmented-wave + core cor, Zval =  6.0
     Generated using "atomic" code by A. Dal Corso  v.5.0.99 svn rev. 10869
     Shape of augmentation charge: BESSEL
     Using radial grid of 1095 points,  4 beta functions with:
                l(1) =   0
                l(2) =   0
                l(3) =   1
                l(4) =   1
     Q(r) pseudized with 0 coefficients

     atomic species   valence    mass     pseudopotential
        Na             9.00    22.98977     Na( 1.00)
        Re            15.00   186.20700     Re( 1.00)
        O              6.00    15.99900     O ( 1.00)

      2 Sym. Ops., with inversion, found

                                    s                        frac. trans.

      isym =  1     identity

 cryst.   s( 1) = (     1          0          0      )
                  (     0          1          0      )
                  (     0          0          1      )

 cart.    s( 1) = (  1.0000000 -0.0000000 -0.0000000 )
                  (  0.0000000  1.0000000  0.0000000 )
                  (  0.0000000  0.0000000  1.0000000 )

      isym =  2     inversion

 cryst.   s( 2) = (    -1          0          0      )
                  (     0         -1          0      )
                  (     0          0         -1      )

 cart.    s( 2) = ( -1.0000000  0.0000000  0.0000000 )
                  (  0.0000000 -1.0000000 -0.0000000 )
                  (  0.0000000  0.0000000 -1.0000000 )

   Cartesian axes

     site n.     atom                  positions (alat units)
         1           Na  tau(   1) = (   0.8345848   0.3019549   0.4649619  )
         2           Na  tau(   2) = (   0.0062664   0.5805746   0.0000000  )
         3           Na  tau(   3) = (   0.5026777   0.2905534   0.0000000  )
         4           Na  tau(   4) = (   0.3438992   0.5886310   0.4649619  )
         5           Na  tau(   5) = (  -0.1467864   0.8753070   0.4649619  )
         6           Re  tau(   6) = (   0.0000000   0.0000000   0.0000000  )
         7           O   tau(   7) = (   0.1395233   0.2388134   0.1880892  )
         8           O   tau(   8) = (   0.6474475   0.6349740   0.1989711  )
         9           O   tau(   9) = (   0.4525876   0.3014445   0.7309526  )
        10           O   tau(  10) = (   0.0403509   0.5422879   0.7309526  )
        11           O   tau(  11) = (   0.2352108   0.8758174   0.1989711  )
        12           O   tau(  12) = (   0.5482751   0.9384485   0.7418346  )

   Crystallographic axes

     site n.     atom                  positions (cryst. coord.)
         1           Na  tau(   1) = (  0.8290860  0.1709140  0.5000000  )
         2           Na  tau(   2) = (  0.3335370  0.6664630  0.0000000  )
         3           Na  tau(   3) = (  0.6664630  0.3335370  0.0000000  )
         4           Na  tau(   4) = (  0.5000000  0.5000000  0.5000000  )
         5           Na  tau(   5) = (  0.1709140  0.8290860  0.5000000  )
         6           Re  tau(   6) = (  0.0000000  0.0000000  0.0000000  )
         7           O   tau(   7) = (  0.2030630  0.2030630  0.2022630  )
         8           O   tau(   8) = (  0.9301910  0.6537180  0.2139650  )
         9           O   tau(   9) = (  0.3462820  0.0698090  0.7860350  )
        10           O   tau(  10) = (  0.0698090  0.3462820  0.7860350  )
        11           O   tau(  11) = (  0.6537180  0.9301910  0.2139650  )
        12           O   tau(  12) = (  0.7969370  0.7969370  0.7977370  )

     number of k points=     1  Methfessel-Paxton smearing, width (Ry)=  0.0010
                       cart. coord. in units 2pi/alat
        k(    1) = (   0.0000000   0.0000000   0.0000000), wk =   2.0000000

                       cryst. coord.
        k(    1) = (   0.0000000   0.0000000   0.0000000), wk =   2.0000000

     Check: negative core charge=   -0.000012

     Initial potential from superposition of free atoms

     starting charge      95.4685, renormalised to      96.0000

     negative rho (up, down):  1.266E-01 0.000E+00
     Starting wfcs are   62 randomized atomic wfcs
     Checking if some PAW data can be deallocated...

     Self-consistent Calculation

     iteration #  1     ecut=    30.00 Ry     beta= 0.70
     Davidson diagonalization with overlap

     ethr =  1.00E-02,  avg # of iterations =  6.0

     negative rho (up, down):  1.536E-01 0.000E+00

     total energy              =    -915.54962929 Ry
     estimated scf accuracy    <       3.60998830 Ry

[...]

     total energy              =    -917.55866412 Ry
     estimated scf accuracy    <       0.00000318 Ry

     iteration # 10     ecut=    30.00 Ry     beta= 0.70
     Davidson diagonalization with overlap

     ethr =  3.31E-09,  avg # of iterations =  2.0

[...]

     End of self-consistent calculation

          k = 0.0000 0.0000 0.0000 (  1408 PWs)   bands (ev):

   -76.3094 -44.4631 -44.4574 -44.3870 -43.9354 -43.9297 -38.0495 -37.9901
   -37.9606 -16.4415 -16.4213 -16.4182 -16.4016 -16.3857 -16.3600 -16.3470
   -16.3126 -16.2709 -15.9072 -15.8969 -15.8923 -15.8879 -15.8387 -15.8336
   -11.9452 -11.2151 -11.1245 -10.5496 -10.5001 -10.4876   0.7199   0.7933
     0.8801   1.0668   1.0963   1.3102   2.9893   3.0977   3.3477   3.8587
     4.3218   4.4866   4.7421   4.8224   4.8848   4.8882   5.0673   5.0839
     7.4909   7.7246   7.9200   9.7318  12.3664  12.5573  13.3343  14.2063
    14.8836  15.6402

     occupation numbers
     1.0000   1.0000   1.0000   1.0000   1.0000   1.0000   1.0000   1.0000
     1.0000   1.0000   1.0000   1.0000   1.0000   1.0000   1.0000   1.0000
     1.0000   1.0000   1.0000   1.0000   1.0000   1.0000   1.0000   1.0000
     1.0000   1.0000   1.0000   1.0000   1.0000   1.0000   1.0000   1.0000
     1.0000   1.0000   1.0000   1.0000   1.0000   1.0000   1.0000   1.0000
     1.0000   1.0000   1.0000   1.0000   1.0000   1.0000   1.0000   1.0000
    -0.0000  -0.0000  -0.0000  -0.0000  -0.0000  -0.0000  -0.0000  -0.0000
    -0.0000  -0.0000

     the Fermi energy is     7.1305 ev

!    total energy              =    -917.55866448 Ry
     estimated scf accuracy    <       0.00000015 Ry
     smearing contrib. (-TS)   =       0.00000000 Ry
     internal energy E=F+TS    =    -917.55866448 Ry

     The total energy is F=E-TS. E is the sum of the following terms:
     one-electron contribution =    -467.53751613 Ry
     hartree contribution      =     272.88390887 Ry
     xc contribution           =    -169.24182515 Ry
     ewald contribution        =    -496.54416616 Ry
     one-center paw contrib.   =     -57.11906592 Ry
      -> PAW hartree energy AE =     177.83412333 Ry
      -> PAW hartree energy PS =    -177.19817664 Ry
      -> PAW xc energy AE      =    -103.01741109 Ry
      -> PAW xc energy PS      =      45.26239849 Ry
      -> total E_H with PAW    =     273.51985557 Ry
      -> total E_XC with PAW   =    -226.99683776 Ry

     convergence has been achieved in  10 iterations

     negative rho (up, down):  1.422E-01 0.000E+00

     Forces acting on atoms (cartesian axes, Ry/au):

     atom    1 type  1   force =     0.00072920   -0.00044500   -0.00000106
     atom    2 type  1   force =    -0.00000911    0.00002722   -0.00000192
     atom    3 type  1   force =     0.00000911   -0.00002722    0.00000192
     atom    4 type  1   force =     0.00000000    0.00000000    0.00000000
     atom    5 type  1   force =    -0.00072920    0.00044500    0.00000106
     atom    6 type  2   force =     0.00000000    0.00000000    0.00000000
     atom    7 type  3   force =    -0.00347791   -0.00595255   -0.00660283
     atom    8 type  3   force =    -0.00681032    0.00535041   -0.01044168
     atom    9 type  3   force =    -0.00804196    0.00330863    0.01046745
     atom   10 type  3   force =     0.00681032   -0.00535041    0.01044168
     atom   11 type  3   force =     0.00804196   -0.00330863   -0.01046745
     atom   12 type  3   force =     0.00347791    0.00595255    0.00660283
     The non-local contrib.  to forces
     atom    1 type  1   force =    -0.27819847    0.16253069   -0.00000517
     atom    2 type  1   force =     0.00542263   -0.00316212   -0.00000204
     atom    3 type  1   force =    -0.00542263    0.00316212    0.00000204
     atom    4 type  1   force =     0.00000000    0.00000000    0.00000000
     atom    5 type  1   force =     0.27819847   -0.16253069    0.00000517
     atom    6 type  2   force =     0.00000000    0.00000000    0.00000000
     atom    7 type  3   force =    -0.32317397   -0.55315010   -0.43033219
     atom    8 type  3   force =    -0.30200292    0.55351989   -0.38177139
     atom    9 type  3   force =    -0.63049125   -0.00873418    0.38177621
     atom   10 type  3   force =     0.30200292   -0.55351989    0.38177139
     atom   11 type  3   force =     0.63049125    0.00873418   -0.38177621
     atom   12 type  3   force =     0.32317397    0.55315010    0.43033219
     The ionic contribution  to forces
     atom    1 type  1   force =    -3.43214335    2.00518055   -0.00000000
     atom    2 type  1   force =     0.04023042   -0.02350405    0.00000000
     atom    3 type  1   force =    -0.04023042    0.02350405    0.00000000
     atom    4 type  1   force =     0.00000000   -0.00000000   -0.00000000
     atom    5 type  1   force =     3.43214335   -2.00518055   -0.00000000
     atom    6 type  2   force =     0.00000000   -0.00000000   -0.00000000
     atom    7 type  3   force =     4.12737175    7.06456659    6.03738631
     atom    8 type  3   force =     3.99349659   -6.83454245    6.36631852
     atom    9 type  3   force =     7.91479180   -0.12270432   -6.36631852
     atom   10 type  3   force =    -3.99349659    6.83454245   -6.36631852
     atom   11 type  3   force =    -7.91479180    0.12270432    6.36631852
     atom   12 type  3   force =    -4.12737175   -7.06456659   -6.03738631
     The local contribution  to forces
     atom    1 type  1   force =     3.71124296   -2.16813237    0.00011321
     atom    2 type  1   force =    -0.04573881    0.02661515   -0.00008901
     atom    3 type  1   force =     0.04561222   -0.02660927   -0.00010635
     atom    4 type  1   force =     0.00001647   -0.00010677    0.00014792
     atom    5 type  1   force =    -3.71125912    2.16823150    0.00010818
     atom    6 type  2   force =     0.00035590    0.00001736   -0.00031326
     atom    7 type  3   force =    -3.81029078   -6.52191327   -5.61712995
     atom    8 type  3   force =    -3.70077596    6.29117740   -5.99811190
     atom    9 type  3   force =    -7.29782400    0.13458087    5.99812622
     atom   10 type  3   force =     3.70082830   -6.29112976    5.99804702
     atom   11 type  3   force =     7.29779596   -0.13456135   -5.99814059
     atom   12 type  3   force =     3.81036602    6.52186345    5.61704755
     The core correction contribution to forces
     atom    1 type  1   force =     0.00000000    0.00000000    0.00000000
     atom    2 type  1   force =     0.00000000    0.00000000    0.00000000
     atom    3 type  1   force =     0.00000000    0.00000000    0.00000000
     atom    4 type  1   force =     0.00000000    0.00000000    0.00000000
     atom    5 type  1   force =     0.00000000    0.00000000    0.00000000
     atom    6 type  2   force =     0.00001383    0.00000176   -0.00000629
     atom    7 type  3   force =     0.00268480    0.00459578    0.00349193
     atom    8 type  3   force =     0.00253391   -0.00483332    0.00309353
     atom    9 type  3   force =     0.00545423    0.00016595   -0.00309286
     atom   10 type  3   force =    -0.00253434    0.00483329   -0.00309287
     atom   11 type  3   force =    -0.00545486   -0.00016607    0.00309334
     atom   12 type  3   force =    -0.00268536   -0.00459575   -0.00349120
     The Hubbard contrib.    to forces
     atom    1 type  1   force =     0.00000000    0.00000000    0.00000000
     atom    2 type  1   force =     0.00000000    0.00000000    0.00000000
     atom    3 type  1   force =     0.00000000    0.00000000    0.00000000
     atom    4 type  1   force =     0.00000000    0.00000000    0.00000000
     atom    5 type  1   force =     0.00000000    0.00000000    0.00000000
     atom    6 type  2   force =     0.00000000    0.00000000    0.00000000
     atom    7 type  3   force =     0.00000000    0.00000000    0.00000000
     atom    8 type  3   force =     0.00000000    0.00000000    0.00000000
     atom    9 type  3   force =     0.00000000    0.00000000    0.00000000
     atom   10 type  3   force =     0.00000000    0.00000000    0.00000000
     atom   11 type  3   force =     0.00000000    0.00000000    0.00000000
     atom   12 type  3   force =     0.00000000    0.00000000    0.00000000
     The SCF correction term to forces
     atom    1 type  1   force =    -0.00015301   -0.00001823   -0.00014423
     atom    2 type  1   force =     0.00011002    0.00005369    0.00012639
     atom    3 type  1   force =     0.00008333   -0.00010867    0.00014350
     atom    4 type  1   force =    -0.00004929    0.00009583   -0.00019373
     atom    5 type  1   force =     0.00020704   -0.00006963   -0.00014740
     atom    6 type  2   force =    -0.00049985   -0.00001951    0.00038888
     atom    7 type  3   force =    -0.00008254   -0.00003032    0.00000268
     atom    8 type  3   force =    -0.00008389    0.00002518    0.00004371
     atom    9 type  3   force =     0.00003531    0.00000331   -0.00003071
     atom   10 type  3   force =    -0.00001191   -0.00008022    0.00004881
     atom   11 type  3   force =     0.00000947   -0.00001671    0.00003039
     atom   12 type  3   force =    -0.00001780    0.00012255    0.00012221

     Total force =     0.030367     Total SCF correction =     0.000834

     Computing stress (Cartesian axis) and pressure

     negative rho (up, down):  1.422E-01 0.000E+00
          total   stress  (Ry/bohr**3)                   (kbar)     P=     -338.43
  -0.00236939   0.00007403  -0.00001750         -348.55       10.89       -2.57
   0.00007403  -0.00228605  -0.00003008           10.89     -336.29       -4.42
  -0.00001750  -0.00003008  -0.00224641           -2.57       -4.42     -330.46

     kinetic stress (kbar)  23098.06     14.35     -0.24
                               14.35  23114.21     -0.39
                               -0.24     -0.39  23163.12

     local   stress (kbar)  23699.17    177.94    121.54
                              177.94  23899.75    208.01
                              121.54    208.01  25496.21

     nonloc. stress (kbar) -30240.24      6.58     -1.75
                                6.58 -30232.83     -3.01
                               -1.75     -3.01 -30233.57

     hartree stress (kbar)  13549.97    -84.02    -48.26
                              -84.02  13455.29    -82.62
                              -48.26    -82.62  12665.84

     exc-cor stress (kbar)  -1135.85     -0.00      0.03
                               -0.00  -1135.85      0.06
                                0.03      0.06  -1136.10

     corecor stress (kbar)  -5619.35      0.09     -0.10
                                0.09  -5619.25     -0.17
                               -0.10     -0.17  -5617.68

     ewald   stress (kbar) -23700.31   -104.04    -73.80
                             -104.04 -23817.61   -126.32
                              -73.80   -126.32 -24668.28

     hubbard stress (kbar)      0.00      0.00      0.00
                                0.00      0.00      0.00
                                0.00      0.00      0.00

     DFT-D   stress (kbar)      0.00      0.00      0.00
                                0.00      0.00      0.00
                                0.00      0.00      0.00

     XDM     stress (kbar)      0.00      0.00      0.00
                                0.00      0.00      0.00
                                0.00      0.00      0.00

     dft-nl  stress (kbar)      0.00      0.00      0.00
                                0.00      0.00      0.00
                                0.00      0.00      0.00

     TS-vdW  stress (kbar)      0.00      0.00      0.00
                                0.00      0.00      0.00
                                0.00      0.00      0.00

[...]

                                0.00      0.00      0.00

     Writing all to output data dir new_calculations/myprefix.save/

     General routines

     Parallel routines

     PAW routines

   This run was terminated on:   1: 1:58  21May2023

   JOB DONE.