     Program PWSCF v.7.0 starts on 20May2023 at 10:11:57

     Reading input from espresso_16249.pwi
Warning: card &CELL ignored
Warning: card / ignored

     Current dimensions of program PWSCF are:
     Max number of different atomic species (ntypx) = 10
     Max number of k-points (npk) =  40000
     Max angular momentum in pseudopotentials (lmaxx) =  4

     gamma-point specific algorithms are used
     Message from routine setup:
     using ibrav=0 with symmetry is DISCOURAGED, use correct ibrav instead

     Subspace diagonalization in iterative solution of the eigenvalue problem:
     a serial algorithm will be used

     Using Slab Decomposition

     bravais-lattice index     =            0
     lattice parameter (alat)  =      14.2180  a.u.
     unit-cell volume          =    1875.0210 (a.u.)^3
     number of atoms/cell      =           10
     number of atomic types    =            3
     number of electrons       =        80.00
     number of Kohn-Sham states=           48
     kinetic-energy cutoff     =      30.0000  Ry
     charge density cutoff     =     240.0000  Ry
     scf convergence threshold =      1.0E-06
     mixing beta               =       0.7000
     number of iterations used =            8  plain     mixing
     Exchange-correlation=  SLA  PW   PBX  PBC
                           (   1   4   3   4   0   0   0)

     celldm(1)=  14.217976  celldm(2)=   0.000000  celldm(3)=   0.000000
     celldm(4)=   0.000000  celldm(5)=   0.000000  celldm(6)=   0.000000

     crystal axes: (cart. coord. in units of alat)
               a(1) = (   1.000000   0.000000   0.000000 )
               a(2) = (   0.549775   0.835313   0.000000 )
               a(3) = (   0.549775   0.296323   0.780987 )

     reciprocal axes: (cart. coord. in units 2 pi/alat)
               b(1) = (  1.000000 -0.658166 -0.454227 )
               b(2) = (  0.000000  1.197156 -0.454227 )
               b(3) = (  0.000000  0.000000  1.280432 )

     PseudoPot. # 1 for Na read from file:
     /home/pragov/projects/rrg-bengioy-ad/pragov/crystal_structure_design/SSSP/na_pbe_v1.5.uspp.F.UPF
     MD5 check sum: 44600605ef58000f06b90626533354dc
     Pseudo is Ultrasoft, Zval =  9.0
     Generated by new atomic code, or converted to UPF format
     Using radial grid of  819 points,  5 beta functions with:
                l(1) =   0
                l(2) =   0
                l(3) =   1
                l(4) =   1
                l(5) =   2
     Q(r) pseudized with  8 coefficients,  rinner =    1.250   1.250   1.250
                                                       1.250   1.250

     PseudoPot. # 2 for Y  read from file:
     /home/pragov/projects/rrg-bengioy-ad/pragov/crystal_structure_design/SSSP/Y_pbe_v1.uspp.F.UPF
     MD5 check sum: 2cf71db95cafeb975fc457bd7f14888e
     Pseudo is Ultrasoft + core correction, Zval = 11.0
     Generated by new atomic code, or converted to UPF format
     Using radial grid of  885 points,  6 beta functions with:
                l(1) =   0
                l(2) =   0
                l(3) =   1
                l(4) =   1
                l(5) =   2
                l(6) =   2
     Q(r) pseudized with  6 coefficients,  rinner =    1.200   1.200   1.200
                                                       1.200   1.200

     PseudoPot. # 3 for Cl read from file:
     /home/pragov/projects/rrg-bengioy-ad/pragov/crystal_structure_design/SSSP/cl_pbe_v1.4.uspp.F.UPF
     MD5 check sum: fc6f6913ecf08c9257cb748ef0700058
     Pseudo is Ultrasoft + core correction, Zval =  7.0
     Generated by new atomic code, or converted to UPF format
     Using radial grid of  909 points,  6 beta functions with:
                l(1) =   0
                l(2) =   0
                l(3) =   1
                l(4) =   1
                l(5) =   2
                l(6) =   2
     Q(r) pseudized with  8 coefficients,  rinner =    1.300   1.300   1.300
                                                       1.300   1.300

     atomic species   valence    mass     pseudopotential
        Na             9.00    22.98977     Na( 1.00)
        Y             11.00    88.90584     Y ( 1.00)
        Cl             7.00    35.45000     Cl( 1.00)

      2 Sym. Ops., with inversion, found

                                    s                        frac. trans.

      isym =  1     identity

 cryst.   s( 1) = (     1          0          0      )
                  (     0          1          0      )
                  (     0          0          1      )

 cart.    s( 1) = (  1.0000000 -0.0000000 -0.0000000 )
                  (  0.0000000  1.0000000 -0.0000000 )
                  (  0.0000000  0.0000000  1.0000000 )

      isym =  2     inversion

 cryst.   s( 2) = (    -1          0          0      )
                  (     0         -1          0      )
                  (     0          0         -1      )

 cart.    s( 2) = ( -1.0000000  0.0000000  0.0000000 )
                  (  0.0000000 -1.0000000  0.0000000 )
                  (  0.0000000  0.0000000 -1.0000000 )

   Cartesian axes

     site n.     atom                  positions (alat units)
         1           Na  tau(   1) = (   1.6802361   0.9056301   0.6250111  )
         2           Na  tau(   2) = (   1.0497749   0.5658180   0.3904933  )
         3           Na  tau(   3) = (   0.4193137   0.2260058   0.1559755  )
         4           Y   tau(   4) = (   0.0000000   0.0000000   0.0000000  )
         5           Cl  tau(   5) = (   1.2417711   0.4471384   0.6960325  )
         6           Cl  tau(   6) = (   1.0561950   0.9315248   0.4930548  )
         7           Cl  tau(   7) = (   1.3587841   0.5922879   0.1711439  )
         8           Cl  tau(   8) = (   0.7407657   0.5393481   0.6098428  )
         9           Cl  tau(   9) = (   1.0433548   0.2001112   0.2879318  )
        10           Cl  tau(  10) = (   0.8577787   0.6844975   0.0849542  )

   Crystallographic axes

     site n.     atom                  positions (cryst. coord.)
         1           Na  tau(   1) = (  0.8002840  0.8002840  0.8002840  )
         2           Na  tau(   2) = (  0.5000000  0.5000000  0.5000000  )
         3           Na  tau(   3) = (  0.1997160  0.1997160  0.1997160  )
         4           Y   tau(   4) = (  0.0000000  0.0000000  0.0000000  )
         5           Cl  tau(   5) = (  0.6313230  0.2191380  0.8912220  )
         6           Cl  tau(   6) = (  0.2191380  0.8912220  0.6313230  )
         7           Cl  tau(   7) = (  0.8912220  0.6313230  0.2191380  )
         8           Cl  tau(   8) = (  0.1087780  0.3686770  0.7808620  )
         9           Cl  tau(   9) = (  0.7808620  0.1087780  0.3686770  )
        10           Cl  tau(  10) = (  0.3686770  0.7808620  0.1087780  )

     number of k points=     1  Methfessel-Paxton smearing, width (Ry)=  0.0010
                       cart. coord. in units 2pi/alat
        k(    1) = (   0.0000000   0.0000000   0.0000000), wk =   2.0000000

                       cryst. coord.
        k(    1) = (   0.0000000   0.0000000   0.0000000), wk =   2.0000000

     Check: negative core charge=   -0.000002

     Initial potential from superposition of free atoms

     starting charge      79.9766, renormalised to      80.0000

     negative rho (up, down):  1.345E-01 0.000E+00
     Starting wfcs are   52 randomized atomic wfcs

     Self-consistent Calculation

     iteration #  1     ecut=    30.00 Ry     beta= 0.70
     Davidson diagonalization with overlap

     ethr =  1.00E-02,  avg # of iterations =  4.0

     Threshold (ethr) on eigenvalues was too large:
     Diagonalizing with lowered threshold

     Davidson diagonalization with overlap

[...]

     negative rho (up, down):  1.386E-01 0.000E+00

     total energy              =    -574.58534037 Ry
     estimated scf accuracy    <       0.35506359 Ry

[...]

     total energy              =    -574.70595541 Ry
     estimated scf accuracy    <       0.00000229 Ry

     iteration #  8     ecut=    30.00 Ry     beta= 0.70
     Davidson diagonalization with overlap

     ethr =  2.86E-09,  avg # of iterations =  2.0

[...]

     End of self-consistent calculation

          k = 0.0000 0.0000 0.0000 (  2594 PWs)   bands (ev):

   -48.6136 -48.6132 -48.5817 -40.0514 -20.5274 -20.5267 -20.5174 -20.5174
   -20.5123 -20.5123 -20.4891 -20.4891 -20.4819 -20.0727 -20.0726 -20.0689
   -12.1696 -11.8251 -11.8251 -11.7207 -11.7040 -11.7040  -1.6584  -1.0325
    -1.0325  -1.0149  -0.8262  -0.8262  -0.8099  -0.6066  -0.6066  -0.0599
     0.0617   0.2729   0.2729   0.4631   0.4631   0.5211   0.5211   0.5484
     5.8983   5.9667   5.9667   6.0589   7.9026   7.9026   8.0747   9.2391

     occupation numbers
     1.0000   1.0000   1.0000   1.0000   1.0000   1.0000   1.0000   1.0000
     1.0000   1.0000   1.0000   1.0000   1.0000   1.0000   1.0000   1.0000
     1.0000   1.0000   1.0000   1.0000   1.0000   1.0000   1.0000   1.0000
     1.0000   1.0000   1.0000   1.0000   1.0000   1.0000   1.0000   1.0000
     1.0000   1.0000   1.0000   1.0000   1.0000   1.0000   1.0000   1.0000
    -0.0000  -0.0000  -0.0000  -0.0000  -0.0000  -0.0000  -0.0000  -0.0000

     the Fermi energy is     2.1095 ev

!    total energy              =    -574.70595520 Ry
     estimated scf accuracy    <       0.00000049 Ry
     smearing contrib. (-TS)   =       0.00000000 Ry
     internal energy E=F+TS    =    -574.70595520 Ry

     The total energy is F=E-TS. E is the sum of the following terms:
     one-electron contribution =    -345.17163028 Ry
     hartree contribution      =     194.13071864 Ry
     xc contribution           =    -122.04122886 Ry
     ewald contribution        =    -301.62381471 Ry

     convergence has been achieved in   8 iterations

     negative rho (up, down):  1.351E-01 0.000E+00

     Forces acting on atoms (cartesian axes, Ry/au):

     atom    1 type  1   force =     0.00061289    0.00034272    0.00021584
     atom    2 type  1   force =     0.00000000    0.00000000    0.00000000
     atom    3 type  1   force =    -0.00061289   -0.00034272   -0.00021584
     atom    4 type  2   force =     0.00000000    0.00000000    0.00000000
     atom    5 type  3   force =    -0.00163780   -0.00054476    0.00547228
     atom    6 type  3   force =    -0.00135039    0.00474802   -0.00291320
     atom    7 type  3   force =     0.00322218   -0.00406780   -0.00245119
     atom    8 type  3   force =    -0.00322218    0.00406780    0.00245119
     atom    9 type  3   force =     0.00135039   -0.00474802    0.00291320
     atom   10 type  3   force =     0.00163780    0.00054476   -0.00547228
     The non-local contrib.  to forces
     atom    1 type  1   force =    -0.01585783   -0.00857592   -0.00595865
     atom    2 type  1   force =     0.00000000    0.00000000    0.00000000
     atom    3 type  1   force =     0.01585783    0.00857592    0.00595865
     atom    4 type  2   force =     0.00000000    0.00000000    0.00000000
     atom    5 type  3   force =     0.03076383   -0.04101848    0.01154454
     atom    6 type  3   force =    -0.01735654    0.02787832    0.04099100
     atom    7 type  3   force =     0.01374711    0.02776395   -0.04244430
     atom    8 type  3   force =    -0.01374711   -0.02776395    0.04244430
     atom    9 type  3   force =     0.01735654   -0.02787832   -0.04099100
     atom   10 type  3   force =    -0.03076383    0.04101848   -0.01154454
     The ionic contribution  to forces
     atom    1 type  1   force =    -3.23713659   -1.74478386   -1.20414390
     atom    2 type  1   force =    -0.00000000    0.00000000   -0.00000000
     atom    3 type  1   force =     3.23713659    1.74478386    1.20414390
     atom    4 type  2   force =    -0.00000000    0.00000000   -0.00000000
     atom    5 type  3   force =     0.37293139    3.70988690   -0.09678536
     atom    6 type  3   force =     3.30394454   -0.70352210   -1.58136487
     atom    7 type  3   force =     1.22876515   -0.36227539    3.50294164
     atom    8 type  3   force =    -1.22876515    0.36227539   -3.50294164
     atom    9 type  3   force =    -3.30394454    0.70352210    1.58136487
     atom   10 type  3   force =    -0.37293139   -3.70988690    0.09678536
     The local contribution  to forces
     atom    1 type  1   force =     3.25352328    1.75360320    1.21025746
     atom    2 type  1   force =    -0.00001895   -0.00001589   -0.00000241
     atom    3 type  1   force =    -3.25350191   -1.75361708   -1.21025571
     atom    4 type  2   force =     0.00000014   -0.00001426    0.00002489
     atom    5 type  3   force =    -0.40589922   -3.66952792    0.09038333
     atom    6 type  3   force =    -3.28841160    0.68000749    1.53720153
     atom    7 type  3   force =    -1.23988713    0.33010553   -3.46299245
     atom    8 type  3   force =     1.23985288   -0.33014995    3.46296523
     atom    9 type  3   force =     3.28835551   -0.67997087   -1.53719926
     atom   10 type  3   force =     0.40595172    3.66959569   -0.09044502
     The core correction contribution to forces
     atom    1 type  1   force =     0.00000000    0.00000000    0.00000000
     atom    2 type  1   force =     0.00000000    0.00000000    0.00000000
     atom    3 type  1   force =     0.00000000    0.00000000    0.00000000
     atom    4 type  2   force =     0.00000001   -0.00000114    0.00000216
     atom    5 type  3   force =    -0.00020698    0.00054786   -0.00002450
     atom    6 type  3   force =     0.00034274   -0.00018711   -0.00043312
     atom    7 type  3   force =     0.00003106   -0.00026864    0.00051973
     atom    8 type  3   force =    -0.00003225    0.00026743   -0.00052020
     atom    9 type  3   force =    -0.00034449    0.00018900    0.00043445
     atom   10 type  3   force =     0.00020773   -0.00054664    0.00002263
     The Hubbard contrib.    to forces
     atom    1 type  1   force =     0.00000000    0.00000000    0.00000000
     atom    2 type  1   force =     0.00000000    0.00000000    0.00000000
     atom    3 type  1   force =     0.00000000    0.00000000    0.00000000
     atom    4 type  2   force =     0.00000000    0.00000000    0.00000000
     atom    5 type  3   force =     0.00000000    0.00000000    0.00000000
     atom    6 type  3   force =     0.00000000    0.00000000    0.00000000
     atom    7 type  3   force =     0.00000000    0.00000000    0.00000000
     atom    8 type  3   force =     0.00000000    0.00000000    0.00000000
     atom    9 type  3   force =     0.00000000    0.00000000    0.00000000
     atom   10 type  3   force =     0.00000000    0.00000000    0.00000000
     The SCF correction term to forces
     atom    1 type  1   force =     0.00011890    0.00008635    0.00005475
     atom    2 type  1   force =    -0.00000567   -0.00002621   -0.00002106
     atom    3 type  1   force =    -0.00007054   -0.00009838   -0.00006886
     atom    4 type  2   force =     0.00000232    0.00000033   -0.00001697
     atom    5 type  3   force =     0.00078717   -0.00041369    0.00033128
     atom    6 type  3   force =     0.00011368    0.00058674    0.00069841
     atom    7 type  3   force =     0.00055423    0.00058747   -0.00048326
     atom    8 type  3   force =    -0.00054230   -0.00058041    0.00049604
     atom    9 type  3   force =    -0.00008943   -0.00059461   -0.00068972
     atom   10 type  3   force =    -0.00081244    0.00038357   -0.00031369

     Total force =     0.014089     Total SCF correction =     0.002301
     SCF correction compared to forces is large: reduce conv_thr to get better values

     Computing stress (Cartesian axis) and pressure

     negative rho (up, down):  1.351E-01 0.000E+00
          total   stress  (Ry/bohr**3)                   (kbar)     P=      -16.48
  -0.00010148   0.00001086   0.00000749          -14.93        1.60        1.10
   0.00001086  -0.00011576   0.00000404            1.60      -17.03        0.59
   0.00000749   0.00000404  -0.00011883            1.10        0.59      -17.48

     kinetic stress (kbar)   7391.79      7.35      5.07
                                7.35   7382.11      2.74
                                5.07      2.74   7380.04

     local   stress (kbar)   3716.72    702.97    485.15
                              702.97   2791.38    261.49
                              485.15    261.49   2592.94

     nonloc. stress (kbar)  -5084.95      0.60      0.41
                                0.60  -5085.73      0.22
                                0.41      0.22  -5085.89

     hartree stress (kbar)   4715.60   -371.80   -256.59
                             -371.80   5205.01   -138.30
                             -256.59   -138.30   5309.95

     exc-cor stress (kbar)    194.67      0.11      0.08
                                0.11    194.52      0.04
                                0.08      0.04    194.49

     corecor stress (kbar)  -2732.82     -0.11     -0.08
                               -0.11  -2732.67     -0.04
                               -0.08     -0.04  -2732.64

     ewald   stress (kbar)  -8215.94   -337.52   -232.94
                             -337.52  -7771.64   -125.55
                             -232.94   -125.55  -7676.37

     hubbard stress (kbar)      0.00      0.00      0.00
                                0.00      0.00      0.00
                                0.00      0.00      0.00

     DFT-D   stress (kbar)      0.00      0.00      0.00
                                0.00      0.00      0.00
                                0.00      0.00      0.00

     XDM     stress (kbar)      0.00      0.00      0.00
                                0.00      0.00      0.00
                                0.00      0.00      0.00

     dft-nl  stress (kbar)      0.00      0.00      0.00
                                0.00      0.00      0.00
                                0.00      0.00      0.00

     TS-vdW  stress (kbar)      0.00      0.00      0.00
                                0.00      0.00      0.00
                                0.00      0.00      0.00

[...]

                                0.00      0.00      0.00

     Writing all to output data dir new_calculations/myprefix.save/

     General routines

     Parallel routines

   This run was terminated on:  10:12:18  20May2023

   JOB DONE.