     Program PWSCF v.7.0 starts on 20May2023 at 23:26:35

     Reading input from espresso_15368.pwi
Warning: card &CELL ignored
Warning: card / ignored

     Current dimensions of program PWSCF are:
     Max number of different atomic species (ntypx) = 10
     Max number of k-points (npk) =  40000
     Max angular momentum in pseudopotentials (lmaxx) =  4
     file Ba.pbe-spn-kjpaw_psl.1.0.0.UPF: wavefunction(s)  5S 6S renormalized
     file O.pbe-n-kjpaw_psl.0.1.UPF: wavefunction(s)  2P renormalized

     gamma-point specific algorithms are used

     Subspace diagonalization in iterative solution of the eigenvalue problem:
     a serial algorithm will be used

     Using Slab Decomposition

     bravais-lattice index     =            0
     lattice parameter (alat)  =      10.1142  a.u.
     unit-cell volume          =    2367.4817 (a.u.)^3
     number of atoms/cell      =           19
     number of atomic types    =            3
     number of electrons       =       116.00
     number of Kohn-Sham states=           70
     kinetic-energy cutoff     =      30.0000  Ry
     charge density cutoff     =     240.0000  Ry
     scf convergence threshold =      1.0E-06
     mixing beta               =       0.7000
     number of iterations used =            8  plain     mixing
     Exchange-correlation= SLA  PW   PBX  PBC
                           (   1   4   3   4   0   0   0)

     celldm(1)=  10.114168  celldm(2)=   0.000000  celldm(3)=   0.000000
     celldm(4)=   0.000000  celldm(5)=   0.000000  celldm(6)=   0.000000

     crystal axes: (cart. coord. in units of alat)
               a(1) = (   1.000000   0.000000   0.000000 )
               a(2) = (   0.137723   1.362567   0.000000 )
               a(3) = (   0.120182   0.604972   1.679339 )

     reciprocal axes: (cart. coord. in units 2 pi/alat)
               b(1) = (  1.000000 -0.101076 -0.035153 )
               b(2) = (  0.000000  0.733909 -0.264386 )
               b(3) = (  0.000000  0.000000  0.595472 )

     PseudoPot. # 1 for Ba read from file:
     /home/pragov/projects/rrg-bengioy-ad/pragov/crystal_structure_design/SSSP/Ba.pbe-spn-kjpaw_psl.1.0.0.UPF
     MD5 check sum: c432291d3e53af55f19d5e8866385beb
     Pseudo is Projector augmented-wave + core cor, Zval = 10.0
     Generated using "atomic" code by A. Dal Corso  v.5.1
     Shape of augmentation charge: PSQ
     Using radial grid of 1251 points,  7 beta functions with:
                l(1) =   0
                l(2) =   0
                l(3) =   0
                l(4) =   1
                l(5) =   1
                l(6) =   2
                l(7) =   2
     Q(r) pseudized with 0 coefficients

     PseudoPot. # 2 for As read from file:
     /home/pragov/projects/rrg-bengioy-ad/pragov/crystal_structure_design/SSSP/As.pbe-n-rrkjus_psl.0.2.UPF
     MD5 check sum: 767315de957beeeb34f87d97bf945c8f
     Pseudo is Ultrasoft + core correction, Zval =  5.0
     Generated using "atomic" code by A. Dal Corso  v.5.0.99 svn rev. 10869
     Using radial grid of 1209 points,  4 beta functions with:
                l(1) =   0
                l(2) =   0
                l(3) =   1
                l(4) =   1
     Q(r) pseudized with 0 coefficients

     PseudoPot. # 3 for O  read from file:
     /home/pragov/projects/rrg-bengioy-ad/pragov/crystal_structure_design/SSSP/O.pbe-n-kjpaw_psl.0.1.UPF
     MD5 check sum: 0234752ac141de4415c5fc33072bef88
     Pseudo is Projector augmented-wave + core cor, Zval =  6.0
     Generated using "atomic" code by A. Dal Corso  v.5.0.99 svn rev. 10869
     Shape of augmentation charge: BESSEL
     Using radial grid of 1095 points,  4 beta functions with:
                l(1) =   0
                l(2) =   0
                l(3) =   1
                l(4) =   1
     Q(r) pseudized with 0 coefficients

     atomic species   valence    mass     pseudopotential
        Ba            10.00   137.32700     Ba( 1.00)
        As             5.00    74.92159     As( 1.00)
        O              6.00    15.99900     O ( 1.00)

     No symmetry found

                                    s                        frac. trans.

      isym =  1     identity

 cryst.   s( 1) = (     1          0          0      )
                  (     0          1          0      )
                  (     0          0          1      )

 cart.    s( 1) = (  1.0000000  0.0000000 -0.0000000 )
                  (  0.0000000  1.0000000 -0.0000000 )
                  (  0.0000000  0.0000000  1.0000000 )

   Cartesian axes

     site n.     atom                  positions (alat units)
         1           Ba  tau(   1) = (   0.3106515   0.6761112   0.6988906  )
         2           Ba  tau(   2) = (   0.9063230   1.2923397   0.9453504  )
         3           As  tau(   3) = (   0.7767722   0.2866005   0.3128290  )
         4           As  tau(   4) = (   0.4808761   1.7011500   1.3778407  )
         5           As  tau(   5) = (   0.8977894   0.8818311   0.1976683  )
         6           As  tau(   6) = (   0.3621307   1.1223884   1.5254075  )
         7           As  tau(   7) = (   0.4051361   1.3341476   0.4594789  )
         8           As  tau(   8) = (   0.8442674   0.6335167   1.2414128  )
         9           O   tau(   9) = (   1.0313857   0.2267837   0.5376623  )
        10           O   tau(  10) = (   0.2223547   1.7474381   1.1583410  )
        11           O   tau(  11) = (   1.0718455   1.1235656   1.3946290  )
        12           O   tau(  12) = (   0.1929940   0.7062529   0.1366008  )
        13           O   tau(  13) = (   0.7475335   0.6181865   0.3832067  )
        14           O   tau(  14) = (   0.5242056   1.3723897   1.3298838  )
        15           O   tau(  15) = (   0.4223415   1.1927878   0.7482598  )
        16           O   tau(  16) = (   0.8626725   0.7897663   0.9621471  )
        17           O   tau(  17) = (   0.5299684   0.2131106   0.5340433  )
        18           O   tau(  18) = (   0.5754269   0.4223120   1.1403183  )
        19           O   tau(  19) = (   1.0119541   1.0453164   0.4517674  )

   Crystallographic axes

     site n.     atom                  positions (cryst. coord.)
         1           Ba  tau(   1) = (  0.2177450  0.3114270  0.4161700  )
         2           Ba  tau(   2) = (  0.7424670  0.6985220  0.5629300  )
         3           As  tau(   3) = (  0.7368070  0.1276310  0.1862810  )
         4           As  tau(   4) = (  0.2604960  0.8842070  0.8204660  )
         5           As  tau(   5) = (  0.8017090  0.5949230  0.1177060  )
         6           As  tau(   6) = (  0.1950620  0.4204340  0.9083380  )
         7           As  tau(   7) = (  0.2541340  0.8576630  0.2736070  )
         8           As  tau(   8) = (  0.7365950  0.1367310  0.7392270  )
         9           O   tau(   9) = (  0.9895630  0.0242880  0.3201630  )
        10           O   tau(  10) = (  0.0050120  0.9762110  0.6897600  )
        11           O   tau(  11) = (  0.9092550  0.4558740  0.8304630  )
        12           O   tau(  12) = (  0.1168070  0.4822100  0.0813420  )
        13           O   tau(  13) = (  0.6715790  0.3523780  0.2281890  )
        14           O   tau(  14) = (  0.3387410  0.6556060  0.7919090  )
        15           O   tau(  15) = (  0.2754760  0.6775680  0.4455680  )
        16           O   tau(  16) = (  0.7490240  0.3252380  0.5729320  )
        17           O   tau(  17) = (  0.4896550  0.0152100  0.3180080  )
        18           O   tau(  18) = (  0.4926560  0.0084540  0.6790280  )
        19           O   tau(  19) = (  0.8904170  0.6477260  0.2690150  )

     number of k points=     1  Methfessel-Paxton smearing, width (Ry)=  0.0010
                       cart. coord. in units 2pi/alat
        k(    1) = (   0.0000000   0.0000000   0.0000000), wk =   2.0000000

                       cryst. coord.
        k(    1) = (   0.0000000   0.0000000   0.0000000), wk =   2.0000000

     Check: negative core charge=   -0.000006

     Initial potential from superposition of free atoms

     starting charge     115.9646, renormalised to     116.0000
     Starting wfcs are   78 randomized atomic wfcs
     Checking if some PAW data can be deallocated...

     Self-consistent Calculation

     iteration #  1     ecut=    30.00 Ry     beta= 0.70
     Davidson diagonalization with overlap

     ethr =  1.00E-02,  avg # of iterations =  5.0

     negative rho (up, down):  7.003E-02 0.000E+00

     total energy              =   -1436.72545070 Ry
     estimated scf accuracy    <       5.71048935 Ry

[...]

     negative rho (up, down):  1.542E-03 0.000E+00

[...]

     total energy              =   -1439.75388538 Ry
     estimated scf accuracy    <       0.00000894 Ry

     iteration # 14     ecut=    30.00 Ry     beta= 0.70
     Davidson diagonalization with overlap

     ethr =  7.71E-09,  avg # of iterations =  2.0

     End of self-consistent calculation

          k = 0.0000 0.0000 0.0000 (  3281 PWs)   bands (ev):

   -21.4821 -21.0274 -15.4872 -15.4260 -14.7511 -14.2665 -13.8158 -13.6094
   -13.5220 -13.3438 -13.2042 -12.9401 -12.7603  -6.8189  -6.7058  -6.6622
    -6.5146  -6.3253  -6.2772  -6.1862  -5.9951  -5.0978  -4.2322  -3.6153
    -3.5119  -1.3554  -1.0185  -0.8722  -0.7994  -0.5300  -0.2326  -0.0669
     0.1886   0.4109   0.6900   0.8171   0.9093   1.1320   1.2620   1.4477
     1.5849   1.9265   2.1494   2.3995   2.5115   2.6109   2.7095   2.8144
     2.9458   3.0367   3.1470   3.2202   3.2833   3.3749   3.4916   3.7631
     3.8922   4.1360   7.4682   7.8586   8.2976   8.3455   8.6368   8.6680
     8.8553   9.2413   9.4735   9.5394   9.7098   9.8692

     occupation numbers
     1.0000   1.0000   1.0000   1.0000   1.0000   1.0000   1.0000   1.0000
     1.0000   1.0000   1.0000   1.0000   1.0000   1.0000   1.0000   1.0000
     1.0000   1.0000   1.0000   1.0000   1.0000   1.0000   1.0000   1.0000
     1.0000   1.0000   1.0000   1.0000   1.0000   1.0000   1.0000   1.0000
     1.0000   1.0000   1.0000   1.0000   1.0000   1.0000   1.0000   1.0000
     1.0000   1.0000   1.0000   1.0000   1.0000   1.0000   1.0000   1.0000
     1.0000   1.0000   1.0000   1.0000   1.0000   1.0000   1.0000   1.0000
     1.0000   1.0000  -0.0000  -0.0000  -0.0000  -0.0000  -0.0000  -0.0000
    -0.0000  -0.0000  -0.0000  -0.0000  -0.0000  -0.0000

     the Fermi energy is     6.0523 ev

!    total energy              =   -1439.75388560 Ry
     estimated scf accuracy    <       0.00000083 Ry
     smearing contrib. (-TS)   =       0.00000000 Ry
     internal energy E=F+TS    =   -1439.75388560 Ry

     The total energy is F=E-TS. E is the sum of the following terms:
     one-electron contribution =    -256.67106879 Ry
     hartree contribution      =     190.93476861 Ry
     xc contribution           =    -177.33609352 Ry
     ewald contribution        =    -341.96157325 Ry
     one-center paw contrib.   =    -854.71991865 Ry
      -> PAW hartree energy AE =     382.32444783 Ry
      -> PAW hartree energy PS =    -380.99198544 Ry
      -> PAW xc energy AE      =    -977.20897987 Ry
      -> PAW xc energy PS      =     121.15659884 Ry
      -> total E_H with PAW    =     192.26723100 Ry
      -> total E_XC with PAW   =   -1033.38847456 Ry

     convergence has been achieved in  14 iterations

     Forces acting on atoms (cartesian axes, Ry/au):

     atom    1 type  1   force =    -0.00130426   -0.00455350   -0.00178124
     atom    2 type  1   force =    -0.00042939    0.01207911    0.00963990
     atom    3 type  2   force =     0.00176172   -0.01274037   -0.01073984
     atom    4 type  2   force =    -0.00680013   -0.00097099    0.01033577
     atom    5 type  2   force =    -0.01681037    0.00266482   -0.02679773
     atom    6 type  2   force =     0.03249201   -0.00796805    0.00796813
     atom    7 type  2   force =    -0.00097277   -0.00871047   -0.01223929
     atom    8 type  2   force =    -0.00399661    0.00017001    0.02170066
     atom    9 type  3   force =     0.00080778    0.01013381    0.00790257
     atom   10 type  3   force =     0.00271339   -0.01935282   -0.00069526
     atom   11 type  3   force =    -0.02943509   -0.01730284   -0.00523505
     atom   12 type  3   force =     0.01332077    0.00344222    0.00111761
     atom   13 type  3   force =    -0.00464799    0.00456197    0.02335864
     atom   14 type  3   force =     0.00847864    0.00613063   -0.01507562
     atom   15 type  3   force =    -0.00020017   -0.02074737    0.01406061
     atom   16 type  3   force =     0.00230737    0.01664428   -0.02338499
     atom   17 type  3   force =    -0.00061414   -0.00603197    0.00379739
     atom   18 type  3   force =    -0.00108794    0.01821799   -0.01454555
     atom   19 type  3   force =     0.00441717    0.02433354    0.01061329
     The non-local contrib.  to forces
     atom    1 type  1   force =     0.00474243    0.00769928    0.01888954
     atom    2 type  1   force =     0.01025836   -0.00148572   -0.03466433
     atom    3 type  2   force =    -0.03269028    0.25879221    0.68001359
     atom    4 type  2   force =     0.01695772   -0.30490225   -0.65490670
     atom    5 type  2   force =     0.34213888   -0.25345369    0.50199500
     atom    6 type  2   force =    -0.34033141    0.51757900   -0.05647989
     atom    7 type  2   force =    -0.03105777    0.26067616    0.59662878
     atom    8 type  2   force =     0.01253438   -0.25254844   -0.62618100
     atom    9 type  3   force =    -0.19558810   -0.54114210   -0.99423995
     atom   10 type  3   force =     0.24590299    0.59287040    1.03576782
     atom   11 type  3   force =     1.33604091    0.10488208    0.45656054
     atom   12 type  3   force =    -0.80505151   -0.10837293   -0.67367382
     atom   13 type  3   force =     0.54121729   -0.50235490   -0.83363605
     atom   14 type  3   force =    -0.66520200    0.66275272    0.75096320
     atom   15 type  3   force =    -0.10421387    0.60347442   -1.19249854
     atom   16 type  3   force =    -0.01148688   -0.63623928    1.23923504
     atom   17 type  3   force =     0.27269065   -0.30707029   -1.00741748
     atom   18 type  3   force =    -0.04323532    0.20313348    1.13794050
     atom   19 type  3   force =    -0.36894282   -0.70544410   -1.04475354
     The ionic contribution  to forces
     atom    1 type  1   force =     1.36931411    1.26648446    0.94375153
     atom    2 type  1   force =     0.16179263   -0.70257261    3.15902023
     atom    3 type  2   force =    -0.22310789   -3.42006462   -9.16963315
     atom    4 type  2   force =     0.21276962    4.13892820    8.26679733
     atom    5 type  2   force =    -3.78689010    3.94620668   -6.54685642
     atom    6 type  2   force =     3.53145104   -6.11774085    1.16609978
     atom    7 type  2   force =     0.78687062   -2.24132107   -8.73292549
     atom    8 type  2   force =    -0.50459699    2.49214049    8.92538563
     atom    9 type  3   force =     0.67515128    0.62568248   -0.99067790
     atom   10 type  3   force =    -0.74526707   -0.43854240    1.71089634
     atom   11 type  3   force =    -4.07183686   -2.79231994    1.25816313
     atom   12 type  3   force =     3.72287390    0.32370571   -0.86048137
     atom   13 type  3   force =    -2.65413404    1.96652089   -1.93252551
     atom   14 type  3   force =     2.45167609   -2.76859975    1.41602870
     atom   15 type  3   force =     0.75286158   -2.84442996    3.64355192
     atom   16 type  3   force =    -0.85999117    2.27071961   -0.47886504
     atom   17 type  3   force =    -0.77502798   -0.36236844   -1.64973989
     atom   18 type  3   force =     0.14898260    1.20813175    1.50919577
     atom   19 type  3   force =    -0.19289135    3.44943937   -1.63718559
     The local contribution  to forces
     atom    1 type  1   force =    -1.37549507   -1.27806403   -0.96326515
     atom    2 type  1   force =    -0.17190865    0.71442845   -3.11788070
     atom    3 type  2   force =     0.25874285    3.16818388    8.53380441
     atom    4 type  2   force =    -0.23544716   -3.85689940   -7.65386067
     atom    5 type  2   force =     3.44679886   -3.72727929    6.04606620
     atom    6 type  2   force =    -3.16039206    5.64343025   -1.09601043
     atom    7 type  2   force =    -0.76381199    2.01006046    8.15856937
     atom    8 type  2   force =     0.48825243   -2.27706048   -8.31371939
     atom    9 type  3   force =    -0.48065917   -0.08004055    1.98218484
     atom   10 type  3   force =     0.50458213   -0.16761789   -2.73666502
     atom   11 type  3   force =     2.71940736    2.67147665   -1.71527995
     atom   12 type  3   force =    -2.91263586   -0.21328933    1.52833414
     atom   13 type  3   force =     2.11402628   -1.46513541    2.78059290
     atom   14 type  3   force =    -1.78492211    2.11889991   -2.17412473
     atom   15 type  3   force =    -0.64994603    2.22651670   -2.44847898
     atom   16 type  3   force =     0.87343490   -1.62441682   -0.77162616
     atom   17 type  3   force =     0.50445162    0.66027019    2.65024269
     atom   18 type  3   force =    -0.10712152   -1.39129089   -2.64983712
     atom   19 type  3   force =     0.56268694   -2.72654514    2.68193753
     The core correction contribution to forces
     atom    1 type  1   force =     0.00024063   -0.00101300   -0.00117931
     atom    2 type  1   force =    -0.00065521    0.00203569    0.00326939
     atom    3 type  2   force =    -0.00112473   -0.01970419   -0.05504932
     atom    4 type  2   force =    -0.00082611    0.02196301    0.05236375
     atom    5 type  2   force =    -0.01884892    0.03709395   -0.02838649
     atom    6 type  2   force =     0.00197801   -0.05127303   -0.00535481
     atom    7 type  2   force =     0.00706080   -0.03786016   -0.03480657
     atom    8 type  2   force =    -0.00042711    0.03754561    0.03631034
     atom    9 type  3   force =     0.00195031    0.00569690    0.01021617
     atom   10 type  3   force =    -0.00243766   -0.00608645   -0.01059075
     atom   11 type  3   force =    -0.01285477   -0.00128489   -0.00438393
     atom   12 type  3   force =     0.00807309    0.00126441    0.00678819
     atom   13 type  3   force =    -0.00568555    0.00513798    0.00873889
     atom   14 type  3   force =     0.00696820   -0.00670108   -0.00777419
     atom   15 type  3   force =     0.00114087   -0.00610536    0.01137057
     atom   16 type  3   force =     0.00024194    0.00639529   -0.01203031
     atom   17 type  3   force =    -0.00273183    0.00327118    0.01041535
     atom   18 type  3   force =     0.00029371   -0.00179383   -0.01168885
     atom   19 type  3   force =     0.00359851    0.00683658    0.01023545
     The Hubbard contrib.    to forces
     atom    1 type  1   force =     0.00000000    0.00000000    0.00000000
     atom    2 type  1   force =     0.00000000    0.00000000    0.00000000
     atom    3 type  2   force =     0.00000000    0.00000000    0.00000000
     atom    4 type  2   force =     0.00000000    0.00000000    0.00000000
     atom    5 type  2   force =     0.00000000    0.00000000    0.00000000
     atom    6 type  2   force =     0.00000000    0.00000000    0.00000000
     atom    7 type  2   force =     0.00000000    0.00000000    0.00000000
     atom    8 type  2   force =     0.00000000    0.00000000    0.00000000
     atom    9 type  3   force =     0.00000000    0.00000000    0.00000000
     atom   10 type  3   force =     0.00000000    0.00000000    0.00000000
     atom   11 type  3   force =     0.00000000    0.00000000    0.00000000
     atom   12 type  3   force =     0.00000000    0.00000000    0.00000000
     atom   13 type  3   force =     0.00000000    0.00000000    0.00000000
     atom   14 type  3   force =     0.00000000    0.00000000    0.00000000
     atom   15 type  3   force =     0.00000000    0.00000000    0.00000000
     atom   16 type  3   force =     0.00000000    0.00000000    0.00000000
     atom   17 type  3   force =     0.00000000    0.00000000    0.00000000
     atom   18 type  3   force =     0.00000000    0.00000000    0.00000000
     atom   19 type  3   force =     0.00000000    0.00000000    0.00000000
     The SCF correction term to forces
     atom    1 type  1   force =    -0.00009054    0.00034425    0.00001851
     atom    2 type  1   force =     0.00009930   -0.00032224   -0.00010832
     atom    3 type  2   force =    -0.00004241    0.00005681    0.00012101
     atom    4 type  2   force =    -0.00023839   -0.00005609   -0.00006156
     atom    5 type  2   force =     0.00000673    0.00010163    0.00038035
     atom    6 type  2   force =    -0.00019775    0.00004104   -0.00029016
     atom    7 type  2   force =    -0.00001861   -0.00026141    0.00029099
     atom    8 type  2   force =     0.00025649    0.00009729   -0.00009855
     atom    9 type  3   force =    -0.00003074   -0.00005845    0.00041578
     atom   10 type  3   force =    -0.00005118    0.00002797   -0.00010727
     atom   11 type  3   force =    -0.00017591   -0.00005227   -0.00029846
     atom   12 type  3   force =     0.00007697    0.00013883    0.00014684
     atom   13 type  3   force =    -0.00005615    0.00039787    0.00018477
     atom   14 type  3   force =    -0.00002572   -0.00021672   -0.00017222
     atom   15 type  3   force =    -0.00002690   -0.00019872    0.00011201
     atom   16 type  3   force =     0.00012440    0.00018994   -0.00010215
     atom   17 type  3   force =     0.00001923   -0.00013015    0.00029308
     atom   18 type  3   force =     0.00000840    0.00004194   -0.00015947
     atom   19 type  3   force =    -0.00001830    0.00005129    0.00037581

     Total force =     0.096113     Total SCF correction =     0.001370

     Computing stress (Cartesian axis) and pressure

          total   stress  (Ry/bohr**3)                   (kbar)     P=     -199.11
  -0.00131263  -0.00000090   0.00000853         -193.09       -0.13        1.26
  -0.00000090  -0.00138647  -0.00002671           -0.13     -203.96       -3.93
   0.00000853  -0.00002671  -0.00136143            1.26       -3.93     -200.27

     kinetic stress (kbar)  10418.15    -16.69     17.29
                              -16.69  10367.68     38.77
                               17.29     38.77  10388.39

     local   stress (kbar) -11849.45   -885.33    371.28
                             -885.33  -9357.03   2280.01
                              371.28   2280.01  -1434.27

     nonloc. stress (kbar)   2713.19      0.17     -2.50
                                0.17   2708.23      1.50
                               -2.50      1.50   2706.04

     hartree stress (kbar)   5916.62    386.49   -148.12
                              386.49   4733.45   -936.93
                             -148.12   -936.93   1213.80

     exc-cor stress (kbar)   1524.54      0.20      0.42
                                0.20   1524.64     -1.20
                                0.42     -1.20   1523.90

     corecor stress (kbar)  -4147.01      2.00     -2.37
                                2.00  -4145.00      0.02
                               -2.37      0.02  -4155.17

     ewald   stress (kbar)  -4769.14    513.03   -234.75
                              513.03  -6035.92  -1386.09
                             -234.75  -1386.09 -10442.96

     hubbard stress (kbar)      0.00      0.00      0.00
                                0.00      0.00      0.00
                                0.00      0.00      0.00

     DFT-D   stress (kbar)      0.00      0.00      0.00
                                0.00      0.00      0.00
                                0.00      0.00      0.00

     XDM     stress (kbar)      0.00      0.00      0.00
                                0.00      0.00      0.00
                                0.00      0.00      0.00

     dft-nl  stress (kbar)      0.00      0.00      0.00
                                0.00      0.00      0.00
                                0.00      0.00      0.00

     TS-vdW  stress (kbar)      0.00      0.00      0.00
                                0.00      0.00      0.00
                                0.00      0.00      0.00

[...]

                                0.00      0.00      0.00

     Writing all to output data dir new_calculations/myprefix.save/

     General routines

     Parallel routines

     PAW routines

   This run was terminated on:  23:27: 5  20May2023

   JOB DONE.