     Program PWSCF v.7.0 starts on 21May2023 at  7:26:47

     Reading input from espresso_17941.pwi
Warning: card &CELL ignored
Warning: card / ignored

     Current dimensions of program PWSCF are:
     Max number of different atomic species (ntypx) = 10
     Max number of k-points (npk) =  40000
     Max angular momentum in pseudopotentials (lmaxx) =  4

     gamma-point specific algorithms are used
     Message from routine setup:
     using ibrav=0 with symmetry is DISCOURAGED, use correct ibrav instead

     Subspace diagonalization in iterative solution of the eigenvalue problem:
     a serial algorithm will be used

     Using Slab Decomposition

     bravais-lattice index     =            0
     lattice parameter (alat)  =      11.1932  a.u.
     unit-cell volume          =     570.9525 (a.u.)^3
     number of atoms/cell      =            4
     number of atomic types    =            2
     number of electrons       =        40.00
     number of Kohn-Sham states=           24
     kinetic-energy cutoff     =      30.0000  Ry
     charge density cutoff     =     240.0000  Ry
     scf convergence threshold =      1.0E-06
     mixing beta               =       0.7000
     number of iterations used =            8  plain     mixing
     Exchange-correlation=  SLA  PW   PBX  PBC
                           (   1   4   3   4   0   0   0)

     celldm(1)=  11.193231  celldm(2)=   0.000000  celldm(3)=   0.000000
     celldm(4)=   0.000000  celldm(5)=   0.000000  celldm(6)=   0.000000

     crystal axes: (cart. coord. in units of alat)
               a(1) = (   1.000000   0.000000   0.000000 )
               a(2) = (  -0.784540   0.620078   0.000000 )
               a(3) = (   0.000000   0.000000   0.656579 )

     reciprocal axes: (cart. coord. in units 2 pi/alat)
               b(1) = (  1.000000  1.265227  0.000000 )
               b(2) = (  0.000000  1.612699  0.000000 )
               b(3) = (  0.000000  0.000000  1.523046 )

     PseudoPot. # 1 for Ge read from file:
     /home/pragov/projects/rrg-bengioy-ad/pragov/crystal_structure_design/SSSP/ge_pbe_v1.4.uspp.F.UPF
     MD5 check sum: 9c9eaa91e581c3f09632fb3098b2c6b2
     Pseudo is Ultrasoft + core correction, Zval = 14.0
     Generated by new atomic code, or converted to UPF format
     Using radial grid of  873 points,  6 beta functions with:
                l(1) =   0
                l(2) =   0
                l(3) =   1
                l(4) =   1
                l(5) =   2
                l(6) =   2
     Q(r) pseudized with  8 coefficients,  rinner =    1.400   1.400   1.400
                                                       1.400   1.400

     PseudoPot. # 2 for S  read from file:
     /home/pragov/projects/rrg-bengioy-ad/pragov/crystal_structure_design/SSSP/s_pbe_v1.4.uspp.F.UPF
     MD5 check sum: 88d86576ff6df21479756cfb9bdac1df
     Pseudo is Ultrasoft + core correction, Zval =  6.0
     Generated by new atomic code, or converted to UPF format
     Using radial grid of  907 points,  6 beta functions with:
                l(1) =   0
                l(2) =   0
                l(3) =   1
                l(4) =   1
                l(5) =   2
                l(6) =   2
     Q(r) pseudized with  8 coefficients,  rinner =    1.300   1.300   1.300
                                                       1.300   1.300

     atomic species   valence    mass     pseudopotential
        Ge            14.00    72.63000     Ge( 1.00)
        S              6.00    32.06000     S ( 1.00)

      4 Sym. Ops., with inversion, found ( 2 have fractional translation)

                                    s                        frac. trans.

      isym =  1     identity

 cryst.   s( 1) = (     1          0          0      )
                  (     0          1          0      )
                  (     0          0          1      )

 cart.    s( 1) = (  1.0000000  0.0000000  0.0000000 )
                  (  0.0000000  1.0000000  0.0000000 )
                  (  0.0000000  0.0000000  1.0000000 )

      isym =  2     180 deg rotation - cart. axis [0,0,1]

 cryst.   s( 2) = (    -1          0          0      )    f =(  0.0000000 )
                  (     0         -1          0      )       (  0.0000000 )
                  (     0          0          1      )       ( -0.5000000 )

 cart.    s( 2) = ( -1.0000000 -0.0000000  0.0000000 )    f =( -0.0000000 )
                  (  0.0000000 -1.0000000  0.0000000 )       (  0.0000000 )
                  (  0.0000000  0.0000000  1.0000000 )       ( -0.3282894 )

      isym =  3     inversion

 cryst.   s( 3) = (    -1          0          0      )
                  (     0         -1          0      )
                  (     0          0         -1      )

 cart.    s( 3) = ( -1.0000000 -0.0000000  0.0000000 )
                  (  0.0000000 -1.0000000  0.0000000 )
                  (  0.0000000  0.0000000 -1.0000000 )

      isym =  4     inv. 180 deg rotation - cart. axis [0,0,1]

 cryst.   s( 4) = (     1          0          0      )    f =(  0.0000000 )
                  (     0          1          0      )       (  0.0000000 )
                  (     0          0         -1      )       (  0.5000000 )

 cart.    s( 4) = (  1.0000000  0.0000000  0.0000000 )    f =(  0.0000000 )
                  (  0.0000000  1.0000000  0.0000000 )       (  0.0000000 )
                  (  0.0000000  0.0000000 -1.0000000 )       (  0.3282894 )

   Cartesian axes

     site n.     atom                  positions (alat units)
         1           Ge  tau(   1) = (  -0.5354306   0.5335198   0.1641447  )
         2           Ge  tau(   2) = (   0.7508907   0.0865586   0.4924342  )
         3           S   tau(   3) = (  -0.1555395   0.4015181   0.1641447  )
         4           S   tau(   4) = (   0.3709997   0.2185603   0.4924342  )

   Crystallographic axes

     site n.     atom                  positions (cryst. coord.)
         1           Ge  tau(   1) = (  0.1395930  0.8604070  0.2500000  )
         2           Ge  tau(   2) = (  0.8604070  0.1395930  0.7500000  )
         3           S   tau(   3) = (  0.3524720  0.6475280  0.2500000  )
         4           S   tau(   4) = (  0.6475280  0.3524720  0.7500000  )

     number of k points=     1  Methfessel-Paxton smearing, width (Ry)=  0.0010
                       cart. coord. in units 2pi/alat
        k(    1) = (   0.0000000   0.0000000   0.0000000), wk =   2.0000000

                       cryst. coord.
        k(    1) = (   0.0000000   0.0000000   0.0000000), wk =   2.0000000

     Check: negative core charge=   -0.000001

     Initial potential from superposition of free atoms

     starting charge      39.9982, renormalised to      40.0000
     Starting wfcs are   26 randomized atomic wfcs

     Self-consistent Calculation

     iteration #  1     ecut=    30.00 Ry     beta= 0.70
     Davidson diagonalization with overlap

     ethr =  1.00E-02,  avg # of iterations =  2.0

     Threshold (ethr) on eigenvalues was too large:
     Diagonalizing with lowered threshold

     Davidson diagonalization with overlap

[...]

     total energy              =    -475.34735464 Ry
     estimated scf accuracy    <       0.26145313 Ry

[...]

     total energy              =    -475.46073354 Ry
     estimated scf accuracy    <       0.00000296 Ry

     iteration #  7     ecut=    30.00 Ry     beta= 0.70
     Davidson diagonalization with overlap

     ethr =  7.39E-09,  avg # of iterations =  3.0

     End of self-consistent calculation

          k = 0.0000 0.0000 0.0000 (   803 PWs)   bands (ev):

   -17.4303 -17.4126 -17.4114 -17.3977 -17.3972 -17.3954 -17.3941 -17.3902
   -17.3865 -17.3828  -7.0024  -4.6206   0.1413   1.9743   2.4052   3.5084
     3.7315   5.1706   5.6250   6.9801  11.2625  11.7010  12.0661  12.2974

     occupation numbers
     1.0000   1.0000   1.0000   1.0000   1.0000   1.0000   1.0000   1.0000
     1.0000   1.0000   1.0000   1.0000   1.0000   1.0000   1.0000   1.0000
     1.0000   1.0000   1.0000   1.0000  -0.0000  -0.0000  -0.0000  -0.0000

     the Fermi energy is     8.6835 ev

!    total energy              =    -475.46073441 Ry
     estimated scf accuracy    <       0.00000018 Ry
     smearing contrib. (-TS)   =       0.00000000 Ry
     internal energy E=F+TS    =    -475.46073441 Ry

     The total energy is F=E-TS. E is the sum of the following terms:
     one-electron contribution =    -280.55618279 Ry
     hartree contribution      =     171.95767505 Ry
     xc contribution           =    -133.39602565 Ry
     ewald contribution        =    -233.46620102 Ry

     convergence has been achieved in   7 iterations

     Forces acting on atoms (cartesian axes, Ry/au):

     atom    1 type  1   force =    -0.01347885    0.00466943    0.00000000
     atom    2 type  1   force =     0.01347885   -0.00466943    0.00000000
     atom    3 type  2   force =     0.09646814   -0.03351955    0.00000000
     atom    4 type  2   force =    -0.09646814    0.03351955    0.00000000
     The non-local contrib.  to forces
     atom    1 type  1   force =     0.36893257   -0.12818881    0.00000000
     atom    2 type  1   force =    -0.36893257    0.12818881    0.00000000
     atom    3 type  2   force =    -0.26962786    0.09368309    0.00000000
     atom    4 type  2   force =     0.26962786   -0.09368309    0.00000000
     The ionic contribution  to forces
     atom    1 type  1   force =    -7.86769431    2.73380673    0.00000000
     atom    2 type  1   force =     7.86769431   -2.73380673    0.00000000
     atom    3 type  2   force =     5.05786723   -1.75746933    0.00000000
     atom    4 type  2   force =    -5.05786723    1.75746933    0.00000000
     The local contribution  to forces
     atom    1 type  1   force =     7.48834138   -2.60200048    0.00006255
     atom    2 type  1   force =    -7.48829180    2.60194452   -0.00002466
     atom    3 type  2   force =    -4.70716073    1.63562845    0.00004599
     atom    4 type  2   force =     4.70715235   -1.63561560   -0.00002330
     The core correction contribution to forces
     atom    1 type  1   force =    -0.00195299    0.00067763    0.00000047
     atom    2 type  1   force =     0.00195395   -0.00067971    0.00000038
     atom    3 type  2   force =     0.01501941   -0.00521811    0.00000162
     atom    4 type  2   force =    -0.01501799    0.00521869   -0.00000093
     The Hubbard contrib.    to forces
     atom    1 type  1   force =     0.00000000    0.00000000    0.00000000
     atom    2 type  1   force =     0.00000000    0.00000000    0.00000000
     atom    3 type  2   force =     0.00000000    0.00000000    0.00000000
     atom    4 type  2   force =     0.00000000    0.00000000    0.00000000
     The SCF correction term to forces
     atom    1 type  1   force =    -0.00111703    0.00037854   -0.00008028
     atom    2 type  1   force =     0.00104343   -0.00031216    0.00005164
     atom    3 type  2   force =     0.00037306   -0.00014260   -0.00003385
     atom    4 type  2   force =    -0.00036016    0.00013128    0.00002295

     Total force =     0.145830     Total SCF correction =     0.001701

     Computing stress (Cartesian axis) and pressure

          total   stress  (Ry/bohr**3)                   (kbar)     P=       47.91
  -0.00027467   0.00021187   0.00000000          -40.40       31.17        0.00
   0.00021187   0.00026143   0.00000000           31.17       38.46        0.00
   0.00000000   0.00000000   0.00099024            0.00        0.00      145.67

     kinetic stress (kbar)   7910.24     36.87      0.00
                               36.87   8003.58      0.00
                                0.00      0.00   8115.98

     local   stress (kbar)   2460.53  -1270.68     -0.00
                            -1270.68   -754.84     -0.00
                               -0.00     -0.00  -2569.79

     nonloc. stress (kbar)   3817.67    -20.19      0.00
                              -20.19   3766.52      0.00
                                0.00      0.00   3755.90

     hartree stress (kbar)  13513.79    585.25      0.00
                              585.25  14994.74      0.00
                                0.00      0.00  15796.12

     exc-cor stress (kbar)  11682.03     -0.96     -0.00
                               -0.96  11679.59      0.00
                               -0.00      0.00  11678.47

     corecor stress (kbar) -17853.06      1.01      0.00
                                1.01 -17850.49     -0.00
                                0.00     -0.00 -17851.02

     ewald   stress (kbar) -21571.60    699.86      0.00
                              699.86 -19800.64      0.00
                                0.00      0.00 -18779.99

     hubbard stress (kbar)      0.00      0.00      0.00
                                0.00      0.00      0.00
                                0.00      0.00      0.00

     DFT-D   stress (kbar)      0.00      0.00      0.00
                                0.00      0.00      0.00
                                0.00      0.00      0.00

     XDM     stress (kbar)      0.00      0.00      0.00
                                0.00      0.00      0.00
                                0.00      0.00      0.00

     dft-nl  stress (kbar)      0.00      0.00      0.00
                                0.00      0.00      0.00
                                0.00      0.00      0.00

     TS-vdW  stress (kbar)      0.00      0.00      0.00
                                0.00      0.00      0.00
                                0.00      0.00      0.00

[...]

                                0.00      0.00      0.00

     Writing all to output data dir new_calculations/myprefix.save/

     General routines

     Parallel routines

   This run was terminated on:   7:27:27  21May2023

   JOB DONE.