     Program PWSCF v.7.0 starts on 20May2023 at 19:10:11

     Reading input from espresso_23062.pwi
Warning: card &CELL ignored
Warning: card / ignored

     Current dimensions of program PWSCF are:
     Max number of different atomic species (ntypx) = 10
     Max number of k-points (npk) =  40000
     Max angular momentum in pseudopotentials (lmaxx) =  4
     file K.pbe-spn-kjpaw_psl.1.0.0.UPF: wavefunction(s)  3S renormalized

     gamma-point specific algorithms are used
     Message from routine setup:
     using ibrav=0 with symmetry is DISCOURAGED, use correct ibrav instead

     Subspace diagonalization in iterative solution of the eigenvalue problem:
     a serial algorithm will be used

     Using Slab Decomposition

     bravais-lattice index     =            0
     lattice parameter (alat)  =      12.9628  a.u.
     unit-cell volume          =    2912.3963 (a.u.)^3
     number of atoms/cell      =           10
     number of atomic types    =            2
     number of electrons       =       114.00
     number of Kohn-Sham states=           68
     kinetic-energy cutoff     =      30.0000  Ry
     charge density cutoff     =     240.0000  Ry
     scf convergence threshold =      1.0E-06
     mixing beta               =       0.7000
     number of iterations used =            8  plain     mixing
     Exchange-correlation= SLA  PW   PBE  PBE
                           (   1   4   3   4   0   0   0)

     celldm(1)=  12.962823  celldm(2)=   0.000000  celldm(3)=   0.000000
     celldm(4)=   0.000000  celldm(5)=   0.000000  celldm(6)=   0.000000

     crystal axes: (cart. coord. in units of alat)
               a(1) = (   1.000000   0.000000   0.000000 )
               a(2) = (  -0.036551   0.999332   0.000000 )
               a(3) = (   0.268609   0.278614   1.337956 )

     reciprocal axes: (cart. coord. in units 2 pi/alat)
               b(1) = (  1.000000  0.036575 -0.208377 )
               b(2) = (  0.000000  1.000669 -0.208377 )
               b(3) = (  0.000000  0.000000  0.747408 )

     PseudoPot. # 1 for K  read from file:
     /home/pragov/projects/rrg-bengioy-ad/pragov/crystal_structure_design/SSSP/K.pbe-spn-kjpaw_psl.1.0.0.UPF
     MD5 check sum: 7d58810084cac21f60fbe77ea2b688fd
     Pseudo is Projector augmented-wave + core cor, Zval =  9.0
     Generated using "atomic" code by A. Dal Corso  v.5.1
     Shape of augmentation charge: PSQ
     Using radial grid of 1165 points,  6 beta functions with:
                l(1) =   0
                l(2) =   0
                l(3) =   1
                l(4) =   1
                l(5) =   2
                l(6) =   2
     Q(r) pseudized with 0 coefficients

     PseudoPot. # 2 for Bi read from file:
     /home/pragov/projects/rrg-bengioy-ad/pragov/crystal_structure_design/SSSP/Bi_pbe_v1.uspp.F.UPF
     MD5 check sum: cceb9f28ec65b6d7ff33140f5b0b1758
     Pseudo is Ultrasoft + core correction, Zval = 15.0
     Generated by new atomic code, or converted to UPF format
     Using radial grid of  899 points,  6 beta functions with:
                l(1) =   0
                l(2) =   0
                l(3) =   1
                l(4) =   1
                l(5) =   2
                l(6) =   2
     Q(r) pseudized with  6 coefficients,  rinner =    1.000   1.000   1.000
                                                       1.000   1.000

     atomic species   valence    mass     pseudopotential
        K              9.00    39.09830     K ( 1.00)
        Bi            15.00   208.98040     Bi( 1.00)

      2 Sym. Ops., with inversion, found

                                    s                        frac. trans.

      isym =  1     identity

 cryst.   s( 1) = (     1          0          0      )
                  (     0          1          0      )
                  (     0          0          1      )

 cart.    s( 1) = (  1.0000000  0.0000000  0.0000000 )
                  (  0.0000000  1.0000000  0.0000000 )
                  (  0.0000000  0.0000000  1.0000000 )

      isym =  2     inversion

 cryst.   s( 2) = (    -1          0          0      )
                  (     0         -1          0      )
                  (     0          0         -1      )

 cart.    s( 2) = ( -1.0000000 -0.0000000 -0.0000000 )
                  (  0.0000000 -1.0000000 -0.0000000 )
                  (  0.0000000  0.0000000 -1.0000000 )

   Cartesian axes

     site n.     atom                  positions (alat units)
         1           K   tau(   1) = (   0.7666592   0.9048007   0.6968064  )
         2           K   tau(   2) = (   0.4653992   0.3731447   0.6411501  )
         3           K   tau(   3) = (   0.4901892   0.6180339   1.3101283  )
         4           K   tau(   4) = (   0.7418692   0.6599115   0.0278282  )
         5           K   tau(   5) = (   1.0316483   0.3726717   1.0034673  )
         6           K   tau(   6) = (   0.2004102   0.9052736   0.3344891  )
         7           Bi  tau(   7) = (   0.5089648   1.1236982   1.1327888  )
         8           Bi  tau(   8) = (   0.7230936   0.1542471   0.2051676  )
         9           Bi  tau(   9) = (   0.2620190   0.8675551   0.8741458  )
        10           Bi  tau(  10) = (   0.9700394   0.4103902   0.4638106  )

   Crystallographic axes

     site n.     atom                  positions (cryst. coord.)
         1           K   tau(   1) = (  0.6545540  0.7602070  0.5207990  )
         2           K   tau(   2) = (  0.3454460  0.2397930  0.4792010  )
         3           K   tau(   3) = (  0.2397930  0.3454460  0.9792010  )
         4           K   tau(   4) = (  0.7602070  0.6545540  0.0207990  )
         5           K   tau(   5) = (  0.8361790  0.1638210  0.7500000  )
         6           K   tau(   6) = (  0.1638210  0.8361790  0.2500000  )
         7           Bi  tau(   7) = (  0.3140170  0.8884020  0.8466560  )
         8           Bi  tau(   8) = (  0.6859830  0.1115980  0.1533440  )
         9           Bi  tau(   9) = (  0.1115980  0.6859830  0.6533440  )
        10           Bi  tau(  10) = (  0.8884020  0.3140170  0.3466560  )

     number of k points=     1  Methfessel-Paxton smearing, width (Ry)=  0.0010
                       cart. coord. in units 2pi/alat
        k(    1) = (   0.0000000   0.0000000   0.0000000), wk =   2.0000000

                       cryst. coord.
        k(    1) = (   0.0000000   0.0000000   0.0000000), wk =   2.0000000

     Check: negative core charge=   -0.000005

     Initial potential from superposition of free atoms

     starting charge     109.8868, renormalised to     114.0000

     negative rho (up, down):  1.786E-01 0.000E+00
     Starting wfcs are   84 randomized atomic wfcs
     Checking if some PAW data can be deallocated...

     Self-consistent Calculation

     iteration #  1     ecut=    30.00 Ry     beta= 0.70
     Davidson diagonalization with overlap

     ethr =  1.00E-02,  avg # of iterations =  6.0

     negative rho (up, down):  1.771E-01 0.000E+00

     total energy              =   -1418.95351608 Ry
     estimated scf accuracy    <       1.43998859 Ry

[...]

     total energy              =   -1419.33287426 Ry
     estimated scf accuracy    <       0.00002149 Ry

     iteration #  9     ecut=    30.00 Ry     beta= 0.70
     Davidson diagonalization with overlap

     ethr =  1.89E-08,  avg # of iterations =  2.0

[...]

     End of self-consistent calculation

          k = 0.0000 0.0000 0.0000 (  4043 PWs)   bands (ev):

   -26.1117 -26.1108 -25.9732 -25.9726 -25.9647 -25.9640 -17.1199 -17.1170
   -17.0328 -17.0317 -16.9428 -16.9420 -16.9082 -16.9072 -16.8619 -16.8613
   -16.8243 -16.8236 -16.8134 -16.8129 -16.7906 -16.7896 -16.7693 -16.7686
   -16.7080 -16.7060  -9.6705  -9.6484  -9.6344  -9.6251  -9.6201  -9.6063
    -9.5574  -9.5410  -9.4923  -9.4846  -9.4812  -9.4649  -9.4642  -9.4485
    -9.4431  -9.4262  -9.4240  -9.4218  -5.5863  -5.4304  -4.1307  -4.0134
     2.6485   3.1500   3.5584   3.8133   3.8311   3.8926   4.2375   4.6406
     4.7445   4.8583   5.7429   5.8792   7.6885   7.8462   8.1180   8.1499
     8.3787   8.4560   8.5122   8.6067

     occupation numbers
     1.0000   1.0000   1.0000   1.0000   1.0000   1.0000   1.0000   1.0000
     1.0000   1.0000   1.0000   1.0000   1.0000   1.0000   1.0000   1.0000
     1.0000   1.0000   1.0000   1.0000   1.0000   1.0000   1.0000   1.0000
     1.0000   1.0000   1.0000   1.0000   1.0000   1.0000   1.0000   1.0000
     1.0000   1.0000   1.0000   1.0000   1.0000   1.0000   1.0000   1.0000
     1.0000   1.0000   1.0000   1.0000   1.0000   1.0000   1.0000   1.0000
     1.0000   1.0000   1.0000   1.0000   1.0000   1.0000   1.0000   1.0000
     1.0000  -0.0000  -0.0000  -0.0000  -0.0000  -0.0000  -0.0000  -0.0000
    -0.0000  -0.0000  -0.0000  -0.0000

     the Fermi energy is     4.8014 ev

!    total energy              =   -1419.33287726 Ry
     estimated scf accuracy    <       0.00000034 Ry
     smearing contrib. (-TS)   =       0.00000000 Ry
     internal energy E=F+TS    =   -1419.33287726 Ry

     The total energy is F=E-TS. E is the sum of the following terms:
     one-electron contribution =    -472.02831440 Ry
     hartree contribution      =     278.96775356 Ry
     xc contribution           =    -325.98211559 Ry
     ewald contribution        =    -567.78708431 Ry
     one-center paw contrib.   =    -332.50311652 Ry
      -> PAW hartree energy AE =     226.27951141 Ry
      -> PAW hartree energy PS =    -225.01809462 Ry
      -> PAW xc energy AE      =    -397.31403902 Ry
      -> PAW xc energy PS      =      63.54950570 Ry
      -> total E_H with PAW    =     280.22917036 Ry
      -> total E_XC with PAW   =    -659.74664890 Ry

     convergence has been achieved in   9 iterations

     negative rho (up, down):  1.834E-01 0.000E+00

     Forces acting on atoms (cartesian axes, Ry/au):

     atom    1 type  1   force =     0.00101061   -0.00005345   -0.00660534
     atom    2 type  1   force =    -0.00101061    0.00005345    0.00660534
     atom    3 type  1   force =     0.00006746   -0.00103465    0.00667139
     atom    4 type  1   force =    -0.00006746    0.00103465   -0.00667139
     atom    5 type  1   force =     0.00368749   -0.00356156   -0.00002097
     atom    6 type  1   force =    -0.00368749    0.00356156    0.00002097
     atom    7 type  2   force =    -0.00871024   -0.01666690   -0.02922336
     atom    8 type  2   force =     0.00871024    0.01666690    0.02922336
     atom    9 type  2   force =     0.01625347    0.00917997    0.02932436
     atom   10 type  2   force =    -0.01625347   -0.00917997   -0.02932436
     The non-local contrib.  to forces
     atom    1 type  1   force =    -0.00026481   -0.01437971    0.01875685
     atom    2 type  1   force =     0.00026481    0.01437971   -0.01875685
     atom    3 type  1   force =     0.01434717    0.00079088   -0.01877699
     atom    4 type  1   force =    -0.01434717   -0.00079088    0.01877699
     atom    5 type  1   force =     0.03359089   -0.03238641   -0.00001270
     atom    6 type  1   force =    -0.03359089    0.03238641    0.00001270
     atom    7 type  2   force =    -0.08778595   -0.13923655   -0.09288921
     atom    8 type  2   force =     0.08778595    0.13923655    0.09288921
     atom    9 type  2   force =     0.13589591    0.09278050    0.09297042
     atom   10 type  2   force =    -0.13589591   -0.09278050   -0.09297042
     The ionic contribution  to forces
     atom    1 type  1   force =    -0.20489281   -2.24375157    0.19108585
     atom    2 type  1   force =     0.20489281    2.24375157   -0.19108585
     atom    3 type  1   force =     2.23476323    0.28676729   -0.19108585
     atom    4 type  1   force =    -2.23476323   -0.28676729    0.19108585
     atom    5 type  1   force =    -1.49369206    1.44005837   -0.00000000
     atom    6 type  1   force =     1.49369206   -1.44005837   -0.00000000
     atom    7 type  2   force =     4.70601512    3.27480603    3.61798402
     atom    8 type  2   force =    -4.70601512   -3.27480603   -3.61798402
     atom    9 type  2   force =    -3.10060814   -4.82256798   -3.61798402
     atom   10 type  2   force =     3.10060814    4.82256799    3.61798402
     The local contribution  to forces
     atom    1 type  1   force =     0.20601148    2.25777783   -0.21604404
     atom    2 type  1   force =    -0.20619764   -2.25783057    0.21619347
     atom    3 type  1   force =    -2.24883464   -0.28864875    0.21626117
     atom    4 type  1   force =     2.24882246    0.28861222   -0.21652988
     atom    5 type  1   force =     1.46508310   -1.41241929   -0.00011777
     atom    6 type  1   force =    -1.46484587    1.41251791    0.00014353
     atom    7 type  2   force =    -4.62823444   -3.15505135   -3.55450593
     atom    8 type  2   force =     4.62802140    3.15521722    3.55505657
     atom    9 type  2   force =     2.98393923    4.74039273    3.55434170
     atom   10 type  2   force =    -2.98378184   -4.74029987   -3.55463726
     The core correction contribution to forces
     atom    1 type  1   force =     0.00008720    0.00069129   -0.00045266
     atom    2 type  1   force =    -0.00009154   -0.00069170    0.00046921
     atom    3 type  1   force =    -0.00068777   -0.00011592    0.00045687
     atom    4 type  1   force =     0.00068822    0.00011575   -0.00047321
     atom    5 type  1   force =    -0.00078948    0.00076152    0.00000090
     atom    6 type  1   force =     0.00079217   -0.00076115    0.00000069
     atom    7 type  2   force =     0.00072053    0.00338867    0.00038672
     atom    8 type  2   force =    -0.00072553   -0.00339103   -0.00038614
     atom    9 type  2   force =    -0.00335953   -0.00084878   -0.00038632
     atom   10 type  2   force =     0.00336021    0.00085083    0.00039005
     The Hubbard contrib.    to forces
     atom    1 type  1   force =     0.00000000    0.00000000    0.00000000
     atom    2 type  1   force =     0.00000000    0.00000000    0.00000000
     atom    3 type  1   force =     0.00000000    0.00000000    0.00000000
     atom    4 type  1   force =     0.00000000    0.00000000    0.00000000
     atom    5 type  1   force =     0.00000000    0.00000000    0.00000000
     atom    6 type  1   force =     0.00000000    0.00000000    0.00000000
     atom    7 type  2   force =     0.00000000    0.00000000    0.00000000
     atom    8 type  2   force =     0.00000000    0.00000000    0.00000000
     atom    9 type  2   force =     0.00000000    0.00000000    0.00000000
     atom   10 type  2   force =     0.00000000    0.00000000    0.00000000
     The SCF correction term to forces
     atom    1 type  1   force =    -0.00001678   -0.00040100    0.00031116
     atom    2 type  1   force =     0.00003462    0.00043474    0.00004785
     atom    3 type  1   force =     0.00049407    0.00015823   -0.00042377
     atom    4 type  1   force =    -0.00045315   -0.00014875    0.00022889
     atom    5 type  1   force =    -0.00047259    0.00041045    0.00012796
     atom    6 type  1   force =     0.00029741   -0.00053705   -0.00011661
     atom    7 type  2   force =     0.00055728   -0.00056594   -0.00026614
     atom    8 type  2   force =    -0.00037368    0.00041795   -0.00041944
     atom    9 type  2   force =     0.00037900   -0.00051944    0.00041185
     atom   10 type  2   force =    -0.00055109    0.00053865   -0.00006149

     Total force =     0.071169     Total SCF correction =     0.002086

     Computing stress (Cartesian axis) and pressure

     negative rho (up, down):  1.834E-01 0.000E+00
          total   stress  (Ry/bohr**3)                   (kbar)     P=       -7.49
  -0.00001537  -0.00002821  -0.00001698           -2.26       -4.15       -2.50
  -0.00002821  -0.00001737  -0.00001760           -4.15       -2.56       -2.59
  -0.00001698  -0.00001760  -0.00012003           -2.50       -2.59      -17.66

     kinetic stress (kbar)   6489.49    -37.75     -4.60
                              -37.75   6486.72     -4.76
                               -4.60     -4.76   6458.24

     local   stress (kbar)  -4917.86  -1637.44  -1448.84
                            -1637.44  -5037.53  -1502.88
                            -1448.84  -1502.88  -6042.93

     nonloc. stress (kbar)   6698.11    -38.38      3.21
                              -38.38   6695.28      3.35
                                3.21      3.35   6655.54

     hartree stress (kbar)   4516.72    648.15    586.11
                              648.15   4564.07    607.99
                              586.11    607.99   5009.87

     exc-cor stress (kbar)   7496.51     -0.55      0.72
                               -0.55   7496.47      0.75
                                0.72      0.75   7496.04

     corecor stress (kbar) -10470.03      1.54     -0.12
                                1.54 -10469.91     -0.13
                               -0.12     -0.13 -10468.34

     ewald   stress (kbar)  -9815.20   1060.28    861.02
                             1060.28  -9737.64    893.09
                              861.02    893.09  -9126.08

     hubbard stress (kbar)      0.00      0.00      0.00
                                0.00      0.00      0.00
                                0.00      0.00      0.00

     DFT-D   stress (kbar)      0.00      0.00      0.00
                                0.00      0.00      0.00
                                0.00      0.00      0.00

     XDM     stress (kbar)      0.00      0.00      0.00
                                0.00      0.00      0.00
                                0.00      0.00      0.00

     dft-nl  stress (kbar)      0.00      0.00      0.00
                                0.00      0.00      0.00
                                0.00      0.00      0.00

     TS-vdW  stress (kbar)      0.00      0.00      0.00
                                0.00      0.00      0.00
                                0.00      0.00      0.00

[...]

                                0.00      0.00      0.00

     Writing all to output data dir new_calculations/myprefix.save/

     General routines

     Parallel routines

     PAW routines

   This run was terminated on:  19:10:51  20May2023

   JOB DONE.