     Program PWSCF v.7.0 starts on 21May2023 at  4:37:53

     Reading input from espresso_12800.pwi
Warning: card &CELL ignored
Warning: card / ignored

     Current dimensions of program PWSCF are:
     Max number of different atomic species (ntypx) = 10
     Max number of k-points (npk) =  40000
     Max angular momentum in pseudopotentials (lmaxx) =  4
     file Ba.pbe-spn-kjpaw_psl.1.0.0.UPF: wavefunction(s)  5S 6S renormalized
     file O.pbe-n-kjpaw_psl.0.1.UPF: wavefunction(s)  2P renormalized

     gamma-point specific algorithms are used
     Message from routine setup:
     using ibrav=0 with symmetry is DISCOURAGED, use correct ibrav instead

     Subspace diagonalization in iterative solution of the eigenvalue problem:
     a serial algorithm will be used

     Using Slab Decomposition

     bravais-lattice index     =            0
     lattice parameter (alat)  =      10.5197  a.u.
     unit-cell volume          =    1642.5760 (a.u.)^3
     number of atoms/cell      =           20
     number of atomic types    =            4
     number of electrons       =       174.00
     number of Kohn-Sham states=          104
     kinetic-energy cutoff     =      30.0000  Ry
     charge density cutoff     =     240.0000  Ry
     scf convergence threshold =      1.0E-06
     mixing beta               =       0.7000
     number of iterations used =            8  plain     mixing
     Exchange-correlation= SLA  PW   PBX  PBC
                           (   1   4   3   4   0   0   0)

     celldm(1)=  10.519745  celldm(2)=   0.000000  celldm(3)=   0.000000
     celldm(4)=   0.000000  celldm(5)=   0.000000  celldm(6)=   0.000000

     crystal axes: (cart. coord. in units of alat)
               a(1) = (   1.000000   0.000000   0.000000 )
               a(2) = (   0.018046   0.999837   0.000000 )
               a(3) = (   0.009160   0.008996   1.411174 )

     reciprocal axes: (cart. coord. in units 2 pi/alat)
               b(1) = (  1.000000 -0.018049 -0.006376 )
               b(2) = (  0.000000  1.000163 -0.006376 )
               b(3) = (  0.000000  0.000000  0.708630 )

     PseudoPot. # 1 for Ba read from file:
     /home/pragov/projects/rrg-bengioy-ad/pragov/crystal_structure_design/SSSP/Ba.pbe-spn-kjpaw_psl.1.0.0.UPF
     MD5 check sum: c432291d3e53af55f19d5e8866385beb
     Pseudo is Projector augmented-wave + core cor, Zval = 10.0
     Generated using "atomic" code by A. Dal Corso  v.5.1
     Shape of augmentation charge: PSQ
     Using radial grid of 1251 points,  7 beta functions with:
                l(1) =   0
                l(2) =   0
                l(3) =   0
                l(4) =   1
                l(5) =   1
                l(6) =   2
                l(7) =   2
     Q(r) pseudized with 0 coefficients

     PseudoPot. # 2 for Y  read from file:
     /home/pragov/projects/rrg-bengioy-ad/pragov/crystal_structure_design/SSSP/Y_pbe_v1.uspp.F.UPF
     MD5 check sum: 2cf71db95cafeb975fc457bd7f14888e
     Pseudo is Ultrasoft + core correction, Zval = 11.0
     Generated by new atomic code, or converted to UPF format
     Using radial grid of  885 points,  6 beta functions with:
                l(1) =   0
                l(2) =   0
                l(3) =   1
                l(4) =   1
                l(5) =   2
                l(6) =   2
     Q(r) pseudized with  6 coefficients,  rinner =    1.200   1.200   1.200
                                                       1.200   1.200

     PseudoPot. # 3 for Mn read from file:
     /home/pragov/projects/rrg-bengioy-ad/pragov/crystal_structure_design/SSSP/mn_pbe_v1.5.uspp.F.UPF
     MD5 check sum: 82ef2b46521d7a7d9e736dc3972e4928
     Pseudo is Ultrasoft + core correction, Zval = 15.0
     Generated by new atomic code, or converted to UPF format
     Using radial grid of  859 points,  6 beta functions with:
                l(1) =   0
                l(2) =   0
                l(3) =   1
                l(4) =   1
                l(5) =   2
                l(6) =   2
     Q(r) pseudized with  8 coefficients,  rinner =    0.950   0.950   0.950
                                                       0.950   0.950

     PseudoPot. # 4 for O  read from file:
     /home/pragov/projects/rrg-bengioy-ad/pragov/crystal_structure_design/SSSP/O.pbe-n-kjpaw_psl.0.1.UPF
     MD5 check sum: 0234752ac141de4415c5fc33072bef88
     Pseudo is Projector augmented-wave + core cor, Zval =  6.0
     Generated using "atomic" code by A. Dal Corso  v.5.0.99 svn rev. 10869
     Shape of augmentation charge: BESSEL
     Using radial grid of 1095 points,  4 beta functions with:
                l(1) =   0
                l(2) =   0
                l(3) =   1
                l(4) =   1
     Q(r) pseudized with 0 coefficients

     atomic species   valence    mass     pseudopotential
        Ba            10.00   137.32700     Ba( 1.00)
        Y             11.00    88.90584     Y ( 1.00)
        Mn            15.00    54.93804     Mn( 1.00)
        O              6.00    15.99900     O ( 1.00)

      2 Sym. Ops., with inversion, found

                                    s                        frac. trans.

      isym =  1     identity

 cryst.   s( 1) = (     1          0          0      )
                  (     0          1          0      )
                  (     0          0          1      )

 cart.    s( 1) = (  1.0000000  0.0000000 -0.0000000 )
                  (  0.0000000  1.0000000  0.0000000 )
                  (  0.0000000  0.0000000  1.0000000 )

      isym =  2     inversion

 cryst.   s( 2) = (    -1          0          0      )
                  (     0         -1          0      )
                  (     0          0         -1      )

 cart.    s( 2) = ( -1.0000000 -0.0000000  0.0000000 )
                  (  0.0000000 -1.0000000 -0.0000000 )
                  (  0.0000000  0.0000000 -1.0000000 )

   Cartesian axes

     site n.     atom                  positions (alat units)
         1           Ba  tau(   1) = (   0.2517706   0.2472674   0.0084148  )
         2           Ba  tau(   2) = (   0.7754356   0.7615659   1.4027590  )
         3           Y   tau(   3) = (   0.7871834   0.7731036   0.6955041  )
         4           Y   tau(   4) = (   0.2400228   0.2357297   0.7156698  )
         5           Mn  tau(   5) = (   0.7583577   0.2572988   1.0465420  )
         6           Mn  tau(   6) = (   0.7562638   0.2552423   0.3646318  )
         7           Mn  tau(   7) = (   0.2688485   0.7515345   0.3646318  )
         8           Mn  tau(   8) = (   0.2709424   0.7535909   1.0465420  )
         9           O   tau(   9) = (   0.0397264   0.0390158   1.0682614  )
        10           O   tau(  10) = (   0.9874798   0.9698174   0.3429124  )
        11           O   tau(  11) = (   0.8144482   0.1980925   0.7055869  )
        12           O   tau(  12) = (   0.7362590   0.2685443   0.0000000  )
        13           O   tau(  13) = (   0.5464202   0.5366468   0.4322750  )
        14           O   tau(  14) = (   0.9830036   0.5350709   1.0080085  )
        15           O   tau(  15) = (   0.2127580   0.8107407   0.7055869  )
        16           O   tau(  16) = (   0.2817873   0.7312929   0.0000000  )
        17           O   tau(  17) = (   0.0442026   0.4737624   0.4031653  )
        18           O   tau(  18) = (   0.5527233   0.9731875   1.0080085  )
        19           O   tau(  19) = (   0.4807860   0.4721865   0.9788988  )
        20           O   tau(  20) = (   0.4744829   0.0356458   0.4031653  )

   Crystallographic axes

     site n.     atom                  positions (cryst. coord.)
         1           Ba  tau(   1) = (  0.2472540  0.2472540  0.0059630  )
         2           Ba  tau(   2) = (  0.7527460  0.7527460  0.9940370  )
         3           Y   tau(   3) = (  0.7687950  0.7687950  0.4928550  )
         4           Y   tau(   4) = (  0.2312050  0.2312050  0.5071450  )
         5           Mn  tau(   5) = (  0.7470410  0.2506680  0.7416110  )
         6           Mn  tau(   6) = (  0.7493320  0.2529590  0.2583890  )
         7           Mn  tau(   7) = (  0.2529590  0.7493320  0.2583890  )
         8           Mn  tau(   8) = (  0.2506680  0.7470410  0.7416110  )
         9           O   tau(   9) = (  0.0322110  0.0322110  0.7570020  )
        10           O   tau(  10) = (  0.9677890  0.9677890  0.2429980  )
        11           O   tau(  11) = (  0.8063740  0.1936260  0.5000000  )
        12           O   tau(  12) = (  0.7314120  0.2685880  0.0000000  )
        13           O   tau(  13) = (  0.5339780  0.5339780  0.3063230  )
        14           O   tau(  14) = (  0.9669190  0.5287310  0.7143050  )
        15           O   tau(  15) = (  0.1936260  0.8063740  0.5000000  )
        16           O   tau(  16) = (  0.2685880  0.7314120  0.0000000  )
        17           O   tau(  17) = (  0.0330810  0.4712690  0.2856950  )
        18           O   tau(  18) = (  0.5287310  0.9669190  0.7143050  )
        19           O   tau(  19) = (  0.4660220  0.4660220  0.6936770  )
        20           O   tau(  20) = (  0.4712690  0.0330810  0.2856950  )

     number of k points=     1  Methfessel-Paxton smearing, width (Ry)=  0.0010
                       cart. coord. in units 2pi/alat
        k(    1) = (   0.0000000   0.0000000   0.0000000), wk =   2.0000000

                       cryst. coord.
        k(    1) = (   0.0000000   0.0000000   0.0000000), wk =   2.0000000

     Check: negative core charge=   -0.000022

     Initial potential from superposition of free atoms

     starting charge     171.9567, renormalised to     174.0000

     negative rho (up, down):  8.870E-02 0.000E+00
     Starting wfcs are  136 randomized atomic wfcs
     Checking if some PAW data can be deallocated...

     Self-consistent Calculation

     iteration #  1     ecut=    30.00 Ry     beta= 0.70
     Davidson diagonalization with overlap

     ethr =  1.00E-02,  avg # of iterations =  6.0

     negative rho (up, down):  1.118E-01 0.000E+00

     total energy              =   -2386.45289475 Ry
     estimated scf accuracy    <       9.59807923 Ry

[...]

     total energy              =   -2392.37771884 Ry
     estimated scf accuracy    <       0.00021250 Ry

     iteration # 50     ecut=    30.00 Ry     beta= 0.70
     Davidson diagonalization with overlap

     ethr =  8.74E-10,  avg # of iterations =  1.0

[...]

     End of self-consistent calculation

          k = 0.0000 0.0000 0.0000 (  2273 PWs)   bands (ev):

   -68.4563 -68.4562 -68.4555 -68.4547 -37.3285 -37.3212 -37.3197 -37.3190
   -37.1056 -37.1032 -37.1024 -37.0962 -37.0183 -37.0151 -37.0142 -37.0139
   -30.5308 -30.5112 -14.7154 -14.5235 -10.8142 -10.7184 -10.6851 -10.5474
   -10.5434 -10.4638  -7.2136  -6.5206  -6.3607  -6.0583  -6.0272  -6.0111
    -5.9766  -5.9743  -5.8848  -5.8397  -5.8301  -5.7783  -0.4946  -0.2898
     0.0678   0.1822   0.2413   0.2515   5.1236   5.6933   5.8674   5.9875
     6.4626   6.5917   6.6051   6.7021   6.7983   6.9742   6.9939   7.0422
     7.1755   7.1915   7.2265   7.7059   7.8572   7.8682   8.0315   8.1062
     8.4901   8.5428   9.0337   9.1969   9.2094   9.2663   9.2887   9.5477
     9.5501   9.7853   9.8138   9.8366   9.8893  10.0138  10.1240  10.3266
    10.5906  10.6885  10.7526  10.7639  11.5975  11.6701  11.7278  11.7344
    11.7359  11.7690  11.9152  12.0520  12.2268  12.2578  12.4126  12.6914
    13.5737  14.8815  15.0559  15.1557  15.1789  15.5456  16.0612  16.1408

     occupation numbers
     1.0000   1.0000   1.0000   1.0000   1.0000   1.0000   1.0000   1.0000
     1.0000   1.0000   1.0000   1.0000   1.0000   1.0000   1.0000   1.0000
     1.0000   1.0000   1.0000   1.0000   1.0000   1.0000   1.0000   1.0000
     1.0000   1.0000   1.0000   1.0000   1.0000   1.0000   1.0000   1.0000
     1.0000   1.0000   1.0000   1.0000   1.0000   1.0000   1.0000   1.0000
     1.0000   1.0000   1.0000   1.0000   1.0000   1.0000   1.0000   1.0000
     1.0000   1.0000   1.0000   1.0000   1.0000   1.0000   1.0000   1.0000
     1.0000   1.0000   1.0000   1.0000   1.0000   1.0000   1.0000   1.0000
     1.0000   1.0000   1.0000   1.0000   1.0000   1.0000   1.0000   1.0000
     1.0000   1.0000   1.0000   1.0000   1.0000   1.0000   1.0000   1.0000
     1.0000   1.0000   1.0000   1.0000   1.0000   1.0000   0.6188   0.2256
     0.1558  -0.0002  -0.0000  -0.0000  -0.0000  -0.0000  -0.0000  -0.0000
    -0.0000  -0.0000  -0.0000  -0.0000  -0.0000  -0.0000  -0.0000  -0.0000

     the Fermi energy is    11.7297 ev

!    total energy              =   -2392.37771991 Ry
     estimated scf accuracy    <       0.00000054 Ry
     smearing contrib. (-TS)   =      -0.00058909 Ry
     internal energy E=F+TS    =   -2392.37713082 Ry

     The total energy is F=E-TS. E is the sum of the following terms:
     one-electron contribution =    -661.09914029 Ry
     hartree contribution      =     432.41258569 Ry
     xc contribution           =    -279.31610825 Ry
     ewald contribution        =   -1020.21119663 Ry
     one-center paw contrib.   =    -864.16327134 Ry
      -> PAW hartree energy AE =     409.14683359 Ry
      -> PAW hartree energy PS =    -407.64240315 Ry
      -> PAW xc energy AE      =    -993.89571206 Ry
      -> PAW xc energy PS      =     128.22801027 Ry
      -> total E_H with PAW    =     433.91701613 Ry
      -> total E_XC with PAW   =   -1144.98381004 Ry

     convergence has been achieved in  50 iterations

     negative rho (up, down):  9.052E-02 0.000E+00

     Forces acting on atoms (cartesian axes, Ry/au):

     atom    1 type  1   force =    -0.01036743   -0.01019845    0.00899690
     atom    2 type  1   force =     0.01036743    0.01019845   -0.00899690
     atom    3 type  2   force =     0.01330348    0.01306680   -0.00382657
     atom    4 type  2   force =    -0.01330348   -0.01306680    0.00382657
     atom    5 type  3   force =     0.01369509   -0.01756489   -0.02502412
     atom    6 type  3   force =     0.01732080   -0.01400105    0.02501930
     atom    7 type  3   force =    -0.01369509    0.01756489    0.02502412
     atom    8 type  3   force =    -0.01732080    0.01400105   -0.02501930
     atom    9 type  4   force =     0.01329556    0.01305013    0.05133414
     atom   10 type  4   force =    -0.01329556   -0.01305013   -0.05133414
     atom   11 type  4   force =     0.00705516   -0.00718539   -0.00000504
     atom   12 type  4   force =    -0.02622806    0.02670881    0.00000597
     atom   13 type  4   force =     0.01710126    0.01678892    0.00645325
     atom   14 type  4   force =    -0.02272657    0.01821597    0.01033988
     atom   15 type  4   force =    -0.00705516    0.00718539    0.00000504
     atom   16 type  4   force =     0.02622806   -0.02670881   -0.00000597
     atom   17 type  4   force =     0.02272657   -0.01821597   -0.01033988
     atom   18 type  4   force =     0.01779364   -0.02306152    0.01033936
     atom   19 type  4   force =    -0.01710126   -0.01678892   -0.00645325
     atom   20 type  4   force =    -0.01779364    0.02306152   -0.01033936
     The non-local contrib.  to forces
     atom    1 type  1   force =     0.00897475    0.00886971   -0.00283424
     atom    2 type  1   force =    -0.00897475   -0.00886971    0.00283424
     atom    3 type  2   force =    -0.00452223   -0.00443912   -0.00011797
     atom    4 type  2   force =     0.00452223    0.00443912    0.00011797
     atom    5 type  3   force =    -0.05615991    0.05261036    0.11635966
     atom    6 type  3   force =    -0.05158485    0.05709785   -0.11635923
     atom    7 type  3   force =     0.05615991   -0.05261036   -0.11635966
     atom    8 type  3   force =     0.05158485   -0.05709785    0.11635923
     atom    9 type  4   force =    -0.11434212   -0.11230416   -0.12340462
     atom   10 type  4   force =     0.11434212    0.11230416    0.12340462
     atom   11 type  4   force =    -0.21974203    0.22374693   -0.00000151
     atom   12 type  4   force =     0.05242912   -0.05339129    0.00000200
     atom   13 type  4   force =    -0.05889877   -0.05784539   -0.17987982
     atom   14 type  4   force =     0.07992114   -0.10115692    0.08892346
     atom   15 type  4   force =     0.21974203   -0.22374693    0.00000151
     atom   16 type  4   force =    -0.05242912    0.05339129   -0.00000200
     atom   17 type  4   force =    -0.07992114    0.10115692   -0.08892346
     atom   18 type  4   force =    -0.09970626    0.08172333    0.08890638
     atom   19 type  4   force =     0.05889877    0.05784539    0.17987982
     atom   20 type  4   force =     0.09970626   -0.08172333   -0.08890638
     The ionic contribution  to forces
     atom    1 type  1   force =     0.73047171    0.71740624   -0.44826618
     atom    2 type  1   force =    -0.73047171   -0.71740624    0.44826618
     atom    3 type  2   force =    -3.31133375   -3.25210607    0.34870664
     atom    4 type  2   force =     3.31133375    3.25210607   -0.34870664
     atom    5 type  3   force =    -2.83420610    2.32068401   12.23460423
     atom    6 type  3   force =    -2.26915920    2.87562428  -12.23460423
     atom    7 type  3   force =     2.83420610   -2.32068401  -12.23460423
     atom    8 type  3   force =     2.26915920   -2.87562428   12.23460423
     atom    9 type  4   force =     1.09349280    1.07393421    6.22702955
     atom   10 type  4   force =    -1.09349280   -1.07393421   -6.22702955
     atom   11 type  4   force =     0.10939598   -0.11138831   -0.00000000
     atom   12 type  4   force =    -0.91111212    0.92770538   -0.00000000
     atom   13 type  4   force =     0.60620647    0.59536365   -1.45898910
     atom   14 type  4   force =    -0.88249775    0.95157258    3.46555049
     atom   15 type  4   force =    -0.10939598    0.11138831   -0.00000000
     atom   16 type  4   force =     0.91111212   -0.92770538   -0.00000000
     atom   17 type  4   force =     0.88249775   -0.95157258   -3.46555049
     atom   18 type  4   force =     0.93549181   -0.89952638    3.46555049
     atom   19 type  4   force =    -0.60620647   -0.59536365    1.45898910
     atom   20 type  4   force =    -0.93549181    0.89952638   -3.46555049
     The local contribution  to forces
     atom    1 type  1   force =    -0.74856341   -0.73551710    0.46000382
     atom    2 type  1   force =     0.74885367    0.73529069   -0.45851679
     atom    3 type  2   force =     3.33023501    3.27064058   -0.35317747
     atom    4 type  2   force =    -3.33018200   -3.27067281    0.35172813
     atom    5 type  3   force =     2.90189443   -2.38780800  -12.37181610
     atom    6 type  3   force =     2.33496040   -2.94451327   12.37178585
     atom    7 type  3   force =    -2.90195497    2.38769908   12.37172769
     atom    8 type  3   force =    -2.33493821    2.94462952  -12.37176695
     atom    9 type  4   force =    -0.96742798   -0.95030573   -6.05368678
     atom   10 type  4   force =     0.96767714    0.94998937    6.05390221
     atom   11 type  4   force =     0.11424529   -0.11627714   -0.00057947
     atom   12 type  4   force =     0.83329618   -0.84866366    0.00052103
     atom   13 type  4   force =    -0.53143743   -0.52155403    1.64265047
     atom   14 type  4   force =     0.78120550   -0.83349875   -3.54289066
     atom   15 type  4   force =    -0.11417725    0.11632927   -0.00072869
     atom   16 type  4   force =    -0.83325950    0.84826234    0.00066204
     atom   17 type  4   force =    -0.78087461    0.83387105    3.54259274
     atom   18 type  4   force =    -0.81946477    0.79596366   -3.54285373
     atom   19 type  4   force =     0.53115604    0.52184590   -1.64311756
     atom   20 type  4   force =     0.81924292   -0.79616224    3.54255631
     The core correction contribution to forces
     atom    1 type  1   force =    -0.00109779   -0.00108239    0.00082999
     atom    2 type  1   force =     0.00110112    0.00107885   -0.00082816
     atom    3 type  2   force =    -0.00108108   -0.00106179    0.00002379
     atom    4 type  2   force =     0.00108076    0.00106148   -0.00002368
     atom    5 type  3   force =     0.00207362   -0.00310717   -0.00405868
     atom    6 type  3   force =     0.00306679   -0.00212924    0.00405961
     atom    7 type  3   force =    -0.00207420    0.00310543    0.00406060
     atom    8 type  3   force =    -0.00306967    0.00212910   -0.00405888
     atom    9 type  4   force =     0.00166103    0.00163146    0.00150040
     atom   10 type  4   force =    -0.00166183   -0.00163198   -0.00149922
     atom   11 type  4   force =     0.00321771   -0.00327550   -0.00000015
     atom   12 type  4   force =    -0.00078950    0.00080183   -0.00000005
     atom   13 type  4   force =     0.00106420    0.00104538    0.00238592
     atom   14 type  4   force =    -0.00126524    0.00144547   -0.00135904
     atom   15 type  4   force =    -0.00321749    0.00327701   -0.00000005
     atom   16 type  4   force =     0.00078971   -0.00080638   -0.00000012
     atom   17 type  4   force =     0.00126635   -0.00144484    0.00135831
     atom   18 type  4   force =     0.00142215   -0.00129104   -0.00135892
     atom   19 type  4   force =    -0.00106400   -0.00104458   -0.00238730
     atom   20 type  4   force =    -0.00142202    0.00129219    0.00135791
     The Hubbard contrib.    to forces
     atom    1 type  1   force =     0.00000000    0.00000000    0.00000000
     atom    2 type  1   force =     0.00000000    0.00000000    0.00000000
     atom    3 type  2   force =     0.00000000    0.00000000    0.00000000
     atom    4 type  2   force =     0.00000000    0.00000000    0.00000000
     atom    5 type  3   force =     0.00000000    0.00000000    0.00000000
     atom    6 type  3   force =     0.00000000    0.00000000    0.00000000
     atom    7 type  3   force =     0.00000000    0.00000000    0.00000000
     atom    8 type  3   force =     0.00000000    0.00000000    0.00000000
     atom    9 type  4   force =     0.00000000    0.00000000    0.00000000
     atom   10 type  4   force =     0.00000000    0.00000000    0.00000000
     atom   11 type  4   force =     0.00000000    0.00000000    0.00000000
     atom   12 type  4   force =     0.00000000    0.00000000    0.00000000
     atom   13 type  4   force =     0.00000000    0.00000000    0.00000000
     atom   14 type  4   force =     0.00000000    0.00000000    0.00000000
     atom   15 type  4   force =     0.00000000    0.00000000    0.00000000
     atom   16 type  4   force =     0.00000000    0.00000000    0.00000000
     atom   17 type  4   force =     0.00000000    0.00000000    0.00000000
     atom   18 type  4   force =     0.00000000    0.00000000    0.00000000
     atom   19 type  4   force =     0.00000000    0.00000000    0.00000000
     atom   20 type  4   force =     0.00000000    0.00000000    0.00000000
     The SCF correction term to forces
     atom    1 type  1   force =    -0.00001563    0.00002326   -0.00060438
     atom    2 type  1   force =    -0.00000385    0.00000302   -0.00062025
     atom    3 type  2   force =     0.00000643    0.00003071    0.00072611
     atom    4 type  2   force =    -0.00005731   -0.00000315    0.00069845
     atom    5 type  3   force =     0.00009141    0.00005638   -0.00010154
     atom    6 type  3   force =     0.00001816   -0.00008005    0.00014274
     atom    7 type  3   force =    -0.00003356    0.00005521    0.00021143
     atom    8 type  3   force =    -0.00007648   -0.00003483   -0.00015148
     atom    9 type  4   force =    -0.00011960    0.00006723   -0.00006295
     atom   10 type  4   force =    -0.00019165    0.00019542   -0.00007073
     atom   11 type  4   force =    -0.00005169    0.00006410    0.00056847
     atom   12 type  4   force =    -0.00004537    0.00009788   -0.00052420
     atom   13 type  4   force =     0.00017840   -0.00019112    0.00024708
     atom   14 type  4   force =    -0.00005459   -0.00012901    0.00009009
     atom   15 type  4   force =     0.00000363   -0.00000680    0.00072465
     atom   16 type  4   force =     0.00002124   -0.00000937   -0.00067307
     atom   17 type  4   force =    -0.00020613   -0.00020914    0.00015748
     atom   18 type  4   force =     0.00004882    0.00010415    0.00005799
     atom   19 type  4   force =     0.00012601   -0.00004239    0.00014398
     atom   20 type  4   force =     0.00016913    0.00016377    0.00016613

     Total force =     0.140788     Total SCF correction =     0.002000

     Computing stress (Cartesian axis) and pressure

     negative rho (up, down):  9.052E-02 0.000E+00
          total   stress  (Ry/bohr**3)                   (kbar)     P=     -505.52
  -0.00296702   0.00008941  -0.00006811         -436.46       13.15      -10.02
   0.00008941  -0.00297031  -0.00006692           13.15     -436.95       -9.84
  -0.00006811  -0.00006692  -0.00437199          -10.02       -9.84     -643.14

     kinetic stress (kbar)  27174.67     16.04      6.37
                               16.04  27174.12      6.25
                                6.37      6.25  26846.83

     local   stress (kbar) -16261.09    937.88   -628.92
                              937.88 -16295.02   -617.68
                             -628.92   -617.68 -11134.02

     nonloc. stress (kbar)  11518.05     -3.14     23.40
                               -3.14  11518.19     22.98
                               23.40     22.98  11423.21

     hartree stress (kbar)  13723.12   -472.20    221.19
                             -472.20  13740.18    217.24
                              221.19    217.24  11262.51

     exc-cor stress (kbar)   -691.79     -0.15      1.05
                               -0.15   -691.78      1.03
                                1.05      1.03   -691.03

     corecor stress (kbar)  -6256.44      0.21     -0.55
                                0.21  -6256.44     -0.54
                               -0.55     -0.54  -6252.20

     ewald   stress (kbar) -29642.99   -465.48    367.44
                             -465.48 -29626.18    360.87
                              367.44    360.87 -32098.44

     hubbard stress (kbar)      0.00      0.00      0.00
                                0.00      0.00      0.00
                                0.00      0.00      0.00

     DFT-D   stress (kbar)      0.00      0.00      0.00
                                0.00      0.00      0.00
                                0.00      0.00      0.00

     XDM     stress (kbar)      0.00      0.00      0.00
                                0.00      0.00      0.00
                                0.00      0.00      0.00

     dft-nl  stress (kbar)      0.00      0.00      0.00
                                0.00      0.00      0.00
                                0.00      0.00      0.00

     TS-vdW  stress (kbar)      0.00      0.00      0.00
                                0.00      0.00      0.00
                                0.00      0.00      0.00

[...]

                                0.00      0.00      0.00

     Writing all to output data dir new_calculations/myprefix.save/

     General routines

     Parallel routines

     PAW routines

   This run was terminated on:   4:39:18  21May2023

   JOB DONE.