     Program PWSCF v.7.0 starts on 20May2023 at 20:49:51

     Reading input from espresso_11611.pwi
Warning: card &CELL ignored
Warning: card / ignored

     Current dimensions of program PWSCF are:
     Max number of different atomic species (ntypx) = 10
     Max number of k-points (npk) =  40000
     Max angular momentum in pseudopotentials (lmaxx) =  4
     file K.pbe-spn-kjpaw_psl.1.0.0.UPF: wavefunction(s)  3S renormalized

     gamma-point specific algorithms are used
     Message from routine setup:
     using ibrav=0 with symmetry is DISCOURAGED, use correct ibrav instead

     Subspace diagonalization in iterative solution of the eigenvalue problem:
     a serial algorithm will be used

     Using Slab Decomposition

     bravais-lattice index     =            0
     lattice parameter (alat)  =      14.6907  a.u.
     unit-cell volume          =    2241.8725 (a.u.)^3
     number of atoms/cell      =           10
     number of atomic types    =            4
     number of electrons       =        83.00
     number of Kohn-Sham states=           50
     kinetic-energy cutoff     =      30.0000  Ry
     charge density cutoff     =     240.0000  Ry
     scf convergence threshold =      1.0E-06
     mixing beta               =       0.7000
     number of iterations used =            8  plain     mixing
     Exchange-correlation=  SLA  PW   PBX  PBC
                           (   1   4   3   4   0   0   0)

     celldm(1)=  14.690682  celldm(2)=   0.000000  celldm(3)=   0.000000
     celldm(4)=   0.000000  celldm(5)=   0.000000  celldm(6)=   0.000000

     crystal axes: (cart. coord. in units of alat)
               a(1) = (   1.000000   0.000000   0.000000 )
               a(2) = (   0.500000   0.866025   0.000000 )
               a(3) = (   0.500000   0.288675   0.816497 )

     reciprocal axes: (cart. coord. in units 2 pi/alat)
               b(1) = (  1.000000 -0.577350 -0.408248 )
               b(2) = (  0.000000  1.154701 -0.408248 )
               b(3) = (  0.000000  0.000000  1.224745 )

     PseudoPot. # 1 for Cs read from file:
     /home/pragov/projects/rrg-bengioy-ad/pragov/crystal_structure_design/SSSP/Cs_pbe_v1.uspp.F.UPF
     MD5 check sum: 3476d69cb178dfad3ffaa59df4e07ca4
     Pseudo is Ultrasoft + core correction, Zval =  9.0
     Generated by new atomic code, or converted to UPF format
     Using radial grid of  905 points,  6 beta functions with:
                l(1) =   0
                l(2) =   0
                l(3) =   1
                l(4) =   1
                l(5) =   2
                l(6) =   2
     Q(r) pseudized with  6 coefficients,  rinner =    1.500   1.500   1.500
                                                       1.500   1.500

     PseudoPot. # 2 for K  read from file:
     /home/pragov/projects/rrg-bengioy-ad/pragov/crystal_structure_design/SSSP/K.pbe-spn-kjpaw_psl.1.0.0.UPF
     MD5 check sum: 7d58810084cac21f60fbe77ea2b688fd
     Pseudo is Projector augmented-wave + core cor, Zval =  9.0
     Generated using "atomic" code by A. Dal Corso  v.5.1
     Shape of augmentation charge: PSQ
     Using radial grid of 1165 points,  6 beta functions with:
                l(1) =   0
                l(2) =   0
                l(3) =   1
                l(4) =   1
                l(5) =   2
                l(6) =   2
     Q(r) pseudized with 0 coefficients

     PseudoPot. # 3 for Mo read from file:
     /home/pragov/projects/rrg-bengioy-ad/pragov/crystal_structure_design/SSSP/Mo_ONCV_PBE-1.0.oncvpsp.upf
     MD5 check sum: 1b5d28e075c9ccadda658a603575cd1f
     Pseudo is Norm-conserving, Zval = 14.0
     Generated using ONCVPSP code by D. R. Hamann
     Using radial grid of 1526 points,  6 beta functions with:
                l(1) =   0
                l(2) =   0
                l(3) =   1
                l(4) =   1
                l(5) =   2
                l(6) =   2

     PseudoPot. # 4 for Cl read from file:
     /home/pragov/projects/rrg-bengioy-ad/pragov/crystal_structure_design/SSSP/cl_pbe_v1.4.uspp.F.UPF
     MD5 check sum: fc6f6913ecf08c9257cb748ef0700058
     Pseudo is Ultrasoft + core correction, Zval =  7.0
     Generated by new atomic code, or converted to UPF format
     Using radial grid of  909 points,  6 beta functions with:
                l(1) =   0
                l(2) =   0
                l(3) =   1
                l(4) =   1
                l(5) =   2
                l(6) =   2
     Q(r) pseudized with  8 coefficients,  rinner =    1.300   1.300   1.300
                                                       1.300   1.300

     atomic species   valence    mass     pseudopotential
        Cs             9.00   132.90545     Cs( 1.00)
        K              9.00    39.09830     K ( 1.00)
        Mo            14.00    95.95000     Mo( 1.00)
        Cl             7.00    35.45000     Cl( 1.00)

     12 Sym. Ops., with inversion, found

                                    s                        frac. trans.

      isym =  1     identity

 cryst.   s( 1) = (     1          0          0      )
                  (     0          1          0      )
                  (     0          0          1      )

 cart.    s( 1) = (  1.0000000  0.0000000 -0.0000000 )
                  (  0.0000000  1.0000000 -0.0000000 )
                  (  0.0000000  0.0000000  1.0000000 )

      isym =  2     180 deg rotation - cart. axis [1,0,0]

[...]

      isym =  3     120 deg rotation - cryst. axis [0,0,1]

[...]

      isym =  6     180 deg rotation - cryst. axis [1,1,0]

[...]

      isym =  7     inversion

[...]

      isym =  8     inv. 180 deg rotation - cart. axis [1,0,0]

[...]

      isym =  9     inv. 120 deg rotation - cryst. axis [0,0,1]

 cryst.   s( 9) = (     1         -1          0      )
                  (     1          0          0      )
                  (     1          0         -1      )

 cart.    s( 9) = (  0.5000000  0.8660254 -0.0000000 )
                  ( -0.8660254  0.5000000 -0.0000000 )
                  (  0.0000000  0.0000000 -1.0000000 )

[...]

 cryst.   s(10) = (     0          1          0      )
                  (    -1          1          0      )
                  (     0          1         -1      )

 cart.    s(10) = (  0.5000000 -0.8660254  0.0000000 )
                  (  0.8660254  0.5000000 -0.0000000 )
                  (  0.0000000  0.0000000 -1.0000000 )

[...]

      isym = 12     inv. 180 deg rotation - cryst. axis [1,1,0]

 cryst.   s(12) = (     1         -1          0      )
                  (     0         -1          0      )
                  (     0         -1          1      )

 cart.    s(12) = (  0.5000000 -0.8660254  0.0000000 )
                  ( -0.8660254 -0.5000000  0.0000000 )
                  (  0.0000000  0.0000000  1.0000000 )

   Cartesian axes

     site n.     atom                  positions (alat units)
         1           Cs  tau(   1) = (   1.5000000   0.8660254   0.6123724  )
         2           Cs  tau(   2) = (   0.5000000   0.2886751   0.2041241  )
         3           K   tau(   3) = (   1.0000000   0.5773503   0.4082483  )
         4           Mo  tau(   4) = (   0.0000000   0.0000000   0.0000000  )
         5           Cl  tau(   5) = (   1.0000000   0.2590559   0.1831802  )
         6           Cl  tau(   6) = (   0.7243490   0.4182031   0.6333164  )
         7           Cl  tau(   7) = (   1.0000000   0.8956446   0.6333164  )
         8           Cl  tau(   8) = (   0.7243490   0.7364974   0.1831802  )
         9           Cl  tau(   9) = (   1.2756510   0.4182031   0.6333164  )
        10           Cl  tau(  10) = (   1.2756510   0.7364974   0.1831802  )

   Crystallographic axes

     site n.     atom                  positions (cryst. coord.)
         1           Cs  tau(   1) = (  0.7500000  0.7500000  0.7500000  )
         2           Cs  tau(   2) = (  0.2500000  0.2500000  0.2500000  )
         3           K   tau(   3) = (  0.5000000  0.5000000  0.5000000  )
         4           Mo  tau(   4) = (  0.0000000  0.0000000  0.0000000  )
         5           Cl  tau(   5) = (  0.7756510  0.2243490  0.2243490  )
         6           Cl  tau(   6) = (  0.2243490  0.2243490  0.7756510  )
         7           Cl  tau(   7) = (  0.2243490  0.7756510  0.7756510  )
         8           Cl  tau(   8) = (  0.2243490  0.7756510  0.2243490  )
         9           Cl  tau(   9) = (  0.7756510  0.2243490  0.7756510  )
        10           Cl  tau(  10) = (  0.7756510  0.7756510  0.2243490  )

     number of k points=     1  Methfessel-Paxton smearing, width (Ry)=  0.0010
                       cart. coord. in units 2pi/alat
        k(    1) = (   0.0000000   0.0000000   0.0000000), wk =   2.0000000

                       cryst. coord.
        k(    1) = (   0.0000000   0.0000000   0.0000000), wk =   2.0000000

     Check: negative core charge=   -0.000001

     Initial potential from superposition of free atoms

     starting charge      82.9014, renormalised to      83.0000

     negative rho (up, down):  8.875E-02 0.000E+00
     Starting wfcs are   68 randomized atomic wfcs
     Checking if some PAW data can be deallocated...

     Self-consistent Calculation

     iteration #  1     ecut=    30.00 Ry     beta= 0.70
     Davidson diagonalization with overlap

     ethr =  1.00E-02,  avg # of iterations =  3.0

     Threshold (ethr) on eigenvalues was too large:
     Diagonalizing with lowered threshold

     Davidson diagonalization with overlap

[...]

     negative rho (up, down):  9.133E-02 0.000E+00

     total energy              =    -576.85575348 Ry
     estimated scf accuracy    <       0.30018463 Ry

[...]

     total energy              =    -576.95669899 Ry
     estimated scf accuracy    <       0.00003428 Ry

     iteration # 17     ecut=    30.00 Ry     beta= 0.70
     Davidson diagonalization with overlap

     ethr =  4.13E-08,  avg # of iterations =  1.0

[...]

     End of self-consistent calculation

          k = 0.0000 0.0000 0.0000 (  3116 PWs)   bands (ev):

   -56.9261 -30.9812 -30.9812 -30.9812 -25.7210 -17.3234 -17.3159 -10.9693
   -10.6151 -10.6151 -10.6151 -10.5375 -10.5375  -9.1591  -9.1591  -9.1591
    -4.2130  -4.2130  -4.2130  -4.1355  -4.1355  -4.1355  -0.8814  -0.1755
    -0.1755   0.2808   0.2808   0.2808   0.4007   0.4008   0.4008   1.5178
     1.5178   1.5178   1.7749   1.7749   1.7749   2.0880   2.0880   2.0880
     4.7678   4.7678   4.7678   6.9643   6.9644   7.2586   8.3472   8.3473
     8.8616   8.8616

     occupation numbers
     1.0000   1.0000   1.0000   1.0000   1.0000   1.0000   1.0000   1.0000
     1.0000   1.0000   1.0000   1.0000   1.0000   1.0000   1.0000   1.0000
     1.0000   1.0000   1.0000   1.0000   1.0000   1.0000   1.0000   1.0000
     1.0000   1.0000   1.0000   1.0000   1.0000   1.0000   1.0000   1.0000
     1.0000   1.0000   1.0000   1.0000   1.0000   1.0000   1.0000   1.0000
     0.5018   0.4992   0.4990  -0.0000  -0.0000  -0.0000  -0.0000  -0.0000
    -0.0000  -0.0000

     the Fermi energy is     4.7678 ev

!    total energy              =    -576.95669894 Ry
     estimated scf accuracy    <       0.00000065 Ry
     smearing contrib. (-TS)   =      -0.00084628 Ry
     internal energy E=F+TS    =    -576.95585266 Ry

     The total energy is F=E-TS. E is the sum of the following terms:
     one-electron contribution =    -207.49914631 Ry
     hartree contribution      =     131.29715520 Ry
     xc contribution           =    -144.30524404 Ry
     ewald contribution        =    -301.03064163 Ry
     one-center paw contrib.   =     -55.41797588 Ry
      -> PAW hartree energy AE =      37.82052953 Ry
      -> PAW hartree energy PS =     -37.60993354 Ry
      -> PAW xc energy AE      =     -66.23524076 Ry
      -> PAW xc energy PS      =      10.60666889 Ry
      -> total E_H with PAW    =     131.50775119 Ry
      -> total E_XC with PAW   =    -199.93381591 Ry

     convergence has been achieved in  17 iterations

     negative rho (up, down):  8.773E-02 0.000E+00

     Forces acting on atoms (cartesian axes, Ry/au):

     atom    1 type  1   force =    -0.00000000    0.00000000    0.00000687
     atom    2 type  1   force =    -0.00000000   -0.00000000   -0.00000687
     atom    3 type  2   force =     0.00000000    0.00000000    0.00000000
     atom    4 type  3   force =     0.00000000    0.00000000    0.00000000
     atom    5 type  4   force =     0.00000000   -0.01535296   -0.01085437
     atom    6 type  4   force =    -0.01329605   -0.00767648    0.01085437
     atom    7 type  4   force =     0.00000000    0.01535296    0.01085437
     atom    8 type  4   force =    -0.01329605    0.00767648   -0.01085437
     atom    9 type  4   force =     0.01329605   -0.00767648    0.01085437
     atom   10 type  4   force =     0.01329605    0.00767648   -0.01085437
     The non-local contrib.  to forces
     atom    1 type  1   force =     0.00000000    0.00000000   -0.00000786
     atom    2 type  1   force =     0.00000000    0.00000000    0.00000786
     atom    3 type  2   force =     0.00000000    0.00000000    0.00000000
     atom    4 type  3   force =     0.00000000    0.00000000    0.00000000
     atom    5 type  4   force =     0.00000000   -0.10526514   -0.07444156
     atom    6 type  4   force =    -0.09116229   -0.05263257    0.07444156
     atom    7 type  4   force =     0.00000000    0.10526514    0.07444156
     atom    8 type  4   force =    -0.09116229    0.05263257   -0.07444156
     atom    9 type  4   force =     0.09116229   -0.05263257    0.07444156
     atom   10 type  4   force =     0.09116229    0.05263257   -0.07444156
     The ionic contribution  to forces
     atom    1 type  1   force =    -0.00000000    0.00000000   -0.00000000
     atom    2 type  1   force =     0.00000000    0.00000000    0.00000000
     atom    3 type  2   force =     0.00000000   -0.00000000    0.00000000
     atom    4 type  3   force =     0.00000000    0.00000000   -0.00000000
     atom    5 type  4   force =     0.00000000    5.63894676    3.98733749
     atom    6 type  4   force =     4.88347115    2.81947338   -3.98733749
     atom    7 type  4   force =     0.00000000   -5.63894676   -3.98733749
     atom    8 type  4   force =     4.88347115   -2.81947338    3.98733749
     atom    9 type  4   force =    -4.88347115    2.81947338   -3.98733749
     atom   10 type  4   force =    -4.88347115   -2.81947338    3.98733749
     The local contribution  to forces
     atom    1 type  1   force =     0.00002237   -0.00006469    0.00003794
     atom    2 type  1   force =    -0.00003340    0.00006839   -0.00001995
     atom    3 type  2   force =    -0.00000353   -0.00000254   -0.00000217
     atom    4 type  3   force =     0.00000329   -0.00000070    0.00000170
     atom    5 type  4   force =     0.00005010   -5.55173747   -3.92577307
     atom    6 type  4   force =    -4.80803072   -2.77577714    3.92570982
     atom    7 type  4   force =    -0.00004801    5.55173829    3.92577615
     atom    8 type  4   force =    -4.80804167    2.77584334   -3.92567673
     atom    9 type  4   force =     4.80804114   -2.77584338    3.92567462
     atom   10 type  4   force =     4.80803334    2.77577577   -3.92570840
     The core correction contribution to forces
     atom    1 type  1   force =     0.00000057   -0.00000440    0.00000464
     atom    2 type  1   force =    -0.00000329    0.00000490   -0.00000001
     atom    3 type  2   force =    -0.00000002    0.00000017   -0.00000012
     atom    4 type  3   force =     0.00000000    0.00000000    0.00000000
     atom    5 type  4   force =    -0.00000020    0.00275629    0.00194966
     atom    6 type  4   force =     0.00238541    0.00137684   -0.00194793
     atom    7 type  4   force =    -0.00000026   -0.00275633   -0.00194975
     atom    8 type  4   force =     0.00238797   -0.00137814    0.00194973
     atom    9 type  4   force =    -0.00238786    0.00137815   -0.00194981
     atom   10 type  4   force =    -0.00238541   -0.00137680    0.00194764
     The Hubbard contrib.    to forces
     atom    1 type  1   force =     0.00000000    0.00000000    0.00000000
     atom    2 type  1   force =     0.00000000    0.00000000    0.00000000
     atom    3 type  2   force =     0.00000000    0.00000000    0.00000000
     atom    4 type  3   force =     0.00000000    0.00000000    0.00000000
     atom    5 type  4   force =     0.00000000    0.00000000    0.00000000
     atom    6 type  4   force =     0.00000000    0.00000000    0.00000000
     atom    7 type  4   force =     0.00000000    0.00000000    0.00000000
     atom    8 type  4   force =     0.00000000    0.00000000    0.00000000
     atom    9 type  4   force =     0.00000000    0.00000000    0.00000000
     atom   10 type  4   force =     0.00000000    0.00000000    0.00000000
     The SCF correction term to forces
     atom    1 type  1   force =    -0.00001053    0.00003549   -0.00001609
     atom    2 type  1   force =     0.00001282   -0.00003573    0.00001700
     atom    3 type  2   force =     0.00000284    0.00000473    0.00000055
     atom    4 type  3   force =    -0.00000302    0.00000012   -0.00000112
     atom    5 type  4   force =    -0.00004765   -0.00004019    0.00009111
     atom    6 type  4   force =     0.00000798   -0.00014710    0.00002593
     atom    7 type  4   force =     0.00004732    0.00003948   -0.00009300
     atom    8 type  4   force =     0.00008218    0.00004766   -0.00000356
     atom    9 type  4   force =    -0.00008115   -0.00004829    0.00000496
     atom   10 type  4   force =    -0.00000879    0.00014825   -0.00002724

     Total force =     0.046056     Total SCF correction =     0.000302

     Computing stress (Cartesian axis) and pressure

     negative rho (up, down):  8.773E-02 0.000E+00
          total   stress  (Ry/bohr**3)                   (kbar)     P=       11.11
   0.00007545   0.00000000   0.00000000           11.10        0.00        0.00
   0.00000000   0.00007545  -0.00000000            0.00       11.10       -0.00
   0.00000000  -0.00000000   0.00007574            0.00       -0.00       11.14

     kinetic stress (kbar)   6851.26      0.00     -0.00
                                0.00   6851.26     -0.00
                                0.00     -0.00   6851.13

     local   stress (kbar)  -6883.01      0.11     -0.52
                                0.11  -6884.09      0.21
                               -0.52      0.21  -6883.31

     nonloc. stress (kbar)   5659.86      0.00      0.00
                                0.00   5659.86     -0.00
                                0.00     -0.00   5659.85

     hartree stress (kbar)   2871.65     -0.07      0.19
                               -0.07   2871.95     -0.04
                                0.19     -0.04   2871.73

     exc-cor stress (kbar)   2896.46     -0.00      0.00
                               -0.00   2896.46     -0.00
                                0.00     -0.00   2896.46

     corecor stress (kbar)  -4800.47     -0.00     -0.00
                               -0.00  -4800.47      0.00
                               -0.00      0.00  -4800.47

     ewald   stress (kbar)  -6584.25      0.00      0.00
                                0.00  -6584.25      0.00
                                0.00      0.00  -6584.25

     hubbard stress (kbar)      0.00      0.00      0.00
                                0.00      0.00      0.00
                                0.00      0.00      0.00

     DFT-D   stress (kbar)      0.00      0.00      0.00
                                0.00      0.00      0.00
                                0.00      0.00      0.00

     XDM     stress (kbar)      0.00      0.00      0.00
                                0.00      0.00      0.00
                                0.00      0.00      0.00

     dft-nl  stress (kbar)      0.00      0.00      0.00
                                0.00      0.00      0.00
                                0.00      0.00      0.00

     TS-vdW  stress (kbar)      0.00      0.00      0.00
                                0.00      0.00      0.00
                                0.00      0.00      0.00

[...]

                                0.00      0.00      0.00

     Writing all to output data dir new_calculations/myprefix.save/

     General routines

     Parallel routines

     PAW routines

   This run was terminated on:  20:50:29  20May2023

   JOB DONE.