     Program PWSCF v.7.0 starts on 21May2023 at  8:12:27

     Reading input from espresso_19852.pwi
Warning: card &CELL ignored
Warning: card / ignored

     Current dimensions of program PWSCF are:
     Max number of different atomic species (ntypx) = 10
     Max number of k-points (npk) =  40000
     Max angular momentum in pseudopotentials (lmaxx) =  4
     file Mg.pbe-n-kjpaw_psl.0.3.0.UPF: wavefunction(s)  3S renormalized
     file O.pbe-n-kjpaw_psl.0.1.UPF: wavefunction(s)  2P renormalized

     gamma-point specific algorithms are used

     Subspace diagonalization in iterative solution of the eigenvalue problem:
     a serial algorithm will be used

     Using Slab Decomposition

     bravais-lattice index     =            0
     lattice parameter (alat)  =      11.2501  a.u.
     unit-cell volume          =     977.5734 (a.u.)^3
     number of atoms/cell      =           14
     number of atomic types    =            4
     number of electrons       =       101.00
     number of Kohn-Sham states=           61
     kinetic-energy cutoff     =      30.0000  Ry
     charge density cutoff     =     240.0000  Ry
     scf convergence threshold =      1.0E-06
     mixing beta               =       0.7000
     number of iterations used =            8  plain     mixing
     Exchange-correlation= SLA  PW   PBX  PBC
                           (   1   4   3   4   0   0   0)

     celldm(1)=  11.250082  celldm(2)=   0.000000  celldm(3)=   0.000000
     celldm(4)=   0.000000  celldm(5)=   0.000000  celldm(6)=   0.000000

     crystal axes: (cart. coord. in units of alat)
               a(1) = (   1.000000   0.000000   0.000000 )
               a(2) = (   0.519129   0.854722   0.000000 )
               a(3) = (   0.519132   0.292070   0.803262 )

     reciprocal axes: (cart. coord. in units 2 pi/alat)
               b(1) = (  1.000000 -0.607366 -0.425438 )
               b(2) = (  0.000000  1.169971 -0.425406 )
               b(3) = (  0.000000  0.000000  1.244923 )

     PseudoPot. # 1 for Li read from file:
     /home/pragov/projects/rrg-bengioy-ad/pragov/crystal_structure_design/SSSP/li_pbe_v1.4.uspp.F.UPF
     MD5 check sum: e912e257baa3777c20ea3d68f190483c
     Pseudo is Ultrasoft, Zval =  3.0
     Generated by new atomic code, or converted to UPF format
     Using radial grid of  751 points,  5 beta functions with:
                l(1) =   0
                l(2) =   0
                l(3) =   0
                l(4) =   1
                l(5) =   1
     Q(r) pseudized with 10 coefficients,  rinner =    1.150   1.150   1.150

     PseudoPot. # 2 for Mg read from file:
     /home/pragov/projects/rrg-bengioy-ad/pragov/crystal_structure_design/SSSP/Mg.pbe-n-kjpaw_psl.0.3.0.UPF
     MD5 check sum: 24ecedc7f3e3cbe212e682f4413594e4
     Pseudo is Projector augmented-wave + core cor, Zval =  2.0
     Generated using "atomic" code by A. Dal Corso  v.5.0.99 svn rev. 10869
     Shape of augmentation charge: PSQ
     Using radial grid of 1129 points,  4 beta functions with:
                l(1) =   0
                l(2) =   0
                l(3) =   1
                l(4) =   1
     Q(r) pseudized with 0 coefficients

     PseudoPot. # 3 for Mn read from file:
     /home/pragov/projects/rrg-bengioy-ad/pragov/crystal_structure_design/SSSP/mn_pbe_v1.5.uspp.F.UPF
     MD5 check sum: 82ef2b46521d7a7d9e736dc3972e4928
     Pseudo is Ultrasoft + core correction, Zval = 15.0
     Generated by new atomic code, or converted to UPF format
     Using radial grid of  859 points,  6 beta functions with:
                l(1) =   0
                l(2) =   0
                l(3) =   1
                l(4) =   1
                l(5) =   2
                l(6) =   2
     Q(r) pseudized with  8 coefficients,  rinner =    0.950   0.950   0.950
                                                       0.950   0.950

     PseudoPot. # 4 for O  read from file:
     /home/pragov/projects/rrg-bengioy-ad/pragov/crystal_structure_design/SSSP/O.pbe-n-kjpaw_psl.0.1.UPF
     MD5 check sum: 0234752ac141de4415c5fc33072bef88
     Pseudo is Projector augmented-wave + core cor, Zval =  6.0
     Generated using "atomic" code by A. Dal Corso  v.5.0.99 svn rev. 10869
     Shape of augmentation charge: BESSEL
     Using radial grid of 1095 points,  4 beta functions with:
                l(1) =   0
                l(2) =   0
                l(3) =   1
                l(4) =   1
     Q(r) pseudized with 0 coefficients

     atomic species   valence    mass     pseudopotential
        Li             3.00     6.94000     Li( 1.00)
        Mg             2.00    24.30500     Mg( 1.00)
        Mn            15.00    54.93804     Mn( 1.00)
        O              6.00    15.99900     O ( 1.00)

     No symmetry found

                                    s                        frac. trans.

      isym =  1     identity

 cryst.   s( 1) = (     1          0          0      )
                  (     0          1          0      )
                  (     0          0          1      )

 cart.    s( 1) = (  1.0000000 -0.0000000 -0.0000000 )
                  (  0.0000000  1.0000000 -0.0000000 )
                  (  0.0000000  0.0000000  1.0000000 )

   Cartesian axes

     site n.     atom                  positions (alat units)
         1           Li  tau(   1) = (   0.2359731   0.1327683   0.0929961  )
         2           Li  tau(   2) = (   1.8022844   1.0140217   0.7102647  )
         3           Mg  tau(   3) = (   1.0191304   0.5733850   0.4016369  )
         4           Mn  tau(   4) = (   0.7595796   0.4273542   0.0000024  )
         5           Mn  tau(   5) = (   0.7595729   0.1460567   0.4016304  )
         6           Mn  tau(   6) = (   0.5191227   0.5733806   0.4016272  )
         7           O   tau(   7) = (   0.5366441   0.3019367   0.2114853  )
         8           O   tau(   8) = (   0.9720004   0.2910150   0.2038431  )
         9           O   tau(   9) = (   0.7533238   0.6797197   0.2038391  )
        10           O   tau(  10) = (   0.7533218   0.4238394   0.5691355  )
        11           O   tau(  11) = (   1.2849333   0.7229521   0.2341269  )
        12           O   tau(  12) = (   1.2849385   0.4670837   0.5994185  )
        13           O   tau(  13) = (   1.0662503   0.8557757   0.5994242  )
        14           O   tau(  14) = (   1.5016225   0.8448568   0.5917755  )

   Crystallographic axes

     site n.     atom                  positions (cryst. coord.)
         1           Li  tau(   1) = (  0.1157700  0.1157740  0.1157730  )
         2           Li  tau(   2) = (  0.8842280  0.8842250  0.8842250  )
         3           Mg  tau(   3) = (  0.5000040  0.4999850  0.5000070  )
         4           Mn  tau(   4) = (  0.5000180  0.4999910  0.0000030  )
         5           Mn  tau(   5) = (  0.4999940  0.0000260  0.4999990  )
         6           Mn  tau(   6) = (  0.0000030  0.4999840  0.4999950  )
         7           O   tau(   7) = (  0.2632840  0.2632900  0.2632830  )
         8           O   tau(   8) = (  0.7085250  0.2537630  0.2537690  )
         9           O   tau(   9) = (  0.2537640  0.7085380  0.2537640  )
        10           O   tau(  10) = (  0.2537640  0.2537660  0.7085300  )
        11           O   tau(  11) = (  0.7462300  0.7462340  0.2914700  )
        12           O   tau(  12) = (  0.7462320  0.2914780  0.7462300  )
        13           O   tau(  13) = (  0.2914630  0.7462340  0.7462370  )
        14           O   tau(  14) = (  0.7367210  0.7367130  0.7367150  )

     number of k points=     1  Methfessel-Paxton smearing, width (Ry)=  0.0010
                       cart. coord. in units 2pi/alat
        k(    1) = (   0.0000000   0.0000000   0.0000000), wk =   2.0000000

                       cryst. coord.
        k(    1) = (   0.0000000   0.0000000   0.0000000), wk =   2.0000000

     Check: negative core charge=   -0.000024

     Initial potential from superposition of free atoms

     starting charge      98.5973, renormalised to     101.0000
     Starting wfcs are   85 randomized atomic wfcs
     Checking if some PAW data can be deallocated...

     Self-consistent Calculation

     iteration #  1     ecut=    30.00 Ry     beta= 0.70
     Davidson diagonalization with overlap

     ethr =  1.00E-02,  avg # of iterations =  2.0

     total energy              =   -1017.98244797 Ry
     estimated scf accuracy    <      16.08206313 Ry

[...]

     total energy              =   -1029.44182518 Ry
     estimated scf accuracy    <       0.00085722 Ry

     iteration # 86     ecut=    30.00 Ry     beta= 0.70
     Davidson diagonalization with overlap

     ethr =  1.10E-09,  avg # of iterations =  1.0

     End of self-consistent calculation

          k = 0.0000 0.0000 0.0000 (  1359 PWs)   bands (ev):

   -72.7556 -72.7451 -72.7450 -41.6914 -41.6326 -41.6325 -41.4825 -41.4824
   -41.4393 -41.2725 -41.2031 -41.2030 -36.6975 -36.6960 -11.9319 -10.7075
   -10.6273 -10.4797 -10.4794 -10.4281 -10.3323 -10.3321   0.8979   1.1560
     1.2612   1.2612   2.4249   2.4249   2.4855   2.4856   2.5195   2.7185
     3.3697   3.3698   4.0312   4.3784   4.3785   4.4431   4.6999   4.7002
     4.7708   4.8565   4.8566   5.6484   5.8157   5.8158   6.5310   6.5310
     7.2608   7.3042   7.3077   7.3077   7.4083   7.4084   7.5575   9.7546
    10.0247  10.0248  10.2612  10.2613  10.4146

     occupation numbers
     1.0000   1.0000   1.0000   1.0000   1.0000   1.0000   1.0000   1.0000
     1.0000   1.0000   1.0000   1.0000   1.0000   1.0000   1.0000   1.0000
     1.0000   1.0000   1.0000   1.0000   1.0000   1.0000   1.0000   1.0000
     1.0000   1.0000   1.0000   1.0000   1.0000   1.0000   1.0000   1.0000
     1.0000   1.0000   1.0000   1.0000   1.0000   1.0000   1.0000   1.0000
     1.0000   1.0000   1.0000   1.0000   1.0000   1.0000   1.0000   1.0000
     1.0000   0.6421   0.4298   0.4282  -0.0000  -0.0000  -0.0000  -0.0000
    -0.0000  -0.0000  -0.0000  -0.0000  -0.0000

     the Fermi energy is     7.3065 ev

!    total energy              =   -1029.44183233 Ry
     estimated scf accuracy    <       0.00000051 Ry
     smearing contrib. (-TS)   =      -0.00081022 Ry
     internal energy E=F+TS    =   -1029.44102212 Ry

     The total energy is F=E-TS. E is the sum of the following terms:
     one-electron contribution =    -644.46285608 Ry
     hartree contribution      =     364.31564147 Ry
     xc contribution           =    -147.02445132 Ry
     ewald contribution        =    -494.81595576 Ry
     one-center paw contrib.   =    -107.45340043 Ry
      -> PAW hartree energy AE =     235.81121176 Ry
      -> PAW hartree energy PS =    -234.96874804 Ry
      -> PAW xc energy AE      =    -169.69986108 Ry
      -> PAW xc energy PS      =      61.40399693 Ry
      -> total E_H with PAW    =     365.15810519 Ry
      -> total E_XC with PAW   =    -255.32031547 Ry

     convergence has been achieved in  86 iterations

     Forces acting on atoms (cartesian axes, Ry/au):

     atom    1 type  1   force =     0.00558393    0.00313065    0.00222361
     atom    2 type  1   force =    -0.00557720   -0.00314318   -0.00221535
     atom    3 type  2   force =     0.00000349    0.00005662   -0.00000612
     atom    4 type  3   force =    -0.00004241    0.00008873   -0.00004955
     atom    5 type  3   force =    -0.00003559   -0.00012085    0.00005641
     atom    6 type  3   force =    -0.00001397    0.00009646   -0.00001445
     atom    7 type  4   force =    -0.00116725   -0.00065838   -0.00044054
     atom    8 type  4   force =    -0.03235109    0.00567510    0.00390862
     atom    9 type  4   force =    -0.01198684   -0.03069780    0.00392322
     atom   10 type  4   force =    -0.01204793   -0.00678318   -0.03024845
     atom   11 type  4   force =     0.01206247    0.00678548    0.03025784
     atom   12 type  4   force =     0.01197863    0.03059826   -0.00390637
     atom   13 type  4   force =     0.03247007   -0.00567088   -0.00392414
     atom   14 type  4   force =     0.00112367    0.00064297    0.00043529
     The non-local contrib.  to forces
     atom    1 type  1   force =     0.03076492    0.01734610    0.01210591
     atom    2 type  1   force =    -0.03078604   -0.01727587   -0.01212040
     atom    3 type  2   force =    -0.00000976    0.00002449   -0.00001343
     atom    4 type  3   force =     0.00001918   -0.00001646    0.00001687
     atom    5 type  3   force =     0.00000075    0.00006402    0.00000269
     atom    6 type  3   force =     0.00004987   -0.00005727    0.00001386
     atom    7 type  4   force =     0.71090517    0.40001184    0.28031821
     atom    8 type  4   force =    -0.66543895    0.13559990    0.09497517
     atom    9 type  4   force =    -0.22946670   -0.63928979    0.09498876
     atom   10 type  4   force =    -0.22959602   -0.12930751   -0.63318050
     atom   11 type  4   force =     0.22970271    0.12905541    0.63303262
     atom   12 type  4   force =     0.22956277    0.63909925   -0.09503493
     atom   13 type  4   force =     0.66539414   -0.13555348   -0.09492411
     atom   14 type  4   force =    -0.71091036   -0.39993807   -0.28006453
     The ionic contribution  to forces
     atom    1 type  1   force =     1.61776660    0.90972096    0.63742735
     atom    2 type  1   force =    -1.61754555   -0.90976659   -0.63725107
     atom    3 type  2   force =     0.00017505    0.00048797    0.00012781
     atom    4 type  3   force =     0.00006407    0.00270037   -0.00213485
     atom    5 type  3   force =     0.00134851   -0.00652459    0.00370783
     atom    6 type  3   force =    -0.00239764    0.00266900   -0.00136987
     atom    7 type  4   force =   -14.88833266   -8.37737971   -5.86868325
     atom    8 type  4   force =    15.83581236    0.16589435    0.11612192
     atom    9 type  4   force =     8.36131175   13.44707783    0.11652064
     atom   10 type  4   force =     8.36226984    4.70574942   12.59912092
     atom   11 type  4   force =    -8.36233614   -4.70274992  -12.59636168
     atom   12 type  4   force =    -8.36352982  -13.44716960   -0.11595419
     atom   13 type  4   force =   -15.83193708   -0.16664094   -0.11676419
     atom   14 type  4   force =    14.88733071    8.37593145    5.86549264
     The local contribution  to forces
     atom    1 type  1   force =    -1.64291442   -0.92391870   -0.64718010
     atom    2 type  1   force =     1.64273485    0.92388985    0.64703928
     atom    3 type  2   force =    -0.00016132   -0.00045184   -0.00012363
     atom    4 type  3   force =    -0.00020618   -0.00264368    0.00216433
     atom    5 type  3   force =    -0.00146413    0.00638410   -0.00375152
     atom    6 type  3   force =     0.00232487   -0.00260966    0.00124226
     atom    7 type  4   force =    14.18345843    7.98045352    5.59066011
     atom    8 type  4   force =   -15.20934107   -0.29482481   -0.20629158
     atom    9 type  4   force =    -8.14617709  -12.84459778   -0.20690062
     atom   10 type  4   force =    -8.14708442   -4.58481846  -12.00239749
     atom   11 type  4   force =     8.14705373    4.58206814   11.99977436
     atom   12 type  4   force =     8.14828300   12.84476181    0.20639790
     atom   13 type  4   force =    15.20561264    0.29553020    0.20686844
     atom   14 type  4   force =   -14.18249395   -7.97909359   -5.58772908
     The core correction contribution to forces
     atom    1 type  1   force =     0.00000000    0.00000000    0.00000000
     atom    2 type  1   force =     0.00000000    0.00000000    0.00000000
     atom    3 type  2   force =     0.00000101   -0.00000360    0.00000148
     atom    4 type  3   force =    -0.00000086   -0.00000247    0.00000145
     atom    5 type  3   force =    -0.00000007   -0.00000108   -0.00000216
     atom    6 type  3   force =    -0.00000053    0.00000142    0.00000150
     atom    7 type  4   force =    -0.00726382   -0.00408667   -0.00286399
     atom    8 type  4   force =     0.00669681   -0.00110291   -0.00077269
     atom    9 type  4   force =     0.00253303    0.00629849   -0.00077299
     atom   10 type  4   force =     0.00253450    0.00142715    0.00618133
     atom   11 type  4   force =    -0.00253565   -0.00142505   -0.00618048
     atom   12 type  4   force =    -0.00253374   -0.00629566    0.00077319
     atom   13 type  4   force =    -0.00669779    0.00110256    0.00077233
     atom   14 type  4   force =     0.00726412    0.00408638    0.00286194
     The Hubbard contrib.    to forces
     atom    1 type  1   force =     0.00000000    0.00000000    0.00000000
     atom    2 type  1   force =     0.00000000    0.00000000    0.00000000
     atom    3 type  2   force =     0.00000000    0.00000000    0.00000000
     atom    4 type  3   force =     0.00000000    0.00000000    0.00000000
     atom    5 type  3   force =     0.00000000    0.00000000    0.00000000
     atom    6 type  3   force =     0.00000000    0.00000000    0.00000000
     atom    7 type  4   force =     0.00000000    0.00000000    0.00000000
     atom    8 type  4   force =     0.00000000    0.00000000    0.00000000
     atom    9 type  4   force =     0.00000000    0.00000000    0.00000000
     atom   10 type  4   force =     0.00000000    0.00000000    0.00000000
     atom   11 type  4   force =     0.00000000    0.00000000    0.00000000
     atom   12 type  4   force =     0.00000000    0.00000000    0.00000000
     atom   13 type  4   force =     0.00000000    0.00000000    0.00000000
     atom   14 type  4   force =     0.00000000    0.00000000    0.00000000
     The SCF correction term to forces
     atom    1 type  1   force =    -0.00003250   -0.00001742   -0.00012915
     atom    2 type  1   force =     0.00002021    0.00000972    0.00011722
     atom    3 type  2   force =    -0.00000082   -0.00000011    0.00000204
     atom    4 type  3   force =     0.00008205    0.00005126   -0.00009696
     atom    5 type  3   force =     0.00008001   -0.00004302    0.00009996
     atom    6 type  3   force =     0.00001013    0.00009326    0.00009819
     atom    7 type  4   force =     0.00006629    0.00034292    0.00012878
     atom    8 type  4   force =    -0.00007957    0.00010885   -0.00012381
     atom    9 type  4   force =    -0.00018716   -0.00018627    0.00008783
     atom   10 type  4   force =    -0.00017115    0.00016651    0.00002767
     atom   11 type  4   force =     0.00017849   -0.00016281   -0.00000658
     atom   12 type  4   force =     0.00019709    0.00020275   -0.00008794
     atom   13 type  4   force =     0.00009883   -0.00010894    0.00012378
     atom   14 type  4   force =    -0.00006618   -0.00034291   -0.00012529

     Total force =     0.081862     Total SCF correction =     0.000846

     Computing stress (Cartesian axis) and pressure

          total   stress  (Ry/bohr**3)                   (kbar)     P=     -562.03
  -0.00377216   0.00005296   0.00003718         -554.90        7.79        5.47
   0.00005296  -0.00383693   0.00002111            7.79     -564.43        3.10
   0.00003718   0.00002111  -0.00385266            5.47        3.10     -566.75

     kinetic stress (kbar)  27274.77    125.91     88.09
                              125.91  27121.62     49.48
                               88.09     49.48  27085.56

     local   stress (kbar)  -2485.12  23285.62  16311.71
                            23285.62 -30772.85   9177.08
                            16311.71   9177.08 -37446.82

     nonloc. stress (kbar)   9210.96    -58.91    -41.46
                              -58.91   9281.98    -23.31
                              -41.46    -23.31   9299.40

     hartree stress (kbar)   8711.76 -10561.16  -7398.14
                           -10561.16  21541.80  -4162.36
                            -7398.14  -4162.36  24568.60

     exc-cor stress (kbar)  -4633.71     -2.13     -1.49
                               -2.13  -4631.13     -0.84
                               -1.49     -0.84  -4630.51

     corecor stress (kbar)  -2241.16     -0.33     -0.22
                               -0.33  -2240.75     -0.13
                               -0.22     -0.13  -2240.67

     ewald   stress (kbar) -36392.40 -12781.22  -8953.02
                           -12781.22 -20865.12  -5036.82
                            -8953.02  -5036.82 -17202.31

     hubbard stress (kbar)      0.00      0.00      0.00
                                0.00      0.00      0.00
                                0.00      0.00      0.00

     DFT-D   stress (kbar)      0.00      0.00      0.00
                                0.00      0.00      0.00
                                0.00      0.00      0.00

     XDM     stress (kbar)      0.00      0.00      0.00
                                0.00      0.00      0.00
                                0.00      0.00      0.00

     dft-nl  stress (kbar)      0.00      0.00      0.00
                                0.00      0.00      0.00
                                0.00      0.00      0.00

     TS-vdW  stress (kbar)      0.00      0.00      0.00
                                0.00      0.00      0.00
                                0.00      0.00      0.00

[...]

                                0.00      0.00      0.00

     Writing all to output data dir new_calculations/myprefix.save/

     General routines

     Parallel routines

     PAW routines

   This run was terminated on:   8:15:43  21May2023

   JOB DONE.