     Program PWSCF v.7.0 starts on 20May2023 at 12:23:34

     Reading input from espresso_6310.pwi
Warning: card &CELL ignored
Warning: card / ignored

     Current dimensions of program PWSCF are:
     Max number of different atomic species (ntypx) = 10
     Max number of k-points (npk) =  40000
     Max angular momentum in pseudopotentials (lmaxx) =  4
     file K.pbe-spn-kjpaw_psl.1.0.0.UPF: wavefunction(s)  3S renormalized
     file O.pbe-n-kjpaw_psl.0.1.UPF: wavefunction(s)  2P renormalized

     gamma-point specific algorithms are used
     Message from routine setup:
     using ibrav=0 with symmetry is DISCOURAGED, use correct ibrav instead

     Subspace diagonalization in iterative solution of the eigenvalue problem:
     a serial algorithm will be used

     Using Slab Decomposition

     bravais-lattice index     =            0
     lattice parameter (alat)  =      10.7837  a.u.
     unit-cell volume          =    1094.4201 (a.u.)^3
     number of atoms/cell      =            8
     number of atomic types    =            3
     number of electrons       =        72.00
     number of Kohn-Sham states=           43
     kinetic-energy cutoff     =      30.0000  Ry
     charge density cutoff     =     240.0000  Ry
     scf convergence threshold =      1.0E-06
     mixing beta               =       0.7000
     number of iterations used =            8  plain     mixing
     Exchange-correlation= SLA  PW   PBX  PBC
                           (   1   4   3   4   0   0   0)

     celldm(1)=  10.783676  celldm(2)=   0.000000  celldm(3)=   0.000000
     celldm(4)=   0.000000  celldm(5)=   0.000000  celldm(6)=   0.000000

     crystal axes: (cart. coord. in units of alat)
               a(1) = (   1.000000   0.000000   0.000000 )
               a(2) = (  -0.034589   0.999402   0.000000 )
               a(3) = (   0.424481   0.439427   0.873260 )

     reciprocal axes: (cart. coord. in units 2 pi/alat)
               b(1) = (  1.000000  0.034610 -0.503504 )
               b(2) = (  0.000000  1.000599 -0.503504 )
               b(3) = (  0.000000  0.000000  1.145135 )

     PseudoPot. # 1 for K  read from file:
     /home/pragov/projects/rrg-bengioy-ad/pragov/crystal_structure_design/SSSP/K.pbe-spn-kjpaw_psl.1.0.0.UPF
     MD5 check sum: 7d58810084cac21f60fbe77ea2b688fd
     Pseudo is Projector augmented-wave + core cor, Zval =  9.0
     Generated using "atomic" code by A. Dal Corso  v.5.1
     Shape of augmentation charge: PSQ
     Using radial grid of 1165 points,  6 beta functions with:
                l(1) =   0
                l(2) =   0
                l(3) =   1
                l(4) =   1
                l(5) =   2
                l(6) =   2
     Q(r) pseudized with 0 coefficients

     PseudoPot. # 2 for Bi read from file:
     /home/pragov/projects/rrg-bengioy-ad/pragov/crystal_structure_design/SSSP/Bi_pbe_v1.uspp.F.UPF
     MD5 check sum: cceb9f28ec65b6d7ff33140f5b0b1758
     Pseudo is Ultrasoft + core correction, Zval = 15.0
     Generated by new atomic code, or converted to UPF format
     Using radial grid of  899 points,  6 beta functions with:
                l(1) =   0
                l(2) =   0
                l(3) =   1
                l(4) =   1
                l(5) =   2
                l(6) =   2
     Q(r) pseudized with  6 coefficients,  rinner =    1.000   1.000   1.000
                                                       1.000   1.000

     PseudoPot. # 3 for O  read from file:
     /home/pragov/projects/rrg-bengioy-ad/pragov/crystal_structure_design/SSSP/O.pbe-n-kjpaw_psl.0.1.UPF
     MD5 check sum: 0234752ac141de4415c5fc33072bef88
     Pseudo is Projector augmented-wave + core cor, Zval =  6.0
     Generated using "atomic" code by A. Dal Corso  v.5.0.99 svn rev. 10869
     Shape of augmentation charge: BESSEL
     Using radial grid of 1095 points,  4 beta functions with:
                l(1) =   0
                l(2) =   0
                l(3) =   1
                l(4) =   1
     Q(r) pseudized with 0 coefficients

     atomic species   valence    mass     pseudopotential
        K              9.00    39.09830     K ( 1.00)
        Bi            15.00   208.98040     Bi( 1.00)
        O              6.00    15.99900     O ( 1.00)

      2 Sym. Ops., with inversion, found

                                    s                        frac. trans.

      isym =  1     identity

 cryst.   s( 1) = (     1          0          0      )
                  (     0          1          0      )
                  (     0          0          1      )

 cart.    s( 1) = (  1.0000000 -0.0000000 -0.0000000 )
                  (  0.0000000  1.0000000 -0.0000000 )
                  (  0.0000000  0.0000000  1.0000000 )

      isym =  2     inversion

 cryst.   s( 2) = (    -1          0          0      )
                  (     0         -1          0      )
                  (     0          0         -1      )

 cart.    s( 2) = ( -1.0000000  0.0000000  0.0000000 )
                  (  0.0000000 -1.0000000  0.0000000 )
                  (  0.0000000  0.0000000 -1.0000000 )

   Cartesian axes

     site n.     atom                  positions (alat units)
         1           K   tau(   1) = (   1.1824792   0.4608306   0.6549449  )
         2           K   tau(   2) = (   0.2074129   0.9779979   0.2183150  )
         3           Bi  tau(   3) = (   0.6914218   0.5104509   0.2183150  )
         4           Bi  tau(   4) = (   0.6984703   0.9283777   0.6549449  )
         5           O   tau(   5) = (   0.3213177   0.4724224   0.1937545  )
         6           O   tau(   6) = (   0.7166259   0.8816489   0.2428754  )
         7           O   tau(   7) = (   0.6732662   0.5571797   0.6303844  )
         8           O   tau(   8) = (   1.0685745   0.9664062   0.6795053  )

   Crystallographic axes

     site n.     atom                  positions (cryst. coord.)
         1           K   tau(   1) = (  0.8686610  0.1313390  0.7500000  )
         2           K   tau(   2) = (  0.1313390  0.8686610  0.2500000  )
         3           Bi  tau(   3) = (  0.5991660  0.4008340  0.2500000  )
         4           Bi  tau(   4) = (  0.4008340  0.5991660  0.7500000  )
         5           O   tau(   5) = (  0.2401120  0.3751490  0.2218750  )
         6           O   tau(   6) = (  0.6248510  0.7598880  0.2781250  )
         7           O   tau(   7) = (  0.3751490  0.2401120  0.7218750  )
         8           O   tau(   8) = (  0.7598880  0.6248510  0.7781250  )

     number of k points=     1  Methfessel-Paxton smearing, width (Ry)=  0.0010
                       cart. coord. in units 2pi/alat
        k(    1) = (   0.0000000   0.0000000   0.0000000), wk =   2.0000000

                       cryst. coord.
        k(    1) = (   0.0000000   0.0000000   0.0000000), wk =   2.0000000

     Check: negative core charge=   -0.000010

     Initial potential from superposition of free atoms

     starting charge      69.9622, renormalised to      72.0000

     negative rho (up, down):  8.454E-02 0.000E+00
     Starting wfcs are   50 randomized atomic wfcs
     Checking if some PAW data can be deallocated...

     Self-consistent Calculation

     iteration #  1     ecut=    30.00 Ry     beta= 0.70
     Davidson diagonalization with overlap

     ethr =  1.00E-02,  avg # of iterations =  3.0

     negative rho (up, down):  7.802E-02 0.000E+00

     total energy              =    -762.44966667 Ry
     estimated scf accuracy    <       1.75241378 Ry

[...]

     total energy              =    -763.35298053 Ry
     estimated scf accuracy    <       0.00000112 Ry

     iteration # 10     ecut=    30.00 Ry     beta= 0.70
     Davidson diagonalization with overlap

     ethr =  1.55E-09,  avg # of iterations =  2.0

[...]

     End of self-consistent calculation

          k = 0.0000 0.0000 0.0000 (  1522 PWs)   bands (ev):

   -22.2929 -22.2467 -16.0477 -16.0321 -15.9931 -15.8723 -15.8448 -15.8211
   -15.8114 -15.7776 -15.7638 -15.7635 -11.4545 -10.1584 -10.0662  -9.8625
    -5.9275  -5.8963  -5.8487  -5.7926  -5.7709  -5.6205  -3.3130  -2.0041
     2.0625   2.6521   2.8705   3.0395   3.4860   4.8348   4.8575   4.9555
     5.0710   5.0735   5.1223   5.8071  10.5392  10.8968  11.1342  11.4845
    11.5128  11.6967  11.9439

     occupation numbers
     1.0000   1.0000   1.0000   1.0000   1.0000   1.0000   1.0000   1.0000
     1.0000   1.0000   1.0000   1.0000   1.0000   1.0000   1.0000   1.0000
     1.0000   1.0000   1.0000   1.0000   1.0000   1.0000   1.0000   1.0000
     1.0000   1.0000   1.0000   1.0000   1.0000   1.0000   1.0000   1.0000
     1.0000   1.0000   1.0000   1.0000  -0.0000  -0.0000  -0.0000  -0.0000
    -0.0000  -0.0000  -0.0000

     the Fermi energy is     7.7663 ev

!    total energy              =    -763.35298062 Ry
     estimated scf accuracy    <       0.00000013 Ry
     smearing contrib. (-TS)   =       0.00000000 Ry
     internal energy E=F+TS    =    -763.35298062 Ry

     The total energy is F=E-TS. E is the sum of the following terms:
     one-electron contribution =    -219.34085459 Ry
     hartree contribution      =     150.25937950 Ry
     xc contribution           =    -181.58107052 Ry
     ewald contribution        =    -363.72110472 Ry
     one-center paw contrib.   =    -148.96933030 Ry
      -> PAW hartree energy AE =     189.55381248 Ry
      -> PAW hartree energy PS =    -188.74965090 Ry
      -> PAW xc energy AE      =    -200.45288073 Ry
      -> PAW xc energy PS      =      50.67938885 Ry
      -> total E_H with PAW    =     151.06354108 Ry
      -> total E_XC with PAW   =    -331.35456240 Ry

     convergence has been achieved in  10 iterations

     negative rho (up, down):  8.321E-02 0.000E+00

     Forces acting on atoms (cartesian axes, Ry/au):

     atom    1 type  1   force =     0.01400031   -0.01353066   -0.00001538
     atom    2 type  1   force =    -0.01400031    0.01353066    0.00001538
     atom    3 type  2   force =     0.02369044   -0.02257076    0.00018148
     atom    4 type  2   force =    -0.02369044    0.02257076   -0.00018148
     atom    5 type  3   force =    -0.02414553    0.00943873    0.00844052
     atom    6 type  3   force =    -0.01027388    0.02377169   -0.00842326
     atom    7 type  3   force =     0.01027388   -0.02377169    0.00842326
     atom    8 type  3   force =     0.02414553   -0.00943873   -0.00844052
     The non-local contrib.  to forces
     atom    1 type  1   force =    -0.02327422    0.02248226   -0.00000385
     atom    2 type  1   force =     0.02327422   -0.02248226    0.00000385
     atom    3 type  2   force =    -0.30549868    0.29533679    0.00014778
     atom    4 type  2   force =     0.30549868   -0.29533679   -0.00014778
     atom    5 type  3   force =     0.65177241    0.07637728   -0.30633314
     atom    6 type  3   force =    -0.05379919   -0.65406482    0.30639525
     atom    7 type  3   force =     0.05379919    0.65406482   -0.30639525
     atom    8 type  3   force =    -0.65177241   -0.07637728    0.30633314
     The ionic contribution  to forces
     atom    1 type  1   force =     0.84167077   -0.81304443    0.00000000
     atom    2 type  1   force =    -0.84167077    0.81304443    0.00000000
     atom    3 type  2   force =     9.42947329   -9.10876441    0.00000000
     atom    4 type  2   force =    -9.42947329    9.10876441    0.00000000
     atom    5 type  3   force =    -7.14342732   -1.42384466    4.09662885
     atom    6 type  3   force =     1.17590604    7.18840263   -4.09662885
     atom    7 type  3   force =    -1.17590604   -7.18840263    4.09662885
     atom    8 type  3   force =     7.14342732    1.42384467   -4.09662885
     The local contribution  to forces
     atom    1 type  1   force =    -0.80512332    0.77774951   -0.00005841
     atom    2 type  1   force =     0.80513475   -0.77771645    0.00005959
     atom    3 type  2   force =    -9.11202969    8.80191956   -0.00036358
     atom    4 type  2   force =     9.11233578   -8.80186419    0.00012353
     atom    5 type  3   force =     6.47397139    1.35763225   -3.78497025
     atom    6 type  3   force =    -1.13287905   -6.51704548    3.78490715
     atom    7 type  3   force =     1.13288545    6.51696550   -3.78487049
     atom    8 type  3   force =    -6.47398500   -1.35760619    3.78503983
     The core correction contribution to forces
     atom    1 type  1   force =     0.00076814   -0.00074042   -0.00000151
     atom    2 type  1   force =    -0.00076652    0.00074180   -0.00000072
     atom    3 type  2   force =     0.01175965   -0.01135976   -0.00000089
     atom    4 type  2   force =    -0.01176344    0.01136117   -0.00000158
     atom    5 type  3   force =    -0.00650803   -0.00072197    0.00314913
     atom    6 type  3   force =     0.00049642    0.00652912   -0.00314897
     atom    7 type  3   force =    -0.00049692   -0.00652920    0.00314961
     atom    8 type  3   force =     0.00650707    0.00072210   -0.00314778
     The Hubbard contrib.    to forces
     atom    1 type  1   force =     0.00000000    0.00000000    0.00000000
     atom    2 type  1   force =     0.00000000    0.00000000    0.00000000
     atom    3 type  2   force =     0.00000000    0.00000000    0.00000000
     atom    4 type  2   force =     0.00000000    0.00000000    0.00000000
     atom    5 type  3   force =     0.00000000    0.00000000    0.00000000
     atom    6 type  3   force =     0.00000000    0.00000000    0.00000000
     atom    7 type  3   force =     0.00000000    0.00000000    0.00000000
     atom    8 type  3   force =     0.00000000    0.00000000    0.00000000
     The SCF correction term to forces
     atom    1 type  1   force =    -0.00001222    0.00004355    0.00001830
     atom    2 type  1   force =     0.00005686   -0.00003573   -0.00007745
     atom    3 type  2   force =    -0.00000804    0.00030134    0.00039089
     atom    4 type  2   force =    -0.00028206   -0.00034957   -0.00016293
     atom    5 type  3   force =     0.00001664   -0.00000133   -0.00000240
     atom    6 type  3   force =    -0.00001253   -0.00005677    0.00007435
     atom    7 type  3   force =    -0.00002223    0.00012282   -0.00006726
     atom    8 type  3   force =    -0.00006082   -0.00001920   -0.00000520

     Total force =     0.076612     Total SCF correction =     0.000720

     Computing stress (Cartesian axis) and pressure

     negative rho (up, down):  8.321E-02 0.000E+00
          total   stress  (Ry/bohr**3)                   (kbar)     P=     -204.36
  -0.00144751   0.00005613  -0.00003494         -212.94        8.26       -5.14
   0.00005613  -0.00144334  -0.00003619            8.26     -212.32       -5.32
  -0.00003494  -0.00003619  -0.00127687           -5.14       -5.32     -187.83

     kinetic stress (kbar)  12616.80    -31.73    -57.69
                              -31.73  12614.58    -59.74
                              -57.69    -59.74  12763.59

     local   stress (kbar)  -4386.76  -3459.44  -3508.94
                            -3459.44  -4626.04  -3632.48
                            -3508.94  -3632.48 -14473.47

     nonloc. stress (kbar)   9308.86      7.78     23.58
                                7.78   9309.41     24.41
                               23.58     24.41   9267.39

     hartree stress (kbar)   5291.10   1420.85   1441.86
                             1420.85   5389.33   1492.64
                             1441.86   1492.64   9516.49

     exc-cor stress (kbar)   9025.70      1.56      1.32
                                1.56   9025.81      1.37
                                1.32      1.37   9030.08

     corecor stress (kbar) -13799.51     -0.22     -0.64
                               -0.22 -13799.53     -0.67
                               -0.64     -0.67 -13797.81

     ewald   stress (kbar) -18269.13   2069.46   2095.37
                             2069.46 -18125.88   2169.14
                             2095.37   2169.14 -12494.10

     hubbard stress (kbar)      0.00      0.00      0.00
                                0.00      0.00      0.00
                                0.00      0.00      0.00

     DFT-D   stress (kbar)      0.00      0.00      0.00
                                0.00      0.00      0.00
                                0.00      0.00      0.00

     XDM     stress (kbar)      0.00      0.00      0.00
                                0.00      0.00      0.00
                                0.00      0.00      0.00

     dft-nl  stress (kbar)      0.00      0.00      0.00
                                0.00      0.00      0.00
                                0.00      0.00      0.00

     TS-vdW  stress (kbar)      0.00      0.00      0.00
                                0.00      0.00      0.00
                                0.00      0.00      0.00

[...]

                                0.00      0.00      0.00

     Writing all to output data dir new_calculations/myprefix.save/

     General routines

     Parallel routines

     PAW routines

   This run was terminated on:  12:24:13  20May2023

   JOB DONE.