     Program PWSCF v.7.0 starts on 20May2023 at 10:58:37

     Reading input from espresso_11295.pwi
Warning: card &CELL ignored
Warning: card / ignored

     Current dimensions of program PWSCF are:
     Max number of different atomic species (ntypx) = 10
     Max number of k-points (npk) =  40000
     Max angular momentum in pseudopotentials (lmaxx) =  4
     file O.pbe-n-kjpaw_psl.0.1.UPF: wavefunction(s)  2P renormalized

     gamma-point specific algorithms are used
     Message from routine setup:
     using ibrav=0 with symmetry is DISCOURAGED, use correct ibrav instead

     Subspace diagonalization in iterative solution of the eigenvalue problem:
     a serial algorithm will be used

     Using Slab Decomposition

     bravais-lattice index     =            0
     lattice parameter (alat)  =      11.6362  a.u.
     unit-cell volume          =    2283.9402 (a.u.)^3
     number of atoms/cell      =           20
     number of atomic types    =            3
     number of electrons       =       176.00
     number of Kohn-Sham states=          106
     kinetic-energy cutoff     =      30.0000  Ry
     charge density cutoff     =     240.0000  Ry
     scf convergence threshold =      1.0E-06
     mixing beta               =       0.7000
     number of iterations used =            8  plain     mixing
     Exchange-correlation= SLA  PW   PBX  PBC
                           (   1   4   3   4   0   0   0)

     celldm(1)=  11.636212  celldm(2)=   0.000000  celldm(3)=   0.000000
     celldm(4)=   0.000000  celldm(5)=   0.000000  celldm(6)=   0.000000

     crystal axes: (cart. coord. in units of alat)
               a(1) = (   1.000000   0.000000   0.000000 )
               a(2) = (   0.000000   1.026927   0.000000 )
               a(3) = (   0.000000   0.000000   1.411596 )

     reciprocal axes: (cart. coord. in units 2 pi/alat)
               b(1) = (  1.000000  0.000000  0.000000 )
               b(2) = (  0.000000  0.973779  0.000000 )
               b(3) = (  0.000000  0.000000  0.708418 )

     PseudoPot. # 1 for Hg read from file:
     /home/pragov/projects/rrg-bengioy-ad/pragov/crystal_structure_design/SSSP/Hg_ONCV_PBE-1.0.oncvpsp.upf
     MD5 check sum: dd5a8773074bfcf4280086d4d95875c4
     Pseudo is Norm-conserving, Zval = 20.0
     Generated using ONCVPSP code by D. R. Hamann
     Using radial grid of 1262 points,  8 beta functions with:
                l(1) =   0
                l(2) =   0
                l(3) =   1
                l(4) =   1
                l(5) =   2
                l(6) =   2
                l(7) =   3
                l(8) =   3

     PseudoPot. # 2 for Se read from file:
     /home/pragov/projects/rrg-bengioy-ad/pragov/crystal_structure_design/SSSP/Se_pbe_v1.uspp.F.UPF
     MD5 check sum: 1b3568f3a8ae88f9a2a0ad0698632c85
     Pseudo is Ultrasoft + core correction, Zval =  6.0
     Generated by new atomic code, or converted to UPF format
     Using radial grid of  877 points,  6 beta functions with:
                l(1) =   0
                l(2) =   0
                l(3) =   1
                l(4) =   1
                l(5) =   2
                l(6) =   2
     Q(r) pseudized with  8 coefficients,  rinner =    1.300   1.300   1.300
                                                       1.300   1.300

     PseudoPot. # 3 for O  read from file:
     /home/pragov/projects/rrg-bengioy-ad/pragov/crystal_structure_design/SSSP/O.pbe-n-kjpaw_psl.0.1.UPF
     MD5 check sum: 0234752ac141de4415c5fc33072bef88
     Pseudo is Projector augmented-wave + core cor, Zval =  6.0
     Generated using "atomic" code by A. Dal Corso  v.5.0.99 svn rev. 10869
     Shape of augmentation charge: BESSEL
     Using radial grid of 1095 points,  4 beta functions with:
                l(1) =   0
                l(2) =   0
                l(3) =   1
                l(4) =   1
     Q(r) pseudized with 0 coefficients

     atomic species   valence    mass     pseudopotential
        Hg            20.00   200.59200     Hg( 1.00)
        Se             6.00    78.97100     Se( 1.00)
        O              6.00    15.99900     O ( 1.00)

      8 Sym. Ops., with inversion, found ( 6 have fractional translation)

                                    s                        frac. trans.

      isym =  1     identity

 cryst.   s( 1) = (     1          0          0      )
                  (     0          1          0      )
                  (     0          0          1      )

 cart.    s( 1) = (  1.0000000  0.0000000  0.0000000 )
                  (  0.0000000  1.0000000  0.0000000 )
                  (  0.0000000  0.0000000  1.0000000 )

      isym =  2     180 deg rotation - cart. axis [0,0,1]

 cryst.   s( 2) = (    -1          0          0      )    f =(  0.0000000 )
                  (     0         -1          0      )       (  0.0000000 )
                  (     0          0          1      )       (  0.5000000 )

 cart.    s( 2) = ( -1.0000000  0.0000000  0.0000000 )    f =(  0.0000000 )
                  (  0.0000000 -1.0000000  0.0000000 )       (  0.0000000 )
                  (  0.0000000  0.0000000  1.0000000 )       (  0.7057978 )

[...]

      isym =  4     180 deg rotation - cart. axis [1,0,0]

[...]

      isym =  5     inversion

 cryst.   s( 5) = (    -1          0          0      )
                  (     0         -1          0      )
                  (     0          0         -1      )

 cart.    s( 5) = ( -1.0000000  0.0000000  0.0000000 )
                  (  0.0000000 -1.0000000  0.0000000 )
                  (  0.0000000  0.0000000 -1.0000000 )

      isym =  6     inv. 180 deg rotation - cart. axis [0,0,1]

[...]

      isym =  8     inv. 180 deg rotation - cart. axis [1,0,0]

 cryst.   s( 8) = (    -1          0          0      )    f =(  0.5000000 )
                  (     0          1          0      )       ( -0.5000000 )
                  (     0          0          1      )       (  0.0000000 )

 cart.    s( 8) = ( -1.0000000  0.0000000  0.0000000 )    f =(  0.5000000 )
                  (  0.0000000  1.0000000  0.0000000 )       ( -0.5134636 )
                  (  0.0000000  0.0000000  1.0000000 )       (  0.0000000 )

   Cartesian axes

     site n.     atom                  positions (alat units)
         1           Hg  tau(   1) = (   0.0000000   0.0000000   0.7057978  )
         2           Hg  tau(   2) = (   0.5000000   0.5134636   0.7057978  )
         3           Hg  tau(   3) = (   0.5000000   0.5134636   0.0000000  )
         4           Hg  tau(   4) = (   0.0000000   0.0000000   0.0000000  )
         5           Se  tau(   5) = (   0.5038610   0.9466656   1.0586966  )
         6           Se  tau(   6) = (   0.0038610   0.5937251   0.3528989  )
         7           Se  tau(   7) = (   0.9961390   0.4332020   1.0586966  )
         8           Se  tau(   8) = (   0.4961390   0.0802615   0.3528989  )
         9           O   tau(   9) = (   0.6149250   0.2185835   0.5761328  )
        10           O   tau(  10) = (   0.1149250   0.2948801   0.8354627  )
        11           O   tau(  11) = (   0.8850750   0.7320471   0.1296649  )
        12           O   tau(  12) = (   0.3850750   0.8083436   1.2819306  )
        13           O   tau(  13) = (   0.3850750   0.8083436   0.8354627  )
        14           O   tau(  14) = (   0.8850750   0.7320471   0.5761328  )
        15           O   tau(  15) = (   0.1149250   0.2948801   1.2819306  )
        16           O   tau(  16) = (   0.6149250   0.2185835   0.1296649  )
        17           O   tau(  17) = (   0.2350220   0.1601195   0.3528989  )
        18           O   tau(  18) = (   0.7350220   0.3533441   1.0586966  )
        19           O   tau(  19) = (   0.2649780   0.6735831   0.3528989  )
        20           O   tau(  20) = (   0.7649780   0.8668076   1.0586966  )

   Crystallographic axes

     site n.     atom                  positions (cryst. coord.)
         1           Hg  tau(   1) = (  0.0000000  0.0000000  0.5000000  )
         2           Hg  tau(   2) = (  0.5000000  0.5000000  0.5000000  )
         3           Hg  tau(   3) = (  0.5000000  0.5000000  0.0000000  )
         4           Hg  tau(   4) = (  0.0000000  0.0000000  0.0000000  )
         5           Se  tau(   5) = (  0.5038610  0.9218430  0.7500000  )
         6           Se  tau(   6) = (  0.0038610  0.5781570  0.2500000  )
         7           Se  tau(   7) = (  0.9961390  0.4218430  0.7500000  )
         8           Se  tau(   8) = (  0.4961390  0.0781570  0.2500000  )
         9           O   tau(   9) = (  0.6149250  0.2128520  0.4081430  )
        10           O   tau(  10) = (  0.1149250  0.2871480  0.5918570  )
        11           O   tau(  11) = (  0.8850750  0.7128520  0.0918570  )
        12           O   tau(  12) = (  0.3850750  0.7871480  0.9081430  )
        13           O   tau(  13) = (  0.3850750  0.7871480  0.5918570  )
        14           O   tau(  14) = (  0.8850750  0.7128520  0.4081430  )
        15           O   tau(  15) = (  0.1149250  0.2871480  0.9081430  )
        16           O   tau(  16) = (  0.6149250  0.2128520  0.0918570  )
        17           O   tau(  17) = (  0.2350220  0.1559210  0.2500000  )
        18           O   tau(  18) = (  0.7350220  0.3440790  0.7500000  )
        19           O   tau(  19) = (  0.2649780  0.6559210  0.2500000  )
        20           O   tau(  20) = (  0.7649780  0.8440790  0.7500000  )

     number of k points=     1  Methfessel-Paxton smearing, width (Ry)=  0.0010
                       cart. coord. in units 2pi/alat
        k(    1) = (   0.0000000   0.0000000   0.0000000), wk =   2.0000000

                       cryst. coord.
        k(    1) = (   0.0000000   0.0000000   0.0000000), wk =   2.0000000

     Check: negative core charge=   -0.000009

     Initial potential from superposition of free atoms

     starting charge     175.9994, renormalised to     176.0000
     Starting wfcs are  104 randomized atomic wfcs +    2 random wfcs
     Checking if some PAW data can be deallocated...

     Self-consistent Calculation

     iteration #  1     ecut=    30.00 Ry     beta= 0.70
     Davidson diagonalization with overlap

     ethr =  1.00E-02,  avg # of iterations =  6.0

     total energy              =   -1909.84538769 Ry
     estimated scf accuracy    <       5.16855108 Ry

[...]

     total energy              =   -1912.56695600 Ry
     estimated scf accuracy    <       0.00000198 Ry

     iteration # 11     ecut=    30.00 Ry     beta= 0.70
     Davidson diagonalization with overlap

     ethr =  1.12E-09,  avg # of iterations =  2.0

     End of self-consistent calculation

          k = 0.0000 0.0000 0.0000 (  3173 PWs)   bands (ev):

  -108.9305-108.9304-108.9301-108.9300 -56.9601 -56.9581 -56.9550 -56.9534
   -56.7109 -56.7094 -56.7082 -56.7055 -56.6958 -56.6954 -56.6937 -56.6934
   -14.7078 -14.5351 -14.5017 -14.4561 -12.5782 -12.4463 -12.2706 -12.2690
   -12.2661 -12.2592 -12.2034 -12.0731  -5.4709  -5.3681  -5.3143  -4.8354
    -1.8014  -1.6248  -1.1210  -1.0037  -0.4816  -0.2165  -0.2063  -0.1569
     0.0167   0.0309   0.0674   0.1521   0.1576   0.2215   0.2364   0.2964
     0.4799   0.5672   0.5734   0.6499   0.6534   0.7007   0.7025   0.7455
     0.9011   1.0136   1.4027   1.4930   1.6986   1.7749   1.8140   1.9501
     2.4900   2.5434   2.6361   2.7843   3.1863   3.2405   3.4205   3.5279
     3.5629   3.6640   3.7720   4.0160   4.0593   4.1647   4.3245   4.3581
     4.4751   4.5735   4.6747   4.7728   4.8633   4.8993   4.9154   5.2660
     7.8168   7.9782   9.1766   9.3076   9.7175   9.7539  10.4509  10.5489
    11.0722  11.1005  11.3389  11.4044  11.4063  11.4368  11.8004  11.9511
    11.9573  12.6838

     occupation numbers
     1.0000   1.0000   1.0000   1.0000   1.0000   1.0000   1.0000   1.0000
     1.0000   1.0000   1.0000   1.0000   1.0000   1.0000   1.0000   1.0000
     1.0000   1.0000   1.0000   1.0000   1.0000   1.0000   1.0000   1.0000
     1.0000   1.0000   1.0000   1.0000   1.0000   1.0000   1.0000   1.0000
     1.0000   1.0000   1.0000   1.0000   1.0000   1.0000   1.0000   1.0000
     1.0000   1.0000   1.0000   1.0000   1.0000   1.0000   1.0000   1.0000
     1.0000   1.0000   1.0000   1.0000   1.0000   1.0000   1.0000   1.0000
     1.0000   1.0000   1.0000   1.0000   1.0000   1.0000   1.0000   1.0000
     1.0000   1.0000   1.0000   1.0000   1.0000   1.0000   1.0000   1.0000
     1.0000   1.0000   1.0000   1.0000   1.0000   1.0000   1.0000   1.0000
     1.0000   1.0000   1.0000   1.0000   1.0000   1.0000   1.0000   1.0000
    -0.0000  -0.0000  -0.0000  -0.0000  -0.0000  -0.0000  -0.0000  -0.0000
    -0.0000  -0.0000  -0.0000  -0.0000  -0.0000  -0.0000  -0.0000  -0.0000
    -0.0000  -0.0000

     the Fermi energy is     7.1064 ev

!    total energy              =   -1912.56695631 Ry
     estimated scf accuracy    <       0.00000007 Ry
     smearing contrib. (-TS)   =       0.00000000 Ry
     internal energy E=F+TS    =   -1912.56695631 Ry

     The total energy is F=E-TS. E is the sum of the following terms:
     one-electron contribution =   -1009.61821608 Ry
     hartree contribution      =     557.60865178 Ry
     xc contribution           =    -316.80754109 Ry
     ewald contribution        =   -1029.31285981 Ry
     one-center paw contrib.   =    -114.43699111 Ry
      -> PAW hartree energy AE =     346.03869725 Ry
      -> PAW hartree energy PS =    -344.90458548 Ry
      -> PAW xc energy AE      =    -204.66725281 Ry
      -> PAW xc energy PS      =      89.09614993 Ry
      -> total E_H with PAW    =     558.74276355 Ry
      -> total E_XC with PAW   =    -432.37864397 Ry

     convergence has been achieved in  11 iterations

     Forces acting on atoms (cartesian axes, Ry/au):

     atom    1 type  1   force =    -0.00000000    0.00000000   -0.00000000
     atom    2 type  1   force =    -0.00000000    0.00000000   -0.00000000
     atom    3 type  1   force =    -0.00000000   -0.00000000    0.00000000
     atom    4 type  1   force =     0.00000000   -0.00000000    0.00000000
     atom    5 type  2   force =     0.00700029   -0.01209988    0.00000000
     atom    6 type  2   force =     0.00700029    0.01209988    0.00000000
     atom    7 type  2   force =    -0.00700029   -0.01209988   -0.00000000
     atom    8 type  2   force =    -0.00700029    0.01209988   -0.00000000
     atom    9 type  3   force =    -0.00751740    0.00582210    0.00386666
     atom   10 type  3   force =    -0.00751740   -0.00582210   -0.00386666
     atom   11 type  3   force =     0.00751740    0.00582210   -0.00386666
     atom   12 type  3   force =     0.00751740   -0.00582210    0.00386666
     atom   13 type  3   force =     0.00751740   -0.00582210   -0.00386666
     atom   14 type  3   force =     0.00751740    0.00582210    0.00386666
     atom   15 type  3   force =    -0.00751740   -0.00582210    0.00386666
     atom   16 type  3   force =    -0.00751740    0.00582210   -0.00386666
     atom   17 type  3   force =     0.01013174   -0.00736017    0.00000000
     atom   18 type  3   force =     0.01013174    0.00736017    0.00000000
     atom   19 type  3   force =    -0.01013174   -0.00736017    0.00000000
     atom   20 type  3   force =    -0.01013174    0.00736017    0.00000000
     The non-local contrib.  to forces
     atom    1 type  1   force =     0.00000000    0.00000000   -0.00000000
     atom    2 type  1   force =     0.00000000    0.00000000   -0.00000000
     atom    3 type  1   force =     0.00000000    0.00000000    0.00000000
     atom    4 type  1   force =    -0.00000000    0.00000000   -0.00000000
     atom    5 type  2   force =     0.11789050   -0.72389244   -0.00000000
     atom    6 type  2   force =     0.11789050    0.72389244    0.00000000
     atom    7 type  2   force =    -0.11789050   -0.72389244    0.00000000
     atom    8 type  2   force =    -0.11789050    0.72389244    0.00000000
     atom    9 type  3   force =    -0.91876684    0.19066943   -0.83672961
     atom   10 type  3   force =    -0.91876684   -0.19066943    0.83672961
     atom   11 type  3   force =     0.91876684    0.19066943    0.83672961
     atom   12 type  3   force =     0.91876684   -0.19066943   -0.83672961
     atom   13 type  3   force =     0.91876684   -0.19066943    0.83672961
     atom   14 type  3   force =     0.91876684    0.19066943   -0.83672961
     atom   15 type  3   force =    -0.91876684   -0.19066943   -0.83672961
     atom   16 type  3   force =    -0.91876684    0.19066943    0.83672961
     atom   17 type  3   force =     1.61491887   -0.55376346   -0.00000000
     atom   18 type  3   force =     1.61491887    0.55376346    0.00000000
     atom   19 type  3   force =    -1.61491887   -0.55376346    0.00000000
     atom   20 type  3   force =    -1.61491887    0.55376346    0.00000000
     The ionic contribution  to forces
     atom    1 type  1   force =     0.00000000   -0.00000000   -0.00000000
     atom    2 type  1   force =    -0.00000000   -0.00000000   -0.00000000
     atom    3 type  1   force =    -0.00000000   -0.00000000    0.00000000
     atom    4 type  1   force =     0.00000000   -0.00000000    0.00000000
     atom    5 type  2   force =    -1.96853499    6.96317557    0.00000000
     atom    6 type  2   force =    -1.96853499   -6.96317557   -0.00000000
     atom    7 type  2   force =     1.96853499    6.96317557    0.00000000
     atom    8 type  2   force =     1.96853499   -6.96317557   -0.00000000
     atom    9 type  3   force =     3.62691207   -5.06135983   -0.39655437
     atom   10 type  3   force =     3.62691207    5.06135983    0.39655437
     atom   11 type  3   force =    -3.62691207   -5.06135983    0.39655437
     atom   12 type  3   force =    -3.62691207    5.06135983   -0.39655437
     atom   13 type  3   force =    -3.62691207    5.06135983    0.39655437
     atom   14 type  3   force =    -3.62691207   -5.06135983   -0.39655437
     atom   15 type  3   force =     3.62691207    5.06135983   -0.39655437
     atom   16 type  3   force =     3.62691207   -5.06135983    0.39655437
     atom   17 type  3   force =    -3.69013788    2.13906854   -0.00000000
     atom   18 type  3   force =    -3.69013788   -2.13906854    0.00000000
     atom   19 type  3   force =     3.69013788    2.13906854   -0.00000000
     atom   20 type  3   force =     3.69013788   -2.13906854    0.00000000
     The local contribution  to forces
     atom    1 type  1   force =     0.00000262    0.00004852    0.00000110
     atom    2 type  1   force =     0.00001496   -0.00003095   -0.00000151
     atom    3 type  1   force =    -0.00003039   -0.00004827    0.00000587
     atom    4 type  1   force =    -0.00003018   -0.00003987    0.00002516
     atom    5 type  2   force =     1.86936090   -6.34292608    0.00015181
     atom    6 type  2   force =     1.86939436    6.34289169   -0.00017199
     atom    7 type  2   force =    -1.86936910   -6.34289596    0.00009526
     atom    8 type  2   force =    -1.86934709    6.34293624   -0.00012442
     atom    9 type  3   force =    -2.72536475    4.87984035    1.22900419
     atom   10 type  3   force =    -2.72538372   -4.87980525   -1.22896357
     atom   11 type  3   force =     2.72545064    4.87982916   -1.22904961
     atom   12 type  3   force =     2.72544671   -4.87985931    1.22902878
     atom   13 type  3   force =     2.72534400   -4.87983085   -1.22900721
     atom   14 type  3   force =     2.72535586    4.87979228    1.22899600
     atom   15 type  3   force =    -2.72540431   -4.87980529    1.22905611
     atom   16 type  3   force =    -2.72544323    4.87986330   -1.22903406
     atom   17 type  3   force =     2.10118068   -1.59814373   -0.00006832
     atom   18 type  3   force =     2.10120399    1.59815456    0.00008036
     atom   19 type  3   force =    -2.10121414   -1.59816904   -0.00008609
     atom   20 type  3   force =    -2.10119260    1.59815078    0.00008132
     The core correction contribution to forces
     atom    1 type  1   force =     0.00000000    0.00000000    0.00000000
     atom    2 type  1   force =     0.00000000    0.00000000    0.00000000
     atom    3 type  1   force =     0.00000000    0.00000000    0.00000000
     atom    4 type  1   force =     0.00000000    0.00000000    0.00000000
     atom    5 type  2   force =    -0.01175758    0.09153843    0.00000299
     atom    6 type  2   force =    -0.01175767   -0.09153916   -0.00000212
     atom    7 type  2   force =     0.01175942    0.09153888   -0.00000055
     atom    8 type  2   force =     0.01176016   -0.09154057   -0.00000175
     atom    9 type  3   force =     0.00970002   -0.00336260    0.00804001
     atom   10 type  3   force =     0.00970002    0.00336277   -0.00803945
     atom   11 type  3   force =    -0.00969919   -0.00336257   -0.00803882
     atom   12 type  3   force =    -0.00969914    0.00336265    0.00803875
     atom   13 type  3   force =    -0.00970037    0.00336274   -0.00804009
     atom   14 type  3   force =    -0.00970048   -0.00336294    0.00804005
     atom   15 type  3   force =     0.00969951    0.00336282    0.00803903
     atom   16 type  3   force =     0.00969919   -0.00336256   -0.00803886
     atom   17 type  3   force =    -0.01573322    0.00545629    0.00000032
     atom   18 type  3   force =    -0.01573302   -0.00545642   -0.00000025
     atom   19 type  3   force =     0.01573294    0.00545635    0.00000033
     atom   20 type  3   force =     0.01573322   -0.00545635   -0.00000047
     The Hubbard contrib.    to forces
     atom    1 type  1   force =     0.00000000    0.00000000    0.00000000
     atom    2 type  1   force =     0.00000000    0.00000000    0.00000000
     atom    3 type  1   force =     0.00000000    0.00000000    0.00000000
     atom    4 type  1   force =     0.00000000    0.00000000    0.00000000
     atom    5 type  2   force =     0.00000000    0.00000000    0.00000000
     atom    6 type  2   force =     0.00000000    0.00000000    0.00000000
     atom    7 type  2   force =     0.00000000    0.00000000    0.00000000
     atom    8 type  2   force =     0.00000000    0.00000000    0.00000000
     atom    9 type  3   force =     0.00000000    0.00000000    0.00000000
     atom   10 type  3   force =     0.00000000    0.00000000    0.00000000
     atom   11 type  3   force =     0.00000000    0.00000000    0.00000000
     atom   12 type  3   force =     0.00000000    0.00000000    0.00000000
     atom   13 type  3   force =     0.00000000    0.00000000    0.00000000
     atom   14 type  3   force =     0.00000000    0.00000000    0.00000000
     atom   15 type  3   force =     0.00000000    0.00000000    0.00000000
     atom   16 type  3   force =     0.00000000    0.00000000    0.00000000
     atom   17 type  3   force =     0.00000000    0.00000000    0.00000000
     atom   18 type  3   force =     0.00000000    0.00000000    0.00000000
     atom   19 type  3   force =     0.00000000    0.00000000    0.00000000
     atom   20 type  3   force =     0.00000000    0.00000000    0.00000000
     The SCF correction term to forces
     atom    1 type  1   force =    -0.00001643   -0.00005614    0.00000337
     atom    2 type  1   force =    -0.00001124    0.00002727    0.00002073
     atom    3 type  1   force =     0.00006328    0.00004563   -0.00001175
     atom    4 type  1   force =     0.00001762    0.00005025   -0.00003120
     atom    5 type  2   force =     0.00004756    0.00000338   -0.00014766
     atom    6 type  2   force =     0.00001269    0.00003237    0.00018029
     atom    7 type  2   force =    -0.00003201   -0.00003264   -0.00010854
     atom    8 type  2   force =    -0.00005022   -0.00002252    0.00012402
     atom    9 type  3   force =     0.00002102    0.00002924    0.00014996
     atom   10 type  3   force =     0.00003682   -0.00007406   -0.00017235
     atom   11 type  3   force =    -0.00006485    0.00006020   -0.00001989
     atom   12 type  3   force =    -0.00005104   -0.00002020    0.00003829
     atom   13 type  3   force =    -0.00001188   -0.00002862   -0.00014526
     atom   14 type  3   force =    -0.00002905    0.00006729    0.00015797
     atom   15 type  3   force =     0.00002387   -0.00007430    0.00002334
     atom   16 type  3   force =     0.00005573    0.00002194   -0.00004350
     atom   17 type  3   force =    -0.00010395    0.00001569    0.00011088
     atom   18 type  3   force =    -0.00011733   -0.00003828   -0.00011591
     atom   19 type  3   force =     0.00012220    0.00004999    0.00013333
     atom   20 type  3   force =     0.00011251   -0.00002778   -0.00013057

     Total force =     0.047453     Total SCF correction =     0.000600

     Computing stress (Cartesian axis) and pressure

          total   stress  (Ry/bohr**3)                   (kbar)     P=     -573.14
  -0.00392844   0.00000000   0.00000000         -577.89        0.00        0.00
   0.00000000  -0.00390367   0.00000000            0.00     -574.25        0.00
   0.00000000   0.00000000  -0.00385634            0.00        0.00     -567.29

     kinetic stress (kbar)  25961.03      0.00      0.00
                                0.00  25911.75      0.00
                                0.00      0.00  26009.63

     local   stress (kbar) -14312.39      0.03     -0.00
                                0.03 -21885.05      0.04
                               -0.00      0.04 -14800.59

     nonloc. stress (kbar)   5130.49      0.00      0.00
                                0.00   5178.50      0.00
                                0.00      0.00   5094.36

     hartree stress (kbar)  10780.98     -0.03      0.00
                               -0.03  14009.18     -0.03
                                0.00     -0.03  11124.56

     exc-cor stress (kbar)   2248.76     -0.00     -0.00
                               -0.00   2248.65      0.00
                               -0.00      0.00   2244.91

     corecor stress (kbar)  -6793.01      0.00      0.00
                                0.00  -6790.50     -0.00
                                0.00     -0.00  -6784.24

     ewald   stress (kbar) -23593.75      0.00      0.00
                                0.00 -19246.80      0.00
                                0.00      0.00 -23455.91

     hubbard stress (kbar)      0.00      0.00      0.00
                                0.00      0.00      0.00
                                0.00      0.00      0.00

     DFT-D   stress (kbar)      0.00      0.00      0.00
                                0.00      0.00      0.00
                                0.00      0.00      0.00

     XDM     stress (kbar)      0.00      0.00      0.00
                                0.00      0.00      0.00
                                0.00      0.00      0.00

     dft-nl  stress (kbar)      0.00      0.00      0.00
                                0.00      0.00      0.00
                                0.00      0.00      0.00

     TS-vdW  stress (kbar)      0.00      0.00      0.00
                                0.00      0.00      0.00
                                0.00      0.00      0.00

[...]

                                0.00      0.00      0.00

     Writing all to output data dir new_calculations/myprefix.save/

     General routines

     Parallel routines

     PAW routines

   This run was terminated on:  10:59:33  20May2023

   JOB DONE.