     Program PWSCF v.7.0 starts on 21May2023 at 16:32:41

     Reading input from espresso_20734.pwi
Warning: card &CELL ignored
Warning: card / ignored

     Current dimensions of program PWSCF are:
     Max number of different atomic species (ntypx) = 10
     Max number of k-points (npk) =  40000
     Max angular momentum in pseudopotentials (lmaxx) =  4

     gamma-point specific algorithms are used
     Message from routine setup:
     using ibrav=0 with symmetry is DISCOURAGED, use correct ibrav instead

     Subspace diagonalization in iterative solution of the eigenvalue problem:
     a serial algorithm will be used

     Using Slab Decomposition

     bravais-lattice index     =            0
     lattice parameter (alat)  =      15.6394  a.u.
     unit-cell volume          =    3159.0457 (a.u.)^3
     number of atoms/cell      =           12
     number of atomic types    =            3
     number of electrons       =        96.00
     number of Kohn-Sham states=           58
     kinetic-energy cutoff     =      30.0000  Ry
     charge density cutoff     =     240.0000  Ry
     scf convergence threshold =      1.0E-06
     mixing beta               =       0.7000
     number of iterations used =            8  plain     mixing
     Exchange-correlation= SLA  PW   PBE  PBE
                           (   1   4   3   4   0   0   0)

     celldm(1)=  15.639353  celldm(2)=   0.000000  celldm(3)=   0.000000
     celldm(4)=   0.000000  celldm(5)=   0.000000  celldm(6)=   0.000000

     crystal axes: (cart. coord. in units of alat)
               a(1) = (   1.000000   0.000000   0.000000 )
               a(2) = (  -0.322505   0.946568   0.000000 )
               a(3) = (   0.000000   0.000000   0.872465 )

     reciprocal axes: (cart. coord. in units 2 pi/alat)
               b(1) = (  1.000000  0.340710  0.000000 )
               b(2) = (  0.000000  1.056449  0.000000 )
               b(3) = (  0.000000  0.000000  1.146178 )

     PseudoPot. # 1 for Cs read from file:
     /home/pragov/projects/rrg-bengioy-ad/pragov/crystal_structure_design/SSSP/Cs_pbe_v1.uspp.F.UPF
     MD5 check sum: 3476d69cb178dfad3ffaa59df4e07ca4
     Pseudo is Ultrasoft + core correction, Zval =  9.0
     Generated by new atomic code, or converted to UPF format
     Using radial grid of  905 points,  6 beta functions with:
                l(1) =   0
                l(2) =   0
                l(3) =   1
                l(4) =   1
                l(5) =   2
                l(6) =   2
     Q(r) pseudized with  6 coefficients,  rinner =    1.500   1.500   1.500
                                                       1.500   1.500

     PseudoPot. # 2 for Zr read from file:
     /home/pragov/projects/rrg-bengioy-ad/pragov/crystal_structure_design/SSSP/Zr_pbe_v1.uspp.F.UPF
     MD5 check sum: 5db81b1e868ab7776c4564c113de050b
     Pseudo is Ultrasoft + core correction, Zval = 12.0
     Generated by new atomic code, or converted to UPF format
     Using radial grid of  887 points,  6 beta functions with:
                l(1) =   0
                l(2) =   0
                l(3) =   1
                l(4) =   1
                l(5) =   2
                l(6) =   2
     Q(r) pseudized with  6 coefficients,  rinner =    1.200   1.200   1.200
                                                       1.200   1.200

     PseudoPot. # 3 for Se read from file:
     /home/pragov/projects/rrg-bengioy-ad/pragov/crystal_structure_design/SSSP/Se_pbe_v1.uspp.F.UPF
     MD5 check sum: 1b3568f3a8ae88f9a2a0ad0698632c85
     Pseudo is Ultrasoft + core correction, Zval =  6.0
     Generated by new atomic code, or converted to UPF format
     Using radial grid of  877 points,  6 beta functions with:
                l(1) =   0
                l(2) =   0
                l(3) =   1
                l(4) =   1
                l(5) =   2
                l(6) =   2
     Q(r) pseudized with  8 coefficients,  rinner =    1.300   1.300   1.300
                                                       1.300   1.300

     atomic species   valence    mass     pseudopotential
        Cs             9.00   132.90545     Cs( 1.00)
        Zr            12.00    91.22400     Zr( 1.00)
        Se             6.00    78.97100     Se( 1.00)

      4 Sym. Ops., with inversion, found ( 2 have fractional translation)

                                    s                        frac. trans.

      isym =  1     identity

 cryst.   s( 1) = (     1          0          0      )
                  (     0          1          0      )
                  (     0          0          1      )

 cart.    s( 1) = (  1.0000000 -0.0000000  0.0000000 )
                  (  0.0000000  1.0000000  0.0000000 )
                  (  0.0000000  0.0000000  1.0000000 )

      isym =  2     180 deg rotation - cart. axis [0,0,1]

 cryst.   s( 2) = (    -1          0          0      )    f =(  0.0000000 )
                  (     0         -1          0      )       ( -0.0000000 )
                  (     0          0          1      )       ( -0.5000000 )

 cart.    s( 2) = ( -1.0000000  0.0000000  0.0000000 )    f =(  0.0000000 )
                  (  0.0000000 -1.0000000  0.0000000 )       ( -0.0000000 )
                  (  0.0000000  0.0000000  1.0000000 )       ( -0.4362325 )

      isym =  3     inversion

 cryst.   s( 3) = (    -1          0          0      )
                  (     0         -1          0      )
                  (     0          0         -1      )

 cart.    s( 3) = ( -1.0000000  0.0000000  0.0000000 )
                  (  0.0000000 -1.0000000  0.0000000 )
                  (  0.0000000  0.0000000 -1.0000000 )

      isym =  4     inv. 180 deg rotation - cart. axis [0,0,1]

 cryst.   s( 4) = (     1          0          0      )    f =(  0.0000000 )
                  (     0          1          0      )       (  0.0000000 )
                  (     0          0         -1      )       (  0.5000000 )

 cart.    s( 4) = (  1.0000000 -0.0000000  0.0000000 )    f =(  0.0000000 )
                  (  0.0000000  1.0000000  0.0000000 )       (  0.0000000 )
                  (  0.0000000  0.0000000 -1.0000000 )       (  0.4362325 )

   Cartesian axes

     site n.     atom                  positions (alat units)
         1           Cs  tau(   1) = (   0.2424804   0.7750089   0.2181162  )
         2           Cs  tau(   2) = (   0.4350141   0.1715588   0.6543487  )
         3           Cs  tau(   3) = (   0.0220975   0.4670989   0.6543487  )
         4           Cs  tau(   4) = (   0.6553970   0.4794687   0.2181162  )
         5           Zr  tau(   5) = (   0.0554380   0.0774557   0.2181162  )
         6           Zr  tau(   6) = (   0.6220565   0.8691119   0.6543487  )
         7           Se  tau(   7) = (   0.4461227   0.6233044   0.6543487  )
         8           Se  tau(   8) = (   0.2313718   0.3232632   0.2181162  )
         9           Se  tau(   9) = (   0.8210386   0.1280895   0.4362325  )
        10           Se  tau(  10) = (   0.8210386   0.1280895   0.0000000  )
        11           Se  tau(  11) = (  -0.1435440   0.8184781   0.4362325  )
        12           Se  tau(  12) = (  -0.1435440   0.8184781   0.0000000  )

   Crystallographic axes

     site n.     atom                  positions (cryst. coord.)
         1           Cs  tau(   1) = (  0.5065340  0.8187570  0.2500000  )
         2           Cs  tau(   2) = (  0.4934660  0.1812430  0.7500000  )
         3           Cs  tau(   3) = (  0.1812430  0.4934660  0.7500000  )
         4           Cs  tau(   4) = (  0.8187570  0.5065340  0.2500000  )
         5           Zr  tau(   5) = (  0.0818280  0.0818280  0.2500000  )
         6           Zr  tau(   6) = (  0.9181720  0.9181720  0.7500000  )
         7           Se  tau(   7) = (  0.6584890  0.6584890  0.7500000  )
         8           Se  tau(   8) = (  0.3415110  0.3415110  0.2500000  )
         9           Se  tau(   9) = (  0.8646800  0.1353200  0.5000000  )
        10           Se  tau(  10) = (  0.8646800  0.1353200  0.0000000  )
        11           Se  tau(  11) = (  0.1353200  0.8646800  0.5000000  )
        12           Se  tau(  12) = (  0.1353200  0.8646800  0.0000000  )

     number of k points=     1  Methfessel-Paxton smearing, width (Ry)=  0.0010
                       cart. coord. in units 2pi/alat
        k(    1) = (   0.0000000   0.0000000   0.0000000), wk =   2.0000000

                       cryst. coord.
        k(    1) = (   0.0000000   0.0000000   0.0000000), wk =   2.0000000

     Initial potential from superposition of free atoms

     starting charge      95.8377, renormalised to      96.0000

     negative rho (up, down):  1.232E-01 0.000E+00
     Starting wfcs are  102 randomized atomic wfcs

     Self-consistent Calculation

     iteration #  1     ecut=    30.00 Ry     beta= 0.70
     Davidson diagonalization with overlap

     ethr =  1.00E-02,  avg # of iterations =  2.0

     Threshold (ethr) on eigenvalues was too large:
     Diagonalizing with lowered threshold

     Davidson diagonalization with overlap

[...]

     negative rho (up, down):  1.262E-01 0.000E+00

     total energy              =    -713.05940876 Ry
     estimated scf accuracy    <       0.71713636 Ry

[...]

     total energy              =    -713.32783415 Ry
     estimated scf accuracy    <       0.00000556 Ry

     iteration # 10     ecut=    30.00 Ry     beta= 0.70
     Davidson diagonalization with overlap

     ethr =  5.79E-09,  avg # of iterations =  2.0

[...]

     End of self-consistent calculation

          k = 0.0000 0.0000 0.0000 (  4378 PWs)   bands (ev):

   -44.2992 -44.2952 -22.4013 -22.3796 -22.3411 -22.3317 -22.3309 -22.2515
   -16.8818 -16.8529 -16.8372 -16.8345  -7.4122  -7.0055  -6.7491  -6.7406
    -6.5280  -6.4836  -3.9427  -3.9176  -3.7976  -3.7003  -3.6962  -3.6943
    -3.6552  -3.6338  -3.6300  -3.5968  -3.5818  -3.4957   1.0445   1.5183
     1.9316   2.4067   2.4725   2.5325   2.6711   2.7356   2.7846   2.9440
     3.0066   3.2436   3.2714   3.4881   3.9810   4.1602   4.3442   4.4808
     5.9373   6.9537   7.0413   7.0468   7.1620   7.2609   7.3182   7.7680
     7.9122   8.5790

     occupation numbers
     1.0000   1.0000   1.0000   1.0000   1.0000   1.0000   1.0000   1.0000
     1.0000   1.0000   1.0000   1.0000   1.0000   1.0000   1.0000   1.0000
     1.0000   1.0000   1.0000   1.0000   1.0000   1.0000   1.0000   1.0000
     1.0000   1.0000   1.0000   1.0000   1.0000   1.0000   1.0000   1.0000
     1.0000   1.0000   1.0000   1.0000   1.0000   1.0000   1.0000   1.0000
     1.0000   1.0000   1.0000   1.0000   1.0000   1.0000   1.0000   1.0000
    -0.0000  -0.0000  -0.0000  -0.0000  -0.0000  -0.0000  -0.0000  -0.0000
    -0.0000  -0.0000

     the Fermi energy is     5.3932 ev

!    total energy              =    -713.32783415 Ry
     estimated scf accuracy    <       0.00000071 Ry
     smearing contrib. (-TS)   =       0.00000000 Ry
     internal energy E=F+TS    =    -713.32783415 Ry

     The total energy is F=E-TS. E is the sum of the following terms:
     one-electron contribution =    -177.09095144 Ry
     hartree contribution      =     119.08440678 Ry
     xc contribution           =    -335.09002279 Ry
     ewald contribution        =    -320.23126670 Ry

     convergence has been achieved in  10 iterations

     negative rho (up, down):  1.271E-01 0.000E+00

     Forces acting on atoms (cartesian axes, Ry/au):

     atom    1 type  1   force =     0.00443305    0.00115762    0.00000000
     atom    2 type  1   force =    -0.00443305   -0.00115762    0.00000000
     atom    3 type  1   force =     0.00033486   -0.00457847    0.00000000
     atom    4 type  1   force =    -0.00033486    0.00457847    0.00000000
     atom    5 type  2   force =     0.00007849    0.00011441    0.00000000
     atom    6 type  2   force =    -0.00007849   -0.00011441    0.00000000
     atom    7 type  3   force =     0.00468881    0.00654925    0.00000000
     atom    8 type  3   force =    -0.00468881   -0.00654925    0.00000000
     atom    9 type  3   force =     0.01118522   -0.00800565   -0.00000066
     atom   10 type  3   force =     0.01118522   -0.00800565    0.00000066
     atom   11 type  3   force =    -0.01118522    0.00800565    0.00000066
     atom   12 type  3   force =    -0.01118522    0.00800565   -0.00000066
     The non-local contrib.  to forces
     atom    1 type  1   force =     0.01367092   -0.00253334    0.00000000
     atom    2 type  1   force =    -0.01367092    0.00253334    0.00000000
     atom    3 type  1   force =     0.00680404   -0.01210598    0.00000000
     atom    4 type  1   force =    -0.00680404    0.01210598    0.00000000
     atom    5 type  2   force =    -0.03570879   -0.04988783    0.00000000
     atom    6 type  2   force =     0.03570879    0.04988783    0.00000000
     atom    7 type  3   force =     0.02200171    0.03073824    0.00000000
     atom    8 type  3   force =    -0.02200171   -0.03073824    0.00000000
     atom    9 type  3   force =     0.08095497   -0.05794335    0.00000188
     atom   10 type  3   force =     0.08095497   -0.05794335   -0.00000188
     atom   11 type  3   force =    -0.08095497    0.05794335   -0.00000188
     atom   12 type  3   force =    -0.08095497    0.05794335    0.00000188
     The ionic contribution  to forces
     atom    1 type  1   force =    -0.96600975   -1.55072493   -0.00000000
     atom    2 type  1   force =     0.96600975    1.55072493   -0.00000000
     atom    3 type  1   force =     1.15632256    1.41451080   -0.00000000
     atom    4 type  1   force =    -1.15632256   -1.41451080   -0.00000000
     atom    5 type  2   force =     1.68452287    2.35354633   -0.00000000
     atom    6 type  2   force =    -1.68452287   -2.35354633   -0.00000000
     atom    7 type  3   force =    -3.30806008   -4.62188598   -0.00000000
     atom    8 type  3   force =     3.30806008    4.62188598    0.00000000
     atom    9 type  3   force =    -4.89686465    3.50487280    0.00000000
     atom   10 type  3   force =    -4.89686465    3.50487280   -0.00000000
     atom   11 type  3   force =     4.89686465   -3.50487280    0.00000000
     atom   12 type  3   force =     4.89686465   -3.50487280   -0.00000000
     The local contribution  to forces
     atom    1 type  1   force =     0.95847213    1.55355132   -0.00001851
     atom    2 type  1   force =    -0.95840407   -1.55361800    0.00003659
     atom    3 type  1   force =    -1.16148740   -1.40828856    0.00002581
     atom    4 type  1   force =     1.16144781    1.40830405    0.00002506
     atom    5 type  2   force =    -1.64970637   -2.30485650   -0.00002240
     atom    6 type  2   force =     1.64961107    2.30477174    0.00000870
     atom    7 type  3   force =     3.29087019    4.59786826   -0.00000347
     atom    8 type  3   force =    -3.29073738   -4.59768212    0.00000244
     atom    9 type  3   force =     4.83419538   -3.46007635    0.00010810
     atom   10 type  3   force =     4.83420690   -3.46006415   -0.00010444
     atom   11 type  3   force =    -4.83425165    3.46000734    0.00011677
     atom   12 type  3   force =    -4.83425808    3.46000856   -0.00011989
     The core correction contribution to forces
     atom    1 type  1   force =    -0.00172963    0.00047986   -0.00000102
     atom    2 type  1   force =     0.00173057   -0.00048277    0.00000223
     atom    3 type  1   force =    -0.00101309    0.00147948    0.00000116
     atom    4 type  1   force =     0.00101312   -0.00147994    0.00000182
     atom    5 type  2   force =     0.00091322    0.00127598   -0.00000034
     atom    6 type  2   force =    -0.00091493   -0.00127852    0.00000011
     atom    7 type  3   force =    -0.00043101   -0.00060263   -0.00000039
     atom    8 type  3   force =     0.00043090    0.00060164    0.00000075
     atom    9 type  3   force =    -0.00749094    0.00536106   -0.00000132
     atom   10 type  3   force =    -0.00748907    0.00536278    0.00000126
     atom   11 type  3   force =     0.00749105   -0.00536029   -0.00000067
     atom   12 type  3   force =     0.00749130   -0.00536086    0.00000039
     The Hubbard contrib.    to forces
     atom    1 type  1   force =     0.00000000    0.00000000    0.00000000
     atom    2 type  1   force =     0.00000000    0.00000000    0.00000000
     atom    3 type  1   force =     0.00000000    0.00000000    0.00000000
     atom    4 type  1   force =     0.00000000    0.00000000    0.00000000
     atom    5 type  2   force =     0.00000000    0.00000000    0.00000000
     atom    6 type  2   force =     0.00000000    0.00000000    0.00000000
     atom    7 type  3   force =     0.00000000    0.00000000    0.00000000
     atom    8 type  3   force =     0.00000000    0.00000000    0.00000000
     atom    9 type  3   force =     0.00000000    0.00000000    0.00000000
     atom   10 type  3   force =     0.00000000    0.00000000    0.00000000
     atom   11 type  3   force =     0.00000000    0.00000000    0.00000000
     atom   12 type  3   force =     0.00000000    0.00000000    0.00000000
     The SCF correction term to forces
     atom    1 type  1   force =     0.00002571    0.00037764    0.00000918
     atom    2 type  1   force =    -0.00010205   -0.00032220   -0.00001529
     atom    3 type  1   force =    -0.00028182   -0.00018205   -0.00001338
     atom    4 type  1   force =     0.00034024    0.00015133   -0.00000457
     atom    5 type  2   force =     0.00005083    0.00002772    0.00002199
     atom    6 type  2   force =     0.00003273    0.00004215   -0.00001419
     atom    7 type  3   force =     0.00031566    0.00044003    0.00000055
     atom    8 type  3   force =    -0.00043304   -0.00060783    0.00000054
     atom    9 type  3   force =     0.00039117   -0.00021639   -0.00010934
     atom   10 type  3   force =     0.00038682   -0.00022219    0.00010705
     atom   11 type  3   force =    -0.00032824    0.00029575   -0.00011542
     atom   12 type  3   force =    -0.00032374    0.00029469    0.00011646

     Total force =     0.031156     Total SCF correction =     0.001484

     Computing stress (Cartesian axis) and pressure

     negative rho (up, down):  1.271E-01 0.000E+00
          total   stress  (Ry/bohr**3)                   (kbar)     P=        3.08
  -0.00003489   0.00000893   0.00000000           -5.13        1.31        0.00
   0.00000893  -0.00002880   0.00000000            1.31       -4.24        0.00
   0.00000000   0.00000000   0.00012646            0.00        0.00       18.60

     kinetic stress (kbar)   4314.82     31.24      0.00
                               31.24   4336.11      0.00
                                0.00      0.00   4363.56

     local   stress (kbar)  -3970.53    309.88     -0.00
                              309.88  -3759.37     -0.00
                               -0.00     -0.00  -7598.50

     nonloc. stress (kbar)   5599.60     -1.35      0.00
                               -1.35   5598.68      0.00
                                0.00      0.00   5613.63

     hartree stress (kbar)   1319.94   -135.80      0.00
                             -135.80   1227.40      0.00
                                0.00      0.00   2997.98

     exc-cor stress (kbar)  10358.50      0.83     -0.00
                                0.83  10359.06     -0.00
                               -0.00     -0.00  10358.85

     corecor stress (kbar) -12065.44     -0.71      0.00
                               -0.71 -12065.93      0.00
                                0.00      0.00 -12067.14

     ewald   stress (kbar)  -5562.02   -202.77      0.00
                             -202.77  -5700.19      0.00
                                0.00      0.00  -3649.77

     hubbard stress (kbar)      0.00      0.00      0.00
                                0.00      0.00      0.00
                                0.00      0.00      0.00

     DFT-D   stress (kbar)      0.00      0.00      0.00
                                0.00      0.00      0.00
                                0.00      0.00      0.00

     XDM     stress (kbar)      0.00      0.00      0.00
                                0.00      0.00      0.00
                                0.00      0.00      0.00

     dft-nl  stress (kbar)      0.00      0.00      0.00
                                0.00      0.00      0.00
                                0.00      0.00      0.00

     TS-vdW  stress (kbar)      0.00      0.00      0.00
                                0.00      0.00      0.00
                                0.00      0.00      0.00

[...]

                                0.00      0.00      0.00

     Writing all to output data dir new_calculations/myprefix.save/

     General routines

     Parallel routines

   This run was terminated on:  16:33:27  21May2023

   JOB DONE.