     Program PWSCF v.7.0 starts on 20May2023 at  4:47:24

     Reading input from espresso_18048.pwi
Warning: card &CELL ignored
Warning: card / ignored

     Current dimensions of program PWSCF are:
     Max number of different atomic species (ntypx) = 10
     Max number of k-points (npk) =  40000
     Max angular momentum in pseudopotentials (lmaxx) =  4
     file O.pbe-n-kjpaw_psl.0.1.UPF: wavefunction(s)  2P renormalized

     gamma-point specific algorithms are used

     Subspace diagonalization in iterative solution of the eigenvalue problem:
     a serial algorithm will be used

     Using Slab Decomposition

     bravais-lattice index     =            0
     lattice parameter (alat)  =      10.6794  a.u.
     unit-cell volume          =    1532.8764 (a.u.)^3
     number of atoms/cell      =           16
     number of atomic types    =            4
     number of electrons       =       118.00
     number of Kohn-Sham states=           71
     kinetic-energy cutoff     =      30.0000  Ry
     charge density cutoff     =     240.0000  Ry
     scf convergence threshold =      1.0E-06
     mixing beta               =       0.7000
     number of iterations used =            8  plain     mixing
     Exchange-correlation= SLA  PW   PBX  PBC
                           (   1   4   3   4   0   0   0)

     celldm(1)=  10.679407  celldm(2)=   0.000000  celldm(3)=   0.000000
     celldm(4)=   0.000000  celldm(5)=   0.000000  celldm(6)=   0.000000

     crystal axes: (cart. coord. in units of alat)
               a(1) = (   1.000000   0.000000   0.000000 )
               a(2) = (  -0.217658   1.173662   0.000000 )
               a(3) = (  -0.393662  -0.420152   1.072316 )

     reciprocal axes: (cart. coord. in units 2 pi/alat)
               b(1) = (  1.000000  0.185452  0.439777 )
               b(2) = (  0.000000  0.852034  0.333842 )
               b(3) = (  0.000000  0.000000  0.932561 )

     PseudoPot. # 1 for Li read from file:
     /home/pragov/projects/rrg-bengioy-ad/pragov/crystal_structure_design/SSSP/li_pbe_v1.4.uspp.F.UPF
     MD5 check sum: e912e257baa3777c20ea3d68f190483c
     Pseudo is Ultrasoft, Zval =  3.0
     Generated by new atomic code, or converted to UPF format
     Using radial grid of  751 points,  5 beta functions with:
                l(1) =   0
                l(2) =   0
                l(3) =   0
                l(4) =   1
                l(5) =   1
     Q(r) pseudized with 10 coefficients,  rinner =    1.150   1.150   1.150

     PseudoPot. # 2 for Bi read from file:
     /home/pragov/projects/rrg-bengioy-ad/pragov/crystal_structure_design/SSSP/Bi_pbe_v1.uspp.F.UPF
     MD5 check sum: cceb9f28ec65b6d7ff33140f5b0b1758
     Pseudo is Ultrasoft + core correction, Zval = 15.0
     Generated by new atomic code, or converted to UPF format
     Using radial grid of  899 points,  6 beta functions with:
                l(1) =   0
                l(2) =   0
                l(3) =   1
                l(4) =   1
                l(5) =   2
                l(6) =   2
     Q(r) pseudized with  6 coefficients,  rinner =    1.000   1.000   1.000
                                                       1.000   1.000

     PseudoPot. # 3 for P  read from file:
     /home/pragov/projects/rrg-bengioy-ad/pragov/crystal_structure_design/SSSP/P.pbe-n-rrkjus_psl.1.0.0.UPF
     MD5 check sum: 8b930f418f0a4573dca56cd030ffe088
     Pseudo is Ultrasoft + core correction, Zval =  5.0
     Generated using "atomic" code by A. Dal Corso  v.5.1
     Using radial grid of 1147 points,  6 beta functions with:
                l(1) =   0
                l(2) =   0
                l(3) =   1
                l(4) =   1
                l(5) =   2
                l(6) =   2
     Q(r) pseudized with 0 coefficients

     PseudoPot. # 4 for O  read from file:
     /home/pragov/projects/rrg-bengioy-ad/pragov/crystal_structure_design/SSSP/O.pbe-n-kjpaw_psl.0.1.UPF
     MD5 check sum: 0234752ac141de4415c5fc33072bef88
     Pseudo is Projector augmented-wave + core cor, Zval =  6.0
     Generated using "atomic" code by A. Dal Corso  v.5.0.99 svn rev. 10869
     Shape of augmentation charge: BESSEL
     Using radial grid of 1095 points,  4 beta functions with:
                l(1) =   0
                l(2) =   0
                l(3) =   1
                l(4) =   1
     Q(r) pseudized with 0 coefficients

     atomic species   valence    mass     pseudopotential
        Li             3.00     6.94000     Li( 1.00)
        Bi            15.00   208.98040     Bi( 1.00)
        P              5.00    30.97376     P ( 1.00)
        O              6.00    15.99900     O ( 1.00)

     No symmetry found

                                    s                        frac. trans.

      isym =  1     identity

 cryst.   s( 1) = (     1          0          0      )
                  (     0          1          0      )
                  (     0          0          1      )

 cart.    s( 1) = (  1.0000000 -0.0000000 -0.0000000 )
                  (  0.0000000  1.0000000 -0.0000000 )
                  (  0.0000000  0.0000000  1.0000000 )

   Cartesian axes

     site n.     atom                  positions (alat units)
         1           Li  tau(   1) = (   0.3176166   0.1950953   0.9704802  )
         2           Bi  tau(   2) = (   0.3026107   0.8500691   0.2678302  )
         3           Bi  tau(   3) = (  -0.1419857   0.4351887   0.7021203  )
         4           Bi  tau(   4) = (   0.0216602   0.0015747   0.0037242  )
         5           P   tau(   5) = (  -0.0003790  -0.1655130   0.6292639  )
         6           P   tau(   6) = (   0.4195301   0.3089693   0.3569311  )
         7           O   tau(   7) = (  -0.0005708   0.0497860   0.7985322  )
         8           O   tau(   8) = (   0.0262077   0.8873316   0.6160970  )
         9           O   tau(   9) = (  -0.3731305   0.4317240   1.0546796  )
        10           O   tau(  10) = (  -0.0964893  -0.0889321   0.3819118  )
        11           O   tau(  11) = (   0.6038466   0.4805987   0.2473039  )
        12           O   tau(  12) = (   0.1245105   0.4917000   1.0022036  )
        13           O   tau(  13) = (   0.4902596   0.2434621   0.6144821  )
        14           O   tau(  14) = (   0.3980240   0.0764937   0.2050064  )
        15           O   tau(  15) = (   0.1718097   0.4327507   0.3507095  )
        16           O   tau(  16) = (  -0.3957397   0.8094140   0.7119191  )

   Crystallographic axes

     site n.     atom                  positions (cryst. coord.)
         1           Li  tau(   1) = (  0.7805920  0.4902150  0.9050320  )
         2           Bi  tau(   2) = (  0.5780430  0.8137010  0.2497680  )
         3           Bi  tau(   3) = (  0.2474970  0.6051930  0.6547700  )
         4           Bi  tau(   4) = (  0.0235900  0.0025850  0.0034730  )
         5           P   tau(   5) = (  0.2456620  0.0690520  0.5868270  )
         6           P   tau(   6) = (  0.6337990  0.3824110  0.3328600  )
         7           O   tau(   7) = (  0.3598380  0.3090030  0.7446800  )
         8           O   tau(   8) = (  0.4617100  0.9617160  0.5745480  )
         9           O   tau(   9) = (  0.1707570  0.7199400  0.9835530  )
        10           O   tau(  10) = (  0.0549740  0.0517250  0.3561560  )
        11           O   tau(  11) = (  0.8017330  0.4920470  0.2306260  )
        12           O   tau(  12) = (  0.6564430  0.7535230  0.9346160  )
        13           O   tau(  13) = (  0.8056450  0.4125780  0.5730420  )
        14           O   tau(  14) = (  0.5023670  0.1336150  0.1911810  )
        15           O   tau(  15) = (  0.4062980  0.4858000  0.3270580  )
        16           O   tau(  16) = (  0.0674530  0.9273170  0.6639080  )

     number of k points=     1  Methfessel-Paxton smearing, width (Ry)=  0.0010
                       cart. coord. in units 2pi/alat
        k(    1) = (   0.0000000   0.0000000   0.0000000), wk =   2.0000000

                       cryst. coord.
        k(    1) = (   0.0000000   0.0000000   0.0000000), wk =   2.0000000

     Check: negative core charge=   -0.000012

     Initial potential from superposition of free atoms

     starting charge     114.5488, renormalised to     118.0000

     negative rho (up, down):  1.273E-01 0.000E+00
     Starting wfcs are   80 randomized atomic wfcs
     Checking if some PAW data can be deallocated...

     Self-consistent Calculation

     iteration #  1     ecut=    30.00 Ry     beta= 0.70
     Davidson diagonalization with overlap

     ethr =  1.00E-02,  avg # of iterations =  4.0

     negative rho (up, down):  1.145E-01 0.000E+00

     total energy              =   -1013.72143668 Ry
     estimated scf accuracy    <       3.00934599 Ry

[...]

     total energy              =   -1015.15374490 Ry
     estimated scf accuracy    <       0.00001527 Ry

     iteration # 10     ecut=    30.00 Ry     beta= 0.70
     Davidson diagonalization with overlap

     ethr =  1.29E-08,  avg # of iterations =  2.0

[...]

     End of self-consistent calculation

          k = 0.0000 0.0000 0.0000 (  2131 PWs)   bands (ev):

   -36.8633 -15.7296 -15.6569 -15.5608 -15.5338 -15.5234 -15.4871 -15.4540
   -15.4423 -15.4306 -15.4180 -15.3862 -15.3483 -15.3367 -15.2992 -15.2676
   -14.2403 -13.7047 -11.9705 -11.8661 -11.6135 -11.5519 -11.3171 -11.0729
   -10.7334  -9.5928  -3.6098  -3.1916  -3.0844  -0.8999   0.4158   0.4611
     0.9847   1.2412   1.3190   1.6445   1.8520   2.1318   2.6799   2.7440
     3.2075   3.5089   3.5920   3.7381   3.9127   4.0906   4.3392   4.4467
     4.5591   4.8533   5.1107   5.1736   5.3446   5.5370   5.6019   5.6310
     5.8393   6.0480   6.1800  10.1225  10.9128  11.2298  11.4172  11.7135
    11.9823  12.2266  12.7509  12.9184  13.5832  14.9661  15.2724

     occupation numbers
     1.0000   1.0000   1.0000   1.0000   1.0000   1.0000   1.0000   1.0000
     1.0000   1.0000   1.0000   1.0000   1.0000   1.0000   1.0000   1.0000
     1.0000   1.0000   1.0000   1.0000   1.0000   1.0000   1.0000   1.0000
     1.0000   1.0000   1.0000   1.0000   1.0000   1.0000   1.0000   1.0000
     1.0000   1.0000   1.0000   1.0000   1.0000   1.0000   1.0000   1.0000
     1.0000   1.0000   1.0000   1.0000   1.0000   1.0000   1.0000   1.0000
     1.0000   1.0000   1.0000   1.0000   1.0000   1.0000   1.0000   1.0000
     1.0000   1.0000   1.0000  -0.0000  -0.0000  -0.0000  -0.0000  -0.0000
    -0.0000  -0.0000  -0.0000  -0.0000  -0.0000  -0.0000  -0.0000

     the Fermi energy is     8.8574 ev

!    total energy              =   -1015.15374777 Ry
     estimated scf accuracy    <       0.00000066 Ry
     smearing contrib. (-TS)   =       0.00000000 Ry
     internal energy E=F+TS    =   -1015.15374777 Ry

     The total energy is F=E-TS. E is the sum of the following terms:
     one-electron contribution =    -311.80829961 Ry
     hartree contribution      =     228.17854631 Ry
     xc contribution           =    -281.40078065 Ry
     ewald contribution        =    -554.89007650 Ry
     one-center paw contrib.   =     -95.23313732 Ry
      -> PAW hartree energy AE =     304.78768569 Ry
      -> PAW hartree energy PS =    -303.73761913 Ry
      -> PAW xc energy AE      =    -173.01609219 Ry
      -> PAW xc energy PS      =      76.73288831 Ry
      -> total E_H with PAW    =     229.22861288 Ry
      -> total E_XC with PAW   =    -377.68398453 Ry

     convergence has been achieved in  10 iterations

     negative rho (up, down):  1.198E-01 0.000E+00

     Forces acting on atoms (cartesian axes, Ry/au):

     atom    1 type  1   force =    -0.00068853    0.00191520   -0.00016227
     atom    2 type  2   force =    -0.00852371    0.00225511    0.00132594
     atom    3 type  2   force =     0.00589822   -0.00142004   -0.00008992
     atom    4 type  2   force =     0.00084634   -0.00878732    0.00629366
     atom    5 type  3   force =     0.01406572   -0.00191588    0.01085336
     atom    6 type  3   force =    -0.00512940    0.00895435   -0.00455736
     atom    7 type  4   force =    -0.00732818    0.01663215    0.00797214
     atom    8 type  4   force =    -0.00163161   -0.00619803   -0.00016527
     atom    9 type  4   force =     0.00314855   -0.01974037    0.00976974
     atom   10 type  4   force =    -0.00361880    0.00172606   -0.02851655
     atom   11 type  4   force =    -0.00731968    0.01417598   -0.01593914
     atom   12 type  4   force =     0.00392811    0.01055341   -0.01183588
     atom   13 type  4   force =     0.00280486   -0.00747495    0.01802001
     atom   14 type  4   force =     0.00532649   -0.01034391   -0.01184250
     atom   15 type  4   force =     0.01086732    0.00238326    0.00230583
     atom   16 type  4   force =    -0.01264573   -0.00271501    0.01656821
     The non-local contrib.  to forces
     atom    1 type  1   force =     0.05788434   -0.08067845   -0.00635157
     atom    2 type  2   force =    -0.12773592    0.05010234   -0.37379217
     atom    3 type  2   force =    -0.04758223   -0.11383262    0.35643142
     atom    4 type  2   force =     0.16128028   -0.53991260    0.02166391
     atom    5 type  3   force =    -0.04977996    0.00613257   -0.00081126
     atom    6 type  3   force =    -0.01819402   -0.05348877   -0.01828749
     atom    7 type  4   force =    -0.07821554   -0.99470131   -1.19062101
     atom    8 type  4   force =    -1.54055887    0.66723098   -0.11406511
     atom    9 type  4   force =     0.25344156    0.67909696    0.07948420
     atom   10 type  4   force =     0.66466411   -0.39566906    1.01664661
     atom   11 type  4   force =    -1.21215120   -0.93196908    0.71421153
     atom   12 type  4   force =    -0.04690214    0.13792999    0.17378270
     atom   13 type  4   force =    -0.18891342    0.57784117   -1.50174401
     atom   14 type  4   force =    -0.06939900    0.98318536    0.87030928
     atom   15 type  4   force =     1.51244785   -0.54984522    0.12114796
     atom   16 type  4   force =     1.00504307    0.88855833   -0.13248281
     The ionic contribution  to forces
     atom    1 type  1   force =     1.62084942   -3.20393073    0.07716433
     atom    2 type  2   force =     0.42295404   -3.38917771    6.57017048
     atom    3 type  2   force =     1.89541252   -2.22740520   -6.62560423
     atom    4 type  2   force =    -5.97934244   14.74083018   -2.94623760
     atom    5 type  3   force =     0.61361861    1.49755169    1.73634067
     atom    6 type  3   force =     0.37363842   -0.53549818   -0.69374109
     atom    7 type  4   force =     1.01913786    0.47272419    5.93686205
     atom    8 type  4   force =     6.34971638    0.08155109    3.27894457
     atom    9 type  4   force =    -2.99758761   -7.37875809   -0.10828908
     atom   10 type  4   force =    -2.09267009    3.19795097   -0.73683070
     atom   11 type  4   force =     6.98943188    1.28735253   -5.33534426
     atom   12 type  4   force =     2.12516268   -1.00482281   -2.20086396
     atom   13 type  4   force =    -1.13560885   -5.22196870    6.06209449
     atom   14 type  4   force =     2.08535225    1.19958892   -2.68303502
     atom   15 type  4   force =    -6.64900153    0.47105146   -2.34161846
     atom   16 type  4   force =    -4.64106356    0.01296039    0.00998780
     The local contribution  to forces
     atom    1 type  1   force =    -1.67936473    3.28638836   -0.07096638
     atom    2 type  2   force =    -0.30865344    3.34160163   -6.20929291
     atom    3 type  2   force =    -1.84469911    2.33489493    6.28450434
     atom    4 type  2   force =     5.82707486  -14.23236372    2.93154432
     atom    5 type  3   force =    -0.55281163   -1.50495297   -1.72448362
     atom    6 type  3   force =    -0.36192493    0.59357599    0.70623227
     atom    7 type  4   force =    -0.94891743    0.52985243   -4.74893529
     atom    8 type  4   force =    -4.82397332   -0.74923895   -3.16613167
     atom    9 type  4   force =     2.74974314    6.68734113    0.03959063
     atom   10 type  4   force =     1.43057367   -2.80352092   -0.29998245
     atom   11 type  4   force =    -5.79497318   -0.34955858    4.61164723
     atom   12 type  4   force =    -2.07440277    0.87916695    2.01701609
     atom   13 type  4   force =     1.32561753    4.64166354   -4.55557371
     atom   14 type  4   force =    -2.01162596   -2.18466968    1.80859248
     atom   15 type  4   force =     5.16038361    0.07620756    2.22401236
     atom   16 type  4   force =     3.63220554   -0.89677371    0.13842495
     The core correction contribution to forces
     atom    1 type  1   force =     0.00000000    0.00000000    0.00000000
     atom    2 type  2   force =     0.00454074   -0.00017650    0.01469476
     atom    3 type  2   force =     0.00328272    0.00536796   -0.01612037
     atom    4 type  2   force =    -0.00838779    0.02316255   -0.00094721
     atom    5 type  3   force =     0.00315740   -0.00110522   -0.00017728
     atom    6 type  3   force =     0.00117773    0.00421171    0.00122917
     atom    7 type  4   force =     0.00084505    0.00851338    0.01060370
     atom    8 type  4   force =     0.01353935   -0.00586491    0.00118894
     atom    9 type  4   force =    -0.00273408   -0.00734584   -0.00083408
     atom   10 type  4   force =    -0.00614958    0.00317254   -0.00855360
     atom   11 type  4   force =     0.01065914    0.00813197   -0.00654606
     atom   12 type  4   force =     0.00041859   -0.00157152   -0.00184707
     atom   13 type  4   force =     0.00157536   -0.00520921    0.01325142
     atom   14 type  4   force =     0.00081821   -0.00853126   -0.00777665
     atom   15 type  4   force =    -0.01348187    0.00478692   -0.00113541
     atom   16 type  4   force =    -0.00909665   -0.00753820    0.00094788
     The Hubbard contrib.    to forces
     atom    1 type  1   force =     0.00000000    0.00000000    0.00000000
     atom    2 type  2   force =     0.00000000    0.00000000    0.00000000
     atom    3 type  2   force =     0.00000000    0.00000000    0.00000000
     atom    4 type  2   force =     0.00000000    0.00000000    0.00000000
     atom    5 type  3   force =     0.00000000    0.00000000    0.00000000
     atom    6 type  3   force =     0.00000000    0.00000000    0.00000000
     atom    7 type  4   force =     0.00000000    0.00000000    0.00000000
     atom    8 type  4   force =     0.00000000    0.00000000    0.00000000
     atom    9 type  4   force =     0.00000000    0.00000000    0.00000000
     atom   10 type  4   force =     0.00000000    0.00000000    0.00000000
     atom   11 type  4   force =     0.00000000    0.00000000    0.00000000
     atom   12 type  4   force =     0.00000000    0.00000000    0.00000000
     atom   13 type  4   force =     0.00000000    0.00000000    0.00000000
     atom   14 type  4   force =     0.00000000    0.00000000    0.00000000
     atom   15 type  4   force =     0.00000000    0.00000000    0.00000000
     atom   16 type  4   force =     0.00000000    0.00000000    0.00000000
     The SCF correction term to forces
     atom    1 type  1   force =    -0.00007177    0.00007595    0.00001372
     atom    2 type  2   force =     0.00035665   -0.00015473   -0.00043185
     atom    3 type  2   force =    -0.00052990   -0.00050518    0.00072129
     atom    4 type  2   force =     0.00020722   -0.00056379    0.00029261
     atom    5 type  3   force =    -0.00013291    0.00039799    0.00000724
     atom    6 type  3   force =     0.00015919    0.00009354    0.00003216
     atom    7 type  4   force =    -0.00019234    0.00018340    0.00008506
     atom    8 type  4   force =    -0.00036937    0.00006370   -0.00007962
     atom    9 type  4   force =     0.00027132   -0.00013460   -0.00015956
     atom   10 type  4   force =    -0.00005112   -0.00026753    0.00022597
     atom   11 type  4   force =    -0.00030053    0.00015908    0.00011479
     atom   12 type  4   force =    -0.00036246   -0.00020926    0.00009874
     atom   13 type  4   force =     0.00012002    0.00013818    0.00001420
     atom   14 type  4   force =     0.00016677    0.00002268    0.00008979
     atom   15 type  4   force =     0.00050505    0.00012248   -0.00007825
     atom   16 type  4   force =     0.00025165    0.00001811   -0.00028723

     Total force =     0.066741     Total SCF correction =     0.001826

     Computing stress (Cartesian axis) and pressure

     negative rho (up, down):  1.198E-01 0.000E+00
          total   stress  (Ry/bohr**3)                   (kbar)     P=     -302.54
  -0.00203307  -0.00004890   0.00005974         -299.07       -7.19        8.79
  -0.00004890  -0.00209158  -0.00000119           -7.19     -307.68       -0.17
   0.00005974  -0.00000119  -0.00204514            8.79       -0.17     -300.85

     kinetic stress (kbar)  14748.77     11.99    -18.21
                               11.99  14634.60     23.13
                              -18.21     23.13  14688.27

     local   stress (kbar) -11217.94   -533.06   -117.38
                             -533.06  -5151.85    193.20
                             -117.38    193.20  -9588.99

     nonloc. stress (kbar)   9563.73      1.25      5.72
                                1.25   9520.48     -6.75
                                5.72     -6.75   9538.12

     hartree stress (kbar)   8382.70    222.11     15.82
                              222.11   5759.00    -24.40
                               15.82    -24.40   7755.84

     exc-cor stress (kbar)   8932.63      0.72      0.38
                                0.72   8930.83     -0.84
                                0.38     -0.84   8931.29

     corecor stress (kbar) -14362.53      0.15     -0.41
                                0.15 -14360.64      0.05
                               -0.41      0.05 -14360.96

     ewald   stress (kbar) -16346.44    289.65    122.88
                              289.65 -19640.11   -184.56
                              122.88   -184.56 -17264.42

     hubbard stress (kbar)      0.00      0.00      0.00
                                0.00      0.00      0.00
                                0.00      0.00      0.00

     DFT-D   stress (kbar)      0.00      0.00      0.00
                                0.00      0.00      0.00
                                0.00      0.00      0.00

     XDM     stress (kbar)      0.00      0.00      0.00
                                0.00      0.00      0.00
                                0.00      0.00      0.00

     dft-nl  stress (kbar)      0.00      0.00      0.00
                                0.00      0.00      0.00
                                0.00      0.00      0.00

     TS-vdW  stress (kbar)      0.00      0.00      0.00
                                0.00      0.00      0.00
                                0.00      0.00      0.00

[...]

                                0.00      0.00      0.00

     Writing all to output data dir new_calculations/myprefix.save/

     General routines

     Parallel routines

     PAW routines

   This run was terminated on:   4:47:58  20May2023

   JOB DONE.