     Program PWSCF v.7.0 starts on 20May2023 at  6:16:51

     Reading input from espresso_16108.pwi
Warning: card &CELL ignored
Warning: card / ignored

     Current dimensions of program PWSCF are:
     Max number of different atomic species (ntypx) = 10
     Max number of k-points (npk) =  40000
     Max angular momentum in pseudopotentials (lmaxx) =  4
     file K.pbe-spn-kjpaw_psl.1.0.0.UPF: wavefunction(s)  3S renormalized
     file In.pbe-dn-rrkjus_psl.0.2.2.UPF: wavefunction(s)  5S renormalized

     gamma-point specific algorithms are used

     Subspace diagonalization in iterative solution of the eigenvalue problem:
     a serial algorithm will be used

     Using Slab Decomposition

     bravais-lattice index     =            0
     lattice parameter (alat)  =      17.0266  a.u.
     unit-cell volume          =    4568.3260 (a.u.)^3
     number of atoms/cell      =           20
     number of atomic types    =            3
     number of electrons       =       164.00
     number of Kohn-Sham states=           98
     kinetic-energy cutoff     =      30.0000  Ry
     charge density cutoff     =     240.0000  Ry
     scf convergence threshold =      1.0E-06
     mixing beta               =       0.7000
     number of iterations used =            8  plain     mixing
     Exchange-correlation= PBE
                           (   1   4   3   4   0   0   0)

     celldm(1)=  17.026580  celldm(2)=   0.000000  celldm(3)=   0.000000
     celldm(4)=   0.000000  celldm(5)=   0.000000  celldm(6)=   0.000000

     crystal axes: (cart. coord. in units of alat)
               a(1) = (   1.000000   0.000000   0.000000 )
               a(2) = (  -0.493561   0.872039   0.000000 )
               a(3) = (  -0.326166  -0.001797   1.061302 )

     reciprocal axes: (cart. coord. in units 2 pi/alat)
               b(1) = (  1.000000  0.565985  0.308284 )
               b(2) = (  0.000000  1.146738  0.001942 )
               b(3) = (  0.000000  0.000000  0.942238 )

     PseudoPot. # 1 for K  read from file:
     /home/pragov/projects/rrg-bengioy-ad/pragov/crystal_structure_design/SSSP/K.pbe-spn-kjpaw_psl.1.0.0.UPF
     MD5 check sum: 7d58810084cac21f60fbe77ea2b688fd
     Pseudo is Projector augmented-wave + core cor, Zval =  9.0
     Generated using "atomic" code by A. Dal Corso  v.5.1
     Shape of augmentation charge: PSQ
     Using radial grid of 1165 points,  6 beta functions with:
                l(1) =   0
                l(2) =   0
                l(3) =   1
                l(4) =   1
                l(5) =   2
                l(6) =   2
     Q(r) pseudized with 0 coefficients

     PseudoPot. # 2 for In read from file:
     /home/pragov/projects/rrg-bengioy-ad/pragov/crystal_structure_design/SSSP/In.pbe-dn-rrkjus_psl.0.2.2.UPF
     MD5 check sum: 25e7c42c3b55b68f4bf926be2e7201a4
     Pseudo is Ultrasoft + core correction, Zval = 13.0
     Generated using "atomic" code by A. Dal Corso  v.5.0.99 svn rev. 10869
     Using radial grid of 1241 points,  6 beta functions with:
                l(1) =   0
                l(2) =   0
                l(3) =   1
                l(4) =   1
                l(5) =   2
                l(6) =   2
     Q(r) pseudized with 0 coefficients

     PseudoPot. # 3 for P  read from file:
     /home/pragov/projects/rrg-bengioy-ad/pragov/crystal_structure_design/SSSP/P.pbe-n-rrkjus_psl.1.0.0.UPF
     MD5 check sum: 8b930f418f0a4573dca56cd030ffe088
     Pseudo is Ultrasoft + core correction, Zval =  5.0
     Generated using "atomic" code by A. Dal Corso  v.5.1
     Using radial grid of 1147 points,  6 beta functions with:
                l(1) =   0
                l(2) =   0
                l(3) =   1
                l(4) =   1
                l(5) =   2
                l(6) =   2
     Q(r) pseudized with 0 coefficients

     atomic species   valence    mass     pseudopotential
        K              9.00    39.09830     K ( 1.00)
        In            13.00   114.81800     In( 1.00)
        P              5.00    30.97376     P ( 1.00)

     No symmetry found

                                    s                        frac. trans.

      isym =  1     identity

 cryst.   s( 1) = (     1          0          0      )
                  (     0          1          0      )
                  (     0          0          1      )

 cart.    s( 1) = (  1.0000000  0.0000000  0.0000000 )
                  (  0.0000000  1.0000000 -0.0000000 )
                  (  0.0000000  0.0000000  1.0000000 )

   Cartesian axes

     site n.     atom                  positions (alat units)
         1           K   tau(   1) = (   0.4706141   0.1114503   0.6544734  )
         2           K   tau(   2) = (  -0.2909146   0.7469148   0.4167586  )
         3           K   tau(   3) = (   0.3639867   0.7092044   0.6634605  )
         4           K   tau(   4) = (  -0.2010597   0.1662262   0.4151338  )
         5           K   tau(   5) = (   0.2692453   0.3897109   0.4241580  )
         6           K   tau(   6) = (  -0.0779211   0.4878421   0.6313423  )
         7           K   tau(   7) = (   0.5853346   0.4247856   0.1504428  )
         8           K   tau(   8) = (  -0.4128192   0.4382270   0.9030644  )
         9           K   tau(   9) = (   0.3834255   0.0794207   1.0446750  )
        10           K   tau(  10) = (  -0.1956227   0.7648077   0.0019008  )
        11           K   tau(  11) = (  -0.0407464   0.5441774   1.0027706  )
        12           K   tau(  12) = (   0.1067791   0.1835953   0.1165183  )
        13           In  tau(  13) = (   0.0941861   0.7202308   0.2718112  )
        14           In  tau(  14) = (   0.0866514   0.1533777   0.7957179  )
        15           P   tau(  15) = (  -0.0601961   0.4816190   0.2472622  )
        16           P   tau(  16) = (   0.2471530   0.3860651   0.8088027  )
        17           P   tau(  17) = (   0.4557261   0.1016792   0.2753273  )
        18           P   tau(  18) = (  -0.2855261   0.7632974   0.7863179  )
        19           P   tau(  19) = (   0.3780555   0.7172124   0.2591117  )
        20           P   tau(  20) = (  -0.1938059   0.1726532   0.8091200  )

   Crystallographic axes

     site n.     atom                  positions (cryst. coord.)
         1           K   tau(   1) = (  0.7354570  0.1290750  0.6166700  )
         2           K   tau(   2) = (  0.2603080  0.8573250  0.3926860  )
         3           K   tau(   3) = (  0.9699200  0.8145600  0.6251380  )
         4           K   tau(   4) = (  0.0210010  0.1914240  0.3911550  )
         5           K   tau(   5) = (  0.6205770  0.4477200  0.3996580  )
         6           K   tau(   6) = (  0.3928230  0.5606530  0.5948750  )
         7           K   tau(   7) = (  0.8721360  0.4874100  0.1417530  )
         8           K   tau(   8) = (  0.1136110  0.5042850  0.8509020  )
         9           K   tau(   9) = (  0.7504330  0.0931030  0.9843330  )
        10           K   tau(  10) = (  0.2378330  0.8770380  0.0017910  )
        11           K   tau(  11) = (  0.5763880  0.6259760  0.9448490  )
        12           K   tau(  12) = (  0.2466120  0.2107620  0.1097880  )
        13           In  tau(  13) = (  0.5856210  0.8264440  0.2561110  )
        14           In  tau(  14) = (  0.4187680  0.1774290  0.7497560  )
        15           P   tau(  15) = (  0.2886200  0.5527710  0.2329800  )
        16           P   tau(  16) = (  0.7150010  0.4442860  0.7620850  )
        17           P   tau(  17) = (  0.5981540  0.1171340  0.2594240  )
        18           P   tau(  18) = (  0.3888980  0.8768290  0.7408990  )
        19           P   tau(  19) = (  0.8638670  0.8229580  0.2441450  )
        20           P   tau(  20) = (  0.1533520  0.1995590  0.7623840  )

     number of k points=     1  Methfessel-Paxton smearing, width (Ry)=  0.0010
                       cart. coord. in units 2pi/alat
        k(    1) = (   0.0000000   0.0000000   0.0000000), wk =   2.0000000

                       cryst. coord.
        k(    1) = (   0.0000000   0.0000000   0.0000000), wk =   2.0000000

     Check: negative core charge=   -0.000003

     Initial potential from superposition of free atoms

     starting charge     163.7656, renormalised to     164.0000
     Starting wfcs are  138 randomized atomic wfcs
     Checking if some PAW data can be deallocated...

     Self-consistent Calculation

     iteration #  1     ecut=    30.00 Ry     beta= 0.70
     Davidson diagonalization with overlap

     ethr =  1.00E-02,  avg # of iterations =  5.0

     total energy              =   -1729.35230250 Ry
     estimated scf accuracy    <       2.34231248 Ry

[...]

     total energy              =   -1730.47412553 Ry
     estimated scf accuracy    <       0.00000218 Ry

     iteration # 11     ecut=    30.00 Ry     beta= 0.70
     Davidson diagonalization with overlap

     ethr =  1.33E-09,  avg # of iterations =  3.0

     End of self-consistent calculation

          k = 0.0000 0.0000 0.0000 (  6332 PWs)   bands (ev):

   -26.7251 -26.6481 -26.5837 -26.5272 -26.5098 -26.5046 -26.4611 -26.3794
   -26.3165 -26.3034 -26.2067 -26.1595 -10.4278 -10.3315 -10.3165 -10.2755
   -10.2175 -10.2000 -10.1590 -10.1463 -10.1254 -10.1109 -10.0908 -10.0731
   -10.0572 -10.0447 -10.0154 -10.0010  -9.9938  -9.9741  -9.9559  -9.9430
    -9.9326  -9.9177  -9.9094  -9.8701  -9.8430  -9.8317  -9.8118  -9.8060
    -9.7799  -9.7459  -9.7413  -9.7299  -9.7208  -9.7047  -9.6856  -9.6493
    -9.6300  -9.6182  -9.6120  -9.6019  -9.5917  -9.5784  -9.5250  -9.5213
    -9.5182  -9.5020  -4.5144  -4.3366  -3.7964  -3.6975  -3.6883  -3.6267
     0.2335   0.3334   2.4538   2.6085   2.6511   2.7623   2.7838   3.3046
     3.6575   3.6850   3.8806   3.9010   3.9269   3.9737   4.0274   4.0794
     4.0966   4.1446   4.8767   5.7091   6.0951   6.3040   6.9721   7.1269
     7.1891   7.4111   7.5872   7.6542   7.7361   7.8192   7.9388   7.9684
     8.1665   8.2174

     occupation numbers
     1.0000   1.0000   1.0000   1.0000   1.0000   1.0000   1.0000   1.0000
     1.0000   1.0000   1.0000   1.0000   1.0000   1.0000   1.0000   1.0000
     1.0000   1.0000   1.0000   1.0000   1.0000   1.0000   1.0000   1.0000
     1.0000   1.0000   1.0000   1.0000   1.0000   1.0000   1.0000   1.0000
     1.0000   1.0000   1.0000   1.0000   1.0000   1.0000   1.0000   1.0000
     1.0000   1.0000   1.0000   1.0000   1.0000   1.0000   1.0000   1.0000
     1.0000   1.0000   1.0000   1.0000   1.0000   1.0000   1.0000   1.0000
     1.0000   1.0000   1.0000   1.0000   1.0000   1.0000   1.0000   1.0000
     1.0000   1.0000   1.0000   1.0000   1.0000   1.0000   1.0000   1.0000
     1.0000   1.0000   1.0000   1.0000   1.0000   1.0000   1.0000   1.0000
     1.0000   1.0000  -0.0000  -0.0000  -0.0000  -0.0000  -0.0000  -0.0000
    -0.0000  -0.0000  -0.0000  -0.0000  -0.0000  -0.0000  -0.0000  -0.0000
    -0.0000  -0.0000

     the Fermi energy is     4.5019 ev

!    total energy              =   -1730.47412603 Ry
     estimated scf accuracy    <       0.00000077 Ry
     smearing contrib. (-TS)   =       0.00000000 Ry
     internal energy E=F+TS    =   -1730.47412603 Ry

     The total energy is F=E-TS. E is the sum of the following terms:
     one-electron contribution =    -465.07326271 Ry
     hartree contribution      =     294.40824505 Ry
     xc contribution           =    -256.65947125 Ry
     ewald contribution        =    -638.14450856 Ry
     one-center paw contrib.   =    -665.00512856 Ry
      -> PAW hartree energy AE =     453.31224405 Ry
      -> PAW hartree energy PS =    -450.78975295 Ry
      -> PAW xc energy AE      =    -794.71349229 Ry
      -> PAW xc energy PS      =     127.18587264 Ry
      -> total E_H with PAW    =     296.93073615 Ry
      -> total E_XC with PAW   =    -924.18709091 Ry

     convergence has been achieved in  11 iterations

     Forces acting on atoms (cartesian axes, Ry/au):

     atom    1 type  1   force =    -0.00134692    0.00095733    0.00012463
     atom    2 type  1   force =    -0.00096862   -0.00041842   -0.00126182
     atom    3 type  1   force =     0.00236097    0.00057041    0.00174221
     atom    4 type  1   force =    -0.00281943    0.00049199   -0.00095516
     atom    5 type  1   force =     0.00116114    0.00018648   -0.00188695
     atom    6 type  1   force =     0.00016279   -0.00056101    0.00109228
     atom    7 type  1   force =     0.00138262   -0.00079848    0.00154284
     atom    8 type  1   force =     0.00092573    0.00015844   -0.00460665
     atom    9 type  1   force =    -0.00100613   -0.00087443    0.00194974
     atom   10 type  1   force =     0.00068798    0.00015552    0.00156307
     atom   11 type  1   force =    -0.00188769    0.00026560    0.00043261
     atom   12 type  1   force =     0.00105585   -0.00106045    0.00034625
     atom   13 type  2   force =    -0.00191633    0.00182105    0.00370111
     atom   14 type  2   force =     0.00318576   -0.00199465   -0.00220278
     atom   15 type  3   force =    -0.00330454   -0.00775916   -0.00308504
     atom   16 type  3   force =     0.00306105    0.00934282    0.00131915
     atom   17 type  3   force =    -0.00491822    0.00706415    0.00194360
     atom   18 type  3   force =     0.00556268   -0.00542114   -0.00181540
     atom   19 type  3   force =     0.01044117    0.00035551   -0.00040097
     atom   20 type  3   force =    -0.01181985   -0.00248157    0.00045728
     The non-local contrib.  to forces
     atom    1 type  1   force =     0.04117832    0.00749310   -0.00014086
     atom    2 type  1   force =    -0.03253561   -0.01402658   -0.00578741
     atom    3 type  1   force =    -0.02461403   -0.03369354   -0.01510651
     atom    4 type  1   force =     0.01739720    0.04413583    0.01453347
     atom    5 type  1   force =     0.01367326   -0.02790118    0.00457482
     atom    6 type  1   force =    -0.01190102    0.03356379   -0.00414705
     atom    7 type  1   force =     0.00064047   -0.00036474   -0.01295100
     atom    8 type  1   force =    -0.00476455    0.01018482    0.01977034
     atom    9 type  1   force =     0.05700507    0.03642287    0.00411812
     atom   10 type  1   force =    -0.07031887   -0.02346663    0.01097772
     atom   11 type  1   force =    -0.02902668   -0.01938055   -0.01367281
     atom   12 type  1   force =     0.00423707   -0.03083255    0.01513299
     atom   13 type  2   force =    -0.01517977   -0.02506482    0.03118451
     atom   14 type  2   force =     0.02546515   -0.02407937   -0.01665622
     atom   15 type  3   force =     0.07058978    0.09106061    0.00676444
     atom   16 type  3   force =    -0.06850967   -0.10076331    0.00107110
     atom   17 type  3   force =     0.05047697   -0.10157411    0.00141157
     atom   18 type  3   force =    -0.04554810    0.09887034    0.00091176
     atom   19 type  3   force =    -0.11399825    0.00643694    0.00175397
     atom   20 type  3   force =     0.12078003   -0.00514464   -0.00198328
     The ionic contribution  to forces
     atom    1 type  1   force =     2.29136856    0.08190472   -0.18288261
     atom    2 type  1   force =    -2.30707703   -0.68768139    0.39794007
     atom    3 type  1   force =    -1.57838489   -1.63638085   -0.02984229
     atom    4 type  1   force =     0.65605738    1.87629435    0.53757797
     atom    5 type  1   force =     1.68788842   -0.94793344    0.68249044
     atom    6 type  1   force =    -0.99090360    1.13977498   -0.70526756
     atom    7 type  1   force =     0.18399179    0.85112331    0.83041401
     atom    8 type  1   force =    -0.63741612   -1.01817521   -1.13311094
     atom    9 type  1   force =     3.62522128    0.81976586   -0.31705376
     atom   10 type  1   force =    -3.68366847   -1.40647103   -0.01140024
     atom   11 type  1   force =     1.85296244    0.72358460   -0.58726695
     atom   12 type  1   force =    -1.21931081   -0.38780260    0.44627673
     atom   13 type  2   force =     0.55872926   -0.93000298    2.17546262
     atom   14 type  2   force =    -0.49766593    1.08737236   -1.58171747
     atom   15 type  3   force =    -1.88853159   -2.87377544   -0.13608269
     atom   16 type  3   force =     1.79347660    3.22289636    0.16403467
     atom   17 type  3   force =    -1.45561281    3.26322308    0.55430972
     atom   18 type  3   force =     1.48655798   -2.90450232   -0.96305679
     atom   19 type  3   force =     3.85975659   -0.04254969   -0.24438633
     atom   20 type  3   force =    -3.73743906   -0.23066468    0.10356140
     The local contribution  to forces
     atom    1 type  1   force =    -2.33201156   -0.08777597    0.18297316
     atom    2 type  1   force =     2.33737973    0.70053764   -0.39369187
     atom    3 type  1   force =     1.60445730    1.66947849    0.04582111
     atom    4 type  1   force =    -0.67530940   -1.91733895   -0.55230432
     atom    5 type  1   force =    -1.69981534    0.97446287   -0.68881148
     atom    6 type  1   force =     1.00214333   -1.17294241    0.70989052
     atom    7 type  1   force =    -0.18266246   -0.85174864   -0.81612114
     atom    8 type  1   force =     0.64309590    1.00830595    1.11012272
     atom    9 type  1   force =    -3.68050275   -0.85472925    0.31492187
     atom   10 type  1   force =     3.75139212    1.42903373    0.00243003
     atom   11 type  1   force =    -1.82715387   -0.70522629    0.60079222
     atom   12 type  1   force =     1.21609828    0.41649405   -0.46027829
     atom   13 type  2   force =    -0.54754324    0.95511509   -2.20037896
     atom   14 type  2   force =     0.47793355   -1.06759089    1.59525342
     atom   15 type  3   force =     1.81759129    2.77866841    0.12641010
     atom   16 type  3   force =    -1.72493905   -3.11746619   -0.16353927
     atom   17 type  3   force =     1.40228888   -3.15871095   -0.55375410
     atom   18 type  3   force =    -1.43753051    2.80472264    0.96029080
     atom   19 type  3   force =    -3.73987801    0.03682472    0.24227263
     atom   20 type  3   force =     3.61018076    0.23314303   -0.10109977
     The core correction contribution to forces
     atom    1 type  1   force =    -0.00187440   -0.00037333    0.00001482
     atom    2 type  1   force =     0.00138080    0.00070284    0.00022909
     atom    3 type  1   force =     0.00114334    0.00150461    0.00083693
     atom    4 type  1   force =    -0.00084137   -0.00198026   -0.00075071
     atom    5 type  1   force =    -0.00058188    0.00117976   -0.00028198
     atom    6 type  1   force =     0.00057718   -0.00144346    0.00029872
     atom    7 type  1   force =    -0.00000808   -0.00005593    0.00064928
     atom    8 type  1   force =     0.00021544   -0.00044781   -0.00106046
     atom    9 type  1   force =    -0.00293418   -0.00186190   -0.00013285
     atom   10 type  1   force =     0.00350680    0.00118721   -0.00044178
     atom   11 type  1   force =     0.00120552    0.00093008    0.00056223
     atom   12 type  1   force =    -0.00004062    0.00145787   -0.00071097
     atom   13 type  2   force =     0.00116094    0.00153502   -0.00271484
     atom   14 type  2   force =    -0.00274034    0.00222386    0.00127131
     atom   15 type  3   force =    -0.00321813   -0.00402998   -0.00020216
     atom   16 type  3   force =     0.00304981    0.00439894   -0.00018174
     atom   17 type  3   force =    -0.00220409    0.00446436   -0.00004419
     atom   18 type  3   force =     0.00198482   -0.00441954    0.00006059
     atom   19 type  3   force =     0.00488741   -0.00038919   -0.00002513
     atom   20 type  3   force =    -0.00522890    0.00028415    0.00002052
     The Hubbard contrib.    to forces
     atom    1 type  1   force =     0.00000000    0.00000000    0.00000000
     atom    2 type  1   force =     0.00000000    0.00000000    0.00000000
     atom    3 type  1   force =     0.00000000    0.00000000    0.00000000
     atom    4 type  1   force =     0.00000000    0.00000000    0.00000000
     atom    5 type  1   force =     0.00000000    0.00000000    0.00000000
     atom    6 type  1   force =     0.00000000    0.00000000    0.00000000
     atom    7 type  1   force =     0.00000000    0.00000000    0.00000000
     atom    8 type  1   force =     0.00000000    0.00000000    0.00000000
     atom    9 type  1   force =     0.00000000    0.00000000    0.00000000
     atom   10 type  1   force =     0.00000000    0.00000000    0.00000000
     atom   11 type  1   force =     0.00000000    0.00000000    0.00000000
     atom   12 type  1   force =     0.00000000    0.00000000    0.00000000
     atom   13 type  2   force =     0.00000000    0.00000000    0.00000000
     atom   14 type  2   force =     0.00000000    0.00000000    0.00000000
     atom   15 type  3   force =     0.00000000    0.00000000    0.00000000
     atom   16 type  3   force =     0.00000000    0.00000000    0.00000000
     atom   17 type  3   force =     0.00000000    0.00000000    0.00000000
     atom   18 type  3   force =     0.00000000    0.00000000    0.00000000
     atom   19 type  3   force =     0.00000000    0.00000000    0.00000000
     atom   20 type  3   force =     0.00000000    0.00000000    0.00000000
     The SCF correction term to forces
     atom    1 type  1   force =     0.00001735   -0.00028532    0.00016296
     atom    2 type  1   force =    -0.00009132    0.00005493    0.00005115
     atom    3 type  1   force =    -0.00021554   -0.00033244    0.00003582
     atom    4 type  1   force =    -0.00009805   -0.00061311   -0.00000872
     atom    5 type  1   force =     0.00002189    0.00038433    0.00014410
     atom    6 type  1   force =     0.00027211    0.00049195    0.00032050
     atom    7 type  1   force =    -0.00055390    0.00025339   -0.00044547
     atom    8 type  1   force =    -0.00017974    0.00029655   -0.00032547
     atom    9 type  1   force =     0.00022965   -0.00046615    0.00009920
     atom   10 type  1   force =    -0.00019841   -0.00012189    0.00000019
     atom   11 type  1   force =     0.00015010    0.00036362    0.00002076
     atom   12 type  1   force =     0.00009714   -0.00037135   -0.00007137
     atom   13 type  2   force =     0.00094168    0.00024460    0.00015062
     atom   14 type  2   force =     0.00021852    0.00008525   -0.00035098
     atom   15 type  3   force =     0.00028932    0.00032310    0.00002811
     atom   16 type  3   force =     0.00000856    0.00028287   -0.00006277
     atom   17 type  3   force =     0.00015805   -0.00033236    0.00002346
     atom   18 type  3   force =     0.00012369   -0.00008639   -0.00001893
     atom   19 type  3   force =    -0.00030138    0.00003860   -0.00001327
     atom   20 type  3   force =    -0.00008749   -0.00009356   -0.00003874

     Total force =     0.026216     Total SCF correction =     0.002093

     Computing stress (Cartesian axis) and pressure

          total   stress  (Ry/bohr**3)                   (kbar)     P=       -8.61
  -0.00004487   0.00000113  -0.00000008           -6.60        0.17       -0.01
   0.00000113  -0.00005368  -0.00000158            0.17       -7.90       -0.23
  -0.00000008  -0.00000158  -0.00007710           -0.01       -0.23      -11.34

     kinetic stress (kbar)   7736.79     -3.25      0.06
                               -3.25   7733.26      2.23
                                0.06      2.23   7758.05

     local   stress (kbar)  -4628.99    433.62   -251.35
                              433.62  -5178.03    106.68
                             -251.35    106.68  -3902.63

     nonloc. stress (kbar)   2502.89      1.08     -0.02
                                1.08   2501.69      0.47
                               -0.02      0.47   2480.99

     hartree stress (kbar)   3131.27   -191.18    108.71
                             -191.18   3383.19    -61.07
                              108.71    -61.07   2965.81

     exc-cor stress (kbar)   1136.29     -0.17      0.07
                               -0.17   1136.25      0.28
                                0.07      0.28   1133.53

     corecor stress (kbar)  -3122.73      0.00     -0.01
                                0.00  -3122.62     -0.08
                               -0.01     -0.08  -3121.90

     ewald   stress (kbar)  -6762.12   -239.93    142.53
                             -239.93  -6461.63    -48.75
                              142.53    -48.75  -7325.20

     hubbard stress (kbar)      0.00      0.00      0.00
                                0.00      0.00      0.00
                                0.00      0.00      0.00

     DFT-D   stress (kbar)      0.00      0.00      0.00
                                0.00      0.00      0.00
                                0.00      0.00      0.00

     XDM     stress (kbar)      0.00      0.00      0.00
                                0.00      0.00      0.00
                                0.00      0.00      0.00

     dft-nl  stress (kbar)      0.00      0.00      0.00
                                0.00      0.00      0.00
                                0.00      0.00      0.00

     TS-vdW  stress (kbar)      0.00      0.00      0.00
                                0.00      0.00      0.00
                                0.00      0.00      0.00

[...]

                                0.00      0.00      0.00

     Writing all to output data dir new_calculations/myprefix.save/

     General routines

     Parallel routines

     PAW routines

   This run was terminated on:   6:18:23  20May2023

   JOB DONE.