     Program PWSCF v.7.0 starts on 21May2023 at  5: 1:56

     Reading input from espresso_2962.pwi
Warning: card &CELL ignored
Warning: card / ignored

     Current dimensions of program PWSCF are:
     Max number of different atomic species (ntypx) = 10
     Max number of k-points (npk) =  40000
     Max angular momentum in pseudopotentials (lmaxx) =  4
     file Mg.pbe-n-kjpaw_psl.0.3.0.UPF: wavefunction(s)  3S renormalized

     gamma-point specific algorithms are used

     Subspace diagonalization in iterative solution of the eigenvalue problem:
     a serial algorithm will be used

     Using Slab Decomposition

     bravais-lattice index     =            0
     lattice parameter (alat)  =      13.4526  a.u.
     unit-cell volume          =    2124.9234 (a.u.)^3
     number of atoms/cell      =           13
     number of atomic types    =            4
     number of electrons       =        82.00
     number of Kohn-Sham states=           49
     kinetic-energy cutoff     =      30.0000  Ry
     charge density cutoff     =     240.0000  Ry
     scf convergence threshold =      1.0E-06
     mixing beta               =       0.7000
     number of iterations used =            8  plain     mixing
     Exchange-correlation= SLA  PW   PBE  PBE
                           (   1   4   3   4   0   0   0)

     celldm(1)=  13.452613  celldm(2)=   0.000000  celldm(3)=   0.000000
     celldm(4)=   0.000000  celldm(5)=   0.000000  celldm(6)=   0.000000

     crystal axes: (cart. coord. in units of alat)
               a(1) = (   1.000000   0.000000   0.000000 )
               a(2) = (  -0.407690   0.913120   0.000000 )
               a(3) = (   0.156089   0.240630   0.955862 )

     reciprocal axes: (cart. coord. in units 2 pi/alat)
               b(1) = (  1.000000  0.446480 -0.275694 )
               b(2) = (  0.000000  1.095146 -0.275694 )
               b(3) = (  0.000000  0.000000  1.046176 )

     PseudoPot. # 1 for Na read from file:
     /home/pragov/projects/rrg-bengioy-ad/pragov/crystal_structure_design/SSSP/na_pbe_v1.5.uspp.F.UPF
     MD5 check sum: 44600605ef58000f06b90626533354dc
     Pseudo is Ultrasoft, Zval =  9.0
     Generated by new atomic code, or converted to UPF format
     Using radial grid of  819 points,  5 beta functions with:
                l(1) =   0
                l(2) =   0
                l(3) =   1
                l(4) =   1
                l(5) =   2
     Q(r) pseudized with  8 coefficients,  rinner =    1.250   1.250   1.250
                                                       1.250   1.250

     PseudoPot. # 2 for Mg read from file:
     /home/pragov/projects/rrg-bengioy-ad/pragov/crystal_structure_design/SSSP/Mg.pbe-n-kjpaw_psl.0.3.0.UPF
     MD5 check sum: 24ecedc7f3e3cbe212e682f4413594e4
     Pseudo is Projector augmented-wave + core cor, Zval =  2.0
     Generated using "atomic" code by A. Dal Corso  v.5.0.99 svn rev. 10869
     Shape of augmentation charge: PSQ
     Using radial grid of 1129 points,  4 beta functions with:
                l(1) =   0
                l(2) =   0
                l(3) =   1
                l(4) =   1
     Q(r) pseudized with 0 coefficients

     PseudoPot. # 3 for Si read from file:
     /home/pragov/projects/rrg-bengioy-ad/pragov/crystal_structure_design/SSSP/Si.pbe-n-rrkjus_psl.1.0.0.UPF
     MD5 check sum: 0b0bb1205258b0d07b9f9672cf965d36
     Pseudo is Ultrasoft + core correction, Zval =  4.0
     Generated using "atomic" code by A. Dal Corso  v.5.1
     Using radial grid of 1141 points,  6 beta functions with:
                l(1) =   0
                l(2) =   0
                l(3) =   1
                l(4) =   1
                l(5) =   2
                l(6) =   2
     Q(r) pseudized with 0 coefficients

     PseudoPot. # 4 for Se read from file:
     /home/pragov/projects/rrg-bengioy-ad/pragov/crystal_structure_design/SSSP/Se_pbe_v1.uspp.F.UPF
     MD5 check sum: 1b3568f3a8ae88f9a2a0ad0698632c85
     Pseudo is Ultrasoft + core correction, Zval =  6.0
     Generated by new atomic code, or converted to UPF format
     Using radial grid of  877 points,  6 beta functions with:
                l(1) =   0
                l(2) =   0
                l(3) =   1
                l(4) =   1
                l(5) =   2
                l(6) =   2
     Q(r) pseudized with  8 coefficients,  rinner =    1.300   1.300   1.300
                                                       1.300   1.300

     atomic species   valence    mass     pseudopotential
        Na             9.00    22.98977     Na( 1.00)
        Mg             2.00    24.30500     Mg( 1.00)
        Si             4.00    28.08500     Si( 1.00)
        Se             6.00    78.97100     Se( 1.00)

     No symmetry found

                                    s                        frac. trans.

      isym =  1     identity

 cryst.   s( 1) = (     1          0          0      )
                  (     0          1          0      )
                  (     0          0          1      )

 cart.    s( 1) = (  1.0000000 -0.0000000 -0.0000000 )
                  (  0.0000000  1.0000000 -0.0000000 )
                  (  0.0000000  0.0000000  1.0000000 )

   Cartesian axes

     site n.     atom                  positions (alat units)
         1           Na  tau(   1) = (   0.3909197   0.5660293   0.4779311  )
         2           Na  tau(   2) = (   0.0967119   0.5859319   0.0000000  )
         3           Na  tau(   3) = (   0.5528542   0.2900481   0.0000000  )
         4           Na  tau(   4) = (  -0.3423917   0.8707634   0.0000000  )
         5           Mg  tau(   5) = (   0.8981950   0.2369772   0.4779311  )
         6           Si  tau(   6) = (   0.0327896   0.9842583   0.4259963  )
         7           Si  tau(   7) = (  -0.1369799   0.7225373   0.5298660  )
         8           Se  tau(   8) = (   0.2222107   0.2452014   0.2574969  )
         9           Se  tau(   9) = (   0.6150932   0.8508793   0.6983654  )
        10           Se  tau(  10) = (   0.5596027   0.2252913   0.6834425  )
        11           Se  tau(  11) = (   0.7708249   0.5509169   0.2724198  )
        12           Se  tau(  12) = (   0.2848295   0.9000069   0.2434218  )
        13           Se  tau(  13) = (   0.0427061   0.5267430   0.7124405  )

   Crystallographic axes

     site n.     atom                  positions (cryst. coord.)
         1           Na  tau(   1) = (  0.5118780  0.4881220  0.5000000  )
         2           Na  tau(   2) = (  0.3583190  0.6416810  0.0000000  )
         3           Na  tau(   3) = (  0.6823550  0.3176450  0.0000000  )
         4           Na  tau(   4) = (  0.0463870  0.9536130  0.0000000  )
         5           Mg  tau(   5) = (  0.8722380  0.1277620  0.5000000  )
         6           Si  tau(   6) = (  0.3547970  0.9604620  0.4456670  )
         7           Si  tau(   7) = (  0.0395380  0.6452030  0.5543330  )
         8           Se  tau(   8) = (  0.2606980  0.1975410  0.2693870  )
         9           Se  tau(   9) = (  0.8024590  0.7393020  0.7306130  )
        10           Se  tau(  10) = (  0.4717700  0.0583060  0.7150010  )
        11           Se  tau(  11) = (  0.9416940  0.5282300  0.2849990  )
        12           Se  tau(  12) = (  0.6195550  0.9185290  0.2546620  )
        13           Se  tau(  13) = (  0.0814710  0.3804450  0.7453380  )

     number of k points=     1  Methfessel-Paxton smearing, width (Ry)=  0.0010
                       cart. coord. in units 2pi/alat
        k(    1) = (   0.0000000   0.0000000   0.0000000), wk =   2.0000000

                       cryst. coord.
        k(    1) = (   0.0000000   0.0000000   0.0000000), wk =   2.0000000

     Initial potential from superposition of free atoms

     starting charge      81.9724, renormalised to      82.0000
     Starting wfcs are   56 randomized atomic wfcs
     Checking if some PAW data can be deallocated...

     Self-consistent Calculation

     iteration #  1     ecut=    30.00 Ry     beta= 0.70
     Davidson diagonalization with overlap

     ethr =  1.00E-02,  avg # of iterations =  3.0

     Threshold (ethr) on eigenvalues was too large:
     Diagonalizing with lowered threshold

     Davidson diagonalization with overlap

[...]

     total energy              =    -700.19673732 Ry
     estimated scf accuracy    <       0.37163798 Ry

[...]

     total energy              =    -700.28971806 Ry
     estimated scf accuracy    <       0.00000210 Ry

     iteration #  8     ecut=    30.00 Ry     beta= 0.70
     Davidson diagonalization with overlap

     ethr =  2.56E-09,  avg # of iterations = 10.0

     End of self-consistent calculation

          k = 0.0000 0.0000 0.0000 (  2954 PWs)   bands (ev):

   -47.8389 -47.6551 -47.5325 -47.2109 -19.7632 -19.7377 -19.7302 -19.5828
   -19.5624 -19.5428 -19.4634 -19.4358 -19.4337 -19.1299 -19.1253 -19.1127
    -9.2854  -8.6096  -8.0647  -7.9966  -7.9424  -7.8524  -3.9277  -2.0337
    -0.2184  -0.0086   0.0757   0.1528   0.9695   1.0751   1.5425   1.9219
     2.1744   2.3869   2.5290   2.6553   2.8044   3.0759   3.1525   3.2714
     3.3233   6.2608   6.6282   7.1500   7.1840   7.4644   8.2963   8.5519
     9.0120

     occupation numbers
     1.0000   1.0000   1.0000   1.0000   1.0000   1.0000   1.0000   1.0000
     1.0000   1.0000   1.0000   1.0000   1.0000   1.0000   1.0000   1.0000
     1.0000   1.0000   1.0000   1.0000   1.0000   1.0000   1.0000   1.0000
     1.0000   1.0000   1.0000   1.0000   1.0000   1.0000   1.0000   1.0000
     1.0000   1.0000   1.0000   1.0000   1.0000   1.0000   1.0000   1.0000
     1.0000  -0.0000  -0.0000  -0.0000  -0.0000  -0.0000  -0.0000  -0.0000
    -0.0000

     the Fermi energy is     5.5779 ev

!    total energy              =    -700.28971924 Ry
     estimated scf accuracy    <       0.00000023 Ry
     smearing contrib. (-TS)   =       0.00000000 Ry
     internal energy E=F+TS    =    -700.28971924 Ry

     The total energy is F=E-TS. E is the sum of the following terms:
     one-electron contribution =    -327.70398584 Ry
     hartree contribution      =     191.25129279 Ry
     xc contribution           =    -250.01586338 Ry
     ewald contribution        =    -282.56022277 Ry
     one-center paw contrib.   =     -31.26094005 Ry
      -> PAW hartree energy AE =       0.45943616 Ry
      -> PAW hartree energy PS =      -0.45843200 Ry
      -> PAW xc energy AE      =     -32.38756111 Ry
      -> PAW xc energy PS      =       1.12561691 Ry
      -> total E_H with PAW    =     191.25229695 Ry
      -> total E_XC with PAW   =    -281.27780758 Ry

     convergence has been achieved in   8 iterations

     Forces acting on atoms (cartesian axes, Ry/au):

     atom    1 type  1   force =     0.00014028   -0.00012215    0.00002886
     atom    2 type  1   force =     0.00036130   -0.00024316   -0.00001025
     atom    3 type  1   force =     0.00021824   -0.00013733   -0.00004104
     atom    4 type  1   force =    -0.00044769    0.00030741   -0.00000674
     atom    5 type  2   force =    -0.00003659    0.00002816    0.00000317
     atom    6 type  3   force =     0.01028152    0.01324604    0.00323224
     atom    7 type  3   force =    -0.00789808   -0.01478906   -0.00322901
     atom    8 type  4   force =     0.00352754   -0.00293800   -0.00144757
     atom    9 type  4   force =     0.00412281   -0.00201960    0.00145790
     atom   10 type  4   force =    -0.01200035   -0.00195168   -0.01895522
     atom   11 type  4   force =    -0.00311192    0.01175577    0.01896224
     atom   12 type  4   force =    -0.00069080   -0.00636381    0.00310840
     atom   13 type  4   force =     0.00553375    0.00322743   -0.00310299
     The non-local contrib.  to forces
     atom    1 type  1   force =    -0.00957315    0.00621087    0.00002513
     atom    2 type  1   force =     0.07543739   -0.04894336   -0.00001036
     atom    3 type  1   force =    -0.08310842    0.05389828   -0.00004607
     atom    4 type  1   force =    -0.03457208    0.02240946   -0.00001328
     atom    5 type  2   force =     0.00692892   -0.00449517   -0.00000069
     atom    6 type  3   force =     0.06559479    0.12177771   -0.06310198
     atom    7 type  3   force =    -0.08445962   -0.10954186    0.06310427
     atom    8 type  4   force =     0.11885168   -0.07833427    0.10583594
     atom    9 type  4   force =     0.11999016   -0.07659133   -0.10583909
     atom   10 type  4   force =    -0.05735025   -0.09729249   -0.14244737
     atom   11 type  4   force =     0.06545624    0.09203178    0.14245187
     atom   12 type  4   force =    -0.11579845    0.12968632    0.12512473
     atom   13 type  4   force =    -0.16563130    0.05286554   -0.12511830
     The ionic contribution  to forces
     atom    1 type  1   force =    -0.46209844    0.29974738    0.00000000
     atom    2 type  1   force =     0.17432862   -0.11308098    0.00000000
     atom    3 type  1   force =     0.37657255   -0.24426968   -0.00000000
     atom    4 type  1   force =    -0.75938324    0.49258582   -0.00000000
     atom    5 type  2   force =     0.13496527   -0.08754733    0.00000000
     atom    6 type  3   force =    -0.24495269   -0.46074459    0.36143713
     atom    7 type  3   force =     0.32085041    0.41151234   -0.36143713
     atom    8 type  4   force =    -2.01548883    0.01038088    0.62087377
     atom    9 type  4   force =    -0.83117410    1.83615157   -0.62087377
     atom   10 type  4   force =     1.11139051    0.02551646   -0.05686865
     atom   11 type  4   force =     0.42980346   -1.02523604    0.05686865
     atom   12 type  4   force =     1.38321705    0.19926689    0.10256296
     atom   13 type  4   force =     0.38196944   -1.34428272   -0.10256296
     The local contribution  to forces
     atom    1 type  1   force =     0.47171380   -0.30599793   -0.00001316
     atom    2 type  1   force =    -0.24980567    0.16205628   -0.00000080
     atom    3 type  1   force =    -0.29307028    0.19010882    0.00001297
     atom    4 type  1   force =     0.79380947   -0.51491633   -0.00000003
     atom    5 type  2   force =    -0.14106364    0.09150136    0.00000324
     atom    6 type  3   force =     0.19616842    0.36484316   -0.30188568
     atom    7 type  3   force =    -0.25316746   -0.32787077    0.30187799
     atom    8 type  4   force =     1.91286729    0.05686922   -0.71680557
     atom    9 type  4   force =     0.72790836   -1.76984907    0.71682001
     atom   10 type  4   force =    -1.07236439    0.05927138    0.16599939
     atom   11 type  4   force =    -0.49132544    0.95504289   -0.16600057
     atom   12 type  4   force =    -1.27979698   -0.32063488   -0.21146369
     atom   13 type  4   force =    -0.22898778    1.29931530    0.21145110
     The core correction contribution to forces
     atom    1 type  1   force =     0.00000000    0.00000000    0.00000000
     atom    2 type  1   force =     0.00000000    0.00000000    0.00000000
     atom    3 type  1   force =     0.00000000    0.00000000    0.00000000
     atom    4 type  1   force =     0.00000000    0.00000000    0.00000000
     atom    5 type  2   force =    -0.00084764    0.00054990    0.00000012
     atom    6 type  3   force =    -0.00662384   -0.01277677    0.00681816
     atom    7 type  3   force =     0.00896684    0.01125690   -0.00681860
     atom    8 type  4   force =    -0.01261961    0.00778681   -0.01117279
     atom    9 type  4   force =    -0.01225670    0.00834874    0.01117325
     atom   10 type  4   force =     0.00621066    0.01022791    0.01428385
     atom   11 type  4   force =    -0.00680704   -0.00984124   -0.01428471
     atom   12 type  4   force =     0.01142083   -0.01456974   -0.01299509
     atom   13 type  4   force =     0.01796049   -0.00448866    0.01299417
     The Hubbard contrib.    to forces
     atom    1 type  1   force =     0.00000000    0.00000000    0.00000000
     atom    2 type  1   force =     0.00000000    0.00000000    0.00000000
     atom    3 type  1   force =     0.00000000    0.00000000    0.00000000
     atom    4 type  1   force =     0.00000000    0.00000000    0.00000000
     atom    5 type  2   force =     0.00000000    0.00000000    0.00000000
     atom    6 type  3   force =     0.00000000    0.00000000    0.00000000
     atom    7 type  3   force =     0.00000000    0.00000000    0.00000000
     atom    8 type  4   force =     0.00000000    0.00000000    0.00000000
     atom    9 type  4   force =     0.00000000    0.00000000    0.00000000
     atom   10 type  4   force =     0.00000000    0.00000000    0.00000000
     atom   11 type  4   force =     0.00000000    0.00000000    0.00000000
     atom   12 type  4   force =     0.00000000    0.00000000    0.00000000
     atom   13 type  4   force =     0.00000000    0.00000000    0.00000000
     The SCF correction term to forces
     atom    1 type  1   force =     0.00010412   -0.00009019    0.00001432
     atom    2 type  1   force =     0.00040701   -0.00028281   -0.00000165
     atom    3 type  1   force =    -0.00016956    0.00011753   -0.00001050
     atom    4 type  1   force =    -0.00029579    0.00022074    0.00000401
     atom    5 type  2   force =    -0.00001346    0.00001168   -0.00000206
     atom    6 type  3   force =     0.00010089    0.00013881   -0.00003796
     atom    7 type  3   force =    -0.00008222   -0.00015339    0.00004189
     atom    8 type  4   force =    -0.00007693    0.00035165   -0.00018149
     atom    9 type  4   force =    -0.00033887   -0.00008723    0.00017494
     atom   10 type  4   force =     0.00011916    0.00031734    0.00007499
     atom   11 type  4   force =    -0.00023309   -0.00024934   -0.00007557
     atom   12 type  4   force =     0.00027279   -0.00012012   -0.00012307
     atom   13 type  4   force =     0.00022895   -0.00018974    0.00013045

     Total force =     0.041785     Total SCF correction =     0.001129

     Computing stress (Cartesian axis) and pressure

          total   stress  (Ry/bohr**3)                   (kbar)     P=      -16.36
  -0.00009033   0.00000542  -0.00006866          -13.29        0.80      -10.10
   0.00000542  -0.00008550  -0.00010583            0.80      -12.58      -15.57
  -0.00006866  -0.00010583  -0.00015787          -10.10      -15.57      -23.22

     kinetic stress (kbar)   5234.76     33.61    -20.87
                               33.61   5264.77    -32.18
                              -20.87    -32.18   5226.30

     local   stress (kbar)   7806.28      6.67     37.84
                                6.67   7812.24     58.33
                               37.84     58.33   7380.52

     nonloc. stress (kbar)  -8526.72      7.24     -2.81
                                7.24  -8520.26     -4.32
                               -2.81     -4.32  -8516.88

     hartree stress (kbar)   4359.81     21.77    -22.61
                               21.77   4379.25    -34.85
                              -22.61    -34.85   4500.97

     exc-cor stress (kbar)   8685.53     -0.45      0.19
                               -0.45   8685.12      0.29
                                0.19      0.29   8685.88

     corecor stress (kbar) -10981.14     -0.98      0.40
                               -0.98 -10982.01      0.62
                                0.40      0.62 -10982.32

     ewald   stress (kbar)  -6591.80    -67.07     -2.24
                              -67.07  -6651.69     -3.45
                               -2.24     -3.45  -6317.70

     hubbard stress (kbar)      0.00      0.00      0.00
                                0.00      0.00      0.00
                                0.00      0.00      0.00

     DFT-D   stress (kbar)      0.00      0.00      0.00
                                0.00      0.00      0.00
                                0.00      0.00      0.00

     XDM     stress (kbar)      0.00      0.00      0.00
                                0.00      0.00      0.00
                                0.00      0.00      0.00

     dft-nl  stress (kbar)      0.00      0.00      0.00
                                0.00      0.00      0.00
                                0.00      0.00      0.00

     TS-vdW  stress (kbar)      0.00      0.00      0.00
                                0.00      0.00      0.00
                                0.00      0.00      0.00

[...]

                                0.00      0.00      0.00

     Writing all to output data dir new_calculations/myprefix.save/

     General routines

     Parallel routines

     PAW routines

   This run was terminated on:   5: 2:15  21May2023

   JOB DONE.