     Program PWSCF v.7.0 starts on 20May2023 at 18:24:12

     Reading input from espresso_20147.pwi
Warning: card &CELL ignored
Warning: card / ignored

     Current dimensions of program PWSCF are:
     Max number of different atomic species (ntypx) = 10
     Max number of k-points (npk) =  40000
     Max angular momentum in pseudopotentials (lmaxx) =  4
     file Mg.pbe-n-kjpaw_psl.0.3.0.UPF: wavefunction(s)  3S renormalized
     file O.pbe-n-kjpaw_psl.0.1.UPF: wavefunction(s)  2P renormalized

     gamma-point specific algorithms are used
     Message from routine setup:
     using ibrav=0 with symmetry is DISCOURAGED, use correct ibrav instead

     Subspace diagonalization in iterative solution of the eigenvalue problem:
     a serial algorithm will be used

     Using Slab Decomposition

     bravais-lattice index     =            0
     lattice parameter (alat)  =       9.7908  a.u.
     unit-cell volume          =    1450.6757 (a.u.)^3
     number of atoms/cell      =           20
     number of atomic types    =            4
     number of electrons       =       142.00
     number of Kohn-Sham states=           85
     kinetic-energy cutoff     =      30.0000  Ry
     charge density cutoff     =     240.0000  Ry
     scf convergence threshold =      1.0E-06
     mixing beta               =       0.7000
     number of iterations used =            8  plain     mixing
     Exchange-correlation= SLA  PW   PBX  PBC
                           (   1   4   3   4   0   0   0)

     celldm(1)=   9.790788  celldm(2)=   0.000000  celldm(3)=   0.000000
     celldm(4)=   0.000000  celldm(5)=   0.000000  celldm(6)=   0.000000

     crystal axes: (cart. coord. in units of alat)
               a(1) = (   1.000000   0.000000   0.000000 )
               a(2) = (  -0.000593   1.028433   0.000000 )
               a(3) = (  -0.007107   0.000288   1.502939 )

     reciprocal axes: (cart. coord. in units 2 pi/alat)
               b(1) = (  1.000000  0.000576  0.004728 )
               b(2) = (  0.000000  0.972353 -0.000186 )
               b(3) = (  0.000000  0.000000  0.665363 )

     PseudoPot. # 1 for Mg read from file:
     /home/pragov/projects/rrg-bengioy-ad/pragov/crystal_structure_design/SSSP/Mg.pbe-n-kjpaw_psl.0.3.0.UPF
     MD5 check sum: 24ecedc7f3e3cbe212e682f4413594e4
     Pseudo is Projector augmented-wave + core cor, Zval =  2.0
     Generated using "atomic" code by A. Dal Corso  v.5.0.99 svn rev. 10869
     Shape of augmentation charge: PSQ
     Using radial grid of 1129 points,  4 beta functions with:
                l(1) =   0
                l(2) =   0
                l(3) =   1
                l(4) =   1
     Q(r) pseudized with 0 coefficients

     PseudoPot. # 2 for Co read from file:
     /home/pragov/projects/rrg-bengioy-ad/pragov/crystal_structure_design/SSSP/Co_pbe_v1.2.uspp.F.UPF
     MD5 check sum: 5f91765df6ddd3222702df6e7b74a16d
     Pseudo is Ultrasoft + core correction, Zval = 17.0
     Generated by new atomic code, or converted to UPF format
     Using radial grid of  863 points,  6 beta functions with:
                l(1) =   0
                l(2) =   0
                l(3) =   1
                l(4) =   1
                l(5) =   2
                l(6) =   2
     Q(r) pseudized with  8 coefficients,  rinner =    1.200   1.200   1.200
                                                       1.200   1.200

     PseudoPot. # 3 for W  read from file:
     /home/pragov/projects/rrg-bengioy-ad/pragov/crystal_structure_design/SSSP/W_pbe_v1.2.uspp.F.UPF
     MD5 check sum: 9c083fa34c2a2ea0f02f1f893e16e1c8
     Pseudo is Ultrasoft + core correction, Zval = 14.0
     Generated by new atomic code, or converted to UPF format
     Using radial grid of  923 points,  8 beta functions with:
                l(1) =   0
                l(2) =   0
                l(3) =   0
                l(4) =   1
                l(5) =   1
                l(6) =   2
                l(7) =   2
                l(8) =   3
     Q(r) pseudized with  6 coefficients,  rinner =    1.350   1.350   1.350
                                                       1.350   1.350   1.350
                                                       1.350

     PseudoPot. # 4 for O  read from file:
     /home/pragov/projects/rrg-bengioy-ad/pragov/crystal_structure_design/SSSP/O.pbe-n-kjpaw_psl.0.1.UPF
     MD5 check sum: 0234752ac141de4415c5fc33072bef88
     Pseudo is Projector augmented-wave + core cor, Zval =  6.0
     Generated using "atomic" code by A. Dal Corso  v.5.0.99 svn rev. 10869
     Shape of augmentation charge: BESSEL
     Using radial grid of 1095 points,  4 beta functions with:
                l(1) =   0
                l(2) =   0
                l(3) =   1
                l(4) =   1
     Q(r) pseudized with 0 coefficients

     atomic species   valence    mass     pseudopotential
        Mg             2.00    24.30500     Mg( 1.00)
        Co            17.00    58.93319     Co( 1.00)
        W             14.00   183.84000     W ( 1.00)
        O              6.00    15.99900     O ( 1.00)

      2 Sym. Ops., with inversion, found

                                    s                        frac. trans.

      isym =  1     identity

 cryst.   s( 1) = (     1          0          0      )
                  (     0          1          0      )
                  (     0          0          1      )

 cart.    s( 1) = (  1.0000000 -0.0000000 -0.0000000 )
                  (  0.0000000  1.0000000  0.0000000 )
                  (  0.0000000  0.0000000  1.0000000 )

      isym =  2     inversion

 cryst.   s( 2) = (    -1          0          0      )
                  (     0         -1          0      )
                  (     0          0         -1      )

 cart.    s( 2) = ( -1.0000000  0.0000000  0.0000000 )
                  (  0.0000000 -1.0000000 -0.0000000 )
                  (  0.0000000  0.0000000 -1.0000000 )

   Cartesian axes

     site n.     atom                  positions (alat units)
         1           Mg  tau(   1) = (   0.9923912   0.0495308   0.4048616  )
         2           Mg  tau(   2) = (   0.5042097   0.5641343   0.3464860  )
         3           Mg  tau(   3) = (  -0.0000862   0.9791916   1.0980786  )
         4           Mg  tau(   4) = (   0.4880862   0.4645840   1.1564572  )
         5           Co  tau(   5) = (  -0.0038485   0.5143597   0.7514709  )
         6           Co  tau(   6) = (   0.4999990   0.0000010   0.0000000  )
         7           W   tau(   7) = (   0.4964477   0.0001440   0.7514709  )
         8           W   tau(   8) = (   0.9925962   0.5145047   1.5029357  )
         9           O   tau(   9) = (   0.6639443   0.3090508   0.6138918  )
        10           O   tau(  10) = (   0.8321612   0.8229448   0.1378195  )
        11           O   tau(  11) = (   0.3283617   0.7196654   0.8890484  )
        12           O   tau(  12) = (   0.1601408   0.2057786   1.3651132  )
        13           O   tau(  13) = (   0.1792133   0.1827669   0.8257551  )
        14           O   tau(  14) = (   0.3097489   0.6973429   1.4287025  )
        15           O   tau(  15) = (   0.8130906   0.8459545   0.6771836  )
        16           O   tau(  16) = (   0.6825471   0.3313837   0.0742331  )
        17           O   tau(  17) = (   0.1296488   0.4247487   0.3463162  )
        18           O   tau(  18) = (   0.3661419   0.9390382   0.4048090  )
        19           O   tau(  19) = (   0.6261630   0.0896842   1.0981312  )
        20           O   tau(  20) = (   0.8626491   0.6039727   1.1566210  )

   Crystallographic axes

     site n.     atom                  positions (cryst. coord.)
         1           Mg  tau(   1) = (  0.9943340  0.0480860  0.2693800  )
         2           Mg  tau(   2) = (  0.5061730  0.5484730  0.2305390  )
         3           Mg  tau(   3) = (  0.0056700  0.9519150  0.7306210  )
         4           Mg  tau(   4) = (  0.4938220  0.4515240  0.7694640  )
         5           Co  tau(   5) = (  0.0000010  0.4999990  0.5000010  )
         6           Co  tau(   6) = (  0.4999990  0.0000010  0.0000000  )
         7           W   tau(   7) = (  0.5000010  0.0000000  0.5000010  )
         8           W   tau(   8) = (  0.9999990  0.5000000  0.9999980  )
         9           O   tau(   9) = (  0.6670250  0.3003920  0.4084610  )
        10           O   tau(  10) = (  0.8332870  0.8001670  0.0917000  )
        11           O   tau(  11) = (  0.3329800  0.6996030  0.5915400  )
        12           O   tau(  12) = (  0.1667140  0.1998350  0.9082960  )
        13           O   tau(  13) = (  0.1832230  0.1775600  0.5494270  )
        14           O   tau(  14) = (  0.3169060  0.6777970  0.9506060  )
        15           O   tau(  15) = (  0.8167800  0.8224400  0.4505730  )
        16           O   tau(  16) = (  0.6830890  0.3222080  0.0493920  )
        17           O   tau(  17) = (  0.1315310  0.4129410  0.2304260  )
        18           O   tau(  18) = (  0.3685970  0.9130010  0.2693450  )
        19           O   tau(  19) = (  0.6314070  0.0870000  0.7306560  )
        20           O   tau(  20) = (  0.8684660  0.5870590  0.7695730  )

     number of k points=     1  Methfessel-Paxton smearing, width (Ry)=  0.0010
                       cart. coord. in units 2pi/alat
        k(    1) = (   0.0000000   0.0000000   0.0000000), wk =   2.0000000

                       cryst. coord.
        k(    1) = (   0.0000000   0.0000000   0.0000000), wk =   2.0000000

     Check: negative core charge=   -0.000010

     Initial potential from superposition of free atoms

     starting charge     139.7956, renormalised to     142.0000

     negative rho (up, down):  1.312E-01 0.000E+00
     Starting wfcs are  116 randomized atomic wfcs
     Checking if some PAW data can be deallocated...

     Self-consistent Calculation

     iteration #  1     ecut=    30.00 Ry     beta= 0.70
     Davidson diagonalization with overlap

     ethr =  1.00E-02,  avg # of iterations =  2.0

     negative rho (up, down):  1.222E-01 0.000E+00

     total energy              =   -1546.36837118 Ry
     estimated scf accuracy    <       6.65262906 Ry

[...]

     total energy              =   -1549.99408267 Ry
     estimated scf accuracy    <       0.00000354 Ry

     iteration # 31     ecut=    30.00 Ry     beta= 0.70
     Davidson diagonalization with overlap

     ethr =  2.49E-09,  avg # of iterations =  1.0

[...]

     End of self-consistent calculation

          k = 0.0000 0.0000 0.0000 (  2022 PWs)   bands (ev):

   -85.7634 -85.7628 -66.5218 -66.5177 -49.4414 -49.4398 -48.8342 -48.8281
   -48.7449 -48.7387 -30.8471 -30.8443 -30.7242 -30.7212 -30.6835 -30.6795
   -10.3399  -9.8297  -9.2237  -9.2111  -9.1756  -9.0205  -8.9512  -8.7641
    -8.7430  -8.4993  -8.3731  -8.3648   2.2142   2.2783   2.6758   2.7007
     2.8634   2.9766   3.3097   3.5344   3.6368   3.6490   4.0377   4.3068
     4.4152   4.4228   4.5187   4.6111   4.8474   4.9660   5.2429   5.6658
     5.6949   5.9459   5.9707   6.1963   6.3163   6.3721   6.4685   6.5257
     6.5736   6.8159   6.8709   7.0421   7.1259   7.2604   7.2633   7.4124
     8.2077   8.2276   8.3665   8.4261   8.7086   8.7627   9.0779   9.0951
     9.3266   9.7921  10.9293  11.2276  11.4693  11.5487  11.6564  11.8661
    12.7192  14.7439  15.9356  16.2539  16.4585

     occupation numbers
     1.0000   1.0000   1.0000   1.0000   1.0000   1.0000   1.0000   1.0000
     1.0000   1.0000   1.0000   1.0000   1.0000   1.0000   1.0000   1.0000
     1.0000   1.0000   1.0000   1.0000   1.0000   1.0000   1.0000   1.0000
     1.0000   1.0000   1.0000   1.0000   1.0000   1.0000   1.0000   1.0000
     1.0000   1.0000   1.0000   1.0000   1.0000   1.0000   1.0000   1.0000
     1.0000   1.0000   1.0000   1.0000   1.0000   1.0000   1.0000   1.0000
     1.0000   1.0000   1.0000   1.0000   1.0000   1.0000   1.0000   1.0000
     1.0000   1.0000   1.0000   1.0000   1.0000   1.0000   1.0000   1.0000
     1.0000   1.0000   1.0000   1.0000   1.0000   1.0000   0.9337   0.0663
    -0.0000  -0.0000  -0.0000  -0.0000  -0.0000  -0.0000  -0.0000  -0.0000
    -0.0000  -0.0000  -0.0000  -0.0000  -0.0000

     the Fermi energy is     9.0865 ev

!    total energy              =   -1549.99408236 Ry
     estimated scf accuracy    <       0.00000069 Ry
     smearing contrib. (-TS)   =      -0.00007661 Ry
     internal energy E=F+TS    =   -1549.99400576 Ry

     The total energy is F=E-TS. E is the sum of the following terms:
     one-electron contribution =    -732.92329731 Ry
     hartree contribution      =     441.00851188 Ry
     xc contribution           =    -243.47857254 Ry
     ewald contribution        =    -775.29739241 Ry
     one-center paw contrib.   =    -239.30325538 Ry
      -> PAW hartree energy AE =     360.13244527 Ry
      -> PAW hartree energy PS =    -358.83939796 Ry
      -> PAW xc energy AE      =    -336.42485192 Ry
      -> PAW xc energy PS      =      95.82854922 Ry
      -> total E_H with PAW    =     442.30155920 Ry
      -> total E_XC with PAW   =    -484.07487523 Ry

     convergence has been achieved in  31 iterations

     negative rho (up, down):  1.248E-01 0.000E+00

     Forces acting on atoms (cartesian axes, Ry/au):

     atom    1 type  1   force =     0.00034665    0.00185404    0.00422848
     atom    2 type  1   force =    -0.00050727    0.00140785   -0.00422208
     atom    3 type  1   force =    -0.00034665   -0.00185404   -0.00422848
     atom    4 type  1   force =     0.00050727   -0.00140785    0.00422208
     atom    5 type  2   force =     0.00000000    0.00000000    0.00000000
     atom    6 type  2   force =     0.00000000    0.00000000    0.00000000
     atom    7 type  3   force =     0.00000000    0.00000000    0.00000000
     atom    8 type  3   force =     0.00000000    0.00000000    0.00000000
     atom    9 type  4   force =     0.02368033    0.00321129    0.00901476
     atom   10 type  4   force =    -0.02409530    0.00324153   -0.00898083
     atom   11 type  4   force =    -0.02368033   -0.00321129   -0.00901476
     atom   12 type  4   force =     0.02409530   -0.00324153    0.00898083
     atom   13 type  4   force =    -0.04073795    0.03983606   -0.00660738
     atom   14 type  4   force =     0.04051998    0.03934616    0.00623073
     atom   15 type  4   force =     0.04073795   -0.03983606    0.00660738
     atom   16 type  4   force =    -0.04051998   -0.03934616   -0.00623073
     atom   17 type  4   force =    -0.01223564    0.00839501    0.02037999
     atom   18 type  4   force =     0.01261800    0.00877080   -0.01957004
     atom   19 type  4   force =    -0.01261800   -0.00877080    0.01957004
     atom   20 type  4   force =     0.01223564   -0.00839501   -0.02037999
     The non-local contrib.  to forces
     atom    1 type  1   force =    -0.04451143    0.06083033   -0.01166835
     atom    2 type  1   force =     0.04399833    0.05960431    0.01203651
     atom    3 type  1   force =     0.04451143   -0.06083033    0.01166835
     atom    4 type  1   force =    -0.04399833   -0.05960431   -0.01203651
     atom    5 type  2   force =     0.00000000    0.00000000    0.00000000
     atom    6 type  2   force =     0.00000000    0.00000000    0.00000000
     atom    7 type  3   force =     0.00000000    0.00000000    0.00000000
     atom    8 type  3   force =     0.00000000    0.00000000    0.00000000
     atom    9 type  4   force =    -0.00115015   -0.33450528    0.31344810
     atom   10 type  4   force =     0.00174389   -0.33570437   -0.31206216
     atom   11 type  4   force =     0.00115015    0.33450528   -0.31344810
     atom   12 type  4   force =    -0.00174389    0.33570437    0.31206216
     atom   13 type  4   force =     0.37195494    0.03150269   -0.17971214
     atom   14 type  4   force =    -0.37153714    0.03227612    0.17982808
     atom   15 type  4   force =    -0.37195494   -0.03150269    0.17971214
     atom   16 type  4   force =     0.37153714   -0.03227612   -0.17982808
     atom   17 type  4   force =    -0.25901276    0.16741357   -0.37221944
     atom   18 type  4   force =     0.25912220    0.16868457    0.37169806
     atom   19 type  4   force =    -0.25912220   -0.16868457   -0.37169806
     atom   20 type  4   force =     0.25901276   -0.16741357    0.37221944
     The ionic contribution  to forces
     atom    1 type  1   force =    -0.04751258   -0.19196754   -0.51262156
     atom    2 type  1   force =     0.04397895   -0.19984136    0.51792193
     atom    3 type  1   force =     0.04748019    0.19189646    0.51254472
     atom    4 type  1   force =    -0.04391763    0.19989085   -0.51794208
     atom    5 type  2   force =    -0.00002453    0.00025544   -0.00054426
     atom    6 type  2   force =     0.00003833   -0.00008822    0.00059843
     atom    7 type  3   force =    -0.00009895   -0.00024184   -0.00021410
     atom    8 type  3   force =     0.00003751   -0.00015610    0.00060906
     atom    9 type  4   force =    -1.96119821    3.69047268   -4.77115163
     atom   10 type  4   force =     1.92494192    3.71061287    4.76595448
     atom   11 type  4   force =     1.96134067   -3.69033934    4.77068633
     atom   12 type  4   force =    -1.92490812   -3.71057258   -4.76564411
     atom   13 type  4   force =    -2.63020977   -2.41967402    3.47859674
     atom   14 type  4   force =     2.62196198   -2.45097957   -3.49335831
     atom   15 type  4   force =     2.63026105    2.41952747   -3.47899489
     atom   16 type  4   force =    -2.62200578    2.45113749    3.49374093
     atom   17 type  4   force =     4.10421906   -2.36310604    2.35197689
     atom   18 type  4   force =    -4.09339976   -2.35423455   -2.30357295
     atom   19 type  4   force =     4.09347813    2.35411335    2.30352524
     atom   20 type  4   force =    -4.10446247    2.36329457   -2.35211087
     The local contribution  to forces
     atom    1 type  1   force =     0.08662645    0.14051550    0.52627629
     atom    2 type  1   force =    -0.08281528    0.14901911   -0.53191274
     atom    3 type  1   force =    -0.08659473   -0.14043646   -0.52620043
     atom    4 type  1   force =     0.08274845   -0.14907028    0.53193434
     atom    5 type  2   force =    -0.00001458   -0.00027006    0.00036936
     atom    6 type  2   force =     0.00000401    0.00007183   -0.00043683
     atom    7 type  3   force =     0.00012793    0.00025836    0.00007943
     atom    8 type  3   force =    -0.00006136    0.00018381   -0.00046262
     atom    9 type  4   force =     1.98727120   -3.35498563    4.47014160
     atom   10 type  4   force =    -1.95215545   -3.37376105   -4.46631416
     atom   11 type  4   force =    -1.98736513    3.35487400   -4.46975766
     atom   12 type  4   force =     1.95211122    3.37372169    4.46608172
     atom   13 type  4   force =     2.22035980    2.42995490   -3.30742621
     atom   14 type  4   force =    -2.21260654    2.46021538    3.32170554
     atom   15 type  4   force =    -2.22041290   -2.42980207    3.30771205
     atom   16 type  4   force =     2.21264075   -2.46034449   -3.32198668
     atom   17 type  4   force =    -3.86019925    2.20604145   -1.96154909
     atom   18 type  4   force =     3.84976154    2.19633951    1.91432460
     atom   19 type  4   force =    -3.84980204   -2.19619922   -1.91430839
     atom   20 type  4   force =     3.86037719   -2.20619217    1.96167787
     The core correction contribution to forces
     atom    1 type  1   force =     0.00575081   -0.00752079    0.00222145
     atom    2 type  1   force =    -0.00567921   -0.00736187   -0.00227401
     atom    3 type  1   force =    -0.00575004    0.00752268   -0.00222070
     atom    4 type  1   force =     0.00567743    0.00736165    0.00227366
     atom    5 type  2   force =    -0.00000017   -0.00000005   -0.00000051
     atom    6 type  2   force =     0.00000020    0.00000014   -0.00000002
     atom    7 type  3   force =    -0.00000046    0.00000032   -0.00000086
     atom    8 type  3   force =     0.00000001   -0.00000072    0.00000148
     atom    9 type  4   force =    -0.00114196    0.00222199   -0.00348574
     atom   10 type  4   force =     0.00113875    0.00223074    0.00345927
     atom   11 type  4   force =     0.00114245   -0.00222217    0.00348606
     atom   12 type  4   force =    -0.00113883   -0.00223088   -0.00345962
     atom   13 type  4   force =    -0.00279739   -0.00200096    0.00195164
     atom   14 type  4   force =     0.00279584   -0.00200298   -0.00194039
     atom   15 type  4   force =     0.00279749    0.00200101   -0.00195173
     atom   16 type  4   force =    -0.00279602    0.00200328    0.00194028
     atom   17 type  4   force =     0.00275096   -0.00197557    0.00226263
     atom   18 type  4   force =    -0.00276327   -0.00199443   -0.00226440
     atom   19 type  4   force =     0.00276374    0.00199472    0.00226438
     atom   20 type  4   force =    -0.00275164    0.00197598   -0.00226267
     The Hubbard contrib.    to forces
     atom    1 type  1   force =     0.00000000    0.00000000    0.00000000
     atom    2 type  1   force =     0.00000000    0.00000000    0.00000000
     atom    3 type  1   force =     0.00000000    0.00000000    0.00000000
     atom    4 type  1   force =     0.00000000    0.00000000    0.00000000
     atom    5 type  2   force =     0.00000000    0.00000000    0.00000000
     atom    6 type  2   force =     0.00000000    0.00000000    0.00000000
     atom    7 type  3   force =     0.00000000    0.00000000    0.00000000
     atom    8 type  3   force =     0.00000000    0.00000000    0.00000000
     atom    9 type  4   force =     0.00000000    0.00000000    0.00000000
     atom   10 type  4   force =     0.00000000    0.00000000    0.00000000
     atom   11 type  4   force =     0.00000000    0.00000000    0.00000000
     atom   12 type  4   force =     0.00000000    0.00000000    0.00000000
     atom   13 type  4   force =     0.00000000    0.00000000    0.00000000
     atom   14 type  4   force =     0.00000000    0.00000000    0.00000000
     atom   15 type  4   force =     0.00000000    0.00000000    0.00000000
     atom   16 type  4   force =     0.00000000    0.00000000    0.00000000
     atom   17 type  4   force =     0.00000000    0.00000000    0.00000000
     atom   18 type  4   force =     0.00000000    0.00000000    0.00000000
     atom   19 type  4   force =     0.00000000    0.00000000    0.00000000
     atom   20 type  4   force =     0.00000000    0.00000000    0.00000000
     The SCF correction term to forces
     atom    1 type  1   force =    -0.00000529    0.00000098    0.00002262
     atom    2 type  1   force =     0.00000506   -0.00001282    0.00000453
     atom    3 type  1   force =     0.00000780   -0.00000196   -0.00001846
     atom    4 type  1   force =    -0.00000754    0.00001376   -0.00000901
     atom    5 type  2   force =     0.00003817    0.00002207    0.00017996
     atom    6 type  2   force =    -0.00003483    0.00001446   -0.00018829
     atom    7 type  3   force =    -0.00002229   -0.00002362    0.00015126
     atom    8 type  3   force =     0.00002089   -0.00001665   -0.00016008
     atom    9 type  4   force =    -0.00007923    0.00001290    0.00007050
     atom   10 type  4   force =     0.00023291   -0.00013881   -0.00002602
     atom   11 type  4   force =     0.00007285   -0.00002368    0.00002667
     atom   12 type  4   force =    -0.00022776    0.00013372   -0.00006709
     atom   13 type  4   force =    -0.00004338    0.00005418   -0.00001610
     atom   14 type  4   force =    -0.00010112   -0.00014857   -0.00001237
     atom   15 type  4   force =     0.00004941   -0.00005904    0.00013112
     atom   16 type  4   force =     0.00009696    0.00014791   -0.00010537
     atom   17 type  4   force =    -0.00002208    0.00003833   -0.00010338
     atom   18 type  4   force =    -0.00008841   -0.00001590    0.00024324
     atom   19 type  4   force =     0.00007866    0.00001331   -0.00021453
     atom   20 type  4   force =     0.00003136   -0.00004309    0.00008386

     Total force =     0.135198     Total SCF correction =     0.000731

     Computing stress (Cartesian axis) and pressure

     negative rho (up, down):  1.248E-01 0.000E+00
          total   stress  (Ry/bohr**3)                   (kbar)     P=     -537.33
  -0.00366997   0.00000493  -0.00013785         -539.87        0.73      -20.28
   0.00000493  -0.00370214  -0.00000180            0.73     -544.60       -0.26
  -0.00013785  -0.00000180  -0.00358590          -20.28       -0.26     -527.50

     kinetic stress (kbar)  26145.13     -0.32    -39.91
                               -0.32  26010.60     -0.46
                              -39.91     -0.46  26176.30

     local   stress (kbar) -12593.54    -41.43  -1442.50
                              -41.43 -14650.34    -11.28
                            -1442.50    -11.28  -7343.43

     nonloc. stress (kbar)   2887.71      0.29    -15.38
                                0.29   2809.86     -0.29
                              -15.38     -0.29   2910.89

     hartree stress (kbar)  15259.53     17.07    610.15
                               17.07  16145.32      4.44
                              610.15      4.44  13315.41

     exc-cor stress (kbar)   -124.94      0.03      0.47
                                0.03   -124.45      0.01
                                0.47      0.01   -130.04

     corecor stress (kbar)  -6563.50     -0.01      1.28
                               -0.01  -6564.22      0.00
                                1.28      0.00  -6559.61

     ewald   stress (kbar) -25550.27     25.09    865.59
                               25.09 -24171.37      7.31
                              865.59      7.31 -28897.02

     hubbard stress (kbar)      0.00      0.00      0.00
                                0.00      0.00      0.00
                                0.00      0.00      0.00

     DFT-D   stress (kbar)      0.00      0.00      0.00
                                0.00      0.00      0.00
                                0.00      0.00      0.00

     XDM     stress (kbar)      0.00      0.00      0.00
                                0.00      0.00      0.00
                                0.00      0.00      0.00

     dft-nl  stress (kbar)      0.00      0.00      0.00
                                0.00      0.00      0.00
                                0.00      0.00      0.00

     TS-vdW  stress (kbar)      0.00      0.00      0.00
                                0.00      0.00      0.00
                                0.00      0.00      0.00

[...]

                                0.00      0.00      0.00

     Writing all to output data dir new_calculations/myprefix.save/

     General routines

     Parallel routines

     PAW routines

   This run was terminated on:  18:25:19  20May2023

   JOB DONE.