     Program PWSCF v.7.0 starts on 20May2023 at 12:17:38

     Reading input from espresso_10372.pwi
Warning: card &CELL ignored
Warning: card / ignored

     Current dimensions of program PWSCF are:
     Max number of different atomic species (ntypx) = 10
     Max number of k-points (npk) =  40000
     Max angular momentum in pseudopotentials (lmaxx) =  4

     gamma-point specific algorithms are used
     Message from routine setup:
     using ibrav=0 with symmetry is DISCOURAGED, use correct ibrav instead

     Subspace diagonalization in iterative solution of the eigenvalue problem:
     a serial algorithm will be used

     Using Slab Decomposition

     bravais-lattice index     =            0
     lattice parameter (alat)  =      13.0816  a.u.
     unit-cell volume          =    1582.9623 (a.u.)^3
     number of atoms/cell      =           10
     number of atomic types    =            3
     number of electrons       =        87.00
     number of Kohn-Sham states=           53
     kinetic-energy cutoff     =      30.0000  Ry
     charge density cutoff     =     240.0000  Ry
     scf convergence threshold =      1.0E-06
     mixing beta               =       0.7000
     number of iterations used =            8  plain     mixing
     Exchange-correlation=  SLA  PW   PBX  PBC
                           (   1   4   3   4   0   0   0)

     celldm(1)=  13.081630  celldm(2)=   0.000000  celldm(3)=   0.000000
     celldm(4)=   0.000000  celldm(5)=   0.000000  celldm(6)=   0.000000

     crystal axes: (cart. coord. in units of alat)
               a(1) = (   1.000000   0.000000   0.000000 )
               a(2) = (   0.500000   0.866025   0.000000 )
               a(3) = (   0.500000   0.288675   0.816497 )

     reciprocal axes: (cart. coord. in units 2 pi/alat)
               b(1) = (  1.000000 -0.577350 -0.408248 )
               b(2) = (  0.000000  1.154701 -0.408248 )
               b(3) = (  0.000000  0.000000  1.224745 )

     PseudoPot. # 1 for Rb read from file:
     /home/pragov/projects/rrg-bengioy-ad/pragov/crystal_structure_design/SSSP/Rb_ONCV_PBE-1.0.oncvpsp.upf
     MD5 check sum: 55a5172d6bfbce6759a58e35d43f6aa9
     Pseudo is Norm-conserving, Zval =  9.0
     Generated using ONCVPSP code by D. R. Hamann
     Using radial grid of 2308 points,  6 beta functions with:
                l(1) =   0
                l(2) =   0
                l(3) =   1
                l(4) =   1
                l(5) =   2
                l(6) =   2

     PseudoPot. # 2 for Gd read from file:
     /home/pragov/projects/rrg-bengioy-ad/pragov/crystal_structure_design/SSSP/Gd.GGA-PBE-paw-v1.0.UPF
     MD5 check sum: 3e8e0d208da550914ae52eaf991d13de
     Pseudo is Projector augmented-wave + core cor, Zval = 18.0
     Generated using ATOMPAW code
     Shape of augmentation charge: BESSEL
     Using radial grid of 1110 points,  8 beta functions with:
                l(1) =   0
                l(2) =   0
                l(3) =   1
                l(4) =   1
                l(5) =   2
                l(6) =   2
                l(7) =   3
                l(8) =   3
     Q(r) pseudized with 0 coefficients

     PseudoPot. # 3 for F  read from file:
     /home/pragov/projects/rrg-bengioy-ad/pragov/crystal_structure_design/SSSP/f_pbe_v1.4.uspp.F.UPF
     MD5 check sum: 4c38b6a325caf53ec0e86aed9459de46
     Pseudo is Ultrasoft, Zval =  7.0
     Generated by new atomic code, or converted to UPF format
     Using radial grid of  799 points,  4 beta functions with:
                l(1) =   0
                l(2) =   0
                l(3) =   1
                l(4) =   1
     Q(r) pseudized with  8 coefficients,  rinner =    0.950   0.950   0.950

     atomic species   valence    mass     pseudopotential
        Rb             9.00    85.46780     Rb( 1.00)
        Gd            18.00   157.25000     Gd( 1.00)
        F              7.00    18.99840     F ( 1.00)

     12 Sym. Ops., with inversion, found

                                    s                        frac. trans.

      isym =  1     identity

 cryst.   s( 1) = (     1          0          0      )
                  (     0          1          0      )
                  (     0          0          1      )

 cart.    s( 1) = (  1.0000000  0.0000000  0.0000000 )
                  (  0.0000000  1.0000000 -0.0000000 )
                  (  0.0000000  0.0000000  1.0000000 )

      isym =  2     180 deg rotation - cart. axis [1,0,0]

[...]

      isym =  3     120 deg rotation - cryst. axis [0,0,1]

[...]

      isym =  6     180 deg rotation - cryst. axis [1,1,0]

[...]

      isym =  7     inversion

[...]

      isym =  8     inv. 180 deg rotation - cart. axis [1,0,0]

[...]

      isym =  9     inv. 120 deg rotation - cryst. axis [0,0,1]

 cryst.   s( 9) = (     1         -1          0      )
                  (     1          0          0      )
                  (     1          0         -1      )

 cart.    s( 9) = (  0.5000000  0.8660254  0.0000000 )
                  ( -0.8660254  0.5000000  0.0000000 )
                  (  0.0000000  0.0000000 -1.0000000 )

[...]

 cryst.   s(10) = (     0          1          0      )
                  (    -1          1          0      )
                  (     0          1         -1      )

 cart.    s(10) = (  0.5000000 -0.8660254  0.0000000 )
                  (  0.8660254  0.5000000 -0.0000000 )
                  (  0.0000000  0.0000000 -1.0000000 )

[...]

      isym = 12     inv. 180 deg rotation - cryst. axis [1,1,0]

 cryst.   s(12) = (     1         -1          0      )
                  (     0         -1          0      )
                  (     0         -1          1      )

 cart.    s(12) = (  0.5000000 -0.8660254  0.0000000 )
                  ( -0.8660254 -0.5000000  0.0000000 )
                  (  0.0000000  0.0000000  1.0000000 )

   Cartesian axes

     site n.     atom                  positions (alat units)
         1           Rb  tau(   1) = (   1.5000000   0.8660254   0.6123724  )
         2           Rb  tau(   2) = (   0.5000000   0.2886751   0.2041241  )
         3           Rb  tau(   3) = (   1.0000000   0.5773503   0.4082483  )
         4           Gd  tau(   4) = (   0.0000000   0.0000000   0.0000000  )
         5           F   tau(   5) = (   1.2729370   0.7349305   0.1853962  )
         6           F   tau(   6) = (   0.7270630   0.4197700   0.6311004  )
         7           F   tau(   7) = (   1.2729370   0.4197700   0.6311004  )
         8           F   tau(   8) = (   0.7270630   0.7349305   0.1853962  )
         9           F   tau(   9) = (   1.0000000   0.8925108   0.6311004  )
        10           F   tau(  10) = (   1.0000000   0.2621898   0.1853962  )

   Crystallographic axes

     site n.     atom                  positions (cryst. coord.)
         1           Rb  tau(   1) = (  0.7500000  0.7500000  0.7500000  )
         2           Rb  tau(   2) = (  0.2500000  0.2500000  0.2500000  )
         3           Rb  tau(   3) = (  0.5000000  0.5000000  0.5000000  )
         4           Gd  tau(   4) = (  0.0000000  0.0000000  0.0000000  )
         5           F   tau(   5) = (  0.7729370  0.7729370  0.2270630  )
         6           F   tau(   6) = (  0.2270630  0.2270630  0.7729370  )
         7           F   tau(   7) = (  0.7729370  0.2270630  0.7729370  )
         8           F   tau(   8) = (  0.2270630  0.7729370  0.2270630  )
         9           F   tau(   9) = (  0.2270630  0.7729370  0.7729370  )
        10           F   tau(  10) = (  0.7729370  0.2270630  0.2270630  )

     number of k points=     1  Methfessel-Paxton smearing, width (Ry)=  0.0010
                       cart. coord. in units 2pi/alat
        k(    1) = (   0.0000000   0.0000000   0.0000000), wk =   2.0000000

                       cryst. coord.
        k(    1) = (   0.0000000   0.0000000   0.0000000), wk =   2.0000000

     Initial potential from superposition of free atoms

     starting charge      86.9205, renormalised to      87.0000
     Starting wfcs are   71 randomized atomic wfcs
     Checking if some PAW data can be deallocated...

     Self-consistent Calculation

     iteration #  1     ecut=    30.00 Ry     beta= 0.70
     Davidson diagonalization with overlap

     ethr =  1.00E-02,  avg # of iterations =  5.0
     Minimization algorithm failed to find Fermi energy: reverting to bisection
     Possible cause: smearing is larger than the electronic band-gap.

     total energy              =   -1122.36261198 Ry
     estimated scf accuracy    <       1.49709070 Ry

[...]

     ethr =  1.72E-03,  avg # of iterations =  5.0
     Minimization algorithm failed to find Fermi energy: reverting to bisection
     Possible cause: smearing is larger than the electronic band-gap.

[...]

     ethr =  1.72E-03,  avg # of iterations = 11.0

[...]

     total energy              =   -1123.12604178 Ry
     estimated scf accuracy    <       0.00000288 Ry

     iteration # 18     ecut=    30.00 Ry     beta= 0.70
     Davidson diagonalization with overlap

     ethr =  3.31E-09,  avg # of iterations =  2.0

     End of self-consistent calculation

          k = 0.0000 0.0000 0.0000 (  2239 PWs)   bands (ev):

   -37.3889 -22.9287 -22.9217 -21.0528 -18.5582 -18.5491 -18.5486 -18.0219
   -18.0213 -17.9848 -14.6572 -14.5974 -14.5973  -7.0269  -7.0269  -7.0268
    -6.9741  -6.9741  -6.9741  -5.2574  -5.2554  -5.2554  -0.3437  -0.3432
    -0.2375  -0.0477  -0.0445  -0.0443   0.5667   0.5698   0.5701   0.6338
     0.6341   0.6368   0.9140   0.9241   0.9246   0.9855   0.9858   0.9883
     4.3065   4.3065   4.3256   4.4865   4.6828   4.6828   4.7583   6.5640
     9.2876   9.2876   9.7189   9.7425   9.7426

     occupation numbers
     1.0000   1.0000   1.0000   1.0000   1.0000   1.0000   1.0000   1.0000
     1.0000   1.0000   1.0000   1.0000   1.0000   1.0000   1.0000   1.0000
     1.0000   1.0000   1.0000   1.0000   1.0000   1.0000   1.0000   1.0000
     1.0000   1.0000   1.0000   1.0000   1.0000   1.0000   1.0000   1.0000
     1.0000   1.0000   1.0000   1.0000   1.0000   1.0000   1.0000   1.0000
     1.0000   1.0000   1.0000   0.5000  -0.0000  -0.0000  -0.0000  -0.0000
    -0.0000  -0.0000  -0.0000  -0.0000  -0.0000

     the Fermi energy is     4.4865 ev

!    total energy              =   -1123.12604088 Ry
     estimated scf accuracy    <       0.00000047 Ry
     smearing contrib. (-TS)   =      -0.00028209 Ry
     internal energy E=F+TS    =   -1123.12575879 Ry

     The total energy is F=E-TS. E is the sum of the following terms:
     one-electron contribution =    -438.00492165 Ry
     hartree contribution      =     261.15191571 Ry
     xc contribution           =    -101.62291978 Ry
     ewald contribution        =    -378.64047215 Ry
     one-center paw contrib.   =    -466.00936091 Ry
      -> PAW hartree energy AE =     182.80603204 Ry
      -> PAW hartree energy PS =    -173.42127585 Ry
      -> PAW xc energy AE      =    -496.70057247 Ry
      -> PAW xc energy PS      =      21.30645537 Ry
      -> total E_H with PAW    =     270.53667190 Ry
      -> total E_XC with PAW   =    -577.01703688 Ry

     convergence has been achieved in  18 iterations

     Forces acting on atoms (cartesian axes, Ry/au):

     atom    1 type  1   force =     0.00000000    0.00000000   -0.00017489
     atom    2 type  1   force =    -0.00000000   -0.00000000    0.00017489
     atom    3 type  1   force =     0.00000000    0.00000000   -0.00000000
     atom    4 type  2   force =     0.00000000    0.00000000    0.00000000
     atom    5 type  3   force =     0.00561646    0.00324266   -0.00158132
     atom    6 type  3   force =    -0.00561646   -0.00324266    0.00158132
     atom    7 type  3   force =     0.00561646   -0.00324266    0.00158132
     atom    8 type  3   force =    -0.00561646    0.00324266   -0.00158132
     atom    9 type  3   force =     0.00000000    0.00648533    0.00158132
     atom   10 type  3   force =     0.00000000   -0.00648533   -0.00158132
     The non-local contrib.  to forces
     atom    1 type  1   force =     0.00000000    0.00000000    0.00026164
     atom    2 type  1   force =     0.00000000   -0.00000000   -0.00026164
     atom    3 type  1   force =    -0.00000000   -0.00000000   -0.00000000
     atom    4 type  2   force =     0.00000000    0.00000000    0.00000000
     atom    5 type  3   force =     0.31508792    0.18191609   -0.24869510
     atom    6 type  3   force =    -0.31508792   -0.18191609    0.24869510
     atom    7 type  3   force =     0.31508792   -0.18191609    0.24869510
     atom    8 type  3   force =    -0.31508792    0.18191609   -0.24869510
     atom    9 type  3   force =     0.00000000    0.36383219    0.24869510
     atom   10 type  3   force =     0.00000000   -0.36383219   -0.24869510
     The ionic contribution  to forces
     atom    1 type  1   force =     0.00000000    0.00000000    0.00000000
     atom    2 type  1   force =     0.00000000   -0.00000000    0.00000000
     atom    3 type  1   force =     0.00000000    0.00000000   -0.00000000
     atom    4 type  2   force =    -0.00000000   -0.00000000    0.00000000
     atom    5 type  3   force =    -7.52383574   -4.34388859    6.14318616
     atom    6 type  3   force =     7.52383574    4.34388859   -6.14318616
     atom    7 type  3   force =    -7.52383574    4.34388859   -6.14318616
     atom    8 type  3   force =     7.52383574   -4.34388859    6.14318616
     atom    9 type  3   force =    -0.00000000   -8.68777718   -6.14318616
     atom   10 type  3   force =    -0.00000000    8.68777718    6.14318616
     The local contribution  to forces
     atom    1 type  1   force =    -0.00002758   -0.00001425   -0.00044036
     atom    2 type  1   force =     0.00002395    0.00001711    0.00045228
     atom    3 type  1   force =    -0.00000136    0.00000801    0.00000151
     atom    4 type  2   force =     0.00006825   -0.00018943   -0.00016638
     atom    5 type  3   force =     7.21455736    4.16532211   -5.89614791
     atom    6 type  3   force =    -7.21456057   -4.16534069    5.89614178
     atom    7 type  3   force =     7.21458615   -4.16532844    5.89617328
     atom    8 type  3   force =    -7.21458896    4.16532346   -5.89618887
     atom    9 type  3   force =     0.00002128    8.33070055    5.89619633
     atom   10 type  3   force =    -0.00001608   -8.33065389   -5.89617249
     The core correction contribution to forces
     atom    1 type  1   force =     0.00000000    0.00000000    0.00000000
     atom    2 type  1   force =     0.00000000    0.00000000    0.00000000
     atom    3 type  1   force =     0.00000000    0.00000000    0.00000000
     atom    4 type  2   force =     0.00000000   -0.00000001   -0.00000000
     atom    5 type  3   force =     0.00000000    0.00000000    0.00000000
     atom    6 type  3   force =     0.00000000    0.00000000    0.00000000
     atom    7 type  3   force =     0.00000000    0.00000000    0.00000000
     atom    8 type  3   force =     0.00000000    0.00000000    0.00000000
     atom    9 type  3   force =     0.00000000    0.00000000    0.00000000
     atom   10 type  3   force =     0.00000000    0.00000000    0.00000000
     The Hubbard contrib.    to forces
     atom    1 type  1   force =     0.00000000    0.00000000    0.00000000
     atom    2 type  1   force =     0.00000000    0.00000000    0.00000000
     atom    3 type  1   force =     0.00000000    0.00000000    0.00000000
     atom    4 type  2   force =     0.00000000    0.00000000    0.00000000
     atom    5 type  3   force =     0.00000000    0.00000000    0.00000000
     atom    6 type  3   force =     0.00000000    0.00000000    0.00000000
     atom    7 type  3   force =     0.00000000    0.00000000    0.00000000
     atom    8 type  3   force =     0.00000000    0.00000000    0.00000000
     atom    9 type  3   force =     0.00000000    0.00000000    0.00000000
     atom   10 type  3   force =     0.00000000    0.00000000    0.00000000
     The SCF correction term to forces
     atom    1 type  1   force =     0.00002625    0.00000665    0.00000475
     atom    2 type  1   force =    -0.00002331   -0.00000858   -0.00001482
     atom    3 type  1   force =     0.00000111   -0.00000948   -0.00000175
     atom    4 type  2   force =    -0.00009696    0.00016067    0.00015769
     atom    5 type  3   force =    -0.00019332   -0.00010124    0.00006897
     atom    6 type  3   force =     0.00019970    0.00011998   -0.00006699
     atom    7 type  3   force =    -0.00022841    0.00010599   -0.00010509
     atom    8 type  3   force =     0.00022542   -0.00010200    0.00012039
     atom    9 type  3   force =    -0.00002810   -0.00026986   -0.00012229
     atom   10 type  3   force =     0.00002397    0.00022686    0.00010267

     Total force =     0.016353     Total SCF correction =     0.000689

     Computing stress (Cartesian axis) and pressure

          total   stress  (Ry/bohr**3)                   (kbar)     P=      -41.00
  -0.00028876  -0.00000000  -0.00000000          -42.48       -0.00       -0.00
   0.00000000  -0.00028876   0.00000000            0.00      -42.48        0.00
   0.00000000   0.00000000  -0.00025859            0.00        0.00      -38.04

     kinetic stress (kbar)  10653.91      0.00     -0.00
                                0.00  10653.91      0.00
                               -0.00      0.00  10674.76

     local   stress (kbar)  -6253.25      0.04      0.01
                                0.04  -6253.17      0.07
                                0.01      0.07  -6243.36

     nonloc. stress (kbar)   2178.95      0.00     -0.00
                                0.00   2178.95     -0.00
                               -0.00     -0.00   2153.32

     hartree stress (kbar)   8089.95     -0.01     -0.01
                               -0.01   8089.91     -0.04
                               -0.01     -0.04   8089.05

     exc-cor stress (kbar)  -2982.29     -0.00      0.00
                               -0.00  -2982.29      0.00
                                0.00      0.00  -2982.04

     corecor stress (kbar)     -0.72      0.00     -0.00
                                0.00     -0.72      0.00
                               -0.00      0.00     -0.72

     ewald   stress (kbar) -11729.05      0.00      0.00
                                0.00 -11729.05     -0.00
                                0.00     -0.00 -11729.05

     hubbard stress (kbar)      0.00      0.00      0.00
                                0.00      0.00      0.00
                                0.00      0.00      0.00

     DFT-D   stress (kbar)      0.00      0.00      0.00
                                0.00      0.00      0.00
                                0.00      0.00      0.00

     XDM     stress (kbar)      0.00      0.00      0.00
                                0.00      0.00      0.00
                                0.00      0.00      0.00

     dft-nl  stress (kbar)      0.00      0.00      0.00
                                0.00      0.00      0.00
                                0.00      0.00      0.00

     TS-vdW  stress (kbar)      0.00      0.00      0.00
                                0.00      0.00      0.00
                                0.00      0.00      0.00

[...]

                                0.00      0.00      0.00

     Writing all to output data dir new_calculations/myprefix.save/

     General routines

     Parallel routines

     PAW routines

   This run was terminated on:  12:18:14  20May2023

   JOB DONE.