     Program PWSCF v.7.0 starts on 21May2023 at 19:48:41

     Reading input from espresso_20840.pwi
Warning: card &CELL ignored
Warning: card / ignored

     Current dimensions of program PWSCF are:
     Max number of different atomic species (ntypx) = 10
     Max number of k-points (npk) =  40000
     Max angular momentum in pseudopotentials (lmaxx) =  4
     file O.pbe-n-kjpaw_psl.0.1.UPF: wavefunction(s)  2P renormalized

     gamma-point specific algorithms are used
     Message from routine setup:
     using ibrav=0 with symmetry is DISCOURAGED, use correct ibrav instead

     Subspace diagonalization in iterative solution of the eigenvalue problem:
     a serial algorithm will be used

     Using Slab Decomposition

     bravais-lattice index     =            0
     lattice parameter (alat)  =      11.7533  a.u.
     unit-cell volume          =    1685.1127 (a.u.)^3
     number of atoms/cell      =           16
     number of atomic types    =            3
     number of electrons       =       104.00
     number of Kohn-Sham states=           62
     kinetic-energy cutoff     =      30.0000  Ry
     charge density cutoff     =     240.0000  Ry
     scf convergence threshold =      1.0E-06
     mixing beta               =       0.7000
     number of iterations used =            8  plain     mixing
     Exchange-correlation= SLA  PW   PBX  PBC
                           (   1   4   3   4   0   0   0)

     celldm(1)=  11.753320  celldm(2)=   0.000000  celldm(3)=   0.000000
     celldm(4)=   0.000000  celldm(5)=   0.000000  celldm(6)=   0.000000

     crystal axes: (cart. coord. in units of alat)
               a(1) = (   1.000000   0.000000   0.000000 )
               a(2) = (   0.000000   1.083415   0.000000 )
               a(3) = (   0.000000   0.586976   0.957971 )

     reciprocal axes: (cart. coord. in units 2 pi/alat)
               b(1) = (  1.000000  0.000000  0.000000 )
               b(2) = (  0.000000  0.923007 -0.565553 )
               b(3) = (  0.000000  0.000000  1.043873 )

     PseudoPot. # 1 for Li read from file:
     /home/pragov/projects/rrg-bengioy-ad/pragov/crystal_structure_design/SSSP/li_pbe_v1.4.uspp.F.UPF
     MD5 check sum: e912e257baa3777c20ea3d68f190483c
     Pseudo is Ultrasoft, Zval =  3.0
     Generated by new atomic code, or converted to UPF format
     Using radial grid of  751 points,  5 beta functions with:
                l(1) =   0
                l(2) =   0
                l(3) =   0
                l(4) =   1
                l(5) =   1
     Q(r) pseudized with 10 coefficients,  rinner =    1.150   1.150   1.150

     PseudoPot. # 2 for La read from file:
     /home/pragov/projects/rrg-bengioy-ad/pragov/crystal_structure_design/SSSP/La.GGA-PBE-paw-v1.0.UPF
     MD5 check sum: 436541e95c1ad8901025bd0b0ed42ae2
     Pseudo is Projector augmented-wave + core cor, Zval = 11.0
     Generated using ATOMPAW code
     Shape of augmentation charge: BESSEL
     Using radial grid of 1101 points,  8 beta functions with:
                l(1) =   0
                l(2) =   0
                l(3) =   1
                l(4) =   1
                l(5) =   2
                l(6) =   2
                l(7) =   3
                l(8) =   3
     Q(r) pseudized with 0 coefficients

     PseudoPot. # 3 for O  read from file:
     /home/pragov/projects/rrg-bengioy-ad/pragov/crystal_structure_design/SSSP/O.pbe-n-kjpaw_psl.0.1.UPF
     MD5 check sum: 0234752ac141de4415c5fc33072bef88
     Pseudo is Projector augmented-wave + core cor, Zval =  6.0
     Generated using "atomic" code by A. Dal Corso  v.5.0.99 svn rev. 10869
     Shape of augmentation charge: BESSEL
     Using radial grid of 1095 points,  4 beta functions with:
                l(1) =   0
                l(2) =   0
                l(3) =   1
                l(4) =   1
     Q(r) pseudized with 0 coefficients

     atomic species   valence    mass     pseudopotential
        Li             3.00     6.94000     Li( 1.00)
        La            11.00   138.90547     La( 1.00)
        O              6.00    15.99900     O ( 1.00)

      4 Sym. Ops., with inversion, found ( 2 have fractional translation)

                                    s                        frac. trans.

      isym =  1     identity

 cryst.   s( 1) = (     1          0          0      )
                  (     0          1          0      )
                  (     0          0          1      )

 cart.    s( 1) = (  1.0000000  0.0000000  0.0000000 )
                  (  0.0000000  1.0000000 -0.0000000 )
                  (  0.0000000  0.0000000  1.0000000 )

      isym =  2     180 deg rotation - cart. axis [1,0,0]

 cryst.   s( 2) = (     1          0          0      )    f =( -0.5000000 )
                  (     0         -1          0      )       ( -0.0000000 )
                  (     0          0         -1      )       (  0.5000000 )

 cart.    s( 2) = (  1.0000000  0.0000000  0.0000000 )    f =( -0.5000000 )
                  (  0.0000000 -1.0000000  0.0000000 )       (  0.2934881 )
                  (  0.0000000  0.0000000 -1.0000000 )       (  0.4789855 )

      isym =  3     inversion

 cryst.   s( 3) = (    -1          0          0      )
                  (     0         -1          0      )
                  (     0          0         -1      )

 cart.    s( 3) = ( -1.0000000  0.0000000  0.0000000 )
                  (  0.0000000 -1.0000000  0.0000000 )
                  (  0.0000000  0.0000000 -1.0000000 )

      isym =  4     inv. 180 deg rotation - cart. axis [1,0,0]

 cryst.   s( 4) = (    -1          0          0      )    f =(  0.5000000 )
                  (     0          1          0      )       ( -0.0000000 )
                  (     0          0          1      )       (  0.5000000 )

 cart.    s( 4) = ( -1.0000000  0.0000000  0.0000000 )    f =(  0.5000000 )
                  (  0.0000000  1.0000000 -0.0000000 )       (  0.2934881 )
                  (  0.0000000  0.0000000  1.0000000 )       (  0.4789855 )

   Cartesian axes

     site n.     atom                  positions (alat units)
         1           Li  tau(   1) = (   0.1700110   1.0919617   0.5774534  )
         2           Li  tau(   2) = (   0.6700110   0.8719179   0.8595031  )
         3           Li  tau(   3) = (   0.3299890   0.7984735   0.0984679  )
         4           Li  tau(   4) = (   0.8299890   0.5784298   0.3805176  )
         5           La  tau(   5) = (   0.8611980   1.4068362   0.9187680  )
         6           La  tau(   6) = (   0.6388020   1.1133480   0.4397825  )
         7           La  tau(   7) = (   0.3611980   0.5570434   0.5181886  )
         8           La  tau(   8) = (   0.1388020   0.2635553   0.0392030  )
         9           O   tau(   9) = (   0.1958660   1.5701096   0.8530263  )
        10           O   tau(  10) = (   0.3041340   1.2766215   0.3740407  )
        11           O   tau(  11) = (   0.9002710   1.0490038   0.7308265  )
        12           O   tau(  12) = (   0.4002710   0.9148757   0.7061300  )
        13           O   tau(  13) = (   0.5997290   0.7555157   0.2518410  )
        14           O   tau(  14) = (   0.0997290   0.6213876   0.2271445  )
        15           O   tau(  15) = (   0.6958660   0.3937699   0.5839303  )
        16           O   tau(  16) = (   0.8041340   0.1002818   0.1049448  )

   Crystallographic axes

     site n.     atom                  positions (cryst. coord.)
         1           Li  tau(   1) = (  0.1700110  0.6813080  0.6027880  )
         2           Li  tau(   2) = (  0.6700110  0.3186920  0.8972120  )
         3           Li  tau(   3) = (  0.3299890  0.6813080  0.1027880  )
         4           Li  tau(   4) = (  0.8299890  0.3186920  0.3972120  )
         5           La  tau(   5) = (  0.8611980  0.7789080  0.9590770  )
         6           La  tau(   6) = (  0.6388020  0.7789080  0.4590770  )
         7           La  tau(   7) = (  0.3611980  0.2210920  0.5409230  )
         8           La  tau(   8) = (  0.1388020  0.2210920  0.0409230  )
         9           O   tau(   9) = (  0.1958660  0.9667910  0.8904510  )
        10           O   tau(  10) = (  0.3041340  0.9667910  0.3904510  )
        11           O   tau(  11) = (  0.9002710  0.5549170  0.7628900  )
        12           O   tau(  12) = (  0.4002710  0.4450830  0.7371100  )
        13           O   tau(  13) = (  0.5997290  0.5549170  0.2628900  )
        14           O   tau(  14) = (  0.0997290  0.4450830  0.2371100  )
        15           O   tau(  15) = (  0.6958660  0.0332090  0.6095490  )
        16           O   tau(  16) = (  0.8041340  0.0332090  0.1095490  )

     number of k points=     1  Methfessel-Paxton smearing, width (Ry)=  0.0010
                       cart. coord. in units 2pi/alat
        k(    1) = (   0.0000000   0.0000000   0.0000000), wk =   2.0000000

                       cryst. coord.
        k(    1) = (   0.0000000   0.0000000   0.0000000), wk =   2.0000000

     Check: negative core charge=   -0.000010

     Initial potential from superposition of free atoms

     starting charge     102.1629, renormalised to     104.0000
     Starting wfcs are  180 randomized atomic wfcs
     Checking if some PAW data can be deallocated...

     Self-consistent Calculation

     iteration #  1     ecut=    30.00 Ry     beta= 0.70
     Davidson diagonalization with overlap

     ethr =  1.00E-02,  avg # of iterations =  2.0

     total energy              =   -2224.10682166 Ry
     estimated scf accuracy    <       3.17290225 Ry

[...]

     c_bands:  1 eigenvalues not converged
     ethr =  5.05E-06,  avg # of iterations = 20.0

[...]

     total energy              =   -2225.76051372 Ry
     estimated scf accuracy    <       0.00000135 Ry

     iteration # 15     ecut=    30.00 Ry     beta= 0.70
     Davidson diagonalization with overlap

     ethr =  1.30E-09,  avg # of iterations =  5.0

     End of self-consistent calculation

          k = 0.0000 0.0000 0.0000 (  2336 PWs)   bands (ev):

   -36.8321 -36.8315 -36.8309 -36.8308 -23.2576 -23.1250 -23.1141 -23.0719
   -10.5404 -10.5368 -10.5033 -10.3336  -9.9405  -9.3306  -9.3247  -9.1905
    -7.2315  -7.2116  -7.0575  -6.9755  -6.8776  -6.8281  -6.4143  -6.2975
    -5.7652  -5.5863  -5.4090  -5.2687   3.7793   4.2603   4.3112   4.4435
     4.5101   4.6324   4.6639   4.7353   4.9692   5.0474   5.0530   5.0617
     5.1530   5.2191   5.2565   5.4107   5.5752   5.6530   5.7494   5.7532
     5.8729   5.9205   5.9339   6.4001   9.9087  10.9094  11.1506  11.1967
    11.4066  11.4887  11.4964  11.5555  11.6227  11.6856

     occupation numbers
     1.0000   1.0000   1.0000   1.0000   1.0000   1.0000   1.0000   1.0000
     1.0000   1.0000   1.0000   1.0000   1.0000   1.0000   1.0000   1.0000
     1.0000   1.0000   1.0000   1.0000   1.0000   1.0000   1.0000   1.0000
     1.0000   1.0000   1.0000   1.0000   1.0000   1.0000   1.0000   1.0000
     1.0000   1.0000   1.0000   1.0000   1.0000   1.0000   1.0000   1.0000
     1.0000   1.0000   1.0000   1.0000   1.0000   1.0000   1.0000   1.0000
     1.0000   1.0000   1.0000   1.0000  -0.0000  -0.0000  -0.0000  -0.0000
    -0.0000  -0.0000  -0.0000  -0.0000  -0.0000  -0.0000

     the Fermi energy is     8.7723 ev

!    total energy              =   -2225.76051410 Ry
     estimated scf accuracy    <       0.00000059 Ry
     smearing contrib. (-TS)   =       0.00000000 Ry
     internal energy E=F+TS    =   -2225.76051410 Ry

     The total energy is F=E-TS. E is the sum of the following terms:
     one-electron contribution =    -162.56148680 Ry
     hartree contribution      =     137.97198686 Ry
     xc contribution           =    -109.11777318 Ry
     ewald contribution        =    -423.43648029 Ry
     one-center paw contrib.   =   -1668.61676069 Ry
      -> PAW hartree energy AE =     376.85555657 Ry
      -> PAW hartree energy PS =    -376.22834771 Ry
      -> PAW xc energy AE      =   -1758.74187893 Ry
      -> PAW xc energy PS      =      89.49790937 Ry
      -> total E_H with PAW    =     138.59919573 Ry
      -> total E_XC with PAW   =   -1778.36174274 Ry

     convergence has been achieved in  15 iterations

     Forces acting on atoms (cartesian axes, Ry/au):

     atom    1 type  1   force =     0.00282849    0.00115594    0.00288393
     atom    2 type  1   force =     0.00282849   -0.00115594   -0.00288393
     atom    3 type  1   force =    -0.00282849    0.00115594    0.00288393
     atom    4 type  1   force =    -0.00282849   -0.00115594   -0.00288393
     atom    5 type  2   force =    -0.00770620   -0.00559672   -0.00110004
     atom    6 type  2   force =     0.00770620   -0.00559672   -0.00110004
     atom    7 type  2   force =    -0.00770620    0.00559672    0.00110004
     atom    8 type  2   force =     0.00770620    0.00559672    0.00110004
     atom    9 type  3   force =     0.00368563    0.00120003    0.00195157
     atom   10 type  3   force =    -0.00368563    0.00120003    0.00195157
     atom   11 type  3   force =    -0.00486318    0.00324647    0.00392334
     atom   12 type  3   force =    -0.00486318   -0.00324647   -0.00392334
     atom   13 type  3   force =     0.00486318    0.00324647    0.00392334
     atom   14 type  3   force =     0.00486318   -0.00324647   -0.00392334
     atom   15 type  3   force =     0.00368563   -0.00120003   -0.00195157
     atom   16 type  3   force =    -0.00368563   -0.00120003   -0.00195157
     The non-local contrib.  to forces
     atom    1 type  1   force =    -0.03470993   -0.01177462   -0.01609263
     atom    2 type  1   force =    -0.03470993    0.01177462    0.01609263
     atom    3 type  1   force =     0.03470993   -0.01177462   -0.01609263
     atom    4 type  1   force =     0.03470993    0.01177462    0.01609263
     atom    5 type  2   force =    -0.01636138   -0.01723876    0.01265070
     atom    6 type  2   force =     0.01636138   -0.01723876    0.01265070
     atom    7 type  2   force =    -0.01636138    0.01723876   -0.01265070
     atom    8 type  2   force =     0.01636138    0.01723876   -0.01265070
     atom    9 type  3   force =    -0.05156029   -0.04200180    0.05971788
     atom   10 type  3   force =     0.05156029   -0.04200180    0.05971788
     atom   11 type  3   force =    -0.00100816    0.02903160    0.00844967
     atom   12 type  3   force =    -0.00100816   -0.02903160   -0.00844967
     atom   13 type  3   force =     0.00100816    0.02903160    0.00844967
     atom   14 type  3   force =     0.00100816   -0.02903160   -0.00844967
     atom   15 type  3   force =    -0.05156029    0.04200180   -0.05971788
     atom   16 type  3   force =     0.05156029    0.04200180   -0.05971788
     The ionic contribution  to forces
     atom    1 type  1   force =    -0.83386660   -0.00326224   -0.62596192
     atom    2 type  1   force =    -0.83386660    0.00326224    0.62596192
     atom    3 type  1   force =     0.83386660   -0.00326224   -0.62596192
     atom    4 type  1   force =     0.83386660    0.00326224    0.62596192
     atom    5 type  2   force =    -1.57514090   -0.79301232   -0.29963276
     atom    6 type  2   force =     1.57514090   -0.79301232   -0.29963276
     atom    7 type  2   force =    -1.57514090    0.79301232    0.29963276
     atom    8 type  2   force =     1.57514090    0.79301232    0.29963276
     atom    9 type  3   force =     1.70979900   -1.09800619   -0.05222145
     atom   10 type  3   force =    -1.70979900   -1.09800619   -0.05222145
     atom   11 type  3   force =     0.44394445   -1.20302521   -1.25133228
     atom   12 type  3   force =     0.44394445    1.20302521    1.25133228
     atom   13 type  3   force =    -0.44394445   -1.20302521   -1.25133228
     atom   14 type  3   force =    -0.44394445    1.20302521    1.25133228
     atom   15 type  3   force =     1.70979900    1.09800619    0.05222145
     atom   16 type  3   force =    -1.70979900    1.09800619    0.05222145
     The local contribution  to forces
     atom    1 type  1   force =     0.87139183    0.01607149    0.64504134
     atom    2 type  1   force =     0.87139582   -0.01609944   -0.64503412
     atom    3 type  1   force =    -0.87141173    0.01608882    0.64504115
     atom    4 type  1   force =    -0.87137340   -0.01607778   -0.64503927
     atom    5 type  2   force =     1.58397206    0.80423950    0.28624557
     atom    6 type  2   force =    -1.58381489    0.80415391    0.28611560
     atom    7 type  2   force =     1.58385161   -0.80413324   -0.28614614
     atom    8 type  2   force =    -1.58394060   -0.80427379   -0.28631923
     atom    9 type  3   force =    -1.65475114    1.14046061   -0.00456700
     atom   10 type  3   force =     1.65472687    1.14041584   -0.00457475
     atom   11 type  3   force =    -0.44768166    1.17722657    1.24684300
     atom   12 type  3   force =    -0.44761846   -1.17723605   -1.24692577
     atom   13 type  3   force =     0.44766723    1.17728828    1.24692484
     atom   14 type  3   force =     0.44761792   -1.17716015   -1.24686757
     atom   15 type  3   force =    -1.65471007   -1.14043360    0.00460340
     atom   16 type  3   force =     1.65473275   -1.14053164    0.00454598
     The core correction contribution to forces
     atom    1 type  1   force =     0.00000000    0.00000000    0.00000000
     atom    2 type  1   force =     0.00000000    0.00000000    0.00000000
     atom    3 type  1   force =     0.00000000    0.00000000    0.00000000
     atom    4 type  1   force =     0.00000000    0.00000000    0.00000000
     atom    5 type  2   force =    -0.00004928   -0.00001470   -0.00002556
     atom    6 type  2   force =     0.00004935   -0.00001471   -0.00002560
     atom    7 type  2   force =    -0.00004932    0.00001471    0.00002559
     atom    8 type  2   force =     0.00004932    0.00001467    0.00002551
     atom    9 type  3   force =     0.00017617    0.00066961   -0.00090104
     atom   10 type  3   force =    -0.00017630    0.00066944   -0.00090163
     atom   11 type  3   force =    -0.00015278   -0.00005568   -0.00001129
     atom   12 type  3   force =    -0.00015249    0.00005592    0.00001113
     atom   13 type  3   force =     0.00015271   -0.00005542   -0.00001068
     atom   14 type  3   force =     0.00015250    0.00005587    0.00001083
     atom   15 type  3   force =     0.00017599   -0.00066975    0.00090135
     atom   16 type  3   force =    -0.00017575   -0.00066964    0.00090056
     The Hubbard contrib.    to forces
     atom    1 type  1   force =     0.00000000    0.00000000    0.00000000
     atom    2 type  1   force =     0.00000000    0.00000000    0.00000000
     atom    3 type  1   force =     0.00000000    0.00000000    0.00000000
     atom    4 type  1   force =     0.00000000    0.00000000    0.00000000
     atom    5 type  2   force =     0.00000000    0.00000000    0.00000000
     atom    6 type  2   force =     0.00000000    0.00000000    0.00000000
     atom    7 type  2   force =     0.00000000    0.00000000    0.00000000
     atom    8 type  2   force =     0.00000000    0.00000000    0.00000000
     atom    9 type  3   force =     0.00000000    0.00000000    0.00000000
     atom   10 type  3   force =     0.00000000    0.00000000    0.00000000
     atom   11 type  3   force =     0.00000000    0.00000000    0.00000000
     atom   12 type  3   force =     0.00000000    0.00000000    0.00000000
     atom   13 type  3   force =     0.00000000    0.00000000    0.00000000
     atom   14 type  3   force =     0.00000000    0.00000000    0.00000000
     atom   15 type  3   force =     0.00000000    0.00000000    0.00000000
     atom   16 type  3   force =     0.00000000    0.00000000    0.00000000
     The SCF correction term to forces
     atom    1 type  1   force =     0.00001518    0.00012147   -0.00010792
     atom    2 type  1   force =     0.00001098   -0.00009037    0.00009631
     atom    3 type  1   force =     0.00001231    0.00010982   -0.00010197
     atom    4 type  1   force =    -0.00003345   -0.00011201    0.00009578
     atom    5 type  2   force =    -0.00010828    0.00039902   -0.00034506
     atom    6 type  2   force =    -0.00003510    0.00051964   -0.00022281
     atom    7 type  2   force =    -0.00001658   -0.00054465    0.00024210
     atom    8 type  2   force =     0.00010785   -0.00041247    0.00038623
     atom    9 type  3   force =     0.00003458    0.00008809   -0.00007759
     atom   10 type  3   force =    -0.00001613    0.00011957   -0.00008801
     atom   11 type  3   force =     0.00003573    0.00007005   -0.00003031
     atom   12 type  3   force =    -0.00002446   -0.00004607    0.00012856
     atom   13 type  3   force =    -0.00000948    0.00001263   -0.00009635
     atom   14 type  3   force =     0.00002284   -0.00014341    0.00003821
     atom   15 type  3   force =    -0.00003568   -0.00011350    0.00004884
     atom   16 type  3   force =     0.00001069    0.00000920    0.00006931

     Total force =     0.026682     Total SCF correction =     0.001226

     Computing stress (Cartesian axis) and pressure

          total   stress  (Ry/bohr**3)                   (kbar)     P=     -223.16
  -0.00149166   0.00000000   0.00000000         -219.43        0.00        0.00
   0.00000000  -0.00151300   0.00006168            0.00     -222.57        9.07
   0.00000000   0.00006168  -0.00154635            0.00        9.07     -227.48

     kinetic stress (kbar)  12975.76      0.00      0.00
                                0.00  13006.26     11.01
                                0.00     11.01  12991.40

     local   stress (kbar)  -6812.65     -0.01      0.02
                               -0.01  -7299.52   2271.69
                                0.02   2271.69  -6294.13

     nonloc. stress (kbar)   4880.78      0.00      0.00
                                0.00   4869.22     -1.60
                                0.00     -1.60   4858.90

     hartree stress (kbar)   4057.36      0.01     -0.01
                                0.01   4285.70   -949.88
                               -0.01   -949.88   3701.46

     exc-cor stress (kbar)  -2658.23     -0.00     -0.00
                               -0.00  -2659.99     -3.20
                               -0.00     -3.20  -2657.54

     corecor stress (kbar)   -316.63      0.00      0.00
                                0.00   -316.47      0.08
                                0.00      0.08   -316.48

     ewald   stress (kbar) -12345.82      0.00     -0.00
                                0.00 -12107.77  -1319.03
                               -0.00  -1319.03 -12511.09

     hubbard stress (kbar)      0.00      0.00      0.00
                                0.00      0.00      0.00
                                0.00      0.00      0.00

     DFT-D   stress (kbar)      0.00      0.00      0.00
                                0.00      0.00      0.00
                                0.00      0.00      0.00

     XDM     stress (kbar)      0.00      0.00      0.00
                                0.00      0.00      0.00
                                0.00      0.00      0.00

     dft-nl  stress (kbar)      0.00      0.00      0.00
                                0.00      0.00      0.00
                                0.00      0.00      0.00

     TS-vdW  stress (kbar)      0.00      0.00      0.00
                                0.00      0.00      0.00
                                0.00      0.00      0.00

[...]

                                0.00      0.00      0.00

     Writing all to output data dir new_calculations/myprefix.save/

     General routines

     Parallel routines

     PAW routines

   This run was terminated on:  19:49:29  21May2023

   JOB DONE.