     Program PWSCF v.7.0 starts on 20May2023 at 23:46: 0

     Reading input from espresso_7775.pwi
Warning: card &CELL ignored
Warning: card / ignored

     Current dimensions of program PWSCF are:
     Max number of different atomic species (ntypx) = 10
     Max number of k-points (npk) =  40000
     Max angular momentum in pseudopotentials (lmaxx) =  4

     gamma-point specific algorithms are used
     Message from routine setup:
     using ibrav=0 with symmetry is DISCOURAGED, use correct ibrav instead

     Subspace diagonalization in iterative solution of the eigenvalue problem:
     a serial algorithm will be used

     Using Slab Decomposition

     bravais-lattice index     =            0
     lattice parameter (alat)  =      11.6074  a.u.
     unit-cell volume          =    1368.5637 (a.u.)^3
     number of atoms/cell      =            8
     number of atomic types    =            2
     number of electrons       =        72.00
     number of Kohn-Sham states=           43
     kinetic-energy cutoff     =      30.0000  Ry
     charge density cutoff     =     240.0000  Ry
     scf convergence threshold =      1.0E-06
     mixing beta               =       0.7000
     number of iterations used =            8  plain     mixing
     Exchange-correlation=  SLA  PW   PBX  PBC
                           (   1   4   3   4   0   0   0)

     celldm(1)=  11.607401  celldm(2)=   0.000000  celldm(3)=   0.000000
     celldm(4)=   0.000000  celldm(5)=   0.000000  celldm(6)=   0.000000

     crystal axes: (cart. coord. in units of alat)
               a(1) = (   1.000000   0.000000   0.000000 )
               a(2) = (  -0.499698   0.866200   0.000000 )
               a(3) = (   0.161611   0.279806   1.010280 )

     reciprocal axes: (cart. coord. in units 2 pi/alat)
               b(1) = (  1.000000  0.576885 -0.319740 )
               b(2) = (  0.000000  1.154468 -0.319740 )
               b(3) = (  0.000000  0.000000  0.989824 )

     PseudoPot. # 1 for Ir read from file:
     /home/pragov/projects/rrg-bengioy-ad/pragov/crystal_structure_design/SSSP/Ir_pbe_v1.2.uspp.F.UPF
     MD5 check sum: 8836f839c3459d2b385c504ce6d91f2c
     Pseudo is Ultrasoft + core correction, Zval = 15.0
     Generated by new atomic code, or converted to UPF format
     Using radial grid of  983 points,  7 beta functions with:
                l(1) =   0
                l(2) =   0
                l(3) =   1
                l(4) =   1
                l(5) =   1
                l(6) =   2
                l(7) =   2
     Q(r) pseudized with  8 coefficients,  rinner =    1.400   1.400   1.400
                                                       1.400   1.400

     PseudoPot. # 2 for Cl read from file:
     /home/pragov/projects/rrg-bengioy-ad/pragov/crystal_structure_design/SSSP/cl_pbe_v1.4.uspp.F.UPF
     MD5 check sum: fc6f6913ecf08c9257cb748ef0700058
     Pseudo is Ultrasoft + core correction, Zval =  7.0
     Generated by new atomic code, or converted to UPF format
     Using radial grid of  909 points,  6 beta functions with:
                l(1) =   0
                l(2) =   0
                l(3) =   1
                l(4) =   1
                l(5) =   2
                l(6) =   2
     Q(r) pseudized with  8 coefficients,  rinner =    1.300   1.300   1.300
                                                       1.300   1.300

     atomic species   valence    mass     pseudopotential
        Ir            15.00   192.21700     Ir( 1.00)
        Cl             7.00    35.45000     Cl( 1.00)

      2 Sym. Ops., with inversion, found

                                    s                        frac. trans.

      isym =  1     identity

 cryst.   s( 1) = (     1          0          0      )
                  (     0          1          0      )
                  (     0          0          1      )

 cart.    s( 1) = (  1.0000000 -0.0000000 -0.0000000 )
                  (  0.0000000  1.0000000  0.0000000 )
                  (  0.0000000  0.0000000  1.0000000 )

      isym =  2     inversion

 cryst.   s( 2) = (    -1          0          0      )
                  (     0         -1          0      )
                  (     0          0         -1      )

 cart.    s( 2) = ( -1.0000000  0.0000000  0.0000000 )
                  (  0.0000000 -1.0000000 -0.0000000 )
                  (  0.0000000  0.0000000 -1.0000000 )

   Cartesian axes

     site n.     atom                  positions (alat units)
         1           Ir  tau(   1) = (  -0.2497309   0.7218235   0.0000000  )
         2           Ir  tau(   2) = (   0.7500334   0.1443765   0.0000000  )
         3           Cl  tau(   3) = (   0.4270141   0.1264271   0.2105616  )
         4           Cl  tau(   4) = (   0.7657805   0.7129511   0.7997186  )
         5           Cl  tau(   5) = (   0.2346165   0.4062039   0.7994438  )
         6           Cl  tau(   6) = (   0.4272973   0.7398022   0.2108364  )
         7           Cl  tau(   7) = (  -0.1038668   0.4330549   0.2105616  )
         8           Cl  tau(   8) = (   0.2348996   1.0195790   0.7997186  )

   Crystallographic axes

     site n.     atom                  positions (cryst. coord.)
         1           Ir  tau(   1) = (  0.1666780  0.8333220  0.0000000  )
         2           Ir  tau(   2) = (  0.8333220  0.1666780  0.0000000  )
         3           Cl  tau(   3) = (  0.4326230  0.0786310  0.2084190  )
         4           Cl  tau(   4) = (  0.9213690  0.5673770  0.7915810  )
         5           Cl  tau(   5) = (  0.2133350  0.2133350  0.7913090  )
         6           Cl  tau(   6) = (  0.7866650  0.7866650  0.2086910  )
         7           Cl  tau(   7) = (  0.0786310  0.4326230  0.2084190  )
         8           Cl  tau(   8) = (  0.5673770  0.9213690  0.7915810  )

     number of k points=     1  Methfessel-Paxton smearing, width (Ry)=  0.0010
                       cart. coord. in units 2pi/alat
        k(    1) = (   0.0000000   0.0000000   0.0000000), wk =   2.0000000

                       cryst. coord.
        k(    1) = (   0.0000000   0.0000000   0.0000000), wk =   2.0000000

     Check: negative core charge=   -0.000001

     Initial potential from superposition of free atoms

     starting charge      70.9999, renormalised to      72.0000

     negative rho (up, down):  8.333E-01 0.000E+00
     Starting wfcs are   48 randomized atomic wfcs

     Self-consistent Calculation

     iteration #  1     ecut=    30.00 Ry     beta= 0.70
     Davidson diagonalization with overlap

     ethr =  1.00E-02,  avg # of iterations =  4.0

     negative rho (up, down):  7.152E-01 0.000E+00

     total energy              =    -562.44156360 Ry
     estimated scf accuracy    <       2.07375188 Ry

[...]

     total energy              =    -563.58291831 Ry
     estimated scf accuracy    <       0.00000405 Ry

     iteration #  9     ecut=    30.00 Ry     beta= 0.70
     Davidson diagonalization with overlap

     ethr =  5.63E-09,  avg # of iterations =  4.0

[...]

     End of self-consistent calculation

          k = 0.0000 0.0000 0.0000 (  1902 PWs)   bands (ev):

   -43.9397 -43.9303 -43.9228 -43.9134 -43.8152 -43.8109 -11.5945 -10.5266
   -10.5229 -10.5224 -10.5213 -10.4683  -1.6621  -1.2279  -0.7948  -0.7739
    -0.5814  -0.5350  -0.3138  -0.3019   0.4684   0.5859   0.5975   0.7825
     1.8963   2.2742   2.3002   2.4029   2.4125   2.5176   3.4312   3.9256
     3.9729   4.1845   4.4369   4.4610   6.6272   6.7144   6.9346   6.9681
     9.2828  11.1240  11.2596

     occupation numbers
     1.0000   1.0000   1.0000   1.0000   1.0000   1.0000   1.0000   1.0000
     1.0000   1.0000   1.0000   1.0000   1.0000   1.0000   1.0000   1.0000
     1.0000   1.0000   1.0000   1.0000   1.0000   1.0000   1.0000   1.0000
     1.0000   1.0000   1.0000   1.0000   1.0000   1.0000   1.0000   1.0000
     1.0000   1.0000   1.0000   1.0000  -0.0000  -0.0000  -0.0000  -0.0000
    -0.0000  -0.0000  -0.0000

     the Fermi energy is     6.1952 ev

!    total energy              =    -563.58291963 Ry
     estimated scf accuracy    <       0.00000045 Ry
     smearing contrib. (-TS)   =       0.00000000 Ry
     internal energy E=F+TS    =    -563.58291963 Ry

     The total energy is F=E-TS. E is the sum of the following terms:
     one-electron contribution =    -315.80445092 Ry
     hartree contribution      =     185.34789817 Ry
     xc contribution           =    -157.29336286 Ry
     ewald contribution        =    -275.83300403 Ry

     convergence has been achieved in   9 iterations

     negative rho (up, down):  7.386E-01 0.000E+00

     Forces acting on atoms (cartesian axes, Ry/au):

     atom    1 type  1   force =     0.00038097   -0.00024056    0.00000213
     atom    2 type  1   force =    -0.00038097    0.00024056   -0.00000213
     atom    3 type  2   force =    -0.00010255   -0.00376010   -0.01488278
     atom    4 type  2   force =     0.00320294    0.00197022    0.01488040
     atom    5 type  2   force =     0.00073083    0.00126364    0.01900311
     atom    6 type  2   force =    -0.00073083   -0.00126364   -0.01900311
     atom    7 type  2   force =    -0.00320294   -0.00197022   -0.01488040
     atom    8 type  2   force =     0.00010255    0.00376010    0.01488278
     The non-local contrib.  to forces
     atom    1 type  1   force =     0.00084618   -0.00050638   -0.00000029
     atom    2 type  1   force =    -0.00084618    0.00050638    0.00000029
     atom    3 type  2   force =     0.12989578   -0.20755830   -0.29998016
     atom    4 type  2   force =     0.24469924   -0.00880111    0.29998647
     atom    5 type  2   force =    -0.12904478   -0.22344293    0.29587656
     atom    6 type  2   force =     0.12904478    0.22344293   -0.29587656
     atom    7 type  2   force =    -0.24469924    0.00880111   -0.29998647
     atom    8 type  2   force =    -0.12989578    0.20755830    0.29998016
     The ionic contribution  to forces
     atom    1 type  1   force =    -0.10444685    0.06032674   -0.00000000
     atom    2 type  1   force =     0.10444685   -0.06032674    0.00000000
     atom    3 type  2   force =    -3.05957616    5.29633632   12.27782613
     atom    4 type  2   force =    -6.11654898    0.00363877  -12.27782613
     atom    5 type  2   force =     3.07181991    5.31840309  -12.72767282
     atom    6 type  2   force =    -3.07181991   -5.31840309   12.72767282
     atom    7 type  2   force =     6.11654898   -0.00363876   12.27782613
     atom    8 type  2   force =     3.05957616   -5.29633632  -12.27782613
     The local contribution  to forces
     atom    1 type  1   force =     0.10487823   -0.06052563    0.00080583
     atom    2 type  1   force =    -0.10481360    0.06053984    0.00079262
     atom    3 type  2   force =     2.93301792   -5.09828943  -12.00054331
     atom    4 type  2   force =     5.88169654    0.00702649   12.00068888
     atom    5 type  2   force =    -2.94535274   -5.09984159   12.45853741
     atom    6 type  2   force =     2.94576747    5.09968630  -12.45835188
     atom    7 type  2   force =    -5.88174228   -0.00652208  -12.00054657
     atom    8 type  2   force =    -2.93342560    5.09798399   12.00074181
     The core correction contribution to forces
     atom    1 type  1   force =    -0.00020664    0.00012103    0.00001178
     atom    2 type  1   force =     0.00020843   -0.00012233    0.00001195
     atom    3 type  2   force =    -0.00380162    0.00597398    0.00835935
     atom    4 type  2   force =    -0.00707599    0.00030808   -0.00835937
     atom    5 type  2   force =     0.00378757    0.00655431   -0.00820423
     atom    6 type  2   force =    -0.00378233   -0.00655505    0.00820429
     atom    7 type  2   force =     0.00707421   -0.00030185    0.00835936
     atom    8 type  2   force =     0.00379722   -0.00597753   -0.00835840
     The Hubbard contrib.    to forces
     atom    1 type  1   force =     0.00000000    0.00000000    0.00000000
     atom    2 type  1   force =     0.00000000    0.00000000    0.00000000
     atom    3 type  2   force =     0.00000000    0.00000000    0.00000000
     atom    4 type  2   force =     0.00000000    0.00000000    0.00000000
     atom    5 type  2   force =     0.00000000    0.00000000    0.00000000
     atom    6 type  2   force =     0.00000000    0.00000000    0.00000000
     atom    7 type  2   force =     0.00000000    0.00000000    0.00000000
     atom    8 type  2   force =     0.00000000    0.00000000    0.00000000
     The SCF correction term to forces
     atom    1 type  1   force =    -0.00069064    0.00034919   -0.00088441
     atom    2 type  1   force =     0.00062284   -0.00035107   -0.00087622
     atom    3 type  2   force =     0.00029960   -0.00025794   -0.00053224
     atom    4 type  2   force =     0.00042302   -0.00013042    0.00039275
     atom    5 type  2   force =    -0.00042192   -0.00042421    0.00047329
     atom    6 type  2   force =     0.00011636    0.00055030   -0.00064467
     atom    7 type  2   force =    -0.00039371   -0.00023704   -0.00053067
     atom    8 type  2   force =    -0.00001138    0.00049640    0.00035790

     Total force =     0.040857     Total SCF correction =     0.002373

     Computing stress (Cartesian axis) and pressure

     negative rho (up, down):  7.386E-01 0.000E+00
          total   stress  (Ry/bohr**3)                   (kbar)     P=       -9.88
  -0.00007464   0.00001386  -0.00000030          -10.98        2.04       -0.04
   0.00001386  -0.00005862  -0.00000052            2.04       -8.62       -0.08
  -0.00000030  -0.00000052  -0.00006831           -0.04       -0.08      -10.05

     kinetic stress (kbar)  11486.45      1.40     -0.88
                                1.40  11488.06     -1.56
                               -0.88     -1.56  11634.89

     local   stress (kbar) -19954.98   -102.58   -113.66
                             -102.58 -20073.33   -196.77
                             -113.66   -196.77  10269.66

     nonloc. stress (kbar)   5161.79     -1.39      0.79
                               -1.39   5160.20      1.39
                                0.79      1.39   5190.09

     hartree stress (kbar)  11081.86     48.68     52.87
                               48.68  11138.03     91.54
                               52.87     91.54  -2297.09

     exc-cor stress (kbar)   6206.93     -0.02      0.03
                               -0.02   6206.91      0.05
                                0.03      0.05   6202.75

     corecor stress (kbar)  -9759.50     -0.09      0.11
                               -0.09  -9759.60      0.18
                                0.11      0.18  -9763.86

     ewald   stress (kbar)  -4233.54     56.04     60.70
                               56.04  -4168.88    105.09
                               60.70    105.09 -21246.49

     hubbard stress (kbar)      0.00      0.00      0.00
                                0.00      0.00      0.00
                                0.00      0.00      0.00

     DFT-D   stress (kbar)      0.00      0.00      0.00
                                0.00      0.00      0.00
                                0.00      0.00      0.00

     XDM     stress (kbar)      0.00      0.00      0.00
                                0.00      0.00      0.00
                                0.00      0.00      0.00

     dft-nl  stress (kbar)      0.00      0.00      0.00
                                0.00      0.00      0.00
                                0.00      0.00      0.00

     TS-vdW  stress (kbar)      0.00      0.00      0.00
                                0.00      0.00      0.00
                                0.00      0.00      0.00

[...]

                                0.00      0.00      0.00

     Writing all to output data dir new_calculations/myprefix.save/

     General routines

     Parallel routines

   This run was terminated on:  23:46:12  20May2023

   JOB DONE.