     Program PWSCF v.7.0 starts on 20May2023 at 13:14:15

     Reading input from espresso_521.pwi
Warning: card &CELL ignored
Warning: card / ignored

     Current dimensions of program PWSCF are:
     Max number of different atomic species (ntypx) = 10
     Max number of k-points (npk) =  40000
     Max angular momentum in pseudopotentials (lmaxx) =  4
     file Cd.pbe-dn-rrkjus_psl.0.3.1.UPF: wavefunction(s)  4D renormalized

     gamma-point specific algorithms are used
     Message from routine setup:
     using ibrav=0 with symmetry is DISCOURAGED, use correct ibrav instead

     Subspace diagonalization in iterative solution of the eigenvalue problem:
     a serial algorithm will be used

     Using Slab Decomposition

     bravais-lattice index     =            0
     lattice parameter (alat)  =       7.5772  a.u.
     unit-cell volume          =    3347.1896 (a.u.)^3
     number of atoms/cell      =           20
     number of atomic types    =            4
     number of electrons       =       184.00
     number of Kohn-Sham states=          110
     kinetic-energy cutoff     =      30.0000  Ry
     charge density cutoff     =     240.0000  Ry
     scf convergence threshold =      1.0E-06
     mixing beta               =       0.7000
     number of iterations used =            8  plain     mixing
     Exchange-correlation=  SLA  PW   PBX  PBC
                           (   1   4   3   4   0   0   0)

     celldm(1)=   7.577220  celldm(2)=   0.000000  celldm(3)=   0.000000
     celldm(4)=   0.000000  celldm(5)=   0.000000  celldm(6)=   0.000000

     crystal axes: (cart. coord. in units of alat)
               a(1) = (   1.000000   0.000000   0.000000 )
               a(2) = (   0.000000   2.411815   0.000000 )
               a(3) = (   0.000000   0.000000   3.190118 )

     reciprocal axes: (cart. coord. in units 2 pi/alat)
               b(1) = (  1.000000  0.000000  0.000000 )
               b(2) = (  0.000000  0.414626  0.000000 )
               b(3) = (  0.000000  0.000000  0.313468 )

     PseudoPot. # 1 for Cd read from file:
     /home/pragov/projects/rrg-bengioy-ad/pragov/crystal_structure_design/SSSP/Cd.pbe-dn-rrkjus_psl.0.3.1.UPF
     MD5 check sum: 558e9f355611b531a870a69ef6ace9e2
     Pseudo is Ultrasoft + core correction, Zval = 12.0
     Generated using "atomic" code by A. Dal Corso  v.5.0.99 svn rev. 10869
     Using radial grid of 1239 points,  6 beta functions with:
                l(1) =   0
                l(2) =   0
                l(3) =   1
                l(4) =   1
                l(5) =   2
                l(6) =   2
     Q(r) pseudized with 0 coefficients

     PseudoPot. # 2 for Bi read from file:
     /home/pragov/projects/rrg-bengioy-ad/pragov/crystal_structure_design/SSSP/Bi_pbe_v1.uspp.F.UPF
     MD5 check sum: cceb9f28ec65b6d7ff33140f5b0b1758
     Pseudo is Ultrasoft + core correction, Zval = 15.0
     Generated by new atomic code, or converted to UPF format
     Using radial grid of  899 points,  6 beta functions with:
                l(1) =   0
                l(2) =   0
                l(3) =   1
                l(4) =   1
                l(5) =   2
                l(6) =   2
     Q(r) pseudized with  6 coefficients,  rinner =    1.000   1.000   1.000
                                                       1.000   1.000

     PseudoPot. # 3 for S  read from file:
     /home/pragov/projects/rrg-bengioy-ad/pragov/crystal_structure_design/SSSP/s_pbe_v1.4.uspp.F.UPF
     MD5 check sum: 88d86576ff6df21479756cfb9bdac1df
     Pseudo is Ultrasoft + core correction, Zval =  6.0
     Generated by new atomic code, or converted to UPF format
     Using radial grid of  907 points,  6 beta functions with:
                l(1) =   0
                l(2) =   0
                l(3) =   1
                l(4) =   1
                l(5) =   2
                l(6) =   2
     Q(r) pseudized with  8 coefficients,  rinner =    1.300   1.300   1.300
                                                       1.300   1.300

     PseudoPot. # 4 for Cl read from file:
     /home/pragov/projects/rrg-bengioy-ad/pragov/crystal_structure_design/SSSP/cl_pbe_v1.4.uspp.F.UPF
     MD5 check sum: fc6f6913ecf08c9257cb748ef0700058
     Pseudo is Ultrasoft + core correction, Zval =  7.0
     Generated by new atomic code, or converted to UPF format
     Using radial grid of  909 points,  6 beta functions with:
                l(1) =   0
                l(2) =   0
                l(3) =   1
                l(4) =   1
                l(5) =   2
                l(6) =   2
     Q(r) pseudized with  8 coefficients,  rinner =    1.300   1.300   1.300
                                                       1.300   1.300

     atomic species   valence    mass     pseudopotential
        Cd            12.00   112.41400     Cd( 1.00)
        Bi            15.00   208.98040     Bi( 1.00)
        S              6.00    32.06000     S ( 1.00)
        Cl             7.00    35.45000     Cl( 1.00)

      8 Sym. Ops., with inversion, found ( 6 have fractional translation)

                                    s                        frac. trans.

      isym =  1     identity

 cryst.   s( 1) = (     1          0          0      )
                  (     0          1          0      )
                  (     0          0          1      )

 cart.    s( 1) = (  1.0000000  0.0000000  0.0000000 )
                  (  0.0000000  1.0000000  0.0000000 )
                  (  0.0000000  0.0000000  1.0000000 )

      isym =  2     180 deg rotation - cart. axis [0,0,1]

 cryst.   s( 2) = (    -1          0          0      )    f =(  0.0000000 )
                  (     0         -1          0      )       (  0.5000000 )
                  (     0          0          1      )       ( -0.5000000 )

 cart.    s( 2) = ( -1.0000000  0.0000000  0.0000000 )    f =(  0.0000000 )
                  (  0.0000000 -1.0000000  0.0000000 )       (  1.2059075 )
                  (  0.0000000  0.0000000  1.0000000 )       ( -1.5950588 )

[...]

      isym =  4     180 deg rotation - cart. axis [1,0,0]

[...]

      isym =  5     inversion

 cryst.   s( 5) = (    -1          0          0      )
                  (     0         -1          0      )
                  (     0          0         -1      )

 cart.    s( 5) = ( -1.0000000  0.0000000  0.0000000 )
                  (  0.0000000 -1.0000000  0.0000000 )
                  (  0.0000000  0.0000000 -1.0000000 )

      isym =  6     inv. 180 deg rotation - cart. axis [0,0,1]

[...]

      isym =  8     inv. 180 deg rotation - cart. axis [1,0,0]

 cryst.   s( 8) = (    -1          0          0      )    f =(  0.5000000 )
                  (     0          1          0      )       (  0.0000000 )
                  (     0          0          1      )       (  0.0000000 )

 cart.    s( 8) = ( -1.0000000  0.0000000  0.0000000 )    f =(  0.5000000 )
                  (  0.0000000  1.0000000  0.0000000 )       (  0.0000000 )
                  (  0.0000000  0.0000000  1.0000000 )       (  0.0000000 )

   Cartesian axes

     site n.     atom                  positions (alat units)
         1           Cd  tau(   1) = (   0.7500000   2.4023847   2.4361620  )
         2           Cd  tau(   2) = (   0.2500000   0.0094302   0.7539556  )
         3           Cd  tau(   3) = (   0.7500000   1.1964773   2.3490144  )
         4           Cd  tau(   4) = (   0.2500000   1.2153377   0.8411032  )
         5           Bi  tau(   5) = (   0.2500000   1.9450009   1.6821490  )
         6           Bi  tau(   6) = (   0.2500000   0.7390934   3.1030274  )
         7           Bi  tau(   7) = (   0.7500000   1.6727215   0.0870902  )
         8           Bi  tau(   8) = (   0.7500000   0.4668140   1.5079686  )
         9           S   tau(   9) = (   0.7500000   1.8156215   2.1298118  )
        10           S   tau(  10) = (   0.2500000   1.8021009   0.5347530  )
        11           S   tau(  11) = (   0.7500000   1.0788024   0.3569773  )
        12           S   tau(  12) = (   0.2500000   1.3330125   2.8331402  )
        13           S   tau(  13) = (   0.7500000   0.6097140   2.6553646  )
        14           S   tau(  14) = (   0.7500000   2.2847099   1.2380814  )
        15           S   tau(  15) = (   0.2500000   0.1271051   1.9520361  )
        16           S   tau(  16) = (   0.2500000   0.5961934   1.0603058  )
        17           Cl  tau(  17) = (   0.7500000   0.1778979   0.3388734  )
        18           Cl  tau(  18) = (   0.7500000   1.3838053   1.2561854  )
        19           Cl  tau(  19) = (   0.2500000   2.2339170   2.8512442  )
        20           Cl  tau(  20) = (   0.2500000   1.0280096   1.9339322  )

   Crystallographic axes

     site n.     atom                  positions (cryst. coord.)
         1           Cd  tau(   1) = (  0.7500000  0.9960900  0.7636590  )
         2           Cd  tau(   2) = (  0.2500000  0.0039100  0.2363410  )
         3           Cd  tau(   3) = (  0.7500000  0.4960900  0.7363410  )
         4           Cd  tau(   4) = (  0.2500000  0.5039100  0.2636590  )
         5           Bi  tau(   5) = (  0.2500000  0.8064470  0.5273000  )
         6           Bi  tau(   6) = (  0.2500000  0.3064470  0.9727000  )
         7           Bi  tau(   7) = (  0.7500000  0.6935530  0.0273000  )
         8           Bi  tau(   8) = (  0.7500000  0.1935530  0.4727000  )
         9           S   tau(   9) = (  0.7500000  0.7528030  0.6676280  )
        10           S   tau(  10) = (  0.2500000  0.7471970  0.1676280  )
        11           S   tau(  11) = (  0.7500000  0.4472990  0.1119010  )
        12           S   tau(  12) = (  0.2500000  0.5527010  0.8880990  )
        13           S   tau(  13) = (  0.7500000  0.2528030  0.8323720  )
        14           S   tau(  14) = (  0.7500000  0.9472990  0.3880990  )
        15           S   tau(  15) = (  0.2500000  0.0527010  0.6119010  )
        16           S   tau(  16) = (  0.2500000  0.2471970  0.3323720  )
        17           Cl  tau(  17) = (  0.7500000  0.0737610  0.1062260  )
        18           Cl  tau(  18) = (  0.7500000  0.5737610  0.3937740  )
        19           Cl  tau(  19) = (  0.2500000  0.9262390  0.8937740  )
        20           Cl  tau(  20) = (  0.2500000  0.4262390  0.6062260  )

     number of k points=     1  Methfessel-Paxton smearing, width (Ry)=  0.0010
                       cart. coord. in units 2pi/alat
        k(    1) = (   0.0000000   0.0000000   0.0000000), wk =   2.0000000

                       cryst. coord.
        k(    1) = (   0.0000000   0.0000000   0.0000000), wk =   2.0000000

     Check: negative core charge=   -0.000003

     Initial potential from superposition of free atoms

     starting charge     179.9800, renormalised to     184.0000

     negative rho (up, down):  2.302E-01 0.000E+00
     Starting wfcs are  120 randomized atomic wfcs

     Self-consistent Calculation

     iteration #  1     ecut=    30.00 Ry     beta= 0.70
     Davidson diagonalization with overlap

     ethr =  1.00E-02,  avg # of iterations =  6.0

     negative rho (up, down):  2.182E-01 0.000E+00

     total energy              =   -1554.56050111 Ry
[...]
     estimated scf accuracy    <       0.00000112 Ry

     iteration # 13     ecut=    30.00 Ry     beta= 0.70
     Davidson diagonalization with overlap

     ethr =  6.08E-10,  avg # of iterations =  2.0

[...]

     End of self-consistent calculation

          k = 0.0000 0.0000 0.0000 (  4661 PWs)   bands (ev):

   -16.4450 -16.4446 -16.4433 -16.4429 -16.3926 -16.3922 -16.3906 -16.3903
   -16.3593 -16.3589 -16.3561 -16.3557 -16.3471 -16.3467 -16.3456 -16.3453
   -16.3373 -16.3369 -16.3318 -16.3314  -7.7021  -7.6074  -7.4217  -7.4117
    -6.9064  -6.8789  -6.2837  -6.1497  -5.1207  -5.1016  -4.9222  -4.8363
    -3.2893  -2.9887  -2.3480  -2.0446  -1.3119  -1.3012  -1.2316  -1.2246
    -1.2228  -1.2220  -1.1598  -1.1428  -1.1417  -1.1367  -1.0670  -1.0412
    -1.0024  -0.9907  -0.9748  -0.9722  -0.9449  -0.9435  -0.7637  -0.6335
     2.1677   2.2117   2.7045   2.8300   3.0454   3.2053   3.4179   3.6314
     3.6433   3.7832   3.8849   3.9543   4.1024   4.1488   4.3266   4.4561
     4.5524   4.6296   4.8301   4.8620   4.8859   4.9363   4.9530   5.0701
     5.3283   5.4179   5.5152   5.5697   5.6434   5.7122   5.8161   5.8603
     5.8801   5.9971   6.0672   6.3013   8.1130   8.5459   8.5717   8.8974
     9.0035   9.2982   9.5819   9.5936   9.6343   9.7089   9.9657  10.3128
    10.4009  10.4879  10.6704  11.4148  11.5929  12.2432

     occupation numbers
     1.0000   1.0000   1.0000   1.0000   1.0000   1.0000   1.0000   1.0000
     1.0000   1.0000   1.0000   1.0000   1.0000   1.0000   1.0000   1.0000
     1.0000   1.0000   1.0000   1.0000   1.0000   1.0000   1.0000   1.0000
     1.0000   1.0000   1.0000   1.0000   1.0000   1.0000   1.0000   1.0000
     1.0000   1.0000   1.0000   1.0000   1.0000   1.0000   1.0000   1.0000
     1.0000   1.0000   1.0000   1.0000   1.0000   1.0000   1.0000   1.0000
     1.0000   1.0000   1.0000   1.0000   1.0000   1.0000   1.0000   1.0000
     1.0000   1.0000   1.0000   1.0000   1.0000   1.0000   1.0000   1.0000
     1.0000   1.0000   1.0000   1.0000   1.0000   1.0000   1.0000   1.0000
     1.0000   1.0000   1.0000   1.0000   1.0000   1.0000   1.0000   1.0000
     1.0000   1.0000   1.0000   1.0000   1.0000   1.0000   1.0000   1.0000
     1.0000   1.0000   1.0000   1.0000  -0.0000  -0.0000  -0.0000  -0.0000
    -0.0000  -0.0000  -0.0000  -0.0000  -0.0000  -0.0000  -0.0000  -0.0000
    -0.0000  -0.0000  -0.0000  -0.0000  -0.0000  -0.0000

     the Fermi energy is     6.9492 ev

!    total energy              =   -1555.67991466 Ry
     estimated scf accuracy    <       0.00000010 Ry
     smearing contrib. (-TS)   =       0.00000000 Ry
     internal energy E=F+TS    =   -1555.67991466 Ry

     The total energy is F=E-TS. E is the sum of the following terms:
     one-electron contribution =    -433.99183232 Ry
     hartree contribution      =     336.31646490 Ry
     xc contribution           =    -535.83131710 Ry
     ewald contribution        =    -922.17323015 Ry

     convergence has been achieved in  13 iterations

     negative rho (up, down):  2.230E-01 0.000E+00

     Forces acting on atoms (cartesian axes, Ry/au):

     atom    1 type  1   force =    -0.00000000    0.00575417   -0.00745417
     atom    2 type  1   force =     0.00000000   -0.00575417    0.00745417
     atom    3 type  1   force =     0.00000000    0.00575417    0.00745417
     atom    4 type  1   force =     0.00000000   -0.00575417   -0.00745417
     atom    5 type  2   force =    -0.00000000    0.00593357   -0.00971080
     atom    6 type  2   force =    -0.00000000    0.00593357    0.00971080
     atom    7 type  2   force =     0.00000000   -0.00593357   -0.00971080
     atom    8 type  2   force =     0.00000000   -0.00593357    0.00971080
     atom    9 type  3   force =     0.00000000    0.00777836    0.00119003
     atom   10 type  3   force =     0.00000000   -0.00777836    0.00119003
     atom   11 type  3   force =     0.00000000    0.00559461   -0.03407316
     atom   12 type  3   force =     0.00000000   -0.00559461    0.03407316
     atom   13 type  3   force =    -0.00000000    0.00777836   -0.00119003
     atom   14 type  3   force =     0.00000000    0.00559461    0.03407316
     atom   15 type  3   force =    -0.00000000   -0.00559461   -0.03407316
     atom   16 type  3   force =     0.00000000   -0.00777836   -0.00119003
     atom   17 type  4   force =    -0.00000000    0.00758702   -0.02839098
     atom   18 type  4   force =     0.00000000    0.00758702    0.02839098
     atom   19 type  4   force =    -0.00000000   -0.00758702    0.02839098
     atom   20 type  4   force =     0.00000000   -0.00758702   -0.02839098
     The non-local contrib.  to forces
     atom    1 type  1   force =     0.00000000   -0.00760862    0.02528653
     atom    2 type  1   force =    -0.00000000    0.00760862   -0.02528653
     atom    3 type  1   force =     0.00000000   -0.00760862   -0.02528653
     atom    4 type  1   force =     0.00000000    0.00760862    0.02528653
     atom    5 type  2   force =     0.00000000    0.28588554    0.29511983
     atom    6 type  2   force =     0.00000000    0.28588554   -0.29511983
     atom    7 type  2   force =     0.00000000   -0.28588554    0.29511983
     atom    8 type  2   force =     0.00000000   -0.28588554   -0.29511983
     atom    9 type  3   force =     0.00000000   -0.03144599    0.02321147
     atom   10 type  3   force =     0.00000000    0.03144599    0.02321147
     atom   11 type  3   force =    -0.00000000    0.06478646    0.02811385
     atom   12 type  3   force =     0.00000000   -0.06478646   -0.02811385
     atom   13 type  3   force =     0.00000000   -0.03144599   -0.02321147
     atom   14 type  3   force =    -0.00000000    0.06478646   -0.02811385
     atom   15 type  3   force =     0.00000000   -0.06478646    0.02811385
     atom   16 type  3   force =    -0.00000000    0.03144599   -0.02321147
     atom   17 type  4   force =     0.00000000   -0.00832947    0.15617866
     atom   18 type  4   force =     0.00000000   -0.00832947   -0.15617866
     atom   19 type  4   force =    -0.00000000    0.00832947   -0.15617866
     atom   20 type  4   force =     0.00000000    0.00832947    0.15617866
     The ionic contribution  to forces
     atom    1 type  1   force =     0.00000000    0.82478979    2.80548452
     atom    2 type  1   force =     0.00000000   -0.82478979   -2.80548452
     atom    3 type  1   force =    -0.00000000    0.82478979   -2.80548452
     atom    4 type  1   force =    -0.00000000   -0.82478979    2.80548452
     atom    5 type  2   force =    -0.00000000   -7.48090958   -3.39053856
     atom    6 type  2   force =     0.00000000   -7.48090958    3.39053856
     atom    7 type  2   force =     0.00000000    7.48090958   -3.39053856
     atom    8 type  2   force =    -0.00000000    7.48090958    3.39053856
     atom    9 type  3   force =    -0.00000000   -2.06364579    2.32085823
     atom   10 type  3   force =    -0.00000000    2.06364579    2.32085823
     atom   11 type  3   force =    -0.00000000   -3.48634160    2.32797942
     atom   12 type  3   force =    -0.00000000    3.48634160   -2.32797942
     atom   13 type  3   force =     0.00000000   -2.06364579   -2.32085823
     atom   14 type  3   force =     0.00000000   -3.48634160   -2.32797942
     atom   15 type  3   force =     0.00000000    3.48634160    2.32797942
     atom   16 type  3   force =     0.00000000    2.06364579   -2.32085823
     atom   17 type  4   force =    -0.00000000    0.45958839   -3.04967664
     atom   18 type  4   force =     0.00000000    0.45958839    3.04967664
     atom   19 type  4   force =     0.00000000   -0.45958839    3.04967664
     atom   20 type  4   force =    -0.00000000   -0.45958839   -3.04967664
     The local contribution  to forces
     atom    1 type  1   force =     0.00000093   -0.81268130   -2.83709690
     atom    2 type  1   force =    -0.00000263    0.81242562    2.83704993
     atom    3 type  1   force =    -0.00000186   -0.81240027    2.83728083
     atom    4 type  1   force =    -0.00000659    0.81260961   -2.83732332
     atom    5 type  2   force =     0.00000070    7.20863230    3.09589999
     atom    6 type  2   force =     0.00000148    7.20850140   -3.09574044
     atom    7 type  2   force =     0.00000148   -7.20824699    3.09577105
     atom    8 type  2   force =     0.00000390   -7.20870290   -3.09576709
     atom    9 type  3   force =     0.00000133    2.10079508   -2.34087982
     atom   10 type  3   force =     0.00000134   -2.10070460   -2.34112850
     atom   11 type  3   force =     0.00000366    3.43063510   -2.38824929
     atom   12 type  3   force =    -0.00000232   -3.43041949    2.38823530
     atom   13 type  3   force =    -0.00000005    2.10072792    2.34097369
     atom   14 type  3   force =     0.00000374    3.43056604    2.38807745
     atom   15 type  3   force =     0.00000318   -3.43053757   -2.38813988
     atom   16 type  3   force =    -0.00000347   -2.10083049    2.34094790
     atom   17 type  4   force =     0.00000528   -0.44398600    2.86942710
     atom   18 type  4   force =     0.00000304   -0.44390672   -2.86936996
     atom   19 type  4   force =     0.00000007    0.44372867   -2.86937698
     atom   20 type  4   force =     0.00000205    0.44387209    2.86942732
     The core correction contribution to forces
     atom    1 type  1   force =     0.00000017    0.00115252   -0.00077236
     atom    2 type  1   force =     0.00000015   -0.00115148    0.00077295
     atom    3 type  1   force =     0.00000005    0.00115421    0.00077329
     atom    4 type  1   force =    -0.00000050   -0.00115576   -0.00077353
     atom    5 type  2   force =     0.00000008   -0.00799546   -0.00996849
     atom    6 type  2   force =     0.00000009   -0.00799665    0.00997071
     atom    7 type  2   force =    -0.00000012    0.00799615   -0.00996879
     atom    8 type  2   force =     0.00000006    0.00799555    0.00997019
     atom    9 type  3   force =     0.00000011    0.00200641   -0.00190577
     atom   10 type  3   force =     0.00000003   -0.00200881   -0.00190663
     atom   11 type  3   force =     0.00000012   -0.00342464   -0.00188030
     atom   12 type  3   force =    -0.00000013    0.00342284    0.00187950
     atom   13 type  3   force =     0.00000012    0.00200807    0.00190538
     atom   14 type  3   force =     0.00000046   -0.00342235    0.00187930
     atom   15 type  3   force =     0.00000018    0.00342503   -0.00188144
     atom   16 type  3   force =    -0.00000003   -0.00200615    0.00190588
     atom   17 type  4   force =     0.00000011    0.00010443   -0.00440781
     atom   18 type  4   force =    -0.00000017    0.00009965    0.00441050
     atom   19 type  4   force =    -0.00000011   -0.00010371    0.00440780
     atom   20 type  4   force =    -0.00000042   -0.00010224   -0.00441023
     The Hubbard contrib.    to forces
     atom    1 type  1   force =     0.00000000    0.00000000    0.00000000
     atom    2 type  1   force =     0.00000000    0.00000000    0.00000000
     atom    3 type  1   force =     0.00000000    0.00000000    0.00000000
     atom    4 type  1   force =     0.00000000    0.00000000    0.00000000
     atom    5 type  2   force =     0.00000000    0.00000000    0.00000000
     atom    6 type  2   force =     0.00000000    0.00000000    0.00000000
     atom    7 type  2   force =     0.00000000    0.00000000    0.00000000
     atom    8 type  2   force =     0.00000000    0.00000000    0.00000000
     atom    9 type  3   force =     0.00000000    0.00000000    0.00000000
     atom   10 type  3   force =     0.00000000    0.00000000    0.00000000
     atom   11 type  3   force =     0.00000000    0.00000000    0.00000000
     atom   12 type  3   force =     0.00000000    0.00000000    0.00000000
     atom   13 type  3   force =     0.00000000    0.00000000    0.00000000
     atom   14 type  3   force =     0.00000000    0.00000000    0.00000000
     atom   15 type  3   force =     0.00000000    0.00000000    0.00000000
     atom   16 type  3   force =     0.00000000    0.00000000    0.00000000
     atom   17 type  4   force =     0.00000000    0.00000000    0.00000000
     atom   18 type  4   force =     0.00000000    0.00000000    0.00000000
     atom   19 type  4   force =     0.00000000    0.00000000    0.00000000
     atom   20 type  4   force =     0.00000000    0.00000000    0.00000000
     The SCF correction term to forces
     atom    1 type  1   force =     0.00000087    0.00009798   -0.00036502
     atom    2 type  1   force =     0.00000265    0.00020319    0.00042850
     atom    3 type  1   force =     0.00000364   -0.00018615    0.00016007
     atom    4 type  1   force =     0.00000504   -0.00008619   -0.00010421
     atom    5 type  2   force =     0.00000288    0.00030910   -0.00022388
     atom    6 type  2   force =    -0.00000608    0.00045471    0.00005737
     atom    7 type  2   force =     0.00000256   -0.00073111   -0.00008075
     atom    8 type  2   force =    -0.00000068   -0.00023571    0.00010665
     atom    9 type  3   force =    -0.00000086    0.00004227   -0.00009483
     atom   10 type  3   force =    -0.00000009   -0.00018969    0.00014781
     atom   11 type  3   force =    -0.00000119   -0.00007067   -0.00003529
     atom   12 type  3   force =    -0.00000090   -0.00017600    0.00003814
     atom   13 type  3   force =     0.00000066    0.00015820   -0.00001645
     atom   14 type  3   force =    -0.00000220    0.00003508    0.00020207
     atom   15 type  3   force =    -0.00000107    0.00000476   -0.00016777
     atom   16 type  3   force =     0.00000195   -0.00000288    0.00003458
     atom   17 type  4   force =    -0.00000213    0.00027073    0.00012735
     atom   18 type  4   force =     0.00000068    0.00003883   -0.00009490
     atom   19 type  4   force =     0.00000070    0.00001617   -0.00018890
     atom   20 type  4   force =    -0.00000167   -0.00010243    0.00005184

     Total force =     0.096664     Total SCF correction =     0.001328

     Computing stress (Cartesian axis) and pressure

     negative rho (up, down):  2.230E-01 0.000E+00
          total   stress  (Ry/bohr**3)                   (kbar)     P=       14.48
   0.00092695   0.00000000   0.00000000          136.36        0.00        0.00
   0.00000000  -0.00046315   0.00000000            0.00      -68.13        0.00
   0.00000000   0.00000000  -0.00016851            0.00        0.00      -24.79

     kinetic stress (kbar)   9696.91      0.00      0.00
                                0.00   9405.11      0.00
                                0.00      0.00   9433.46

     local   stress (kbar)  -6054.33     -0.00     -0.00
                               -0.00  -1139.72      0.00
                               -0.00      0.00  -1974.32

     nonloc. stress (kbar)   6073.06      0.00      0.00
                                0.00   6046.14      0.00
                                0.00      0.00   6013.48

     hartree stress (kbar)   6135.97      0.00      0.00
                                0.00   4107.58      0.00
                                0.00      0.00   4537.16

     exc-cor stress (kbar)  11055.67      0.00      0.00
                                0.00  11057.26     -0.00
                                0.00     -0.00  11054.52

     corecor stress (kbar) -14962.19      0.00     -0.00
                                0.00 -14958.23      0.00
                               -0.00      0.00 -14955.67

     ewald   stress (kbar) -11808.74      0.00     -0.00
                                0.00 -14586.27      0.00
                               -0.00      0.00 -14133.43

     hubbard stress (kbar)      0.00      0.00      0.00
                                0.00      0.00      0.00
                                0.00      0.00      0.00

     DFT-D   stress (kbar)      0.00      0.00      0.00
                                0.00      0.00      0.00
                                0.00      0.00      0.00

     XDM     stress (kbar)      0.00      0.00      0.00
                                0.00      0.00      0.00
                                0.00      0.00      0.00

     dft-nl  stress (kbar)      0.00      0.00      0.00
                                0.00      0.00      0.00
                                0.00      0.00      0.00

     TS-vdW  stress (kbar)      0.00      0.00      0.00
                                0.00      0.00      0.00
                                0.00      0.00      0.00

[...]

                                0.00      0.00      0.00

     Writing all to output data dir new_calculations/myprefix.save/

     General routines

     Parallel routines

   This run was terminated on:  13:15: 5  20May2023

   JOB DONE.