     Program PWSCF v.7.0 starts on 21May2023 at 19:58:39

     Reading input from espresso_21245.pwi
Warning: card &CELL ignored
Warning: card / ignored

     Current dimensions of program PWSCF are:
     Max number of different atomic species (ntypx) = 10
     Max number of k-points (npk) =  40000
     Max angular momentum in pseudopotentials (lmaxx) =  4

     gamma-point specific algorithms are used
     Message from routine setup:
     using ibrav=0 with symmetry is DISCOURAGED, use correct ibrav instead

     Subspace diagonalization in iterative solution of the eigenvalue problem:
     a serial algorithm will be used

     Using Slab Decomposition

     bravais-lattice index     =            0
     lattice parameter (alat)  =       9.4355  a.u.
     unit-cell volume          =    1159.8689 (a.u.)^3
     number of atoms/cell      =           14
     number of atomic types    =            3
     number of electrons       =        52.00
     number of Kohn-Sham states=           31
     kinetic-energy cutoff     =      30.0000  Ry
     charge density cutoff     =     240.0000  Ry
     scf convergence threshold =      1.0E-06
     mixing beta               =       0.7000
     number of iterations used =            8  plain     mixing
     Exchange-correlation= PBE
                           (   1   4   3   4   0   0   0)

     celldm(1)=   9.435533  celldm(2)=   0.000000  celldm(3)=   0.000000
     celldm(4)=   0.000000  celldm(5)=   0.000000  celldm(6)=   0.000000

     crystal axes: (cart. coord. in units of alat)
               a(1) = (   1.000000   0.000000   0.000000 )
               a(2) = (   0.000000   1.017156   0.000000 )
               a(3) = (   0.000000   0.203426   1.357445 )

     reciprocal axes: (cart. coord. in units 2 pi/alat)
               b(1) = (  1.000000  0.000000  0.000000 )
               b(2) = (  0.000000  0.983134 -0.147332 )
               b(3) = (  0.000000  0.000000  0.736678 )

     PseudoPot. # 1 for Na read from file:
     /home/pragov/projects/rrg-bengioy-ad/pragov/crystal_structure_design/SSSP/na_pbe_v1.5.uspp.F.UPF
     MD5 check sum: 44600605ef58000f06b90626533354dc
     Pseudo is Ultrasoft, Zval =  9.0
     Generated by new atomic code, or converted to UPF format
     Using radial grid of  819 points,  5 beta functions with:
                l(1) =   0
                l(2) =   0
                l(3) =   1
                l(4) =   1
                l(5) =   2
     Q(r) pseudized with  8 coefficients,  rinner =    1.250   1.250   1.250
                                                       1.250   1.250

     PseudoPot. # 2 for Be read from file:
     /home/pragov/projects/rrg-bengioy-ad/pragov/crystal_structure_design/SSSP/be_pbe_v1.4.uspp.F.UPF
     MD5 check sum: 5ecff1440924c7c98ad504bef30f5264
     Pseudo is Ultrasoft, Zval =  4.0
     Generated by new atomic code, or converted to UPF format
     Using radial grid of  769 points,  6 beta functions with:
                l(1) =   0
                l(2) =   0
                l(3) =   0
                l(4) =   1
                l(5) =   1
                l(6) =   2
     Q(r) pseudized with 10 coefficients,  rinner =    1.000   1.000   1.000
                                                       1.000   1.000

     PseudoPot. # 3 for H  read from file:
     /home/pragov/projects/rrg-bengioy-ad/pragov/crystal_structure_design/SSSP/H.pbe-rrkjus_psl.1.0.0.UPF
     MD5 check sum: f52b6d4d1c606e5624b1dc7b2218f220
     Pseudo is Ultrasoft, Zval =  1.0
     Generated using "atomic" code by A. Dal Corso  v.5.1
     Using radial grid of  929 points,  2 beta functions with:
                l(1) =   0
                l(2) =   0
     Q(r) pseudized with 0 coefficients

     atomic species   valence    mass     pseudopotential
        Na             9.00    22.98977     Na( 1.00)
        Be             4.00     9.01218     Be( 1.00)
        H              1.00     1.00800     H ( 1.00)

      4 Sym. Ops., with inversion, found ( 2 have fractional translation)

                                    s                        frac. trans.

      isym =  1     identity

 cryst.   s( 1) = (     1          0          0      )
                  (     0          1          0      )
                  (     0          0          1      )

 cart.    s( 1) = (  1.0000000  0.0000000  0.0000000 )
                  (  0.0000000  1.0000000  0.0000000 )
                  (  0.0000000  0.0000000  1.0000000 )

      isym =  2     180 deg rotation - cart. axis [1,0,0]

 cryst.   s( 2) = (     1          0          0      )    f =( -0.5000000 )
                  (     0         -1          0      )       (  0.0000000 )
                  (     0          0         -1      )       ( -0.0000000 )

 cart.    s( 2) = (  1.0000000  0.0000000  0.0000000 )    f =( -0.5000000 )
                  (  0.0000000 -1.0000000 -0.0000000 )       (  0.0000000 )
                  (  0.0000000  0.0000000 -1.0000000 )       ( -0.0000000 )

      isym =  3     inversion

 cryst.   s( 3) = (    -1          0          0      )
                  (     0         -1          0      )
                  (     0          0         -1      )

 cart.    s( 3) = ( -1.0000000  0.0000000  0.0000000 )
                  (  0.0000000 -1.0000000 -0.0000000 )
                  (  0.0000000  0.0000000 -1.0000000 )

      isym =  4     inv. 180 deg rotation - cart. axis [1,0,0]

 cryst.   s( 4) = (    -1          0          0      )    f =(  0.5000000 )
                  (     0          1          0      )       (  0.0000000 )
                  (     0          0          1      )       (  0.0000000 )

 cart.    s( 4) = ( -1.0000000  0.0000000  0.0000000 )    f =(  0.5000000 )
                  (  0.0000000  1.0000000  0.0000000 )       (  0.0000000 )
                  (  0.0000000  0.0000000  1.0000000 )       (  0.0000000 )

   Cartesian axes

     site n.     atom                  positions (alat units)
         1           Na  tau(   1) = (   0.2500000   0.2792634   0.0340474  )
         2           Na  tau(   2) = (   0.7500000   0.9413186   1.3233975  )
         3           Na  tau(   3) = (   0.7500000   0.8444247   0.6451569  )
         4           Na  tau(   4) = (   0.2500000   0.3761573   0.7122880  )
         5           Be  tau(   5) = (   0.2500000   0.7802627   0.3012550  )
         6           Be  tau(   6) = (   0.7500000   0.4403193   1.0561899  )
         7           H   tau(   7) = (   0.7500000   0.1975494   0.8991416  )
         8           H   tau(   8) = (   0.7500000   0.3894052   1.3393366  )
         9           H   tau(   9) = (   0.5207730   0.6035018   0.9967813  )
        10           H   tau(  10) = (   0.2500000   1.0230325   0.4583033  )
        11           H   tau(  11) = (   0.9792270   0.6035018   0.9967813  )
        12           H   tau(  12) = (   0.0207730   0.6170802   0.3606636  )
        13           H   tau(  13) = (   0.4792270   0.6170802   0.3606636  )
        14           H   tau(  14) = (   0.2500000   0.8311768   0.0181083  )

   Crystallographic axes

     site n.     atom                  positions (cryst. coord.)
         1           Na  tau(   1) = (  0.2500000  0.2695370  0.0250820  )
         2           Na  tau(   2) = (  0.7500000  0.7304630  0.9749180  )
         3           Na  tau(   3) = (  0.7500000  0.7351300  0.4752730  )
         4           Na  tau(   4) = (  0.2500000  0.2648700  0.5247270  )
         5           Be  tau(   5) = (  0.2500000  0.7227180  0.2219280  )
         6           Be  tau(   6) = (  0.7500000  0.2772820  0.7780720  )
         7           H   tau(   7) = (  0.7500000  0.0617450  0.6623780  )
         8           H   tau(   8) = (  0.7500000  0.1855100  0.9866600  )
         9           H   tau(   9) = (  0.5207730  0.4464650  0.7343070  )
        10           H   tau(  10) = (  0.2500000  0.9382550  0.3376220  )
        11           H   tau(  11) = (  0.9792270  0.4464650  0.7343070  )
        12           H   tau(  12) = (  0.0207730  0.5535350  0.2656930  )
        13           H   tau(  13) = (  0.4792270  0.5535350  0.2656930  )
        14           H   tau(  14) = (  0.2500000  0.8144900  0.0133400  )

     number of k points=     1  Methfessel-Paxton smearing, width (Ry)=  0.0010
                       cart. coord. in units 2pi/alat
        k(    1) = (   0.0000000   0.0000000   0.0000000), wk =   2.0000000

                       cryst. coord.
        k(    1) = (   0.0000000   0.0000000   0.0000000), wk =   2.0000000

     Initial potential from superposition of free atoms

     starting charge      51.9745, renormalised to      52.0000
     Starting wfcs are   38 randomized atomic wfcs

     Self-consistent Calculation

     iteration #  1     ecut=    30.00 Ry     beta= 0.70
     Davidson diagonalization with overlap

     ethr =  1.00E-02,  avg # of iterations =  3.0

     total energy              =    -447.09544863 Ry
     estimated scf accuracy    <       1.04541129 Ry

[...]

     total energy              =    -447.27739880 Ry
     estimated scf accuracy    <       0.00000144 Ry

     iteration #  7     ecut=    30.00 Ry     beta= 0.70
     Davidson diagonalization with overlap

     ethr =  2.77E-09,  avg # of iterations =  2.0

     End of self-consistent calculation

          k = 0.0000 0.0000 0.0000 (  1601 PWs)   bands (ev):

   -96.2978 -96.2957 -50.6651 -50.6624 -50.5141 -50.5112 -22.5980 -22.5880
   -22.5745 -22.5673 -22.5609 -22.5440 -22.4399 -22.4378 -22.4183 -22.4166
   -22.3944 -22.3882  -5.1000  -3.7711  -1.8510  -1.3185  -0.9659  -0.9612
    -0.8856  -0.3847   4.7133   5.1610   5.2364   5.4614   6.7733

     occupation numbers
     1.0000   1.0000   1.0000   1.0000   1.0000   1.0000   1.0000   1.0000
     1.0000   1.0000   1.0000   1.0000   1.0000   1.0000   1.0000   1.0000
     1.0000   1.0000   1.0000   1.0000   1.0000   1.0000   1.0000   1.0000
     1.0000   1.0000  -0.0000  -0.0000  -0.0000  -0.0000  -0.0000

     the Fermi energy is     0.4504 ev

!    total energy              =    -447.27739900 Ry
     estimated scf accuracy    <       0.00000005 Ry
     smearing contrib. (-TS)   =       0.00000000 Ry
     internal energy E=F+TS    =    -447.27739900 Ry

     The total energy is F=E-TS. E is the sum of the following terms:
     one-electron contribution =    -382.77398875 Ry
     hartree contribution      =     188.98084699 Ry
     xc contribution           =     -73.37824232 Ry
     ewald contribution        =    -180.10601491 Ry

     convergence has been achieved in   7 iterations

     Forces acting on atoms (cartesian axes, Ry/au):

     atom    1 type  1   force =     0.00000000    0.00185195   -0.00248145
     atom    2 type  1   force =     0.00000000   -0.00185195    0.00248145
     atom    3 type  1   force =     0.00000000    0.00075141   -0.00156148
     atom    4 type  1   force =     0.00000000   -0.00075141    0.00156148
     atom    5 type  2   force =    -0.00000000   -0.01040184    0.01745205
     atom    6 type  2   force =     0.00000000    0.01040184   -0.01745205
     atom    7 type  3   force =     0.00000000    0.00290660    0.00191959
     atom    8 type  3   force =     0.00000000    0.00755545    0.00361805
     atom    9 type  3   force =    -0.00002502   -0.00494806    0.00865996
     atom   10 type  3   force =     0.00000000   -0.00290660   -0.00191959
     atom   11 type  3   force =     0.00002502   -0.00494806    0.00865996
     atom   12 type  3   force =    -0.00002502    0.00494806   -0.00865996
     atom   13 type  3   force =     0.00002502    0.00494806   -0.00865996
     atom   14 type  3   force =     0.00000000   -0.00755545   -0.00361805
     The non-local contrib.  to forces
     atom    1 type  1   force =     0.00000000    0.06790430    0.04546973
     atom    2 type  1   force =     0.00000000   -0.06790430   -0.04546973
     atom    3 type  1   force =     0.00000000    0.14152980   -0.00922441
     atom    4 type  1   force =     0.00000000   -0.14152980    0.00922441
     atom    5 type  2   force =     0.00000000   -0.00736196    0.07820690
     atom    6 type  2   force =     0.00000000    0.00736196   -0.07820690
     atom    7 type  3   force =     0.00000000    0.01381249    0.00990722
     atom    8 type  3   force =     0.00000000    0.00238947   -0.01997024
     atom    9 type  3   force =     0.01572878   -0.01245448    0.00319277
     atom   10 type  3   force =     0.00000000   -0.01381249   -0.00990722
     atom   11 type  3   force =    -0.01572878   -0.01245448    0.00319277
     atom   12 type  3   force =     0.01572878    0.01245448   -0.00319277
     atom   13 type  3   force =    -0.01572878    0.01245448   -0.00319277
     atom   14 type  3   force =    -0.00000000   -0.00238947    0.01997024
     The ionic contribution  to forces
     atom    1 type  1   force =     0.00000000   -0.69136688    0.31310770
     atom    2 type  1   force =     0.00000000    0.69136688   -0.31310770
     atom    3 type  1   force =     0.00000000    1.97627057   -0.23657872
     atom    4 type  1   force =     0.00000000   -1.97627057    0.23657872
     atom    5 type  2   force =     0.00000000    0.78354844    0.34753092
     atom    6 type  2   force =     0.00000000   -0.78354844   -0.34753092
     atom    7 type  3   force =     0.00000000   -0.44235220   -0.48210681
     atom    8 type  3   force =     0.00000000   -0.06321820    0.98884077
     atom    9 type  3   force =    -0.63520105    0.55646959   -0.12019924
     atom   10 type  3   force =     0.00000000    0.44235220    0.48210681
     atom   11 type  3   force =     0.63520105    0.55646959   -0.12019924
     atom   12 type  3   force =    -0.63520105   -0.55646959    0.12019924
     atom   13 type  3   force =     0.63520105   -0.55646959    0.12019924
     atom   14 type  3   force =    -0.00000000    0.06321820   -0.98884077
     The local contribution  to forces
     atom    1 type  1   force =    -0.00000057    0.62535943   -0.36109269
     atom    2 type  1   force =    -0.00000391   -0.62534931    0.36108578
     atom    3 type  1   force =     0.00000077   -2.11712757    0.24422309
     atom    4 type  1   force =    -0.00000043    2.11712415   -0.24422065
     atom    5 type  2   force =     0.00000092   -0.78660126   -0.40825616
     atom    6 type  2   force =    -0.00000044    0.78659928    0.40824998
     atom    7 type  3   force =     0.00000071    0.43143892    0.47410938
     atom    8 type  3   force =     0.00000085    0.06838703   -0.96524202
     atom    9 type  3   force =     0.61943369   -0.54895175    0.12565767
     atom   10 type  3   force =     0.00000031   -0.43143625   -0.47410743
     atom   11 type  3   force =    -0.61943136   -0.54894906    0.12565805
     atom   12 type  3   force =     0.61942802    0.54894815   -0.12565750
     atom   13 type  3   force =    -0.61942947    0.54894901   -0.12565797
     atom   14 type  3   force =    -0.00000035   -0.06838670    0.96523990
     The core correction contribution to forces
     atom    1 type  1   force =     0.00000000    0.00000000    0.00000000
     atom    2 type  1   force =     0.00000000    0.00000000    0.00000000
     atom    3 type  1   force =     0.00000000    0.00000000    0.00000000
     atom    4 type  1   force =     0.00000000    0.00000000    0.00000000
     atom    5 type  2   force =     0.00000000    0.00000000    0.00000000
     atom    6 type  2   force =     0.00000000    0.00000000    0.00000000
     atom    7 type  3   force =     0.00000000    0.00000000    0.00000000
     atom    8 type  3   force =     0.00000000    0.00000000    0.00000000
     atom    9 type  3   force =     0.00000000    0.00000000    0.00000000
     atom   10 type  3   force =     0.00000000    0.00000000    0.00000000
     atom   11 type  3   force =     0.00000000    0.00000000    0.00000000
     atom   12 type  3   force =     0.00000000    0.00000000    0.00000000
     atom   13 type  3   force =     0.00000000    0.00000000    0.00000000
     atom   14 type  3   force =     0.00000000    0.00000000    0.00000000
     The Hubbard contrib.    to forces
     atom    1 type  1   force =     0.00000000    0.00000000    0.00000000
     atom    2 type  1   force =     0.00000000    0.00000000    0.00000000
     atom    3 type  1   force =     0.00000000    0.00000000    0.00000000
     atom    4 type  1   force =     0.00000000    0.00000000    0.00000000
     atom    5 type  2   force =     0.00000000    0.00000000    0.00000000
     atom    6 type  2   force =     0.00000000    0.00000000    0.00000000
     atom    7 type  3   force =     0.00000000    0.00000000    0.00000000
     atom    8 type  3   force =     0.00000000    0.00000000    0.00000000
     atom    9 type  3   force =     0.00000000    0.00000000    0.00000000
     atom   10 type  3   force =     0.00000000    0.00000000    0.00000000
     atom   11 type  3   force =     0.00000000    0.00000000    0.00000000
     atom   12 type  3   force =     0.00000000    0.00000000    0.00000000
     atom   13 type  3   force =     0.00000000    0.00000000    0.00000000
     atom   14 type  3   force =     0.00000000    0.00000000    0.00000000
     The SCF correction term to forces
     atom    1 type  1   force =     0.00000174   -0.00003622    0.00003316
     atom    2 type  1   force =    -0.00001145    0.00004348   -0.00002757
     atom    3 type  1   force =     0.00000630    0.00007820    0.00002285
     atom    4 type  1   force =    -0.00001639   -0.00007562   -0.00001671
     atom    5 type  2   force =    -0.00000384    0.00001273   -0.00002926
     atom    6 type  2   force =     0.00000493   -0.00001117    0.00003617
     atom    7 type  3   force =     0.00000088    0.00000787    0.00001012
     atom    8 type  3   force =    -0.00000008   -0.00000289   -0.00001033
     atom    9 type  3   force =     0.00001463   -0.00001242    0.00000900
     atom   10 type  3   force =    -0.00000127   -0.00000958   -0.00001142
     atom   11 type  3   force =    -0.00001526   -0.00001373    0.00000831
     atom   12 type  3   force =     0.00001886    0.00001473   -0.00000870
     atom   13 type  3   force =    -0.00001770    0.00001386   -0.00000854
     atom   14 type  3   force =     0.00000053    0.00000249    0.00001272

     Total force =     0.037593     Total SCF correction =     0.000153

     Computing stress (Cartesian axis) and pressure

          total   stress  (Ry/bohr**3)                   (kbar)     P=      -49.71
  -0.00022189   0.00000000   0.00000000          -32.64        0.00        0.00
   0.00000000  -0.00036387  -0.00000621            0.00      -53.53       -0.91
   0.00000000  -0.00000621  -0.00042808            0.00       -0.91      -62.97

     kinetic stress (kbar)   7203.38      0.00      0.00
                                0.00   7144.58     -0.48
                                0.00     -0.48   7130.31

     local   stress (kbar)  16206.41      0.00     -0.00
                                0.00  16321.11   -306.44
                               -0.00   -306.44  15479.88

     nonloc. stress (kbar) -20612.85      0.00      0.00
                                0.00 -20609.94     -4.82
                                0.00     -4.82 -20622.67

     hartree stress (kbar)   7943.28     -0.00      0.00
                               -0.00   7823.90    130.81
                                0.00    130.81   8201.08

     exc-cor stress (kbar)  -2972.04     -0.00     -0.00
                               -0.00  -2971.56      0.68
                               -0.00      0.68  -2971.35

     corecor stress (kbar)      0.00      0.00      0.00
                                0.00      0.00      0.00
                                0.00      0.00      0.00

     ewald   stress (kbar)  -7800.82     -0.00      0.00
                               -0.00  -7761.62    179.34
                                0.00    179.34  -7280.24

     hubbard stress (kbar)      0.00      0.00      0.00
                                0.00      0.00      0.00
                                0.00      0.00      0.00

     DFT-D   stress (kbar)      0.00      0.00      0.00
                                0.00      0.00      0.00
                                0.00      0.00      0.00

     XDM     stress (kbar)      0.00      0.00      0.00
                                0.00      0.00      0.00
                                0.00      0.00      0.00

     dft-nl  stress (kbar)      0.00      0.00      0.00
                                0.00      0.00      0.00
                                0.00      0.00      0.00

     TS-vdW  stress (kbar)      0.00      0.00      0.00
                                0.00      0.00      0.00
                                0.00      0.00      0.00

[...]

                                0.00      0.00      0.00

     Writing all to output data dir new_calculations/myprefix.save/

     General routines

     Parallel routines

   This run was terminated on:  19:58:55  21May2023

   JOB DONE.