     Program PWSCF v.7.0 starts on 20May2023 at 15:55:36

     Reading input from espresso_4496.pwi
Warning: card &CELL ignored
Warning: card / ignored

     Current dimensions of program PWSCF are:
     Max number of different atomic species (ntypx) = 10
     Max number of k-points (npk) =  40000
     Max angular momentum in pseudopotentials (lmaxx) =  4
     file O.pbe-n-kjpaw_psl.0.1.UPF: wavefunction(s)  2P renormalized

     gamma-point specific algorithms are used
     Message from routine setup:
     using ibrav=0 with symmetry is DISCOURAGED, use correct ibrav instead

     Subspace diagonalization in iterative solution of the eigenvalue problem:
     a serial algorithm will be used

     Using Slab Decomposition

     bravais-lattice index     =            0
     lattice parameter (alat)  =      10.7688  a.u.
     unit-cell volume          =    1248.8368 (a.u.)^3
     number of atoms/cell      =           12
     number of atomic types    =            3
     number of electrons       =        96.00
     number of Kohn-Sham states=           58
     kinetic-energy cutoff     =      30.0000  Ry
     charge density cutoff     =     240.0000  Ry
     scf convergence threshold =      1.0E-06
     mixing beta               =       0.7000
     number of iterations used =            8  plain     mixing
     Exchange-correlation= SLA  PW   PBX  PBC
                           (   1   4   3   4   0   0   0)

     celldm(1)=  10.768831  celldm(2)=   0.000000  celldm(3)=   0.000000
     celldm(4)=   0.000000  celldm(5)=   0.000000  celldm(6)=   0.000000

     crystal axes: (cart. coord. in units of alat)
               a(1) = (   1.000000   0.000000   0.000000 )
               a(2) = (   0.000000   1.000000   0.000000 )
               a(3) = (   0.000000   0.000000   1.000000 )

     reciprocal axes: (cart. coord. in units 2 pi/alat)
               b(1) = (  1.000000  0.000000  0.000000 )
               b(2) = (  0.000000  1.000000  0.000000 )
               b(3) = (  0.000000  0.000000  1.000000 )

     PseudoPot. # 1 for Hf read from file:
     /home/pragov/projects/rrg-bengioy-ad/pragov/crystal_structure_design/SSSP/Hf-sp.oncvpsp.upf
     MD5 check sum: 417ed15784afe83d2e06dacf143de3f8
     Pseudo is Norm-conserving + core correction, Zval = 12.0
     Generated using ONCVPSP code by D. R. Hamann
     Using radial grid of 1656 points,  8 beta functions with:
                l(1) =   0
                l(2) =   0
                l(3) =   1
                l(4) =   1
                l(5) =   2
                l(6) =   2
                l(7) =   3
                l(8) =   3

     PseudoPot. # 2 for S  read from file:
     /home/pragov/projects/rrg-bengioy-ad/pragov/crystal_structure_design/SSSP/s_pbe_v1.4.uspp.F.UPF
     MD5 check sum: 88d86576ff6df21479756cfb9bdac1df
     Pseudo is Ultrasoft + core correction, Zval =  6.0
     Generated by new atomic code, or converted to UPF format
     Using radial grid of  907 points,  6 beta functions with:
                l(1) =   0
                l(2) =   0
                l(3) =   1
                l(4) =   1
                l(5) =   2
                l(6) =   2
     Q(r) pseudized with  8 coefficients,  rinner =    1.300   1.300   1.300
                                                       1.300   1.300

     PseudoPot. # 3 for O  read from file:
     /home/pragov/projects/rrg-bengioy-ad/pragov/crystal_structure_design/SSSP/O.pbe-n-kjpaw_psl.0.1.UPF
     MD5 check sum: 0234752ac141de4415c5fc33072bef88
     Pseudo is Projector augmented-wave + core cor, Zval =  6.0
     Generated using "atomic" code by A. Dal Corso  v.5.0.99 svn rev. 10869
     Shape of augmentation charge: BESSEL
     Using radial grid of 1095 points,  4 beta functions with:
                l(1) =   0
                l(2) =   0
                l(3) =   1
                l(4) =   1
     Q(r) pseudized with 0 coefficients

     atomic species   valence    mass     pseudopotential
        Hf            12.00   178.49000     Hf( 1.00)
        S              6.00    32.06000     S ( 1.00)
        O              6.00    15.99900     O ( 1.00)

     12 Sym. Ops. (no inversion) found ( 9 have fractional translation)

                                    s                        frac. trans.

      isym =  1     identity

 cryst.   s( 1) = (     1          0          0      )
                  (     0          1          0      )
                  (     0          0          1      )

 cart.    s( 1) = (  1.0000000  0.0000000  0.0000000 )
                  (  0.0000000  1.0000000  0.0000000 )
                  (  0.0000000  0.0000000  1.0000000 )

      isym =  2     180 deg rotation - cart. axis [0,0,1]

 cryst.   s( 2) = (    -1          0          0      )    f =(  0.5000000 )
                  (     0         -1          0      )       (  0.0000000 )
                  (     0          0          1      )       ( -0.5000000 )

 cart.    s( 2) = ( -1.0000000  0.0000000  0.0000000 )    f =(  0.5000000 )
                  (  0.0000000 -1.0000000  0.0000000 )       (  0.0000000 )
                  (  0.0000000  0.0000000  1.0000000 )       ( -0.5000000 )

[...]

 cryst.   s( 8) = (     0          0          1      )    f =(  0.5000000 )
                  (    -1          0          0      )       (  0.0000000 )
                  (     0         -1          0      )       ( -0.5000000 )

 cart.    s( 8) = (  0.0000000 -1.0000000  0.0000000 )    f =(  0.5000000 )
                  (  0.0000000  0.0000000 -1.0000000 )       (  0.0000000 )
                  (  1.0000000  0.0000000  0.0000000 )       ( -0.5000000 )

[...]

 cryst.   s( 9) = (     0          1          0      )
                  (     0          0          1      )
                  (     1          0          0      )

 cart.    s( 9) = (  0.0000000  0.0000000  1.0000000 )
                  (  1.0000000  0.0000000  0.0000000 )
                  (  0.0000000  1.0000000  0.0000000 )

[...]

 cryst.   s(10) = (     0         -1          0      )    f =(  0.5000000 )
                  (     0          0         -1      )       (  0.5000000 )
                  (     1          0          0      )       (  0.0000000 )

 cart.    s(10) = (  0.0000000  0.0000000  1.0000000 )    f =(  0.5000000 )
                  ( -1.0000000  0.0000000  0.0000000 )       (  0.5000000 )
                  (  0.0000000 -1.0000000  0.0000000 )       (  0.0000000 )

[...]

      isym = 12     120 deg rotation - cart. axis [-1,-1,1]

 cryst.   s(12) = (     0          1          0      )    f =(  0.0000000 )
                  (     0          0         -1      )       (  0.5000000 )
                  (    -1          0          0      )       (  0.5000000 )

 cart.    s(12) = (  0.0000000  0.0000000 -1.0000000 )    f =(  0.0000000 )
                  (  1.0000000  0.0000000  0.0000000 )       (  0.5000000 )
                  (  0.0000000 -1.0000000  0.0000000 )       (  0.5000000 )

   Cartesian axes

     site n.     atom                  positions (alat units)
         1           Hf  tau(   1) = (   0.6796880   0.8203120   0.1796880  )
         2           Hf  tau(   2) = (   0.8203120   0.1796880   0.6796880  )
         3           Hf  tau(   3) = (   0.1796880   0.6796880   0.8203120  )
         4           Hf  tau(   4) = (   0.3203120   0.3203120   0.3203120  )
         5           S   tau(   5) = (   0.9190250   0.4190250   0.0809750  )
         6           S   tau(   6) = (   0.0809750   0.9190250   0.4190250  )
         7           S   tau(   7) = (   0.4190250   0.0809750   0.9190250  )
         8           S   tau(   8) = (   0.5809750   0.5809750   0.5809750  )
         9           O   tau(   9) = (   0.4050890   0.5949110   0.0949110  )
        10           O   tau(  10) = (   0.5949110   0.0949110   0.4050890  )
        11           O   tau(  11) = (   0.9050890   0.9050890   0.9050890  )
        12           O   tau(  12) = (   0.0949110   0.4050890   0.5949110  )

   Crystallographic axes

     site n.     atom                  positions (cryst. coord.)
         1           Hf  tau(   1) = (  0.6796880  0.8203120  0.1796880  )
         2           Hf  tau(   2) = (  0.8203120  0.1796880  0.6796880  )
         3           Hf  tau(   3) = (  0.1796880  0.6796880  0.8203120  )
         4           Hf  tau(   4) = (  0.3203120  0.3203120  0.3203120  )
         5           S   tau(   5) = (  0.9190250  0.4190250  0.0809750  )
         6           S   tau(   6) = (  0.0809750  0.9190250  0.4190250  )
         7           S   tau(   7) = (  0.4190250  0.0809750  0.9190250  )
         8           S   tau(   8) = (  0.5809750  0.5809750  0.5809750  )
         9           O   tau(   9) = (  0.4050890  0.5949110  0.0949110  )
        10           O   tau(  10) = (  0.5949110  0.0949110  0.4050890  )
        11           O   tau(  11) = (  0.9050890  0.9050890  0.9050890  )
        12           O   tau(  12) = (  0.0949110  0.4050890  0.5949110  )

     number of k points=     1  Methfessel-Paxton smearing, width (Ry)=  0.0010
                       cart. coord. in units 2pi/alat
        k(    1) = (   0.0000000   0.0000000   0.0000000), wk =   2.0000000

                       cryst. coord.
        k(    1) = (   0.0000000   0.0000000   0.0000000), wk =   2.0000000

     Check: negative core charge=   -0.000007

     Initial potential from superposition of free atoms

     starting charge      95.9924, renormalised to      96.0000
     Starting wfcs are   72 randomized atomic wfcs
     Checking if some PAW data can be deallocated...

     Self-consistent Calculation

     iteration #  1     ecut=    30.00 Ry     beta= 0.70
     Davidson diagonalization with overlap

     ethr =  1.00E-02,  avg # of iterations =  3.0

     total energy              =    -713.82928113 Ry
     estimated scf accuracy    <       2.80406950 Ry

[...]

     total energy              =    -715.24211666 Ry
     estimated scf accuracy    <       0.00000172 Ry

     iteration # 11     ecut=    30.00 Ry     beta= 0.70
     Davidson diagonalization with overlap

     ethr =  1.79E-09,  avg # of iterations =  1.0

     End of self-consistent calculation

          k = 0.0000 0.0000 0.0000 (  1716 PWs)   bands (ev):

   -51.5124 -51.5122 -51.5119 -51.5008 -20.4729 -20.4728 -20.4727 -20.2674
   -20.2673 -20.2602 -20.2602 -20.2601 -20.1573 -20.1572 -20.1570 -20.1443
    -8.1504  -7.4500  -7.4494  -7.4489  -1.6665  -0.8515  -0.8514  -0.8513
     4.4364   4.4365   4.4366   5.1302   5.1302   5.1302   6.0497   6.0497
     6.5751   6.5751   6.5752   7.5218   8.3127   8.3129   8.3131   8.4791
     8.4792   8.4792   8.5592   8.5593   9.5751  10.2029  10.2029  10.2030
    13.8062  13.8062  13.9061  13.9062  13.9062  14.3248  14.3250  14.3251
    14.6959  14.6961

     occupation numbers
     1.0000   1.0000   1.0000   1.0000   1.0000   1.0000   1.0000   1.0000
     1.0000   1.0000   1.0000   1.0000   1.0000   1.0000   1.0000   1.0000
     1.0000   1.0000   1.0000   1.0000   1.0000   1.0000   1.0000   1.0000
     1.0000   1.0000   1.0000   1.0000   1.0000   1.0000   1.0000   1.0000
     1.0000   1.0000   1.0000   1.0000   1.0000   1.0000   1.0000   1.0000
     1.0000   1.0000   1.0000   1.0000   1.0000   1.0000   1.0000   1.0000
    -0.0000  -0.0000  -0.0000  -0.0000  -0.0000  -0.0000  -0.0000  -0.0000
    -0.0000  -0.0000

     the Fermi energy is    10.6771 ev

!    total energy              =    -715.24211613 Ry
     estimated scf accuracy    <       0.00000072 Ry
     smearing contrib. (-TS)   =       0.00000000 Ry
     internal energy E=F+TS    =    -715.24211613 Ry

     The total energy is F=E-TS. E is the sum of the following terms:
     one-electron contribution =    -151.20402747 Ry
     hartree contribution      =     120.95572656 Ry
     xc contribution           =    -178.18214617 Ry
     ewald contribution        =    -468.76027307 Ry
     one-center paw contrib.   =     -38.05139599 Ry
      -> PAW hartree energy AE =     123.29922963 Ry
      -> PAW hartree energy PS =    -122.85093381 Ry
      -> PAW xc energy AE      =     -69.39213334 Ry
      -> PAW xc energy PS      =      30.89244153 Ry
      -> total E_H with PAW    =     121.40402239 Ry
      -> total E_XC with PAW   =    -216.68183798 Ry

     convergence has been achieved in  11 iterations

     Forces acting on atoms (cartesian axes, Ry/au):

     atom    1 type  1   force =    -0.01412024    0.01412024   -0.01412024
     atom    2 type  1   force =     0.01412024   -0.01412024   -0.01412024
     atom    3 type  1   force =    -0.01412024   -0.01412024    0.01412024
     atom    4 type  1   force =     0.01412024    0.01412024    0.01412024
     atom    5 type  2   force =     0.00391207    0.00391207   -0.00391207
     atom    6 type  2   force =    -0.00391207    0.00391207    0.00391207
     atom    7 type  2   force =     0.00391207   -0.00391207    0.00391207
     atom    8 type  2   force =    -0.00391207   -0.00391207   -0.00391207
     atom    9 type  3   force =    -0.02018633    0.02018633    0.02018633
     atom   10 type  3   force =     0.02018633    0.02018633   -0.02018633
     atom   11 type  3   force =    -0.02018633   -0.02018633   -0.02018633
     atom   12 type  3   force =     0.02018633   -0.02018633    0.02018633
     The non-local contrib.  to forces
     atom    1 type  1   force =     0.01090108   -0.01090108    0.01090108
     atom    2 type  1   force =    -0.01090108    0.01090108    0.01090108
     atom    3 type  1   force =     0.01090108    0.01090108   -0.01090108
     atom    4 type  1   force =    -0.01090108   -0.01090108   -0.01090108
     atom    5 type  2   force =     0.06356927    0.06356927   -0.06356927
     atom    6 type  2   force =    -0.06356927    0.06356927    0.06356927
     atom    7 type  2   force =     0.06356927   -0.06356927    0.06356927
     atom    8 type  2   force =    -0.06356927   -0.06356927   -0.06356927
     atom    9 type  3   force =    -0.02189260    0.02189260    0.02189260
     atom   10 type  3   force =     0.02189260    0.02189260   -0.02189260
     atom   11 type  3   force =    -0.02189260   -0.02189260   -0.02189260
     atom   12 type  3   force =     0.02189260   -0.02189260    0.02189260
     The ionic contribution  to forces
     atom    1 type  1   force =     2.24749845   -2.24749845    2.24749845
     atom    2 type  1   force =    -2.24749845    2.24749845    2.24749845
     atom    3 type  1   force =     2.24749845    2.24749845   -2.24749845
     atom    4 type  1   force =    -2.24749845   -2.24749845   -2.24749845
     atom    5 type  2   force =    -1.72787212   -1.72787212    1.72787212
     atom    6 type  2   force =     1.72787212   -1.72787212   -1.72787212
     atom    7 type  2   force =    -1.72787212    1.72787212   -1.72787212
     atom    8 type  2   force =     1.72787212    1.72787212    1.72787212
     atom    9 type  3   force =     0.70429848   -0.70429848   -0.70429848
     atom   10 type  3   force =    -0.70429848   -0.70429848    0.70429848
     atom   11 type  3   force =     0.70429848    0.70429848    0.70429848
     atom   12 type  3   force =    -0.70429848    0.70429848   -0.70429848
     The local contribution  to forces
     atom    1 type  1   force =    -2.27650640    2.27653050   -2.27618654
     atom    2 type  1   force =     2.27634443   -2.27636407   -2.27670194
     atom    3 type  1   force =    -2.27637783   -2.27653443    2.27637175
     atom    4 type  1   force =     2.27657400    2.27634180    2.27652610
     atom    5 type  2   force =     1.67125170    1.67129997   -1.67124480
     atom    6 type  2   force =    -1.67138462    1.67134956    1.67129886
     atom    7 type  2   force =     1.67136272   -1.67131107    1.67134151
     atom    8 type  2   force =    -1.67131665   -1.67137451   -1.67146847
     atom    9 type  3   force =    -0.70250861    0.70262861    0.70266998
     atom   10 type  3   force =     0.70259880    0.70252334   -0.70261891
     atom   11 type  3   force =    -0.70265093   -0.70257702   -0.70252790
     atom   12 type  3   force =     0.70250627   -0.70259545    0.70252033
     The core correction contribution to forces
     atom    1 type  1   force =     0.00382296   -0.00382311    0.00382804
     atom    2 type  1   force =    -0.00382496    0.00382620    0.00382056
     atom    3 type  1   force =     0.00382756    0.00382199   -0.00382296
     atom    4 type  1   force =    -0.00382078   -0.00382501   -0.00382416
     atom    5 type  2   force =    -0.00315550   -0.00315572    0.00315431
     atom    6 type  2   force =     0.00315384   -0.00315537   -0.00315454
     atom    7 type  2   force =    -0.00315636    0.00315478   -0.00315661
     atom    8 type  2   force =     0.00315395    0.00315379    0.00315406
     atom    9 type  3   force =    -0.00002959    0.00003005    0.00002912
     atom   10 type  3   force =     0.00002951    0.00002901   -0.00002912
     atom   11 type  3   force =    -0.00002896   -0.00002950   -0.00002953
     atom   12 type  3   force =     0.00002884   -0.00002917    0.00002998
     The Hubbard contrib.    to forces
     atom    1 type  1   force =     0.00000000    0.00000000    0.00000000
     atom    2 type  1   force =     0.00000000    0.00000000    0.00000000
     atom    3 type  1   force =     0.00000000    0.00000000    0.00000000
     atom    4 type  1   force =     0.00000000    0.00000000    0.00000000
     atom    5 type  2   force =     0.00000000    0.00000000    0.00000000
     atom    6 type  2   force =     0.00000000    0.00000000    0.00000000
     atom    7 type  2   force =     0.00000000    0.00000000    0.00000000
     atom    8 type  2   force =     0.00000000    0.00000000    0.00000000
     atom    9 type  3   force =     0.00000000    0.00000000    0.00000000
     atom   10 type  3   force =     0.00000000    0.00000000    0.00000000
     atom   11 type  3   force =     0.00000000    0.00000000    0.00000000
     atom   12 type  3   force =     0.00000000    0.00000000    0.00000000
     The SCF correction term to forces
     atom    1 type  1   force =     0.00013518   -0.00021649   -0.00019021
     atom    2 type  1   force =     0.00000864    0.00002474    0.00039131
     atom    3 type  1   force =     0.00008711    0.00018922    0.00001560
     atom    4 type  1   force =    -0.00022546    0.00004103   -0.00022015
     atom    5 type  2   force =     0.00010882    0.00005621   -0.00013042
     atom    6 type  2   force =     0.00000505    0.00001763    0.00006967
     atom    7 type  2   force =    -0.00001603   -0.00005662    0.00000691
     atom    8 type  2   force =    -0.00007514   -0.00001483    0.00008178
     atom    9 type  3   force =    -0.00007545   -0.00004146   -0.00011101
     atom   10 type  3   force =    -0.00004019    0.00002122    0.00008098
     atom   11 type  3   force =     0.00011806    0.00001024   -0.00005311
     atom   12 type  3   force =     0.00003968    0.00003652    0.00007700

     Total force =     0.086406     Total SCF correction =     0.000712

     Computing stress (Cartesian axis) and pressure

          total   stress  (Ry/bohr**3)                   (kbar)     P=     -245.62
  -0.00166972   0.00000000   0.00000000         -245.62        0.00        0.00
   0.00000000  -0.00166972   0.00000000            0.00     -245.62        0.00
   0.00000000   0.00000000  -0.00166972            0.00        0.00     -245.62

     kinetic stress (kbar)  16871.39      0.00      0.00
                                0.00  16871.39      0.00
                                0.00      0.00  16871.39

     local   stress (kbar)  -6025.59     -0.01     -0.02
                               -0.01  -6025.60     -0.04
                               -0.02     -0.04  -6025.61

     nonloc. stress (kbar)   7349.42      0.00      0.00
                                0.00   7349.42      0.00
                                0.00      0.00   7349.42

     hartree stress (kbar)   4749.27      0.00      0.01
                                0.00   4749.27      0.03
                                0.01      0.03   4749.27

     exc-cor stress (kbar)   4803.54      0.00     -0.00
                                0.00   4803.54     -0.00
                               -0.00     -0.00   4803.54

     corecor stress (kbar)  -9587.97     -0.00      0.00
                               -0.00  -9587.97     -0.00
                                0.00     -0.00  -9587.97

     ewald   stress (kbar) -18405.67      0.00      0.00
                                0.00 -18405.67      0.00
                                0.00      0.00 -18405.67

     hubbard stress (kbar)      0.00      0.00      0.00
                                0.00      0.00      0.00
                                0.00      0.00      0.00

     DFT-D   stress (kbar)      0.00      0.00      0.00
                                0.00      0.00      0.00
                                0.00      0.00      0.00

     XDM     stress (kbar)      0.00      0.00      0.00
                                0.00      0.00      0.00
                                0.00      0.00      0.00

     dft-nl  stress (kbar)      0.00      0.00      0.00
                                0.00      0.00      0.00
                                0.00      0.00      0.00

     TS-vdW  stress (kbar)      0.00      0.00      0.00
                                0.00      0.00      0.00
                                0.00      0.00      0.00

[...]

                                0.00      0.00      0.00

     Writing all to output data dir new_calculations/myprefix.save/

     General routines

     Parallel routines

     PAW routines

   This run was terminated on:  15:55:47  20May2023

   JOB DONE.