     Program PWSCF v.7.0 starts on 21May2023 at  1:24:26

     Reading input from espresso_26307.pwi
Warning: card &CELL ignored
Warning: card / ignored

     Current dimensions of program PWSCF are:
     Max number of different atomic species (ntypx) = 10
     Max number of k-points (npk) =  40000
     Max angular momentum in pseudopotentials (lmaxx) =  4

     gamma-point specific algorithms are used
     Message from routine setup:
     using ibrav=0 with symmetry is DISCOURAGED, use correct ibrav instead

     Subspace diagonalization in iterative solution of the eigenvalue problem:
     a serial algorithm will be used

     Using Slab Decomposition

     bravais-lattice index     =            0
     lattice parameter (alat)  =      24.0125  a.u.
     unit-cell volume          =    1373.3484 (a.u.)^3
     number of atoms/cell      =           13
     number of atomic types    =            3
     number of electrons       =       173.00
     number of Kohn-Sham states=          104
     kinetic-energy cutoff     =      30.0000  Ry
     charge density cutoff     =     240.0000  Ry
     scf convergence threshold =      1.0E-06
     mixing beta               =       0.7000
     number of iterations used =            8  plain     mixing
     Exchange-correlation= PBE
                           (   1   4   3   4   0   0   0)

     celldm(1)=  24.012483  celldm(2)=   0.000000  celldm(3)=   0.000000
     celldm(4)=   0.000000  celldm(5)=   0.000000  celldm(6)=   0.000000

     crystal axes: (cart. coord. in units of alat)
               a(1) = (   1.000000   0.000000   0.000000 )
               a(2) = (   0.898184   0.439619   0.000000 )
               a(3) = (  -0.949092  -0.219810   0.225628 )

     reciprocal axes: (cart. coord. in units 2 pi/alat)
               b(1) = (  1.000000 -2.043095  2.216039 )
               b(2) = (  0.000000  2.274695  2.216039 )
               b(3) = (  0.000000  0.000000  4.432077 )

     PseudoPot. # 1 for Eu read from file:
     /home/pragov/projects/rrg-bengioy-ad/pragov/crystal_structure_design/SSSP/Eu.GGA-PBE-paw-v1.0.UPF
     MD5 check sum: acec5fd9176fb57ec8e299eae1ecaf48
     Pseudo is Projector augmented-wave + core cor, Zval = 17.0
     Generated using ATOMPAW code
     Shape of augmentation charge: BESSEL
     Using radial grid of 1109 points,  8 beta functions with:
                l(1) =   0
                l(2) =   0
                l(3) =   1
                l(4) =   1
                l(5) =   2
                l(6) =   2
                l(7) =   3
                l(8) =   3
     Q(r) pseudized with 0 coefficients

     PseudoPot. # 2 for Cu read from file:
     /home/pragov/projects/rrg-bengioy-ad/pragov/crystal_structure_design/SSSP/Cu_pbe_v1.2.uspp.F.UPF
     MD5 check sum: 6e991ff952a84172a2a52a1c1e996048
     Pseudo is Ultrasoft + core correction, Zval = 19.0
     Generated by new atomic code, or converted to UPF format
     Using radial grid of  867 points,  6 beta functions with:
                l(1) =   0
                l(2) =   0
                l(3) =   1
                l(4) =   1
                l(5) =   2
                l(6) =   2
     Q(r) pseudized with  8 coefficients,  rinner =    1.150   1.150   1.150
                                                       1.150   1.150

     PseudoPot. # 3 for P  read from file:
     /home/pragov/projects/rrg-bengioy-ad/pragov/crystal_structure_design/SSSP/P.pbe-n-rrkjus_psl.1.0.0.UPF
     MD5 check sum: 8b930f418f0a4573dca56cd030ffe088
     Pseudo is Ultrasoft + core correction, Zval =  5.0
     Generated using "atomic" code by A. Dal Corso  v.5.1
     Using radial grid of 1147 points,  6 beta functions with:
                l(1) =   0
                l(2) =   0
                l(3) =   1
                l(4) =   1
                l(5) =   2
                l(6) =   2
     Q(r) pseudized with 0 coefficients

     atomic species   valence    mass     pseudopotential
        Eu            17.00   151.96400     Eu( 1.00)
        Cu            19.00    63.54600     Cu( 1.00)
        P              5.00    30.97376     P ( 1.00)

      4 Sym. Ops., with inversion, found

                                    s                        frac. trans.

      isym =  1     identity

 cryst.   s( 1) = (     1          0          0      )
                  (     0          1          0      )
                  (     0          0          1      )

 cart.    s( 1) = (  1.0000000  0.0000000 -0.0000000 )
                  (  0.0000000  1.0000000 -0.0000000 )
                  (  0.0000000  0.0000000  1.0000000 )

      isym =  2     180 deg rotation - cart. axis [0,0,1]

[...]

      isym =  3     inversion

[...]

      isym =  4     inv. 180 deg rotation - cart. axis [0,0,1]

 cryst.   s( 4) = (     1          0          0      )
                  (     0          1          0      )
                  (    -1         -1         -1      )

 cart.    s( 4) = (  1.0000000  0.0000000  0.0000000 )
                  (  0.0000000  1.0000000  0.0000000 )
                  (  0.0000000  0.0000000 -1.0000000 )

   Cartesian axes

     site n.     atom                  positions (alat units)
         1           Eu  tau(   1) = (   1.2316861   0.2852585   0.0000000  )
         2           Eu  tau(   2) = (   0.6664980   0.1543609   0.0000000  )
         3           Cu  tau(   3) = (   0.8239797   0.3066337   0.1128139  )
         4           Cu  tau(   4) = (   0.8748876   0.0868240   0.1128139  )
         5           Cu  tau(   5) = (   0.1251124  -0.0868240   0.1128139  )
         6           Cu  tau(   6) = (   0.0742045   0.1329857   0.1128139  )
         7           Cu  tau(   7) = (   0.5000000   0.0000000   0.1128139  )
         8           Cu  tau(   8) = (   0.4490921   0.2198097   0.1128139  )
         9           P   tau(   9) = (   0.9490921   0.2198097   0.0000000  )
        10           P   tau(  10) = (   1.6986432   0.3934057   0.0000000  )
        11           P   tau(  11) = (   0.1995409   0.0462137   0.0000000  )
        12           P   tau(  12) = (   1.5228353   0.3526886   0.0000000  )
        13           P   tau(  13) = (   0.3753488   0.0869308   0.0000000  )

   Crystallographic axes

     site n.     atom                  positions (cryst. coord.)
         1           Eu  tau(   1) = (  0.6488760  0.6488760  0.0000000  )
         2           Eu  tau(   2) = (  0.3511240  0.3511240  0.0000000  )
         3           Cu  tau(   3) = (  0.4474980  0.9474980  0.5000000  )
         4           Cu  tau(   4) = (  0.9474980  0.4474980  0.5000000  )
         5           Cu  tau(   5) = (  0.5525020  0.0525020  0.5000000  )
         6           Cu  tau(   6) = (  0.0525020  0.5525020  0.5000000  )
         7           Cu  tau(   7) = (  0.7500000  0.2500000  0.5000000  )
         8           Cu  tau(   8) = (  0.2500000  0.7500000  0.5000000  )
         9           P   tau(   9) = (  0.5000000  0.5000000  0.0000000  )
        10           P   tau(  10) = (  0.8948780  0.8948780  0.0000000  )
        11           P   tau(  11) = (  0.1051220  0.1051220  0.0000000  )
        12           P   tau(  12) = (  0.8022590  0.8022590  0.0000000  )
        13           P   tau(  13) = (  0.1977410  0.1977410  0.0000000  )

     number of k points=     1  Methfessel-Paxton smearing, width (Ry)=  0.0010
                       cart. coord. in units 2pi/alat
        k(    1) = (   0.0000000   0.0000000   0.0000000), wk =   2.0000000

                       cryst. coord.
        k(    1) = (   0.0000000   0.0000000   0.0000000), wk =   2.0000000

     Initial potential from superposition of free atoms

     starting charge     166.9897, renormalised to     173.0000
     Starting wfcs are  162 randomized atomic wfcs
     Checking if some PAW data can be deallocated...

     Self-consistent Calculation

     iteration #  1     ecut=    30.00 Ry     beta= 0.70
     Davidson diagonalization with overlap

     ethr =  1.00E-02,  avg # of iterations =  4.0

     total energy              =   -3628.89602543 Ry
     estimated scf accuracy    <     157.83586911 Ry

[...]

     total energy              =   -3775.74779818 Ry
     estimated scf accuracy    <       0.00000304 Ry

     iteration # 76     ecut=    30.00 Ry     beta= 0.70
     Davidson diagonalization with overlap

     ethr =  7.59E-10,  avg # of iterations =  1.0

     End of self-consistent calculation

          k = 0.0000 0.0000 0.0000 (  1899 PWs)   bands (ev):

  -100.3405-100.3370-100.0279-100.0262-100.0245-100.0226 -57.7231 -57.7226
   -57.7165 -57.7160 -57.6570 -57.6556 -57.4891 -57.4875 -57.4634 -57.4623
   -57.3621 -57.3619 -57.3592 -57.3591 -57.3528 -57.3527 -57.3502 -57.3501
   -26.7877 -26.7875  -5.9022  -5.8769  -5.5116  -5.5112  -5.5111  -5.5106
     0.2882   1.0197   1.0290   2.9596   3.4447   6.8247   6.8403   7.7882
     8.0531   8.0531   8.5840   8.5844   8.8962   9.0749   9.0750   9.0800
     9.1060   9.2360   9.2360   9.3086   9.3163   9.3333   9.3456   9.3456
     9.4893   9.7871   9.9793  10.1765  10.1766  10.2938  10.3020  10.3537
    10.4236  10.4326  10.7432  10.7498  10.7498  10.7712  10.7713  10.7955
    10.8206  12.2353  12.2353  12.7554  12.7555  13.2575  13.2819  13.3617
    13.5119  13.5330  13.5335  13.7021  13.7022  13.7909  13.9184  13.9243
    14.0000  14.0025  14.0882  14.0884  14.0904  14.0912  14.2143  14.4260
    14.4262  14.6857  14.9332  15.6021  16.2963  16.3147  16.8053  17.1314

     occupation numbers
     1.0000   1.0000   1.0000   1.0000   1.0000   1.0000   1.0000   1.0000
     1.0000   1.0000   1.0000   1.0000   1.0000   1.0000   1.0000   1.0000
     1.0000   1.0000   1.0000   1.0000   1.0000   1.0000   1.0000   1.0000
     1.0000   1.0000   1.0000   1.0000   1.0000   1.0000   1.0000   1.0000
     1.0000   1.0000   1.0000   1.0000   1.0000   1.0000   1.0000   1.0000
     1.0000   1.0000   1.0000   1.0000   1.0000   1.0000   1.0000   1.0000
     1.0000   1.0000   1.0000   1.0000   1.0000   1.0000   1.0000   1.0000
     1.0000   1.0000   1.0000   1.0000   1.0000   1.0000   1.0000   1.0000
     1.0000   1.0000   1.0000   1.0000   1.0000   1.0000   1.0000   1.0000
     1.0000   1.0000   1.0000   1.0000   1.0000   1.0000   1.0000   1.0000
     1.0000   1.0000   1.0000   1.0000   1.0000   1.0000   0.3979   0.1021
    -0.0000  -0.0000  -0.0000  -0.0000  -0.0000  -0.0000  -0.0000  -0.0000
    -0.0000  -0.0000  -0.0000  -0.0000  -0.0000  -0.0000  -0.0000  -0.0000

     the Fermi energy is    13.9167 ev

!    total energy              =   -3775.74779749 Ry
     estimated scf accuracy    <       0.00000094 Ry
     smearing contrib. (-TS)   =      -0.00035034 Ry
     internal energy E=F+TS    =   -3775.74744715 Ry

     The total energy is F=E-TS. E is the sum of the following terms:
     one-electron contribution =   -2272.54927947 Ry
     hartree contribution      =    1235.91737230 Ry
     xc contribution           =    -295.28437334 Ry
     ewald contribution        =   -1529.36183302 Ry
     one-center paw contrib.   =    -914.46933361 Ry
      -> PAW hartree energy AE =     315.26321784 Ry
      -> PAW hartree energy PS =    -301.69058261 Ry
      -> PAW xc energy AE      =    -966.33542352 Ry
      -> PAW xc energy PS      =      38.29345468 Ry
      -> total E_H with PAW    =    1249.49000752 Ry
      -> total E_XC with PAW   =   -1223.32634218 Ry

     convergence has been achieved in  76 iterations

     Forces acting on atoms (cartesian axes, Ry/au):

     atom    1 type  1   force =     0.02130032    0.00586873    0.00000000
     atom    2 type  1   force =    -0.02130032   -0.00586873   -0.00000000
     atom    3 type  2   force =    -0.05822665   -0.01324559   -0.00003699
     atom    4 type  2   force =    -0.05822665   -0.01324559    0.00003699
     atom    5 type  2   force =     0.05822665    0.01324559    0.00003699
     atom    6 type  2   force =     0.05822665    0.01324559   -0.00003699
     atom    7 type  2   force =     0.00000000    0.00000000   -0.00000754
     atom    8 type  2   force =     0.00000000    0.00000000    0.00000754
     atom    9 type  3   force =     0.00000000    0.00000000    0.00000000
     atom   10 type  3   force =    -0.05906893   -0.01400888   -0.00000000
     atom   11 type  3   force =     0.05906893    0.01400888    0.00000000
     atom   12 type  3   force =     0.08599754    0.02073540    0.00000000
     atom   13 type  3   force =    -0.08599754   -0.02073540   -0.00000000
     The non-local contrib.  to forces
     atom    1 type  1   force =     0.09759457    0.01863898    0.00000000
     atom    2 type  1   force =    -0.09759457   -0.01863898   -0.00000000
     atom    3 type  2   force =     0.64190121    0.14750136    0.00177029
     atom    4 type  2   force =     0.64190121    0.14750136   -0.00177029
     atom    5 type  2   force =    -0.64190121   -0.14750136   -0.00177029
     atom    6 type  2   force =    -0.64190121   -0.14750136    0.00177029
     atom    7 type  2   force =     0.00000000    0.00000000    0.00260056
     atom    8 type  2   force =     0.00000000    0.00000000   -0.00260056
     atom    9 type  3   force =     0.00000000    0.00000000    0.00000000
     atom   10 type  3   force =    -0.06939579   -0.01699421   -0.00000000
     atom   11 type  3   force =     0.06939579    0.01699421    0.00000000
     atom   12 type  3   force =    -0.00502037   -0.00033121   -0.00000000
     atom   13 type  3   force =     0.00502037    0.00033121    0.00000000
     The ionic contribution  to forces
     atom    1 type  1   force =    16.32500466    3.78087066    0.00000000
     atom    2 type  1   force =   -16.32500466   -3.78087066   -0.00000000
     atom    3 type  2   force =   -29.89725916   -6.92420446   -0.00000000
     atom    4 type  2   force =   -29.89725916   -6.92420446   -0.00000000
     atom    5 type  2   force =    29.89725916    6.92420446    0.00000000
     atom    6 type  2   force =    29.89725917    6.92420446    0.00000000
     atom    7 type  2   force =    -0.00000000   -0.00000000    0.00000000
     atom    8 type  2   force =    -0.00000000    0.00000000    0.00000000
     atom    9 type  3   force =     0.00000000   -0.00000000   -0.00000000
     atom   10 type  3   force =   -13.41072084   -3.10592260   -0.00000000
     atom   11 type  3   force =    13.41072084    3.10592260    0.00000000
     atom   12 type  3   force =     5.95208325    1.37850233    0.00000000
     atom   13 type  3   force =    -5.95208325   -1.37850233   -0.00000000
     The local contribution  to forces
     atom    1 type  1   force =   -16.40146169   -3.79372915    0.00000384
     atom    2 type  1   force =    16.40018643    3.79335894    0.00000029
     atom    3 type  2   force =    29.19938904    6.76397958   -0.00180124
     atom    4 type  2   force =    29.19938511    6.76398143    0.00181002
     atom    5 type  2   force =   -29.19497284   -6.76295561    0.00178426
     atom    6 type  2   force =   -29.19498877   -6.76295912   -0.00179081
     atom    7 type  2   force =    -0.00256320   -0.00058570   -0.00258831
     atom    8 type  2   force =    -0.00255095   -0.00058270    0.00259157
     atom    9 type  3   force =     0.00076621    0.00018339    0.00000131
     atom   10 type  3   force =    13.41781024    3.10811193    0.00000017
     atom   11 type  3   force =   -13.41751759   -3.10804709   -0.00000022
     atom   12 type  3   force =    -5.86259984   -1.35775374   -0.00000249
     atom   13 type  3   force =     5.86151827    1.35749926   -0.00000117
     The core correction contribution to forces
     atom    1 type  1   force =    -0.00000223   -0.00000034    0.00000000
     atom    2 type  1   force =     0.00000223    0.00000034    0.00000000
     atom    3 type  2   force =    -0.00108467   -0.00024757   -0.00000099
     atom    4 type  2   force =    -0.00108466   -0.00024757    0.00000101
     atom    5 type  2   force =     0.00108469    0.00024758    0.00000100
     atom    6 type  2   force =     0.00108473    0.00024758   -0.00000100
     atom    7 type  2   force =     0.00000002    0.00000001   -0.00000308
     atom    8 type  2   force =     0.00000003    0.00000002    0.00000309
     atom    9 type  3   force =     0.00000266    0.00000082    0.00000007
     atom   10 type  3   force =     0.00309538    0.00076405    0.00000008
     atom   11 type  3   force =    -0.00309587   -0.00076422   -0.00000003
     atom   12 type  3   force =     0.00098277    0.00018554   -0.00000014
     atom   13 type  3   force =    -0.00098065   -0.00018532   -0.00000002
     The Hubbard contrib.    to forces
     atom    1 type  1   force =     0.00000000    0.00000000    0.00000000
     atom    2 type  1   force =     0.00000000    0.00000000    0.00000000
     atom    3 type  2   force =     0.00000000    0.00000000    0.00000000
     atom    4 type  2   force =     0.00000000    0.00000000    0.00000000
     atom    5 type  2   force =     0.00000000    0.00000000    0.00000000
     atom    6 type  2   force =     0.00000000    0.00000000    0.00000000
     atom    7 type  2   force =     0.00000000    0.00000000    0.00000000
     atom    8 type  2   force =     0.00000000    0.00000000    0.00000000
     atom    9 type  3   force =     0.00000000    0.00000000    0.00000000
     atom   10 type  3   force =     0.00000000    0.00000000    0.00000000
     atom   11 type  3   force =     0.00000000    0.00000000    0.00000000
     atom   12 type  3   force =     0.00000000    0.00000000    0.00000000
     atom   13 type  3   force =     0.00000000    0.00000000    0.00000000
     The SCF correction term to forces
     atom    1 type  1   force =     0.00016881    0.00008602   -0.00000363
     atom    2 type  1   force =     0.00111405    0.00027907    0.00000270
     atom    3 type  2   force =    -0.00107250   -0.00025006   -0.00000230
     atom    4 type  2   force =    -0.00105451   -0.00025018   -0.00000268
     atom    5 type  2   force =    -0.00313120   -0.00072163    0.00002288
     atom    6 type  2   force =    -0.00312403   -0.00072320   -0.00001631
     atom    7 type  2   force =     0.00243726    0.00055418   -0.00001430
     atom    8 type  2   force =     0.00242414    0.00055444    0.00001584
     atom    9 type  3   force =    -0.00073603   -0.00017275   -0.00000043
     atom   10 type  3   force =     0.00013858    0.00003040    0.00000048
     atom   11 type  3   force =    -0.00043773   -0.00009817    0.00000063
     atom   12 type  3   force =     0.00056950    0.00013316    0.00000066
     atom   13 type  3   force =     0.00054548    0.00012244    0.00000049

     Total force =     0.195605     Total SCF correction =     0.006183

     Computing stress (Cartesian axis) and pressure

          total   stress  (Ry/bohr**3)                   (kbar)     P=     -390.94
  -0.00330086  -0.00023786  -0.00000000         -485.57      -34.99       -0.00
  -0.00023786  -0.00236591  -0.00000000          -34.99     -348.04       -0.00
  -0.00000000  -0.00000000  -0.00230591           -0.00       -0.00     -339.21

     kinetic stress (kbar)  22380.44    -71.52      0.00
                              -71.52  22669.72      0.00
                                0.00      0.00  22686.68

     local   stress (kbar)   5346.44   9019.05     -0.00
                             9019.05 -31505.88     -0.01
                               -0.00     -0.01 -33596.83

     nonloc. stress (kbar)  17250.56    -52.06      0.00
                              -52.06  17458.46      0.00
                                0.00      0.00  17472.24

     hartree stress (kbar)  31626.35  -4462.45      0.00
                            -4462.45  49861.83      0.01
                                0.00      0.01  50896.08

     exc-cor stress (kbar)  -9193.19     -0.42      0.00
                               -0.42  -9191.38      0.00
                                0.00      0.00  -9191.28

     corecor stress (kbar)   -772.49      1.09      0.00
                                1.09   -776.99     -0.00
                                0.00     -0.00   -777.24

     ewald   stress (kbar) -67123.68  -4468.68     -0.00
                            -4468.68 -48863.80     -0.00
                               -0.00     -0.00 -47828.85

     hubbard stress (kbar)      0.00      0.00      0.00
                                0.00      0.00      0.00
                                0.00      0.00      0.00

     DFT-D   stress (kbar)      0.00      0.00      0.00
                                0.00      0.00      0.00
                                0.00      0.00      0.00

     XDM     stress (kbar)      0.00      0.00      0.00
                                0.00      0.00      0.00
                                0.00      0.00      0.00

     dft-nl  stress (kbar)      0.00      0.00      0.00
                                0.00      0.00      0.00
                                0.00      0.00      0.00

     TS-vdW  stress (kbar)      0.00      0.00      0.00
                                0.00      0.00      0.00
                                0.00      0.00      0.00

[...]

                                0.00      0.00      0.00

     Writing all to output data dir new_calculations/myprefix.save/

     General routines

     Parallel routines

     PAW routines

   This run was terminated on:   1:29:23  21May2023

   JOB DONE.