     Program PWSCF v.7.0 starts on 21May2023 at  2:23: 0

     Reading input from espresso_26336.pwi
Warning: card &CELL ignored
Warning: card / ignored

     Current dimensions of program PWSCF are:
     Max number of different atomic species (ntypx) = 10
     Max number of k-points (npk) =  40000
     Max angular momentum in pseudopotentials (lmaxx) =  4

     gamma-point specific algorithms are used
     Message from routine setup:
     using ibrav=0 with symmetry is DISCOURAGED, use correct ibrav instead

     Subspace diagonalization in iterative solution of the eigenvalue problem:
     a serial algorithm will be used

     Using Slab Decomposition

     bravais-lattice index     =            0
     lattice parameter (alat)  =      12.8940  a.u.
     unit-cell volume          =    1514.1005 (a.u.)^3
     number of atoms/cell      =           10
     number of atomic types    =            4
     number of electrons       =       108.00
     number of Kohn-Sham states=           65
     kinetic-energy cutoff     =      30.0000  Ry
     charge density cutoff     =     240.0000  Ry
     scf convergence threshold =      1.0E-06
     mixing beta               =       0.7000
     number of iterations used =            8  plain     mixing
     Exchange-correlation=  SLA  PW   PBX  PBC
                           (   1   4   3   4   0   0   0)

     celldm(1)=  12.893976  celldm(2)=   0.000000  celldm(3)=   0.000000
     celldm(4)=   0.000000  celldm(5)=   0.000000  celldm(6)=   0.000000

     crystal axes: (cart. coord. in units of alat)
               a(1) = (   1.000000   0.000000   0.000000 )
               a(2) = (  -0.823000   0.568041   0.000000 )
               a(3) = (   0.000000   0.000000   1.243410 )

     reciprocal axes: (cart. coord. in units 2 pi/alat)
               b(1) = (  1.000000  1.448839  0.000000 )
               b(2) = (  0.000000  1.760436  0.000000 )
               b(3) = (  0.000000  0.000000  0.804240 )

     PseudoPot. # 1 for Cu read from file:
     /home/pragov/projects/rrg-bengioy-ad/pragov/crystal_structure_design/SSSP/Cu_pbe_v1.2.uspp.F.UPF
     MD5 check sum: 6e991ff952a84172a2a52a1c1e996048
     Pseudo is Ultrasoft + core correction, Zval = 19.0
     Generated by new atomic code, or converted to UPF format
     Using radial grid of  867 points,  6 beta functions with:
                l(1) =   0
                l(2) =   0
                l(3) =   1
                l(4) =   1
                l(5) =   2
                l(6) =   2
     Q(r) pseudized with  8 coefficients,  rinner =    1.150   1.150   1.150
                                                       1.150   1.150

     PseudoPot. # 2 for Bi read from file:
     /home/pragov/projects/rrg-bengioy-ad/pragov/crystal_structure_design/SSSP/Bi_pbe_v1.uspp.F.UPF
     MD5 check sum: cceb9f28ec65b6d7ff33140f5b0b1758
     Pseudo is Ultrasoft + core correction, Zval = 15.0
     Generated by new atomic code, or converted to UPF format
     Using radial grid of  899 points,  6 beta functions with:
                l(1) =   0
                l(2) =   0
                l(3) =   1
                l(4) =   1
                l(5) =   2
                l(6) =   2
     Q(r) pseudized with  6 coefficients,  rinner =    1.000   1.000   1.000
                                                       1.000   1.000

     PseudoPot. # 3 for S  read from file:
     /home/pragov/projects/rrg-bengioy-ad/pragov/crystal_structure_design/SSSP/s_pbe_v1.4.uspp.F.UPF
     MD5 check sum: 88d86576ff6df21479756cfb9bdac1df
     Pseudo is Ultrasoft + core correction, Zval =  6.0
     Generated by new atomic code, or converted to UPF format
     Using radial grid of  907 points,  6 beta functions with:
                l(1) =   0
                l(2) =   0
                l(3) =   1
                l(4) =   1
                l(5) =   2
                l(6) =   2
     Q(r) pseudized with  8 coefficients,  rinner =    1.300   1.300   1.300
                                                       1.300   1.300

     PseudoPot. # 4 for Cl read from file:
     /home/pragov/projects/rrg-bengioy-ad/pragov/crystal_structure_design/SSSP/cl_pbe_v1.4.uspp.F.UPF
     MD5 check sum: fc6f6913ecf08c9257cb748ef0700058
     Pseudo is Ultrasoft + core correction, Zval =  7.0
     Generated by new atomic code, or converted to UPF format
     Using radial grid of  909 points,  6 beta functions with:
                l(1) =   0
                l(2) =   0
                l(3) =   1
                l(4) =   1
                l(5) =   2
                l(6) =   2
     Q(r) pseudized with  8 coefficients,  rinner =    1.300   1.300   1.300
                                                       1.300   1.300

     atomic species   valence    mass     pseudopotential
        Cu            19.00    63.54600     Cu( 1.00)
        Bi            15.00   208.98040     Bi( 1.00)
        S              6.00    32.06000     S ( 1.00)
        Cl             7.00    35.45000     Cl( 1.00)

      4 Sym. Ops., with inversion, found ( 2 have fractional translation)

                                    s                        frac. trans.

      isym =  1     identity

 cryst.   s( 1) = (     1          0          0      )
                  (     0          1          0      )
                  (     0          0          1      )

 cart.    s( 1) = (  1.0000000  0.0000000  0.0000000 )
                  (  0.0000000  1.0000000  0.0000000 )
                  (  0.0000000  0.0000000  1.0000000 )

      isym =  2     180 deg rotation - cart. axis [0,0,1]

 cryst.   s( 2) = (    -1          0          0      )    f =(  0.0000000 )
                  (     0         -1          0      )       (  0.0000000 )
                  (     0          0          1      )       ( -0.5000000 )

 cart.    s( 2) = ( -1.0000000 -0.0000000  0.0000000 )    f =(  0.0000000 )
                  (  0.0000000 -1.0000000  0.0000000 )       (  0.0000000 )
                  (  0.0000000  0.0000000  1.0000000 )       ( -0.6217049 )

      isym =  3     inversion

 cryst.   s( 3) = (    -1          0          0      )
                  (     0         -1          0      )
                  (     0          0         -1      )

 cart.    s( 3) = ( -1.0000000 -0.0000000  0.0000000 )
                  (  0.0000000 -1.0000000  0.0000000 )
                  (  0.0000000  0.0000000 -1.0000000 )

      isym =  4     inv. 180 deg rotation - cart. axis [0,0,1]

 cryst.   s( 4) = (     1          0          0      )    f =(  0.0000000 )
                  (     0          1          0      )       (  0.0000000 )
                  (     0          0         -1      )       (  0.5000000 )

 cart.    s( 4) = (  1.0000000  0.0000000  0.0000000 )    f =(  0.0000000 )
                  (  0.0000000  1.0000000  0.0000000 )       (  0.0000000 )
                  (  0.0000000  0.0000000 -1.0000000 )       (  0.6217049 )

   Cartesian axes

     site n.     atom                  positions (alat units)
         1           Cu  tau(   1) = (   0.0000000   0.0000000   0.0000000  )
         2           Cu  tau(   2) = (   0.0000000   0.0000000   0.6217049  )
         3           Bi  tau(   3) = (  -0.2803331   0.3989478   0.3108525  )
         4           Bi  tau(   4) = (   0.4573330   0.1690934   0.9325574  )
         5           S   tau(   5) = (  -0.7078029   0.5321461   0.9325574  )
         6           S   tau(   6) = (   0.8848028   0.0358951   0.3108525  )
         7           Cl  tau(   7) = (   0.3590787   0.1997091   0.0783510  )
         8           Cl  tau(   8) = (   0.3590787   0.1997091   0.5433539  )
         9           Cl  tau(   9) = (  -0.1820789   0.3683321   1.1650588  )
        10           Cl  tau(  10) = (  -0.1820789   0.3683321   0.7000559  )

   Crystallographic axes

     site n.     atom                  positions (cryst. coord.)
         1           Cu  tau(   1) = (  0.0000000  0.0000000  0.0000000  )
         2           Cu  tau(   2) = (  0.0000000  0.0000000  0.5000000  )
         3           Bi  tau(   3) = (  0.2976780  0.7023220  0.2500000  )
         4           Bi  tau(   4) = (  0.7023220  0.2976780  0.7500000  )
         5           S   tau(   5) = (  0.0631910  0.9368090  0.7500000  )
         6           S   tau(   6) = (  0.9368090  0.0631910  0.2500000  )
         7           Cl  tau(   7) = (  0.6484250  0.3515750  0.0630130  )
         8           Cl  tau(   8) = (  0.6484250  0.3515750  0.4369870  )
         9           Cl  tau(   9) = (  0.3515750  0.6484250  0.9369870  )
        10           Cl  tau(  10) = (  0.3515750  0.6484250  0.5630130  )

     number of k points=     1  Methfessel-Paxton smearing, width (Ry)=  0.0010
                       cart. coord. in units 2pi/alat
        k(    1) = (   0.0000000   0.0000000   0.0000000), wk =   2.0000000

                       cryst. coord.
        k(    1) = (   0.0000000   0.0000000   0.0000000), wk =   2.0000000

     Check: negative core charge=   -0.000003

     Initial potential from superposition of free atoms

     starting charge     103.9998, renormalised to     108.0000

     negative rho (up, down):  1.536E-01 0.000E+00
     Starting wfcs are   68 randomized atomic wfcs

     Self-consistent Calculation

     iteration #  1     ecut=    30.00 Ry     beta= 0.70
     Davidson diagonalization with overlap

     ethr =  1.00E-02,  avg # of iterations =  4.0

     negative rho (up, down):  1.434E-01 0.000E+00

     total energy              =   -1357.86998217 Ry
     estimated scf accuracy    <       2.75557831 Ry

[...]

     total energy              =   -1359.41293563 Ry
     estimated scf accuracy    <       0.00000956 Ry

     iteration # 10     ecut=    30.00 Ry     beta= 0.70
     Davidson diagonalization with overlap

     ethr =  8.85E-09,  avg # of iterations =  3.0

[...]

     End of self-consistent calculation

          k = 0.0000 0.0000 0.0000 (  2113 PWs)   bands (ev):

  -103.5073-103.5056 -61.0130 -61.0114 -60.8820 -60.8808 -60.8323 -60.8306
   -16.1794 -16.1788 -16.1326 -16.1324 -16.1171 -16.1154 -16.1093 -16.1064
   -16.1027 -16.0999  -8.2473  -7.5719  -7.4262  -7.1088  -6.0236  -5.6270
    -2.7747  -2.5521   2.3204   2.7401   2.7677   2.9759   3.5301   3.7243
     3.9361   4.2433   4.4380   4.6249   4.6652   4.6813   4.7442   5.0600
     5.0703   5.0893   5.2353   5.5837   6.2630   6.2762   6.3922   6.4436
     6.4871   6.6325   6.8149   6.9588   7.0518   7.2960   8.5640   9.3771
     9.7343  10.5112  10.5329  10.8209  11.3044  12.8092  13.0485  13.1393
    14.1331

     occupation numbers
     1.0000   1.0000   1.0000   1.0000   1.0000   1.0000   1.0000   1.0000
     1.0000   1.0000   1.0000   1.0000   1.0000   1.0000   1.0000   1.0000
     1.0000   1.0000   1.0000   1.0000   1.0000   1.0000   1.0000   1.0000
     1.0000   1.0000   1.0000   1.0000   1.0000   1.0000   1.0000   1.0000
     1.0000   1.0000   1.0000   1.0000   1.0000   1.0000   1.0000   1.0000
     1.0000   1.0000   1.0000   1.0000   1.0000   1.0000   1.0000   1.0000
     1.0000   1.0000   1.0000   1.0000   1.0000   1.0000  -0.0000  -0.0000
    -0.0000  -0.0000  -0.0000  -0.0000  -0.0000  -0.0000  -0.0000  -0.0000
    -0.0000

     the Fermi energy is     7.8209 ev

!    total energy              =   -1359.41293746 Ry
     estimated scf accuracy    <       0.00000096 Ry
     smearing contrib. (-TS)   =       0.00000000 Ry
     internal energy E=F+TS    =   -1359.41293746 Ry

     The total energy is F=E-TS. E is the sum of the following terms:
     one-electron contribution =    -932.09597174 Ry
     hartree contribution      =     517.44785458 Ry
     xc contribution           =    -261.68767879 Ry
     ewald contribution        =    -683.07714152 Ry

     convergence has been achieved in  10 iterations

     negative rho (up, down):  1.463E-01 0.000E+00

     Forces acting on atoms (cartesian axes, Ry/au):

     atom    1 type  1   force =     0.00000000    0.00000000    0.00000000
     atom    2 type  1   force =     0.00000000    0.00000000    0.00000000
     atom    3 type  2   force =    -0.02538197    0.00793146    0.00000000
     atom    4 type  2   force =     0.02538197   -0.00793146    0.00000000
     atom    5 type  3   force =    -0.01059697    0.00330525    0.00000000
     atom    6 type  3   force =     0.01059697   -0.00330525    0.00000000
     atom    7 type  4   force =     0.01440347   -0.00448661    0.01611698
     atom    8 type  4   force =     0.01440347   -0.00448661   -0.01611698
     atom    9 type  4   force =    -0.01440347    0.00448661   -0.01611698
     atom   10 type  4   force =    -0.01440347    0.00448661    0.01611698
     The non-local contrib.  to forces
     atom    1 type  1   force =     0.00000000    0.00000000    0.00000000
     atom    2 type  1   force =     0.00000000    0.00000000    0.00000000
     atom    3 type  2   force =     0.31537183   -0.09823903    0.00000000
     atom    4 type  2   force =    -0.31537183    0.09823903    0.00000000
     atom    5 type  3   force =    -0.03510304    0.01094344    0.00000000
     atom    6 type  3   force =     0.03510304   -0.01094344    0.00000000
     atom    7 type  4   force =     0.02744753   -0.00854767   -0.05901149
     atom    8 type  4   force =     0.02744753   -0.00854767    0.05901149
     atom    9 type  4   force =    -0.02744753    0.00854767    0.05901149
     atom   10 type  4   force =    -0.02744753    0.00854767   -0.05901149
     The ionic contribution  to forces
     atom    1 type  1   force =     0.00000000   -0.00000000    0.00000000
     atom    2 type  1   force =     0.00000000   -0.00000000   -0.00000000
     atom    3 type  2   force =    -7.53129597    2.34672831   -0.00000000
     atom    4 type  2   force =     7.53129597   -2.34672831    0.00000000
     atom    5 type  3   force =     1.82271425   -0.56795207    0.00000000
     atom    6 type  3   force =    -1.82271425    0.56795207   -0.00000000
     atom    7 type  4   force =     3.46234139   -1.07885477    3.64270463
     atom    8 type  4   force =     3.46234139   -1.07885477   -3.64270463
     atom    9 type  4   force =    -3.46234139    1.07885477   -3.64270463
     atom   10 type  4   force =    -3.46234139    1.07885477    3.64270463
     The local contribution  to forces
     atom    1 type  1   force =     0.00002642   -0.00001938   -0.00019859
     atom    2 type  1   force =     0.00000259    0.00001149    0.00021844
     atom    3 type  2   force =     7.20096777   -2.24384963    0.00079579
     atom    4 type  2   force =    -7.20100183    2.24379772   -0.00085081
     atom    5 type  3   force =    -1.80027368    0.56094790   -0.00025454
     atom    6 type  3   force =     1.80022058   -0.56094123    0.00026663
     atom    7 type  4   force =    -3.47452047    1.08265596   -3.56843767
     atom    8 type  4   force =    -3.47497745    1.08278649    3.56872449
     atom    9 type  4   force =     3.47449365   -1.08263311    3.56834432
     atom   10 type  4   force =     3.47497021   -1.08279496   -3.56854335
     The core correction contribution to forces
     atom    1 type  1   force =    -0.00000002    0.00000002    0.00000011
     atom    2 type  1   force =    -0.00000004    0.00000004   -0.00000009
     atom    3 type  2   force =    -0.01102463    0.00343196    0.00000548
     atom    4 type  2   force =     0.01102221   -0.00343578   -0.00000249
     atom    5 type  3   force =     0.00239098   -0.00074581    0.00000528
     atom    6 type  3   force =    -0.00239199    0.00074545   -0.00000381
     atom    7 type  4   force =    -0.00032939    0.00010179    0.00104157
     atom    8 type  4   force =    -0.00033492    0.00010362   -0.00104309
     atom    9 type  4   force =     0.00032851   -0.00010271   -0.00104115
     atom   10 type  4   force =     0.00033427   -0.00010367    0.00104480
     The Hubbard contrib.    to forces
     atom    1 type  1   force =     0.00000000    0.00000000    0.00000000
     atom    2 type  1   force =     0.00000000    0.00000000    0.00000000
     atom    3 type  2   force =     0.00000000    0.00000000    0.00000000
     atom    4 type  2   force =     0.00000000    0.00000000    0.00000000
     atom    5 type  3   force =     0.00000000    0.00000000    0.00000000
     atom    6 type  3   force =     0.00000000    0.00000000    0.00000000
     atom    7 type  4   force =     0.00000000    0.00000000    0.00000000
     atom    8 type  4   force =     0.00000000    0.00000000    0.00000000
     atom    9 type  4   force =     0.00000000    0.00000000    0.00000000
     atom   10 type  4   force =     0.00000000    0.00000000    0.00000000
     The SCF correction term to forces
     atom    1 type  1   force =    -0.00004704    0.00002790    0.00025592
     atom    2 type  1   force =    -0.00001538   -0.00002190   -0.00030066
     atom    3 type  2   force =     0.00059834   -0.00016580   -0.00089000
     atom    4 type  2   force =    -0.00056323    0.00017023    0.00098214
     atom    5 type  3   force =    -0.00033784    0.00011156    0.00039916
     atom    6 type  3   force =     0.00036723   -0.00011831   -0.00039645
     atom    7 type  4   force =    -0.00052658    0.00015515   -0.00022319
     atom    8 type  4   force =    -0.00009847    0.00003018   -0.00016400
     atom    9 type  4   force =     0.00052827   -0.00016993    0.00035144
     atom   10 type  4   force =     0.00009960   -0.00002574   -0.00001485

     Total force =     0.060084     Total SCF correction =     0.002018

     Computing stress (Cartesian axis) and pressure

     negative rho (up, down):  1.463E-01 0.000E+00
          total   stress  (Ry/bohr**3)                   (kbar)     P=      -68.81
  -0.00076144   0.00042247   0.00000000         -112.01       62.15        0.00
   0.00042247   0.00046275   0.00000000           62.15       68.07        0.00
   0.00000000   0.00000000  -0.00110463            0.00        0.00     -162.50

     kinetic stress (kbar)  11225.37     84.76      0.00
                               84.76  11471.00      0.00
                                0.00      0.00  10969.14

     local   stress (kbar)  -8302.17  -1337.84      0.01
                            -1337.84 -12178.79     -0.00
                                0.01     -0.00 -18172.68

     nonloc. stress (kbar)  12461.74     25.45      0.00
                               25.45  12535.47      0.00
                                0.00      0.00  12513.72

     hartree stress (kbar)  14904.55    664.75      0.00
                              664.75  16830.79     -0.00
                                0.00     -0.00  18538.22

     exc-cor stress (kbar)   6024.15     -0.12     -0.00
                               -0.12   6023.79      0.00
                               -0.00      0.00   6035.67

     corecor stress (kbar) -11572.06     -1.39      0.00
                               -1.39 -11576.08     -0.00
                                0.00     -0.00 -11572.72

     ewald   stress (kbar) -24853.60    626.53      0.00
                              626.53 -23038.11      0.00
                                0.00      0.00 -18473.85

     hubbard stress (kbar)      0.00      0.00      0.00
                                0.00      0.00      0.00
                                0.00      0.00      0.00

     DFT-D   stress (kbar)      0.00      0.00      0.00
                                0.00      0.00      0.00
                                0.00      0.00      0.00

     XDM     stress (kbar)      0.00      0.00      0.00
                                0.00      0.00      0.00
                                0.00      0.00      0.00

     dft-nl  stress (kbar)      0.00      0.00      0.00
                                0.00      0.00      0.00
                                0.00      0.00      0.00

     TS-vdW  stress (kbar)      0.00      0.00      0.00
                                0.00      0.00      0.00
                                0.00      0.00      0.00

[...]

                                0.00      0.00      0.00

     Writing all to output data dir new_calculations/myprefix.save/

     General routines

     Parallel routines

   This run was terminated on:   2:23:20  21May2023

   JOB DONE.