     Program PWSCF v.7.0 starts on 20May2023 at  6:29:40

     Reading input from espresso_3207.pwi
Warning: card &CELL ignored
Warning: card / ignored

     Current dimensions of program PWSCF are:
     Max number of different atomic species (ntypx) = 10
     Max number of k-points (npk) =  40000
     Max angular momentum in pseudopotentials (lmaxx) =  4

     gamma-point specific algorithms are used
     Message from routine setup:
     using ibrav=0 with symmetry is DISCOURAGED, use correct ibrav instead

     Subspace diagonalization in iterative solution of the eigenvalue problem:
     a serial algorithm will be used

     Using Slab Decomposition

     bravais-lattice index     =            0
     lattice parameter (alat)  =      12.4489  a.u.
     unit-cell volume          =    3042.1196 (a.u.)^3
     number of atoms/cell      =           20
     number of atomic types    =            3
     number of electrons       =       160.00
     number of Kohn-Sham states=           96
     kinetic-energy cutoff     =      30.0000  Ry
     charge density cutoff     =     240.0000  Ry
     scf convergence threshold =      1.0E-06
     mixing beta               =       0.7000
     number of iterations used =            8  plain     mixing
     Exchange-correlation=  SLA  PW   PBX  PBC
                           (   1   4   3   4   0   0   0)

     celldm(1)=  12.448949  celldm(2)=   0.000000  celldm(3)=   0.000000
     celldm(4)=   0.000000  celldm(5)=   0.000000  celldm(6)=   0.000000

     crystal axes: (cart. coord. in units of alat)
               a(1) = (   1.000000   0.000000   0.000000 )
               a(2) = (   0.000000   1.075084   0.000000 )
               a(3) = (   0.000000   0.000000   1.466681 )

     reciprocal axes: (cart. coord. in units 2 pi/alat)
               b(1) = (  1.000000  0.000000  0.000000 )
               b(2) = (  0.000000  0.930159  0.000000 )
               b(3) = (  0.000000  0.000000  0.681812 )

     PseudoPot. # 1 for Ca read from file:
     /home/pragov/projects/rrg-bengioy-ad/pragov/crystal_structure_design/SSSP/Ca_pbe_v1.uspp.F.UPF
     MD5 check sum: 403a4c14b9e4d4dfdc3024c9a3812218
     Pseudo is Ultrasoft + core correction, Zval = 10.0
     Generated by new atomic code, or converted to UPF format
     Using radial grid of  845 points,  6 beta functions with:
                l(1) =   0
                l(2) =   0
                l(3) =   1
                l(4) =   1
                l(5) =   2
                l(6) =   2
     Q(r) pseudized with  8 coefficients,  rinner =    1.500   1.500   1.500
                                                       1.500   1.500

     PseudoPot. # 2 for Zr read from file:
     /home/pragov/projects/rrg-bengioy-ad/pragov/crystal_structure_design/SSSP/Zr_pbe_v1.uspp.F.UPF
     MD5 check sum: 5db81b1e868ab7776c4564c113de050b
     Pseudo is Ultrasoft + core correction, Zval = 12.0
     Generated by new atomic code, or converted to UPF format
     Using radial grid of  887 points,  6 beta functions with:
                l(1) =   0
                l(2) =   0
                l(3) =   1
                l(4) =   1
                l(5) =   2
                l(6) =   2
     Q(r) pseudized with  6 coefficients,  rinner =    1.200   1.200   1.200
                                                       1.200   1.200

     PseudoPot. # 3 for S  read from file:
     /home/pragov/projects/rrg-bengioy-ad/pragov/crystal_structure_design/SSSP/s_pbe_v1.4.uspp.F.UPF
     MD5 check sum: 88d86576ff6df21479756cfb9bdac1df
     Pseudo is Ultrasoft + core correction, Zval =  6.0
     Generated by new atomic code, or converted to UPF format
     Using radial grid of  907 points,  6 beta functions with:
                l(1) =   0
                l(2) =   0
                l(3) =   1
                l(4) =   1
                l(5) =   2
                l(6) =   2
     Q(r) pseudized with  8 coefficients,  rinner =    1.300   1.300   1.300
                                                       1.300   1.300

     atomic species   valence    mass     pseudopotential
        Ca            10.00    40.07800     Ca( 1.00)
        Zr            12.00    91.22400     Zr( 1.00)
        S              6.00    32.06000     S ( 1.00)

      8 Sym. Ops., with inversion, found ( 6 have fractional translation)

                                    s                        frac. trans.

      isym =  1     identity

 cryst.   s( 1) = (     1          0          0      )
                  (     0          1          0      )
                  (     0          0          1      )

 cart.    s( 1) = (  1.0000000  0.0000000  0.0000000 )
                  (  0.0000000  1.0000000  0.0000000 )
                  (  0.0000000  0.0000000  1.0000000 )

      isym =  2     180 deg rotation - cart. axis [0,0,1]

 cryst.   s( 2) = (    -1          0          0      )    f =(  0.0000000 )
                  (     0         -1          0      )       (  0.0000000 )
                  (     0          0          1      )       (  0.5000000 )

 cart.    s( 2) = ( -1.0000000  0.0000000  0.0000000 )    f =(  0.0000000 )
                  (  0.0000000 -1.0000000  0.0000000 )       (  0.0000000 )
                  (  0.0000000  0.0000000  1.0000000 )       (  0.7333405 )

[...]

      isym =  4     180 deg rotation - cart. axis [1,0,0]

[...]

      isym =  5     inversion

 cryst.   s( 5) = (    -1          0          0      )
                  (     0         -1          0      )
                  (     0          0         -1      )

 cart.    s( 5) = ( -1.0000000  0.0000000  0.0000000 )
                  (  0.0000000 -1.0000000  0.0000000 )
                  (  0.0000000  0.0000000 -1.0000000 )

      isym =  6     inv. 180 deg rotation - cart. axis [0,0,1]

[...]

      isym =  8     inv. 180 deg rotation - cart. axis [1,0,0]

 cryst.   s( 8) = (    -1          0          0      )    f =(  0.5000000 )
                  (     0          1          0      )       ( -0.5000000 )
                  (     0          0          1      )       (  0.0000000 )

 cart.    s( 8) = ( -1.0000000  0.0000000  0.0000000 )    f =(  0.5000000 )
                  (  0.0000000  1.0000000  0.0000000 )       ( -0.5375422 )
                  (  0.0000000  0.0000000  1.0000000 )       (  0.0000000 )

   Cartesian axes

     site n.     atom                  positions (alat units)
         1           Ca  tau(   1) = (   0.0333870   0.0997463   0.3666702  )
         2           Ca  tau(   2) = (   0.5333870   0.4377959   1.1000107  )
         3           Ca  tau(   3) = (   0.4666130   0.6372886   0.3666702  )
         4           Ca  tau(   4) = (   0.9666130   0.9753381   1.1000107  )
         5           Zr  tau(   5) = (   0.5000000   0.0000000   0.0000000  )
         6           Zr  tau(   6) = (   0.0000000   0.5375422   0.0000000  )
         7           Zr  tau(   7) = (   0.0000000   0.5375422   0.7333405  )
         8           Zr  tau(   8) = (   0.5000000   0.0000000   0.7333405  )
         9           S   tau(   9) = (   0.8166150   0.2048745   0.8273694  )
        10           S   tau(  10) = (   0.3166150   0.3326677   0.6393116  )
        11           S   tau(  11) = (   0.6833850   0.7424168   1.3726520  )
        12           S   tau(  12) = (   0.1833850   0.8702099   0.0940289  )
        13           S   tau(  13) = (   0.1833850   0.8702099   0.6393116  )
        14           S   tau(  14) = (   0.6833850   0.7424168   0.8273694  )
        15           S   tau(  15) = (   0.3166150   0.3326677   0.0940289  )
        16           S   tau(  16) = (   0.8166150   0.2048745   1.3726520  )
        17           S   tau(  17) = (   0.6254170   1.0380027   0.3666702  )
        18           S   tau(  18) = (   0.1254170   0.5746241   1.1000107  )
        19           S   tau(  19) = (   0.8745830   0.5004604   0.3666702  )
        20           S   tau(  20) = (   0.3745830   0.0370818   1.1000107  )

   Crystallographic axes

     site n.     atom                  positions (cryst. coord.)
         1           Ca  tau(   1) = (  0.0333870  0.0927800  0.2500000  )
         2           Ca  tau(   2) = (  0.5333870  0.4072200  0.7500000  )
         3           Ca  tau(   3) = (  0.4666130  0.5927800  0.2500000  )
         4           Ca  tau(   4) = (  0.9666130  0.9072200  0.7500000  )
         5           Zr  tau(   5) = (  0.5000000  0.0000000  0.0000000  )
         6           Zr  tau(   6) = (  0.0000000  0.5000000  0.0000000  )
         7           Zr  tau(   7) = (  0.0000000  0.5000000  0.5000000  )
         8           Zr  tau(   8) = (  0.5000000  0.0000000  0.5000000  )
         9           S   tau(   9) = (  0.8166150  0.1905660  0.5641100  )
        10           S   tau(  10) = (  0.3166150  0.3094340  0.4358900  )
        11           S   tau(  11) = (  0.6833850  0.6905660  0.9358900  )
        12           S   tau(  12) = (  0.1833850  0.8094340  0.0641100  )
        13           S   tau(  13) = (  0.1833850  0.8094340  0.4358900  )
        14           S   tau(  14) = (  0.6833850  0.6905660  0.5641100  )
        15           S   tau(  15) = (  0.3166150  0.3094340  0.0641100  )
        16           S   tau(  16) = (  0.8166150  0.1905660  0.9358900  )
        17           S   tau(  17) = (  0.6254170  0.9655080  0.2500000  )
        18           S   tau(  18) = (  0.1254170  0.5344920  0.7500000  )
        19           S   tau(  19) = (  0.8745830  0.4655080  0.2500000  )
        20           S   tau(  20) = (  0.3745830  0.0344920  0.7500000  )

     number of k points=     1  Methfessel-Paxton smearing, width (Ry)=  0.0010
                       cart. coord. in units 2pi/alat
        k(    1) = (   0.0000000   0.0000000   0.0000000), wk =   2.0000000

                       cryst. coord.
        k(    1) = (   0.0000000   0.0000000   0.0000000), wk =   2.0000000

     Check: negative core charge=   -0.000002

     Initial potential from superposition of free atoms

     starting charge     159.9691, renormalised to     160.0000

     negative rho (up, down):  2.389E-01 0.000E+00
     Starting wfcs are  140 randomized atomic wfcs

     Self-consistent Calculation

     iteration #  1     ecut=    30.00 Ry     beta= 0.70
     Davidson diagonalization with overlap

     ethr =  1.00E-02,  avg # of iterations =  3.0

     negative rho (up, down):  2.465E-01 0.000E+00

     total energy              =    -987.05775562 Ry
     estimated scf accuracy    <       1.67467118 Ry

[...]

     c_bands:  1 eigenvalues not converged
     ethr =  2.25E-06,  avg # of iterations = 20.0

[...]

     total energy              =    -987.83490535 Ry
     estimated scf accuracy    <       0.00000451 Ry

     iteration # 12     ecut=    30.00 Ry     beta= 0.70
     Davidson diagonalization with overlap

     ethr =  2.82E-09,  avg # of iterations =  3.0

[...]

     End of self-consistent calculation

          k = 0.0000 0.0000 0.0000 (  4215 PWs)   bands (ev):

   -42.4907 -42.4903 -42.4896 -42.4892 -32.6683 -32.6675 -32.6674 -32.6666
   -20.5567 -20.5556 -20.5418 -20.5409 -20.4656 -20.4632 -20.4523 -20.4476
   -20.4349 -20.4324 -20.4186 -20.4177 -13.7129 -13.7093 -13.7077 -13.7031
   -13.7016 -13.6962 -13.6922 -13.6914 -13.6732 -13.6720 -13.6496 -13.6487
    -5.2339  -4.6909  -4.4154  -4.2650  -4.2363  -4.2122  -4.1174  -4.0466
    -4.0008  -3.9626  -3.9017  -3.8591   2.8579   2.9247   3.0899   3.2343
     3.4242   3.5987   3.6530   3.7110   3.7421   3.7559   4.0241   4.3398
     4.4967   4.6526   4.7374   4.8250   4.8867   4.9892   5.0454   5.1627
     5.2866   5.4355   5.4872   5.6019   5.7047   5.9357   5.9425   6.0455
     6.0942   6.2722   6.3588   6.5536   6.7306   6.9107   6.9644   7.0752
     8.0261   8.0645   8.0942   8.2927   8.7427   8.8684   9.1734   9.2156
     9.6968   9.7007  10.0049  10.0793  11.0695  11.0938  11.1767  11.3865

     occupation numbers
     1.0000   1.0000   1.0000   1.0000   1.0000   1.0000   1.0000   1.0000
     1.0000   1.0000   1.0000   1.0000   1.0000   1.0000   1.0000   1.0000
     1.0000   1.0000   1.0000   1.0000   1.0000   1.0000   1.0000   1.0000
     1.0000   1.0000   1.0000   1.0000   1.0000   1.0000   1.0000   1.0000
     1.0000   1.0000   1.0000   1.0000   1.0000   1.0000   1.0000   1.0000
     1.0000   1.0000   1.0000   1.0000   1.0000   1.0000   1.0000   1.0000
     1.0000   1.0000   1.0000   1.0000   1.0000   1.0000   1.0000   1.0000
     1.0000   1.0000   1.0000   1.0000   1.0000   1.0000   1.0000   1.0000
     1.0000   1.0000   1.0000   1.0000   1.0000   1.0000   1.0000   1.0000
     1.0000   1.0000   1.0000   1.0000   1.0000   1.0000   1.0000   1.0000
    -0.0000  -0.0000  -0.0000  -0.0000  -0.0000  -0.0000  -0.0000  -0.0000
    -0.0000  -0.0000  -0.0000  -0.0000  -0.0000  -0.0000  -0.0000  -0.0000

     the Fermi energy is     7.2922 ev

!    total energy              =    -987.83490619 Ry
     estimated scf accuracy    <       0.00000051 Ry
     smearing contrib. (-TS)   =       0.00000000 Ry
     internal energy E=F+TS    =    -987.83490619 Ry

     The total energy is F=E-TS. E is the sum of the following terms:
     one-electron contribution =    -247.25443272 Ry
     hartree contribution      =     178.04565110 Ry
     xc contribution           =    -220.54072336 Ry
     ewald contribution        =    -698.08540121 Ry

     convergence has been achieved in  12 iterations

     negative rho (up, down):  2.524E-01 0.000E+00

     Forces acting on atoms (cartesian axes, Ry/au):

     atom    1 type  1   force =     0.00043679    0.00233070    0.00000000
     atom    2 type  1   force =     0.00043679   -0.00233070    0.00000000
     atom    3 type  1   force =    -0.00043679    0.00233070    0.00000000
     atom    4 type  1   force =    -0.00043679   -0.00233070    0.00000000
     atom    5 type  2   force =     0.00000000   -0.00000000   -0.00000000
     atom    6 type  2   force =     0.00000000   -0.00000000    0.00000000
     atom    7 type  2   force =     0.00000000    0.00000000    0.00000000
     atom    8 type  2   force =     0.00000000    0.00000000   -0.00000000
     atom    9 type  3   force =     0.00965373   -0.00665282    0.01821398
     atom   10 type  3   force =     0.00965373    0.00665282   -0.01821398
     atom   11 type  3   force =    -0.00965373   -0.00665282   -0.01821398
     atom   12 type  3   force =    -0.00965373    0.00665282    0.01821398
     atom   13 type  3   force =    -0.00965373    0.00665282   -0.01821398
     atom   14 type  3   force =    -0.00965373   -0.00665282    0.01821398
     atom   15 type  3   force =     0.00965373    0.00665282    0.01821398
     atom   16 type  3   force =     0.00965373   -0.00665282   -0.01821398
     atom   17 type  3   force =    -0.00205786   -0.00343825    0.00000000
     atom   18 type  3   force =    -0.00205786    0.00343825    0.00000000
     atom   19 type  3   force =     0.00205786   -0.00343825    0.00000000
     atom   20 type  3   force =     0.00205786    0.00343825    0.00000000
     The non-local contrib.  to forces
     atom    1 type  1   force =     0.01824285    0.00836907    0.00000000
     atom    2 type  1   force =     0.01824285   -0.00836907    0.00000000
     atom    3 type  1   force =    -0.01824285    0.00836907    0.00000000
     atom    4 type  1   force =    -0.01824285   -0.00836907    0.00000000
     atom    5 type  2   force =     0.00000000    0.00000000    0.00000000
     atom    6 type  2   force =     0.00000000    0.00000000    0.00000000
     atom    7 type  2   force =     0.00000000    0.00000000   -0.00000000
     atom    8 type  2   force =     0.00000000   -0.00000000    0.00000000
     atom    9 type  3   force =    -0.04258323    0.03672607   -0.00732750
     atom   10 type  3   force =    -0.04258323   -0.03672607    0.00732750
     atom   11 type  3   force =     0.04258323    0.03672607    0.00732750
     atom   12 type  3   force =     0.04258323   -0.03672607   -0.00732750
     atom   13 type  3   force =     0.04258323   -0.03672607    0.00732750
     atom   14 type  3   force =     0.04258323    0.03672607   -0.00732750
     atom   15 type  3   force =    -0.04258323   -0.03672607   -0.00732750
     atom   16 type  3   force =    -0.04258323    0.03672607    0.00732750
     atom   17 type  3   force =    -0.02109336   -0.01385647    0.00000000
     atom   18 type  3   force =    -0.02109336    0.01385647    0.00000000
     atom   19 type  3   force =     0.02109336   -0.01385647    0.00000000
     atom   20 type  3   force =     0.02109336    0.01385647    0.00000000
     The ionic contribution  to forces
     atom    1 type  1   force =    -1.08312873   -1.52681321   -0.00000000
     atom    2 type  1   force =    -1.08312873    1.52681321    0.00000000
     atom    3 type  1   force =     1.08312873   -1.52681321   -0.00000000
     atom    4 type  1   force =     1.08312873    1.52681321    0.00000000
     atom    5 type  2   force =     0.00000000   -0.00000000   -0.00000000
     atom    6 type  2   force =    -0.00000000   -0.00000000   -0.00000000
     atom    7 type  2   force =    -0.00000000   -0.00000000   -0.00000000
     atom    8 type  2   force =     0.00000000   -0.00000000   -0.00000000
     atom    9 type  3   force =     1.43379737   -0.55962896    0.34231916
     atom   10 type  3   force =     1.43379737    0.55962896   -0.34231916
     atom   11 type  3   force =    -1.43379737   -0.55962896   -0.34231916
     atom   12 type  3   force =    -1.43379737    0.55962896    0.34231916
     atom   13 type  3   force =    -1.43379737    0.55962896   -0.34231916
     atom   14 type  3   force =    -1.43379737   -0.55962896    0.34231916
     atom   15 type  3   force =     1.43379737    0.55962896    0.34231916
     atom   16 type  3   force =     1.43379737   -0.55962896   -0.34231916
     atom   17 type  3   force =     1.96984347    0.39314695   -0.00000000
     atom   18 type  3   force =     1.96984347   -0.39314695    0.00000000
     atom   19 type  3   force =    -1.96984347    0.39314695   -0.00000000
     atom   20 type  3   force =    -1.96984347   -0.39314695    0.00000000
     The local contribution  to forces
     atom    1 type  1   force =     1.06603462    1.52130374    0.00009382
     atom    2 type  1   force =     1.06604076   -1.52110209   -0.00007113
     atom    3 type  1   force =    -1.06614713    1.52075920    0.00005194
     atom    4 type  1   force =    -1.06592584   -1.52104150   -0.00008031
     atom    5 type  2   force =    -0.00008941    0.00027986   -0.00050848
     atom    6 type  2   force =     0.00002805   -0.00026883   -0.00061501
     atom    7 type  2   force =     0.00006948   -0.00028046    0.00063130
     atom    8 type  2   force =    -0.00010962    0.00031351    0.00053720
     atom    9 type  3   force =    -1.38360212    0.51864806   -0.31697293
     atom   10 type  3   force =    -1.38390588   -0.51822257    0.31758132
     atom   11 type  3   force =     1.38399172    0.51809486    0.31700361
     atom   12 type  3   force =     1.38360199   -0.51856512   -0.31755800
     atom   13 type  3   force =     1.38360654   -0.51854079    0.31758656
     atom   14 type  3   force =     1.38391105    0.51812595   -0.31702242
     atom   15 type  3   force =    -1.38396285   -0.51822711   -0.31752932
     atom   16 type  3   force =    -1.38356169    0.51868821    0.31697373
     atom   17 type  3   force =    -1.95175128   -0.38331675    0.00000201
     atom   18 type  3   force =    -1.95190115    0.38322871   -0.00001978
     atom   19 type  3   force =     1.95197094   -0.38346793   -0.00001668
     atom   20 type  3   force =     1.95166931    0.38359502   -0.00002734
     The core correction contribution to forces
     atom    1 type  1   force =    -0.00068456   -0.00019131    0.00000360
     atom    2 type  1   force =    -0.00068553    0.00019155   -0.00000200
     atom    3 type  1   force =     0.00068532   -0.00019350    0.00000167
     atom    4 type  1   force =     0.00068523    0.00019104   -0.00000278
     atom    5 type  2   force =    -0.00000045    0.00000210   -0.00000219
     atom    6 type  2   force =     0.00000017   -0.00000217   -0.00000267
     atom    7 type  2   force =    -0.00000008   -0.00000318    0.00000286
     atom    8 type  2   force =    -0.00000060    0.00000322    0.00000185
     atom    9 type  3   force =     0.00220186   -0.00207918    0.00037010
     atom   10 type  3   force =     0.00220375    0.00207941   -0.00036708
     atom   11 type  3   force =    -0.00220181   -0.00208120   -0.00037063
     atom   12 type  3   force =    -0.00220357    0.00208002    0.00036757
     atom   13 type  3   force =    -0.00220288    0.00207993   -0.00036633
     atom   14 type  3   force =    -0.00220384   -0.00208012    0.00036930
     atom   15 type  3   force =     0.00220264    0.00207969    0.00036881
     atom   16 type  3   force =     0.00220332   -0.00207889   -0.00037037
     atom   17 type  3   force =     0.00095219    0.00077429    0.00000126
     atom   18 type  3   force =     0.00095249   -0.00077408   -0.00000091
     atom   19 type  3   force =    -0.00095203    0.00077187    0.00000075
     atom   20 type  3   force =    -0.00095293   -0.00077133   -0.00000123
     The Hubbard contrib.    to forces
     atom    1 type  1   force =     0.00000000    0.00000000    0.00000000
     atom    2 type  1   force =     0.00000000    0.00000000    0.00000000
     atom    3 type  1   force =     0.00000000    0.00000000    0.00000000
     atom    4 type  1   force =     0.00000000    0.00000000    0.00000000
     atom    5 type  2   force =     0.00000000    0.00000000    0.00000000
     atom    6 type  2   force =     0.00000000    0.00000000    0.00000000
     atom    7 type  2   force =     0.00000000    0.00000000    0.00000000
     atom    8 type  2   force =     0.00000000    0.00000000    0.00000000
     atom    9 type  3   force =     0.00000000    0.00000000    0.00000000
     atom   10 type  3   force =     0.00000000    0.00000000    0.00000000
     atom   11 type  3   force =     0.00000000    0.00000000    0.00000000
     atom   12 type  3   force =     0.00000000    0.00000000    0.00000000
     atom   13 type  3   force =     0.00000000    0.00000000    0.00000000
     atom   14 type  3   force =     0.00000000    0.00000000    0.00000000
     atom   15 type  3   force =     0.00000000    0.00000000    0.00000000
     atom   16 type  3   force =     0.00000000    0.00000000    0.00000000
     atom   17 type  3   force =     0.00000000    0.00000000    0.00000000
     atom   18 type  3   force =     0.00000000    0.00000000    0.00000000
     atom   19 type  3   force =     0.00000000    0.00000000    0.00000000
     atom   20 type  3   force =     0.00000000    0.00000000    0.00000000
     The SCF correction term to forces
     atom    1 type  1   force =    -0.00002710   -0.00035562   -0.00004176
     atom    2 type  1   force =    -0.00003620    0.00014686    0.00004150
     atom    3 type  1   force =     0.00014733    0.00021804   -0.00001171
     atom    4 type  1   force =    -0.00009359    0.00005537    0.00002891
     atom    5 type  2   force =     0.00007333   -0.00027423    0.00052442
     atom    6 type  2   force =    -0.00003941    0.00026208    0.00062859
     atom    7 type  2   force =    -0.00008379    0.00026026   -0.00063766
     atom    8 type  2   force =     0.00009188   -0.00029833   -0.00055180
     atom    9 type  3   force =    -0.00016229   -0.00029901   -0.00015137
     atom   10 type  3   force =     0.00014648   -0.00009703   -0.00040712
     atom   11 type  3   force =    -0.00019367    0.00020089    0.00011570
     atom   12 type  3   force =     0.00014444    0.00022192    0.00039088
     atom   13 type  3   force =     0.00015006    0.00020551   -0.00039881
     atom   14 type  3   force =    -0.00014785    0.00018963   -0.00011820
     atom   15 type  3   force =     0.00018345   -0.00009153    0.00038514
     atom   16 type  3   force =    -0.00017778   -0.00032631    0.00014041
     atom   17 type  3   force =    -0.00001908   -0.00016676    0.00001777
     atom   18 type  3   force =     0.00015691    0.00025901   -0.00000118
     atom   19 type  3   force =    -0.00019179   -0.00004111    0.00002345
     atom   20 type  3   force =     0.00007848   -0.00006883    0.00000242

     Total force =     0.061971     Total SCF correction =     0.001845

     Computing stress (Cartesian axis) and pressure

     negative rho (up, down):  2.524E-01 0.000E+00
          total   stress  (Ry/bohr**3)                   (kbar)     P=       11.44
   0.00003765   0.00000000   0.00000000            5.54        0.00        0.00
   0.00000000   0.00019074   0.00000000            0.00       28.06        0.00
   0.00000000   0.00000000   0.00000491            0.00        0.00        0.72

     kinetic stress (kbar)   9203.09      0.00      0.00
                                0.00   9267.04      0.00
                                0.00      0.00   9229.27

     local   stress (kbar)  -3677.33     -0.00     -0.00
                               -0.00  -4711.30      0.01
                               -0.00      0.01  -4491.54

     nonloc. stress (kbar)   6141.50      0.00      0.00
                                0.00   6138.56      0.00
                                0.00      0.00   6139.02

     hartree stress (kbar)   2624.14      0.00      0.00
                                0.00   3006.37     -0.00
                                0.00     -0.00   2979.09

     exc-cor stress (kbar)   1124.54     -0.00      0.00
                               -0.00   1126.63     -0.00
                                0.00     -0.00   1125.65

     corecor stress (kbar)  -3811.53     -0.00     -0.00
                               -0.00  -3811.56     -0.00
                               -0.00     -0.00  -3810.63

     ewald   stress (kbar) -11598.89     -0.00      0.00
                               -0.00 -10987.68      0.00
                                0.00      0.00 -11170.13

     hubbard stress (kbar)      0.00      0.00      0.00
                                0.00      0.00      0.00
                                0.00      0.00      0.00

     DFT-D   stress (kbar)      0.00      0.00      0.00
                                0.00      0.00      0.00
                                0.00      0.00      0.00

     XDM     stress (kbar)      0.00      0.00      0.00
                                0.00      0.00      0.00
                                0.00      0.00      0.00

     dft-nl  stress (kbar)      0.00      0.00      0.00
                                0.00      0.00      0.00
                                0.00      0.00      0.00

     TS-vdW  stress (kbar)      0.00      0.00      0.00
                                0.00      0.00      0.00
                                0.00      0.00      0.00

[...]

                                0.00      0.00      0.00

     Writing all to output data dir new_calculations/myprefix.save/

     General routines

     Parallel routines

   This run was terminated on:   6:30:13  20May2023

   JOB DONE.