     Program PWSCF v.7.0 starts on 20May2023 at 20: 1:53

     Reading input from espresso_2697.pwi
Warning: card &CELL ignored
Warning: card / ignored

     Current dimensions of program PWSCF are:
     Max number of different atomic species (ntypx) = 10
     Max number of k-points (npk) =  40000
     Max angular momentum in pseudopotentials (lmaxx) =  4
     file O.pbe-n-kjpaw_psl.0.1.UPF: wavefunction(s)  2P renormalized

     gamma-point specific algorithms are used
     Message from routine setup:
     using ibrav=0 with symmetry is DISCOURAGED, use correct ibrav instead

     Subspace diagonalization in iterative solution of the eigenvalue problem:
     a serial algorithm will be used

     Using Slab Decomposition

     bravais-lattice index     =            0
     lattice parameter (alat)  =      11.4867  a.u.
     unit-cell volume          =     922.4769 (a.u.)^3
     number of atoms/cell      =           15
     number of atomic types    =            3
     number of electrons       =        74.00
     number of Kohn-Sham states=           44
     kinetic-energy cutoff     =      30.0000  Ry
     charge density cutoff     =     240.0000  Ry
     scf convergence threshold =      1.0E-06
     mixing beta               =       0.7000
     number of iterations used =            8  plain     mixing
     Exchange-correlation= SLA  PW   PBX  PBC
                           (   1   4   3   4   0   0   0)

     celldm(1)=  11.486694  celldm(2)=   0.000000  celldm(3)=   0.000000
     celldm(4)=   0.000000  celldm(5)=   0.000000  celldm(6)=   0.000000

     crystal axes: (cart. coord. in units of alat)
               a(1) = (   1.000000   0.000000   0.000000 )
               a(2) = (   0.587246   0.809409   0.000000 )
               a(3) = (   0.587246   0.299463   0.751973 )

     reciprocal axes: (cart. coord. in units 2 pi/alat)
               b(1) = (  1.000000 -0.725524 -0.492009 )
               b(2) = (  0.000000  1.235470 -0.492009 )
               b(3) = (  0.000000  0.000000  1.329834 )

     PseudoPot. # 1 for Li read from file:
     /home/pragov/projects/rrg-bengioy-ad/pragov/crystal_structure_design/SSSP/li_pbe_v1.4.uspp.F.UPF
     MD5 check sum: e912e257baa3777c20ea3d68f190483c
     Pseudo is Ultrasoft, Zval =  3.0
     Generated by new atomic code, or converted to UPF format
     Using radial grid of  751 points,  5 beta functions with:
                l(1) =   0
                l(2) =   0
                l(3) =   0
                l(4) =   1
                l(5) =   1
     Q(r) pseudized with 10 coefficients,  rinner =    1.150   1.150   1.150

     PseudoPot. # 2 for W  read from file:
     /home/pragov/projects/rrg-bengioy-ad/pragov/crystal_structure_design/SSSP/W_pbe_v1.2.uspp.F.UPF
     MD5 check sum: 9c083fa34c2a2ea0f02f1f893e16e1c8
     Pseudo is Ultrasoft + core correction, Zval = 14.0
     Generated by new atomic code, or converted to UPF format
     Using radial grid of  923 points,  8 beta functions with:
                l(1) =   0
                l(2) =   0
                l(3) =   0
                l(4) =   1
                l(5) =   1
                l(6) =   2
                l(7) =   2
                l(8) =   3
     Q(r) pseudized with  6 coefficients,  rinner =    1.350   1.350   1.350
                                                       1.350   1.350   1.350
                                                       1.350

     PseudoPot. # 3 for O  read from file:
     /home/pragov/projects/rrg-bengioy-ad/pragov/crystal_structure_design/SSSP/O.pbe-n-kjpaw_psl.0.1.UPF
     MD5 check sum: 0234752ac141de4415c5fc33072bef88
     Pseudo is Projector augmented-wave + core cor, Zval =  6.0
     Generated using "atomic" code by A. Dal Corso  v.5.0.99 svn rev. 10869
     Shape of augmentation charge: BESSEL
     Using radial grid of 1095 points,  4 beta functions with:
                l(1) =   0
                l(2) =   0
                l(3) =   1
                l(4) =   1
     Q(r) pseudized with 0 coefficients

     atomic species   valence    mass     pseudopotential
        Li             3.00     6.94000     Li( 1.00)
        W             14.00   183.84000     W ( 1.00)
        O              6.00    15.99900     O ( 1.00)

      2 Sym. Ops., with inversion, found

                                    s                        frac. trans.

      isym =  1     identity

 cryst.   s( 1) = (     1          0          0      )
                  (     0          1          0      )
                  (     0          0          1      )

 cart.    s( 1) = (  1.0000000  0.0000000  0.0000000 )
                  (  0.0000000  1.0000000 -0.0000000 )
                  (  0.0000000  0.0000000  1.0000000 )

      isym =  2     inversion

 cryst.   s( 2) = (    -1          0          0      )
                  (     0         -1          0      )
                  (     0          0         -1      )

 cart.    s( 2) = ( -1.0000000 -0.0000000 -0.0000000 )
                  (  0.0000000 -1.0000000  0.0000000 )
                  (  0.0000000  0.0000000 -1.0000000 )

   Cartesian axes

     site n.     atom                  positions (alat units)
         1           Li  tau(   1) = (   1.1127436   0.2296761   0.3710275  )
         2           Li  tau(   2) = (   1.3351358   0.4808478   0.1777974  )
         3           Li  tau(   3) = (   1.1732553   0.4605323   0.6758670  )
         4           Li  tau(   4) = (   1.4259664   0.7271650   0.4931216  )
         5           Li  tau(   5) = (   0.7485252   0.3817070   0.2588518  )
         6           Li  tau(   6) = (   1.0012363   0.6483397   0.0761065  )
         7           Li  tau(   7) = (   0.8393558   0.6280242   0.5741761  )
         8           Li  tau(   8) = (   1.0617480   0.8791959   0.3809460  )
         9           W   tau(   9) = (   0.0000000   0.0000000   0.0000000  )
        10           O   tau(  10) = (   1.4048271   0.3720414   0.4644180  )
        11           O   tau(  11) = (   1.0483792   0.3375473   0.0703817  )
        12           O   tau(  12) = (   0.8888700   0.3060004   0.5781563  )
        13           O   tau(  13) = (   1.2856216   0.8028716   0.1738172  )
        14           O   tau(  14) = (   1.1261124   0.7713248   0.6815917  )
        15           O   tau(  15) = (   0.7696645   0.7368306   0.2875554  )

   Crystallographic axes

     site n.     atom                  positions (cryst. coord.)
         1           Li  tau(   1) = (  0.7635590  0.1012090  0.4934050  )
         2           Li  tau(   2) = (  0.8987910  0.5065950  0.2364410  )
         3           Li  tau(   3) = (  0.5065950  0.2364410  0.8987910  )
         4           Li  tau(   4) = (  0.6557700  0.6557700  0.6557700  )
         5           Li  tau(   5) = (  0.3442300  0.3442300  0.3442300  )
         6           Li  tau(   6) = (  0.4934050  0.7635590  0.1012090  )
         7           Li  tau(   7) = (  0.1012090  0.4934050  0.7635590  )
         8           Li  tau(   8) = (  0.2364410  0.8987910  0.5065950  )
         9           W   tau(   9) = (  0.0000000  0.0000000  0.0000000  )
        10           O   tau(  10) = (  0.9064040  0.2311480  0.6175990  )
        11           O   tau(  11) = (  0.7688520  0.3824010  0.0935960  )
        12           O   tau(  12) = (  0.3824010  0.0935960  0.7688520  )
        13           O   tau(  13) = (  0.6175990  0.9064040  0.2311480  )
        14           O   tau(  14) = (  0.2311480  0.6175990  0.9064040  )
        15           O   tau(  15) = (  0.0935960  0.7688520  0.3824010  )

     number of k points=     1  Methfessel-Paxton smearing, width (Ry)=  0.0010
                       cart. coord. in units 2pi/alat
        k(    1) = (   0.0000000   0.0000000   0.0000000), wk =   2.0000000

                       cryst. coord.
        k(    1) = (   0.0000000   0.0000000   0.0000000), wk =   2.0000000

     Check: negative core charge=   -0.000012

     Initial potential from superposition of free atoms

     starting charge      70.2937, renormalised to      74.0000

     negative rho (up, down):  6.687E-02 0.000E+00
     Starting wfcs are   77 randomized atomic wfcs
     Checking if some PAW data can be deallocated...

     Self-consistent Calculation

     iteration #  1     ecut=    30.00 Ry     beta= 0.70
     Davidson diagonalization with overlap

     ethr =  1.00E-02,  avg # of iterations =  2.0

     negative rho (up, down):  5.977E-02 0.000E+00

     total energy              =    -522.62223016 Ry
     estimated scf accuracy    <       5.25651448 Ry

[...]

     ethr =  8.84E-05,  avg # of iterations =  1.0
     Minimization algorithm failed to find Fermi energy: reverting to bisection
     Possible cause: smearing is larger than the electronic band-gap.

[...]

     total energy              =    -525.54726212 Ry
     estimated scf accuracy    <       0.00000742 Ry

     iteration # 22     ecut=    30.00 Ry     beta= 0.70
     Davidson diagonalization with overlap

     ethr =  9.76E-09,  avg # of iterations =  1.0

[...]

     End of self-consistent calculation

          k = 0.0000 0.0000 0.0000 (  1272 PWs)   bands (ev):

   -67.3368 -38.8339 -38.8264 -38.0937 -38.0146 -38.0146 -38.0068 -38.0068
   -37.9616 -31.5670 -31.5670 -31.5478 -11.5665 -11.0624 -11.0624 -10.8347
   -10.7792 -10.7791   1.0586   1.4533   1.8110   1.8110   2.1861   2.1862
     2.2839   2.8033   2.8033   2.9517   3.0155   4.1022   4.1023   4.3789
     4.3789   4.6085   4.6085   4.7463   8.6887   8.6898   8.6898   9.9719
    12.1721  12.1722  12.7394  12.7881

     occupation numbers
     1.0000   1.0000   1.0000   1.0000   1.0000   1.0000   1.0000   1.0000
     1.0000   1.0000   1.0000   1.0000   1.0000   1.0000   1.0000   1.0000
     1.0000   1.0000   1.0000   1.0000   1.0000   1.0000   1.0000   1.0000
     1.0000   1.0000   1.0000   1.0000   1.0000   1.0000   1.0000   1.0000
     1.0000   1.0000   1.0000   1.0000   0.3758   0.3125   0.3117  -0.0000
    -0.0000  -0.0000  -0.0000  -0.0000

     the Fermi energy is     8.6867 ev

!    total energy              =    -525.54726209 Ry
     estimated scf accuracy    <       0.00000024 Ry
     smearing contrib. (-TS)   =      -0.00074331 Ry
     internal energy E=F+TS    =    -525.54651878 Ry

     The total energy is F=E-TS. E is the sum of the following terms:
     one-electron contribution =    -179.25966284 Ry
     hartree contribution      =     112.84609644 Ry
     xc contribution           =    -113.91370699 Ry
     ewald contribution        =    -288.13800863 Ry
     one-center paw contrib.   =     -57.08123675 Ry
      -> PAW hartree energy AE =     178.74942434 Ry
      -> PAW hartree energy PS =    -178.10071945 Ry
      -> PAW xc energy AE      =    -103.11191609 Ry
      -> PAW xc energy PS      =      45.38197444 Ry
      -> total E_H with PAW    =     113.49480133 Ry
      -> total E_XC with PAW   =    -171.64364864 Ry

     convergence has been achieved in  22 iterations

     negative rho (up, down):  6.317E-02 0.000E+00

     Forces acting on atoms (cartesian axes, Ry/au):

     atom    1 type  1   force =     0.00610456   -0.00008059   -0.00018308
     atom    2 type  1   force =    -0.00351615   -0.00169491   -0.00469266
     atom    3 type  1   force =    -0.00344722   -0.00502356    0.00000041
     atom    4 type  1   force =    -0.00212108   -0.00108605   -0.00071289
     atom    5 type  1   force =     0.00212108    0.00108605    0.00071289
     atom    6 type  1   force =     0.00344722    0.00502356   -0.00000041
     atom    7 type  1   force =     0.00351615    0.00169491    0.00469266
     atom    8 type  1   force =    -0.00610456    0.00008059    0.00018308
     atom    9 type  2   force =     0.00000000    0.00000000    0.00000000
     atom   10 type  3   force =     0.01321947    0.00050204    0.01379732
     atom   11 type  3   force =    -0.00815698   -0.01660545   -0.00453605
     atom   12 type  3   force =    -0.01829429   -0.00306400    0.00464115
     atom   13 type  3   force =     0.01829429    0.00306400   -0.00464115
     atom   14 type  3   force =     0.00815698    0.01660545    0.00453605
     atom   15 type  3   force =    -0.01321947   -0.00050204   -0.01379732
     The non-local contrib.  to forces
     atom    1 type  1   force =     0.02044239    0.01746852    0.01724690
     atom    2 type  1   force =    -0.02614551   -0.01835487    0.00055131
     atom    3 type  1   force =    -0.03021708   -0.00334030   -0.00985962
     atom    4 type  1   force =     0.04546873    0.02318577    0.01573162
     atom    5 type  1   force =    -0.04546873   -0.02318577   -0.01573162
     atom    6 type  1   force =     0.03021708    0.00334030    0.00985962
     atom    7 type  1   force =     0.02614551    0.01835487   -0.00055131
     atom    8 type  1   force =    -0.02044239   -0.01746852   -0.01724690
     atom    9 type  2   force =     0.00000000    0.00000000    0.00000000
     atom   10 type  3   force =     0.15758216   -0.13361691    0.33253442
     atom   11 type  3   force =     0.01558288   -0.38511791   -0.06834826
     atom   12 type  3   force =    -0.30263069    0.02487400    0.24707443
     atom   13 type  3   force =     0.30263069   -0.02487400   -0.24707443
     atom   14 type  3   force =    -0.01558288    0.38511791    0.06834826
     atom   15 type  3   force =    -0.15758216    0.13361691   -0.33253442
     The ionic contribution  to forces
     atom    1 type  1   force =     0.19167319    0.61690694    1.08293699
     atom    2 type  1   force =    -0.61188967   -0.92945703    0.59309939
     atom    3 type  1   force =    -1.11164016    0.56971680   -0.17246908
     atom    4 type  1   force =     0.34711597    0.17701007    0.12003877
     atom    5 type  1   force =    -0.34711597   -0.17701007   -0.12003877
     atom    6 type  1   force =     1.11164016   -0.56971680    0.17246908
     atom    7 type  1   force =     0.61188967    0.92945703   -0.59309939
     atom    8 type  1   force =    -0.19167319   -0.61690694   -1.08293699
     atom    9 type  2   force =    -0.00000000    0.00000000    0.00000000
     atom   10 type  3   force =    -2.58561489    1.60898795   -4.90300516
     atom   11 type  3   force =     0.21606120    5.67896892    1.00813391
     atom   12 type  3   force =     4.72348916   -0.23255738   -3.30881930
     atom   13 type  3   force =    -4.72348916    0.23255738    3.30881930
     atom   14 type  3   force =    -0.21606120   -5.67896892   -1.00813391
     atom   15 type  3   force =     2.58561489   -1.60898795    4.90300516
     The local contribution  to forces
     atom    1 type  1   force =    -0.20602117   -0.63445169   -1.10041172
     atom    2 type  1   force =     0.63454050    0.94610937   -0.59836341
     atom    3 type  1   force =     1.13840964   -0.57132414    0.18232534
     atom    4 type  1   force =    -0.39471220   -0.20130160   -0.13645075
     atom    5 type  1   force =     0.39470919    0.20129876    0.13645653
     atom    6 type  1   force =    -1.13841146    0.57132578   -0.18232983
     atom    7 type  1   force =    -0.63454237   -0.94611457    0.59836569
     atom    8 type  1   force =     0.20602378    0.63445347    1.10040731
     atom    9 type  2   force =     0.00005070   -0.00000932    0.00002140
     atom   10 type  3   force =     2.44310448   -1.47611380    4.58767622
     atom   11 type  3   force =    -0.23982678   -5.31455622   -0.94517094
     atom   12 type  3   force =    -4.44243513    0.20477785    3.06884632
     atom   13 type  3   force =     4.44241645   -0.20477130   -3.06882552
     atom   14 type  3   force =     0.23983238    5.31454445    0.94516668
     atom   15 type  3   force =    -2.44311412    1.47611553   -4.58767557
     The core correction contribution to forces
     atom    1 type  1   force =     0.00000000    0.00000000    0.00000000
     atom    2 type  1   force =     0.00000000    0.00000000    0.00000000
     atom    3 type  1   force =     0.00000000    0.00000000    0.00000000
     atom    4 type  1   force =     0.00000000    0.00000000    0.00000000
     atom    5 type  1   force =     0.00000000    0.00000000    0.00000000
     atom    6 type  1   force =     0.00000000    0.00000000    0.00000000
     atom    7 type  1   force =     0.00000000    0.00000000    0.00000000
     atom    8 type  1   force =     0.00000000    0.00000000    0.00000000
     atom    9 type  2   force =    -0.00000914    0.00000338   -0.00000354
     atom   10 type  3   force =    -0.00181074    0.00135937   -0.00348603
     atom   11 type  3   force =    -0.00003640    0.00407629    0.00081341
     atom   12 type  3   force =     0.00327830   -0.00014136   -0.00255110
     atom   13 type  3   force =    -0.00327844    0.00014148    0.00255134
     atom   14 type  3   force =     0.00003644   -0.00407629   -0.00081344
     atom   15 type  3   force =     0.00181085   -0.00135938    0.00348628
     The Hubbard contrib.    to forces
     atom    1 type  1   force =     0.00000000    0.00000000    0.00000000
     atom    2 type  1   force =     0.00000000    0.00000000    0.00000000
     atom    3 type  1   force =     0.00000000    0.00000000    0.00000000
     atom    4 type  1   force =     0.00000000    0.00000000    0.00000000
     atom    5 type  1   force =     0.00000000    0.00000000    0.00000000
     atom    6 type  1   force =     0.00000000    0.00000000    0.00000000
     atom    7 type  1   force =     0.00000000    0.00000000    0.00000000
     atom    8 type  1   force =     0.00000000    0.00000000    0.00000000
     atom    9 type  2   force =     0.00000000    0.00000000    0.00000000
     atom   10 type  3   force =     0.00000000    0.00000000    0.00000000
     atom   11 type  3   force =     0.00000000    0.00000000    0.00000000
     atom   12 type  3   force =     0.00000000    0.00000000    0.00000000
     atom   13 type  3   force =     0.00000000    0.00000000    0.00000000
     atom   14 type  3   force =     0.00000000    0.00000000    0.00000000
     atom   15 type  3   force =     0.00000000    0.00000000    0.00000000
     The SCF correction term to forces
     atom    1 type  1   force =     0.00001263   -0.00000463    0.00004290
     atom    2 type  1   force =    -0.00002233    0.00000765    0.00002095
     atom    3 type  1   force =     0.00000114   -0.00007626    0.00000285
     atom    4 type  1   force =     0.00000575    0.00001897   -0.00003203
     atom    5 type  1   force =    -0.00000407   -0.00001761    0.00002727
     atom    6 type  1   force =     0.00000219    0.00007396   -0.00000019
     atom    7 type  1   force =     0.00002248   -0.00000239   -0.00002142
     atom    8 type  1   force =    -0.00001029    0.00000232   -0.00004218
     atom    9 type  2   force =     0.00000179    0.00000258    0.00000579
     atom   10 type  3   force =    -0.00004450   -0.00011284    0.00008441
     atom   11 type  3   force =     0.00005935    0.00001752    0.00003093
     atom   12 type  3   force =    -0.00000245   -0.00001579    0.00009893
     atom   13 type  3   force =     0.00000822    0.00001176   -0.00010372
     atom   14 type  3   force =    -0.00007054   -0.00001765   -0.00003641
     atom   15 type  3   force =     0.00004810    0.00011457   -0.00007222

     Total force =     0.049228     Total SCF correction =     0.000308

     Computing stress (Cartesian axis) and pressure

     negative rho (up, down):  6.317E-02 0.000E+00
          total   stress  (Ry/bohr**3)                   (kbar)     P=     -365.67
  -0.00247534   0.00000887   0.00000622         -364.14        1.31        0.91
   0.00000887  -0.00249023   0.00000324            1.31     -366.32        0.48
   0.00000622   0.00000324  -0.00249182            0.91        0.48     -366.56

     kinetic stress (kbar)  18779.90     35.94     24.35
                               35.94  18728.49     12.39
                               24.35     12.39  18718.20

     local   stress (kbar)  -3439.42   -190.60   -129.22
                             -190.60  -3164.18    -65.87
                             -129.22    -65.87  -3110.94

     nonloc. stress (kbar)  -1594.99     -4.95     -3.34
                               -4.95  -1588.05     -1.69
                               -3.34     -1.69  -1586.57

     hartree stress (kbar)   6081.99     79.14     53.66
                               79.14   5967.73     27.37
                               53.66     27.37   5945.57

     exc-cor stress (kbar)   -391.13     -0.56     -0.38
                               -0.56   -390.31     -0.19
                               -0.38     -0.19   -390.16

     corecor stress (kbar)  -4571.97     -0.46     -0.31
                               -0.46  -4571.34     -0.16
                               -0.31     -0.16  -4571.19

     ewald   stress (kbar) -15228.52     82.80     56.15
                               82.80 -15348.66     28.63
                               56.15     28.63 -15371.47

     hubbard stress (kbar)      0.00      0.00      0.00
                                0.00      0.00      0.00
                                0.00      0.00      0.00

     DFT-D   stress (kbar)      0.00      0.00      0.00
                                0.00      0.00      0.00
                                0.00      0.00      0.00

     XDM     stress (kbar)      0.00      0.00      0.00
                                0.00      0.00      0.00
                                0.00      0.00      0.00

     dft-nl  stress (kbar)      0.00      0.00      0.00
                                0.00      0.00      0.00
                                0.00      0.00      0.00

     TS-vdW  stress (kbar)      0.00      0.00      0.00
                                0.00      0.00      0.00
                                0.00      0.00      0.00

[...]

                                0.00      0.00      0.00

     Writing all to output data dir new_calculations/myprefix.save/

     General routines

     Parallel routines

     PAW routines

   This run was terminated on:  20: 3: 4  20May2023

   JOB DONE.