     Program PWSCF v.7.0 starts on 20May2023 at 19: 3:23

     Reading input from espresso_5629.pwi
Warning: card &CELL ignored
Warning: card / ignored

     Current dimensions of program PWSCF are:
     Max number of different atomic species (ntypx) = 10
     Max number of k-points (npk) =  40000
     Max angular momentum in pseudopotentials (lmaxx) =  4
     file Nb.pbe-spn-kjpaw_psl.0.3.0.UPF: wavefunction(s)  4S 4P renormalized
     file C.pbe-n-kjpaw_psl.1.0.0.UPF: wavefunction(s)  2S 2P renormalized

     gamma-point specific algorithms are used
     Message from routine setup:
     using ibrav=0 with symmetry is DISCOURAGED, use correct ibrav instead

     Subspace diagonalization in iterative solution of the eigenvalue problem:
     a serial algorithm will be used

     Using Slab Decomposition

     bravais-lattice index     =            0
     lattice parameter (alat)  =      14.5934  a.u.
     unit-cell volume          =    1866.5536 (a.u.)^3
     number of atoms/cell      =           17
     number of atomic types    =            3
     number of electrons       =       218.00
     number of Kohn-Sham states=          131
     kinetic-energy cutoff     =      30.0000  Ry
     charge density cutoff     =     240.0000  Ry
     scf convergence threshold =      1.0E-06
     mixing beta               =       0.7000
     number of iterations used =            8  plain     mixing
     Exchange-correlation= SLA  PW   PBX  PBC
                           (   1   4   3   4   0   0   0)

     celldm(1)=  14.593390  celldm(2)=   0.000000  celldm(3)=   0.000000
     celldm(4)=   0.000000  celldm(5)=   0.000000  celldm(6)=   0.000000

     crystal axes: (cart. coord. in units of alat)
               a(1) = (   1.000000   0.000000   0.000000 )
               a(2) = (  -0.500000   0.866025   0.000000 )
               a(3) = (   0.000000   0.000000   0.693492 )

     reciprocal axes: (cart. coord. in units 2 pi/alat)
               b(1) = (  1.000000  0.577350  0.000000 )
               b(2) = (  0.000000  1.154700  0.000000 )
               b(3) = (  0.000000  0.000000  1.441978 )

     PseudoPot. # 1 for Nb read from file:
     /home/pragov/projects/rrg-bengioy-ad/pragov/crystal_structure_design/SSSP/Nb.pbe-spn-kjpaw_psl.0.3.0.UPF
     MD5 check sum: 411d72ad547312f8017e2943ceca08cc
     Pseudo is Projector augmented-wave + core cor, Zval = 13.0
     Generated using "atomic" code by A. Dal Corso  v.5.0.99 svn rev. 10869
     Shape of augmentation charge: PSQ
     Using radial grid of 1227 points,  6 beta functions with:
                l(1) =   0
                l(2) =   0
                l(3) =   1
                l(4) =   1
                l(5) =   2
                l(6) =   2
     Q(r) pseudized with 0 coefficients

     PseudoPot. # 2 for Ge read from file:
     /home/pragov/projects/rrg-bengioy-ad/pragov/crystal_structure_design/SSSP/ge_pbe_v1.4.uspp.F.UPF
     MD5 check sum: 9c9eaa91e581c3f09632fb3098b2c6b2
     Pseudo is Ultrasoft + core correction, Zval = 14.0
     Generated by new atomic code, or converted to UPF format
     Using radial grid of  873 points,  6 beta functions with:
                l(1) =   0
                l(2) =   0
                l(3) =   1
                l(4) =   1
                l(5) =   2
                l(6) =   2
     Q(r) pseudized with  8 coefficients,  rinner =    1.400   1.400   1.400
                                                       1.400   1.400

     PseudoPot. # 3 for C  read from file:
     /home/pragov/projects/rrg-bengioy-ad/pragov/crystal_structure_design/SSSP/C.pbe-n-kjpaw_psl.1.0.0.UPF
     MD5 check sum: 5d2aebdfa2cae82b50a7e79e9516da0f
     Pseudo is Projector augmented-wave + core cor, Zval =  4.0
     Generated using "atomic" code by A. Dal Corso  v.5.1
     Shape of augmentation charge: PSQ
     Using radial grid of 1073 points,  4 beta functions with:
                l(1) =   0
                l(2) =   0
                l(3) =   1
                l(4) =   1
     Q(r) pseudized with 0 coefficients

     atomic species   valence    mass     pseudopotential
        Nb            13.00    92.90637     Nb( 1.00)
        Ge            14.00    72.63000     Ge( 1.00)
        C              4.00    12.01100     C ( 1.00)

     12 Sym. Ops., with inversion, found

                                    s                        frac. trans.

      isym =  1     identity

 cryst.   s( 1) = (     1          0          0      )
                  (     0          1          0      )
                  (     0          0          1      )

 cart.    s( 1) = (  1.0000000  0.0000000  0.0000000 )
                  (  0.0000000  1.0000000  0.0000000 )
                  (  0.0000000  0.0000000  1.0000000 )

      isym =  2     180 deg rotation - cart. axis [0,1,0]

[...]

      isym =  3     120 deg rotation - cryst. axis [0,0,1]

[...]

      isym =  6     180 deg rotation - cryst. axis [2,1,0]

[...]

      isym =  7     inversion

[...]

      isym =  8     inv. 180 deg rotation - cart. axis [0,1,0]

[...]

      isym =  9     inv. 120 deg rotation - cryst. axis [0,0,1]

 cryst.   s( 9) = (     0         -1          0      )
                  (     1          1          0      )
                  (     0          0         -1      )

 cart.    s( 9) = (  0.4999999  0.8660254  0.0000000 )
                  ( -0.8660254  0.5000001  0.0000000 )
                  (  0.0000000  0.0000000 -1.0000000 )

[...]

 cryst.   s(10) = (     1          1          0      )
                  (    -1          0          0      )
                  (     0          0         -1      )

 cart.    s(10) = (  0.5000001 -0.8660254  0.0000000 )
                  (  0.8660254  0.4999999  0.0000000 )
                  (  0.0000000  0.0000000 -1.0000000 )

[...]

      isym = 12     inv. 180 deg rotation - cryst. axis [2,1,0]

 cryst.   s(12) = (    -1         -1          0      )
                  (     0          1          0      )
                  (     0          0          1      )

 cart.    s(12) = ( -0.5000001 -0.8660253  0.0000000 )
                  ( -0.8660254  0.5000001  0.0000000 )
                  (  0.0000000  0.0000000  1.0000000 )

   Cartesian axes

     site n.     atom                  positions (alat units)
         1           Nb  tau(   1) = (  -0.3811465   0.6601651   0.1777731  )
         2           Nb  tau(   2) = (   0.1188535   0.2058603   0.1777731  )
         3           Nb  tau(   3) = (   0.7622930   0.0000000   0.1777731  )
         4           Nb  tau(   4) = (  -0.1188535   0.2058603   0.5157185  )
         5           Nb  tau(   5) = (   0.3811465   0.6601651   0.5157185  )
         6           Nb  tau(   6) = (   0.2377070   0.0000000   0.5157185  )
         7           Nb  tau(   7) = (  -0.0000005   0.5773506   0.0000000  )
         8           Nb  tau(   8) = (   0.5000005   0.2886749   0.0000000  )
         9           Nb  tau(   9) = (   0.5000005   0.2886749   0.3467458  )
        10           Nb  tau(  10) = (  -0.0000005   0.5773506   0.3467458  )
        11           Ge  tau(  11) = (  -0.1990775   0.3448124   0.1698846  )
        12           Ge  tau(  12) = (   0.3009225   0.5212131   0.1698846  )
        13           Ge  tau(  13) = (   0.3981550   0.0000000   0.1698846  )
        14           Ge  tau(  14) = (  -0.3009225   0.5212131   0.5236070  )
        15           Ge  tau(  15) = (   0.1990775   0.3448124   0.5236070  )
        16           Ge  tau(  16) = (   0.6018450   0.0000000   0.5236070  )
        17           C   tau(  17) = (   0.0000000   0.0000000   0.3467458  )

   Crystallographic axes

     site n.     atom                  positions (cryst. coord.)
         1           Nb  tau(   1) = (  0.0000000  0.7622930  0.2563450  )
         2           Nb  tau(   2) = (  0.2377070  0.2377070  0.2563450  )
         3           Nb  tau(   3) = (  0.7622930  0.0000000  0.2563450  )
         4           Nb  tau(   4) = (  0.0000000  0.2377070  0.7436550  )
         5           Nb  tau(   5) = (  0.7622930  0.7622930  0.7436550  )
         6           Nb  tau(   6) = (  0.2377070  0.0000000  0.7436550  )
         7           Nb  tau(   7) = (  0.3333330  0.6666670  0.0000000  )
         8           Nb  tau(   8) = (  0.6666670  0.3333330  0.0000000  )
         9           Nb  tau(   9) = (  0.6666670  0.3333330  0.5000000  )
        10           Nb  tau(  10) = (  0.3333330  0.6666670  0.5000000  )
        11           Ge  tau(  11) = (  0.0000000  0.3981550  0.2449700  )
        12           Ge  tau(  12) = (  0.6018450  0.6018450  0.2449700  )
        13           Ge  tau(  13) = (  0.3981550  0.0000000  0.2449700  )
        14           Ge  tau(  14) = (  0.0000000  0.6018450  0.7550300  )
        15           Ge  tau(  15) = (  0.3981550  0.3981550  0.7550300  )
        16           Ge  tau(  16) = (  0.6018450  0.0000000  0.7550300  )
        17           C   tau(  17) = (  0.0000000  0.0000000  0.5000000  )

     number of k points=     1  Methfessel-Paxton smearing, width (Ry)=  0.0010
                       cart. coord. in units 2pi/alat
        k(    1) = (   0.0000000   0.0000000   0.0000000), wk =   2.0000000

                       cryst. coord.
        k(    1) = (   0.0000000   0.0000000   0.0000000), wk =   2.0000000

     Check: negative core charge=   -0.000018

     Initial potential from superposition of free atoms

     starting charge     217.9735, renormalised to     218.0000
     Starting wfcs are  158 randomized atomic wfcs
     Checking if some PAW data can be deallocated...

     Self-consistent Calculation

     iteration #  1     ecut=    30.00 Ry     beta= 0.70
     Davidson diagonalization with overlap

     ethr =  1.00E-02,  avg # of iterations =  2.0

     total energy              =   -4642.49847509 Ry
     estimated scf accuracy    <       2.95244775 Ry

[...]

     total energy              =   -4643.86508730 Ry
     estimated scf accuracy    <       0.00000766 Ry

     iteration # 25     ecut=    30.00 Ry     beta= 0.70
     Davidson diagonalization with overlap

     ethr =  1.69E-09,  avg # of iterations =  2.0

     End of self-consistent calculation

          k = 0.0000 0.0000 0.0000 (  2592 PWs)   bands (ev):

   -38.2598 -38.2132 -38.2110 -38.2109 -38.2015 -38.1980 -38.1869 -38.1869
   -37.9776 -37.9774 -15.0722 -15.0652 -14.6191 -14.4985 -14.4984 -14.4503
   -14.4503 -14.3879 -14.3873 -14.3873 -14.3480 -14.3265 -14.2820 -14.2820
   -14.2754 -14.2754 -14.2174 -14.2174 -14.1878 -14.1010 -14.1010 -14.0896
   -14.0896 -14.0596 -14.0595 -14.0595 -14.0238 -14.0237 -13.4842 -13.4817
    -7.3194  -7.3190  -7.3188  -7.3184  -7.3161  -7.3160  -7.3131  -7.3113
    -7.3112  -7.3074  -7.3073  -7.3071  -7.3002  -7.3002  -7.2954  -7.2939
    -7.2931  -7.2895  -7.2893  -7.2874  -7.2873  -7.2827  -7.2826  -7.2814
    -7.2791  -7.2790  -7.2737  -7.2703  -7.2702  -7.2609   5.3502   6.6497
     7.4657   7.4658   8.4332   8.4333   8.7608  11.3501  11.7499  11.7500
    12.0081  12.5802  12.5802  12.8037  12.8968  13.2715  13.2716  13.3765
    13.3765  13.7178  13.7179  14.2128  14.5163  14.5164  14.7351  14.7352
    14.8057  14.8607  14.9853  15.0618  15.1420  15.1420  15.3173  15.3173
    15.6346  16.3267  16.3267  16.8917  17.3385  17.3385  17.3389  18.1912
    18.1912  18.2132  18.2132  18.6811  18.6811  18.7028  18.7029  19.4908
    19.4909  19.5440  19.6128  19.6128  19.6889  19.7529  19.7529  19.8008
    19.9098  20.0011  20.0011

     occupation numbers
     1.0000   1.0000   1.0000   1.0000   1.0000   1.0000   1.0000   1.0000
     1.0000   1.0000   1.0000   1.0000   1.0000   1.0000   1.0000   1.0000
     1.0000   1.0000   1.0000   1.0000   1.0000   1.0000   1.0000   1.0000
     1.0000   1.0000   1.0000   1.0000   1.0000   1.0000   1.0000   1.0000
     1.0000   1.0000   1.0000   1.0000   1.0000   1.0000   1.0000   1.0000
     1.0000   1.0000   1.0000   1.0000   1.0000   1.0000   1.0000   1.0000
     1.0000   1.0000   1.0000   1.0000   1.0000   1.0000   1.0000   1.0000
     1.0000   1.0000   1.0000   1.0000   1.0000   1.0000   1.0000   1.0000
     1.0000   1.0000   1.0000   1.0000   1.0000   1.0000   1.0000   1.0000
     1.0000   1.0000   1.0000   1.0000   1.0000   1.0000   1.0000   1.0000
     1.0000   1.0000   1.0000   1.0000   1.0000   1.0000   1.0000   1.0000
     1.0000   1.0000   1.0000   1.0000   1.0000   1.0000   1.0000   1.0000
     1.0000   1.0000   1.0000   1.0000   1.0000   1.0000   1.0000   1.0000
     1.0000   1.0000   1.0000   1.0000   0.3403   0.3398   0.3198  -0.0000
    -0.0000  -0.0000  -0.0000  -0.0000  -0.0000  -0.0000  -0.0000  -0.0000
    -0.0000  -0.0000  -0.0000  -0.0000  -0.0000  -0.0000  -0.0000  -0.0000
    -0.0000  -0.0000  -0.0000

     the Fermi energy is    17.3359 ev

!    total energy              =   -4643.86508690 Ry
     estimated scf accuracy    <       0.00000079 Ry
     smearing contrib. (-TS)   =      -0.00074637 Ry
     internal energy E=F+TS    =   -4643.86434053 Ry

     The total energy is F=E-TS. E is the sum of the following terms:
     one-electron contribution =    -780.55197674 Ry
     hartree contribution      =     573.26148619 Ry
     xc contribution           =    -644.18607927 Ry
     ewald contribution        =   -1701.38564580 Ry
     one-center paw contrib.   =   -2091.00212491 Ry
      -> PAW hartree energy AE =     691.94939772 Ry
      -> PAW hartree energy PS =    -688.25412279 Ry
      -> PAW xc energy AE      =   -2368.69234572 Ry
      -> PAW xc energy PS      =     273.99494588 Ry
      -> total E_H with PAW    =     576.95676112 Ry
      -> total E_XC with PAW   =   -2738.88347911 Ry

     convergence has been achieved in  25 iterations

     Forces acting on atoms (cartesian axes, Ry/au):

     atom    1 type  1   force =    -0.01722101    0.02982767   -0.00998433
     atom    2 type  1   force =    -0.01722101   -0.02982767   -0.00998433
     atom    3 type  1   force =     0.03444203   -0.00000000   -0.00998433
     atom    4 type  1   force =     0.01722101   -0.02982767    0.00998433
     atom    5 type  1   force =     0.01722101    0.02982767    0.00998433
     atom    6 type  1   force =    -0.03444203    0.00000000    0.00998433
     atom    7 type  1   force =    -0.00000000    0.00000000    0.00000000
     atom    8 type  1   force =     0.00000000   -0.00000000    0.00000000
     atom    9 type  1   force =     0.00000000   -0.00000000    0.00000000
     atom   10 type  1   force =     0.00000000    0.00000000    0.00000000
     atom   11 type  2   force =    -0.00985517    0.01706966    0.00487692
     atom   12 type  2   force =    -0.00985517   -0.01706966    0.00487692
     atom   13 type  2   force =     0.01971035   -0.00000000    0.00487692
     atom   14 type  2   force =     0.00985517   -0.01706966   -0.00487692
     atom   15 type  2   force =     0.00985517    0.01706966   -0.00487692
     atom   16 type  2   force =    -0.01971035    0.00000000   -0.00487692
     atom   17 type  3   force =     0.00000000    0.00000000    0.00000000
     The non-local contrib.  to forces
     atom    1 type  1   force =     0.08325143   -0.14419571   -0.04380896
     atom    2 type  1   force =     0.08325143    0.14419570   -0.04380896
     atom    3 type  1   force =    -0.16650287    0.00000001   -0.04380896
     atom    4 type  1   force =    -0.08325143    0.14419571    0.04380896
     atom    5 type  1   force =    -0.08325143   -0.14419570    0.04380896
     atom    6 type  1   force =     0.16650287   -0.00000001    0.04380896
     atom    7 type  1   force =     0.00000000    0.00000000    0.00000000
     atom    8 type  1   force =    -0.00000000   -0.00000000    0.00000000
     atom    9 type  1   force =     0.00000000    0.00000000    0.00000000
     atom   10 type  1   force =     0.00000000    0.00000000    0.00000000
     atom   11 type  2   force =     0.07717141   -0.13366481   -0.04420907
     atom   12 type  2   force =     0.07717141    0.13366480   -0.04420907
     atom   13 type  2   force =    -0.15434283    0.00000001   -0.04420907
     atom   14 type  2   force =    -0.07717141    0.13366481    0.04420907
     atom   15 type  2   force =    -0.07717141   -0.13366480    0.04420907
     atom   16 type  2   force =     0.15434283   -0.00000001    0.04420907
     atom   17 type  3   force =     0.00000000    0.00000000    0.00000000
     The ionic contribution  to forces
     atom    1 type  1   force =    -2.76414658    4.78752452   -2.89272404
     atom    2 type  1   force =    -2.76404397   -4.78746421   -2.89272341
     atom    3 type  1   force =     5.52819115   -0.00005927   -2.89272404
     atom    4 type  1   force =     2.76414658   -4.78752452    2.89272404
     atom    5 type  1   force =     2.76404397    4.78746421    2.89272341
     atom    6 type  1   force =    -5.52819115    0.00005927    2.89272404
     atom    7 type  1   force =     0.00012703   -0.00007334    0.00000000
     atom    8 type  1   force =    -0.00012703    0.00007334   -0.00000000
     atom    9 type  1   force =    -0.00012673    0.00007317    0.00000000
     atom   10 type  1   force =     0.00012673   -0.00007317   -0.00000000
     atom   11 type  2   force =     1.68074302   -2.91100657   -0.41723785
     atom   12 type  2   force =     1.68063455    2.91094420   -0.41723908
     atom   13 type  2   force =    -3.36137715    0.00006310   -0.41723785
     atom   14 type  2   force =    -1.68074302    2.91100657    0.41723785
     atom   15 type  2   force =    -1.68063455   -2.91094420    0.41723908
     atom   16 type  2   force =     3.36137715   -0.00006310    0.41723785
     atom   17 type  3   force =    -0.00000000   -0.00000000    0.00000000
     The local contribution  to forces
     atom    1 type  1   force =     2.66929487   -4.62323080    2.92364638
     atom    2 type  1   force =     2.67019503    4.62268507    2.92379999
     atom    3 type  1   force =    -5.33883097   -0.00095720    2.92369478
     atom    4 type  1   force =    -2.66946349    4.62290092   -2.92383558
     atom    5 type  1   force =    -2.66873636   -4.62349191   -2.92363103
     atom    6 type  1   force =     5.33884749   -0.00084277   -2.92365473
     atom    7 type  1   force =    -0.00028768    0.00111678   -0.00016420
     atom    8 type  1   force =    -0.00024168    0.00014738   -0.00017365
     atom    9 type  1   force =    -0.00022730    0.00024778    0.00019935
     atom   10 type  1   force =    -0.00031158    0.00097867    0.00019161
     atom   11 type  2   force =    -1.76737128    3.06046921    0.46590415
     atom   12 type  2   force =    -1.76539295   -3.05897467    0.46599790
     atom   13 type  2   force =     3.53239042   -0.00076214    0.46588157
     atom   14 type  2   force =     1.76554125   -3.05800370   -0.46595893
     atom   15 type  2   force =     1.76755363    3.05971259   -0.46603748
     atom   16 type  2   force =    -3.53348848   -0.00065817   -0.46590391
     atom   17 type  3   force =     0.00024251   -0.00057573    0.00019058
     The core correction contribution to forces
     atom    1 type  1   force =    -0.00584453    0.01012089    0.00321100
     atom    2 type  1   force =    -0.00583275   -0.01012723    0.00320479
     atom    3 type  1   force =     0.01168515   -0.00001267    0.00320512
     atom    4 type  1   force =     0.00584358   -0.01012502   -0.00320607
     atom    5 type  1   force =     0.00584585    0.01011807   -0.00321014
     atom    6 type  1   force =    -0.01168307   -0.00000545   -0.00321057
     atom    7 type  1   force =     0.00000397    0.00000884    0.00000026
     atom    8 type  1   force =    -0.00000725   -0.00000115    0.00000015
     atom    9 type  1   force =    -0.00000242    0.00000166    0.00000105
     atom   10 type  1   force =    -0.00000125    0.00000587    0.00000093
     atom   11 type  2   force =    -0.00121547    0.00210332    0.00102556
     atom   12 type  2   force =    -0.00121289   -0.00210402    0.00102527
     atom   13 type  2   force =     0.00242865   -0.00000265    0.00102437
     atom   14 type  2   force =     0.00121253   -0.00209945   -0.00102572
     atom   15 type  2   force =     0.00121668    0.00210425   -0.00102553
     atom   16 type  2   force =    -0.00242965   -0.00000083   -0.00102444
     atom   17 type  3   force =    -0.00000014    0.00000000    0.00000004
     The Hubbard contrib.    to forces
     atom    1 type  1   force =     0.00000000    0.00000000    0.00000000
     atom    2 type  1   force =     0.00000000    0.00000000    0.00000000
     atom    3 type  1   force =     0.00000000    0.00000000    0.00000000
     atom    4 type  1   force =     0.00000000    0.00000000    0.00000000
     atom    5 type  1   force =     0.00000000    0.00000000    0.00000000
     atom    6 type  1   force =     0.00000000    0.00000000    0.00000000
     atom    7 type  1   force =     0.00000000    0.00000000    0.00000000
     atom    8 type  1   force =     0.00000000    0.00000000    0.00000000
     atom    9 type  1   force =     0.00000000    0.00000000    0.00000000
     atom   10 type  1   force =     0.00000000    0.00000000    0.00000000
     atom   11 type  2   force =     0.00000000    0.00000000    0.00000000
     atom   12 type  2   force =     0.00000000    0.00000000    0.00000000
     atom   13 type  2   force =     0.00000000    0.00000000    0.00000000
     atom   14 type  2   force =     0.00000000    0.00000000    0.00000000
     atom   15 type  2   force =     0.00000000    0.00000000    0.00000000
     atom   16 type  2   force =     0.00000000    0.00000000    0.00000000
     atom   17 type  3   force =     0.00000000    0.00000000    0.00000000
     The SCF correction term to forces
     atom    1 type  1   force =     0.00019066   -0.00034146   -0.00032496
     atom    2 type  1   force =    -0.00061147    0.00080293   -0.00046326
     atom    3 type  1   force =    -0.00014202    0.00082861   -0.00036281
     atom    4 type  1   force =    -0.00006311    0.00067952    0.00044894
     atom    5 type  1   force =    -0.00063400   -0.00008387    0.00030696
     atom    6 type  1   force =     0.00012365    0.00070211    0.00031242
     atom    7 type  1   force =     0.00018780   -0.00090844    0.00017679
     atom    8 type  1   force =     0.00028125   -0.00021759    0.00018386
     atom    9 type  1   force =     0.00032341   -0.00028655   -0.00019101
     atom   10 type  1   force =     0.00016221   -0.00082491   -0.00018496
     atom   11 type  2   force =     0.00079960   -0.00078014   -0.00062151
     atom   12 type  2   force =    -0.00099615   -0.00061962   -0.00069583
     atom   13 type  2   force =     0.00057876    0.00061738   -0.00056808
     atom   14 type  2   force =     0.00097162   -0.00158810    0.00068112
     atom   15 type  2   force =    -0.00106241   -0.00009996    0.00074050
     atom   16 type  2   force =     0.00048724    0.00066723    0.00058235
     atom   17 type  3   force =    -0.00023393    0.00054170   -0.00018266

     Total force =     0.100942     Total SCF correction =     0.004204

     Computing stress (Cartesian axis) and pressure

          total   stress  (Ry/bohr**3)                   (kbar)     P=     -170.11
  -0.00078871   0.00000000   0.00000000         -116.02        0.00        0.00
   0.00000000  -0.00078871   0.00000000            0.00     -116.02        0.00
   0.00000000   0.00000000  -0.00189177            0.00        0.00     -278.29

     kinetic stress (kbar)  28066.01     -0.00      0.00
                               -0.00  28066.00      0.00
                                0.00      0.00  28002.73

     local   stress (kbar)    196.76      0.00     -0.00
                                0.00    196.59      0.01
                               -0.00      0.01   2854.02

     nonloc. stress (kbar)  10048.55     -0.00      0.00
                               -0.00  10048.55      0.00
                                0.00      0.00   9967.19

     hartree stress (kbar)  15336.00     -0.00      0.00
                               -0.00  15336.12     -0.01
                                0.00     -0.01  14507.22

     exc-cor stress (kbar)  16919.15     -0.00     -0.00
                               -0.00  16919.15      0.00
                               -0.00      0.00  16916.80

     corecor stress (kbar) -26602.29      0.00     -0.00
                                0.00 -26602.29      0.00
                               -0.00      0.00 -26598.59

     ewald   stress (kbar) -44080.19      0.03      0.00
                                0.03 -44080.16      0.00
                                0.00      0.00 -45927.66

     hubbard stress (kbar)      0.00      0.00      0.00
                                0.00      0.00      0.00
                                0.00      0.00      0.00

     DFT-D   stress (kbar)      0.00      0.00      0.00
                                0.00      0.00      0.00
                                0.00      0.00      0.00

     XDM     stress (kbar)      0.00      0.00      0.00
                                0.00      0.00      0.00
                                0.00      0.00      0.00

     dft-nl  stress (kbar)      0.00      0.00      0.00
                                0.00      0.00      0.00
                                0.00      0.00      0.00

     TS-vdW  stress (kbar)      0.00      0.00      0.00
                                0.00      0.00      0.00
                                0.00      0.00      0.00

[...]

                                0.00      0.00      0.00

     Writing all to output data dir new_calculations/myprefix.save/

     General routines

     Parallel routines

     PAW routines

   This run was terminated on:  19: 4:49  20May2023

   JOB DONE.