     Program PWSCF v.7.0 starts on 21May2023 at 10:30:44

     Reading input from espresso_24625.pwi
Warning: card &CELL ignored
Warning: card / ignored

     Current dimensions of program PWSCF are:
     Max number of different atomic species (ntypx) = 10
     Max number of k-points (npk) =  40000
     Max angular momentum in pseudopotentials (lmaxx) =  4

     gamma-point specific algorithms are used
     Message from routine setup:
     using ibrav=0 with symmetry is DISCOURAGED, use correct ibrav instead

     Subspace diagonalization in iterative solution of the eigenvalue problem:
     a serial algorithm will be used

     Using Slab Decomposition

     bravais-lattice index     =            0
     lattice parameter (alat)  =       9.1754  a.u.
     unit-cell volume          =     382.2189 (a.u.)^3
     number of atoms/cell      =            4
     number of atomic types    =            2
     number of electrons       =        75.00
     number of Kohn-Sham states=           46
     kinetic-energy cutoff     =      30.0000  Ry
     charge density cutoff     =     240.0000  Ry
     scf convergence threshold =      1.0E-06
     mixing beta               =       0.7000
     number of iterations used =            8  plain     mixing
     Exchange-correlation= SLA  PW   PBE  PBE
                           (   1   4   3   4   0   0   0)

     celldm(1)=   9.175435  celldm(2)=   0.000000  celldm(3)=   0.000000
     celldm(4)=   0.000000  celldm(5)=   0.000000  celldm(6)=   0.000000

     crystal axes: (cart. coord. in units of alat)
               a(1) = (   1.000000   0.000000   0.000000 )
               a(2) = (   0.410883   0.911688   0.000000 )
               a(3) = (  -0.705441  -0.455844   0.542732 )

     reciprocal axes: (cart. coord. in units 2 pi/alat)
               b(1) = (  1.000000 -0.450684  0.921264 )
               b(2) = (  0.000000  1.096866  0.921264 )
               b(3) = (  0.000000  0.000000  1.842528 )

     PseudoPot. # 1 for Zn read from file:
     /home/pragov/projects/rrg-bengioy-ad/pragov/crystal_structure_design/SSSP/Zn_pbe_v1.uspp.F.UPF
     MD5 check sum: df62231357ef9e81f77b2b3087fa5675
     Pseudo is Ultrasoft, Zval = 20.0
     Generated by new atomic code, or converted to UPF format
     Using radial grid of  943 points,  6 beta functions with:
                l(1) =   0
                l(2) =   0
                l(3) =   1
                l(4) =   1
                l(5) =   2
                l(6) =   2
     Q(r) pseudized with  8 coefficients,  rinner =    1.100   1.100   1.100
                                                       1.100   1.100

     PseudoPot. # 2 for Ir read from file:
     /home/pragov/projects/rrg-bengioy-ad/pragov/crystal_structure_design/SSSP/Ir_pbe_v1.2.uspp.F.UPF
     MD5 check sum: 8836f839c3459d2b385c504ce6d91f2c
     Pseudo is Ultrasoft + core correction, Zval = 15.0
     Generated by new atomic code, or converted to UPF format
     Using radial grid of  983 points,  7 beta functions with:
                l(1) =   0
                l(2) =   0
                l(3) =   1
                l(4) =   1
                l(5) =   1
                l(6) =   2
                l(7) =   2
     Q(r) pseudized with  8 coefficients,  rinner =    1.400   1.400   1.400
                                                       1.400   1.400

     atomic species   valence    mass     pseudopotential
        Zn            20.00    65.38000     Zn( 1.00)
        Ir            15.00   192.21700     Ir( 1.00)

      4 Sym. Ops., with inversion, found

                                    s                        frac. trans.

      isym =  1     identity

 cryst.   s( 1) = (     1          0          0      )
                  (     0          1          0      )
                  (     0          0          1      )

 cart.    s( 1) = (  1.0000000  0.0000000  0.0000000 )
                  (  0.0000000  1.0000000 -0.0000000 )
                  (  0.0000000  0.0000000  1.0000000 )

      isym =  2     180 deg rotation - cart. axis [0,0,1]

[...]

      isym =  3     inversion

[...]

      isym =  4     inv. 180 deg rotation - cart. axis [0,0,1]

 cryst.   s( 4) = (     1          0          0      )
                  (     0          1          0      )
                  (    -1         -1         -1      )

 cart.    s( 4) = (  1.0000000  0.0000000  0.0000000 )
                  (  0.0000000  1.0000000  0.0000000 )
                  (  0.0000000  0.0000000 -1.0000000 )

   Cartesian axes

     site n.     atom                  positions (alat units)
         1           Zn  tau(   1) = (   0.5000000  -0.0000000   0.2713662  )
         2           Zn  tau(   2) = (   0.2054414   0.4558441   0.2713662  )
         3           Zn  tau(   3) = (   0.7054414   0.4558441   0.0000000  )
         4           Ir  tau(   4) = (   0.0000000   0.0000000   0.0000000  )

   Crystallographic axes

     site n.     atom                  positions (cryst. coord.)
         1           Zn  tau(   1) = (  0.7500000  0.2500000  0.5000000  )
         2           Zn  tau(   2) = (  0.2500000  0.7500000  0.5000000  )
         3           Zn  tau(   3) = (  0.5000000  0.5000000  0.0000000  )
         4           Ir  tau(   4) = (  0.0000000  0.0000000  0.0000000  )

     number of k points=     1  Methfessel-Paxton smearing, width (Ry)=  0.0010
                       cart. coord. in units 2pi/alat
        k(    1) = (   0.0000000   0.0000000   0.0000000), wk =   2.0000000

                       cryst. coord.
        k(    1) = (   0.0000000   0.0000000   0.0000000), wk =   2.0000000

     Check: negative core charge=   -0.000002

     Initial potential from superposition of free atoms

     starting charge      74.4995, renormalised to      75.0000

     negative rho (up, down):  3.619E-01 0.000E+00
     Starting wfcs are   51 randomized atomic wfcs

     Self-consistent Calculation

     iteration #  1     ecut=    30.00 Ry     beta= 0.70
     Davidson diagonalization with overlap

     ethr =  1.00E-02,  avg # of iterations =  2.0

     negative rho (up, down):  3.289E-01 0.000E+00

     total energy              =   -1564.91333153 Ry
     estimated scf accuracy    <       1.39770918 Ry

[...]

     total energy              =   -1565.70738180 Ry
     estimated scf accuracy    <       0.00000345 Ry

     iteration # 17     ecut=    30.00 Ry     beta= 0.70
     Davidson diagonalization with overlap

     ethr =  4.60E-09,  avg # of iterations =  1.0

[...]

     End of self-consistent calculation

          k = 0.0000 0.0000 0.0000 (   525 PWs)   bands (ev):

  -109.9858-109.9544-108.9530 -64.1042 -64.0931 -64.0843 -63.9471 -63.9368
   -63.9212 -63.0809 -63.0603 -63.0058 -31.0313 -30.7517 -30.7440   6.3205
     8.4441   8.5486   8.5615   9.0334   9.0743   9.4268   9.4641   9.5706
     9.6227   9.6573   9.8237   9.9127  10.0159  10.0314  10.0323  13.9577
    14.5298  14.6880  14.6993  15.6512  16.4256  20.9194  20.9240  21.0395
    21.0541  21.7775  21.8004  22.4996  24.0177  26.4923

     occupation numbers
     1.0000   1.0000   1.0000   1.0000   1.0000   1.0000   1.0000   1.0000
     1.0000   1.0000   1.0000   1.0000   1.0000   1.0000   1.0000   1.0000
     1.0000   1.0000   1.0000   1.0000   1.0000   1.0000   1.0000   1.0000
     1.0000   1.0000   1.0000   1.0000   1.0000   1.0000   1.0000   1.0000
     1.0000   1.0000   1.0000   1.0000   1.0000   0.3671   0.1329  -0.0000
    -0.0000  -0.0000  -0.0000  -0.0000  -0.0000  -0.0000

     the Fermi energy is    20.9173 ev

!    total energy              =   -1565.70738122 Ry
     estimated scf accuracy    <       0.00000094 Ry
     smearing contrib. (-TS)   =      -0.00037394 Ry
     internal energy E=F+TS    =   -1565.70700728 Ry

     The total energy is F=E-TS. E is the sum of the following terms:
     one-electron contribution =   -1070.43335594 Ry
     hartree contribution      =     575.95850885 Ry
     xc contribution           =    -177.13354489 Ry
     ewald contribution        =    -894.09861529 Ry

     convergence has been achieved in  17 iterations

     negative rho (up, down):  3.284E-01 0.000E+00

     Forces acting on atoms (cartesian axes, Ry/au):

     atom    1 type  1   force =     0.00000000    0.00000000    0.00056441
     atom    2 type  1   force =     0.00000000    0.00000000   -0.00056441
     atom    3 type  1   force =     0.00000000    0.00000000   -0.00000000
     atom    4 type  2   force =     0.00000000    0.00000000    0.00000000
     The non-local contrib.  to forces
     atom    1 type  1   force =     0.00000000    0.00000000    0.00086125
     atom    2 type  1   force =     0.00000000    0.00000000   -0.00086125
     atom    3 type  1   force =     0.00000000    0.00000000    0.00000000
     atom    4 type  2   force =     0.00000000    0.00000000   -0.00000000
     The ionic contribution  to forces
     atom    1 type  1   force =     0.00000000    0.00000000    0.00000000
     atom    2 type  1   force =     0.00000000    0.00000000    0.00000000
     atom    3 type  1   force =    -0.00000000   -0.00000000   -0.00000000
     atom    4 type  2   force =    -0.00000000   -0.00000000   -0.00000000
     The local contribution  to forces
     atom    1 type  1   force =     0.00040667   -0.00205777   -0.00028642
     atom    2 type  1   force =    -0.00038351    0.00204926    0.00031175
     atom    3 type  1   force =     0.00013443   -0.00021858    0.00012417
     atom    4 type  2   force =    -0.00010517    0.00013518   -0.00006023
     The core correction contribution to forces
     atom    1 type  1   force =     0.00000000    0.00000000    0.00000000
     atom    2 type  1   force =     0.00000000    0.00000000    0.00000000
     atom    3 type  1   force =     0.00000000    0.00000000    0.00000000
     atom    4 type  2   force =    -0.00000288    0.00000461   -0.00000414
     The Hubbard contrib.    to forces
     atom    1 type  1   force =     0.00000000    0.00000000    0.00000000
     atom    2 type  1   force =     0.00000000    0.00000000    0.00000000
     atom    3 type  1   force =     0.00000000    0.00000000    0.00000000
     atom    4 type  2   force =     0.00000000    0.00000000    0.00000000
     The SCF correction term to forces
     atom    1 type  1   force =     0.00000832   -0.00000536   -0.00001059
     atom    2 type  1   force =    -0.00003560    0.00001904   -0.00001509
     atom    3 type  1   force =    -0.00018558    0.00030246   -0.00014903
     atom    4 type  2   force =     0.00009657   -0.00012880    0.00005693

     Total force =     0.000798     Total SCF correction =     0.000424
     SCF correction compared to forces is large: reduce conv_thr to get better values

     Computing stress (Cartesian axis) and pressure

     negative rho (up, down):  3.284E-01 0.000E+00
          total   stress  (Ry/bohr**3)                   (kbar)     P=     -592.01
  -0.00191338   0.00269821  -0.00000000         -281.47      396.92       -0.00
   0.00269821  -0.00365554   0.00000000          396.92     -537.75        0.00
  -0.00000000   0.00000000  -0.00650423           -0.00        0.00     -956.81

     kinetic stress (kbar)  43791.46    391.68      0.00
                              391.68  43443.20      0.00
                                0.00      0.00  43192.39

     local   stress (kbar)  20346.60   1895.80     11.45
                             1895.80  18709.50    -28.97
                               11.45    -28.97  17452.35

     nonloc. stress (kbar)  -2571.88    168.81     -0.00
                              168.81  -2658.53     -0.00
                               -0.00     -0.00  -2920.34

     hartree stress (kbar)  73455.31   -556.87     -5.86
                             -556.87  73917.61     16.22
                               -5.86     16.22  74296.97

     exc-cor stress (kbar)  -6217.20      4.58     -0.21
                                4.58  -6222.00      0.30
                               -0.21      0.30  -6224.42

     corecor stress (kbar) -13142.84     10.25     -0.07
                               10.25 -13152.29     -0.00
                               -0.07     -0.00 -13159.01

     ewald   stress (kbar)-115942.90  -1517.33      0.00
                            -1517.33-114575.23      0.00
                                0.00      0.00-113594.75

     hubbard stress (kbar)      0.00      0.00      0.00
                                0.00      0.00      0.00
                                0.00      0.00      0.00

     DFT-D   stress (kbar)      0.00      0.00      0.00
                                0.00      0.00      0.00
                                0.00      0.00      0.00

     XDM     stress (kbar)      0.00      0.00      0.00
                                0.00      0.00      0.00
                                0.00      0.00      0.00

     dft-nl  stress (kbar)      0.00      0.00      0.00
                                0.00      0.00      0.00
                                0.00      0.00      0.00

     TS-vdW  stress (kbar)      0.00      0.00      0.00
                                0.00      0.00      0.00
                                0.00      0.00      0.00

[...]

                                0.00      0.00      0.00

     Writing all to output data dir new_calculations/myprefix.save/

     General routines

     Parallel routines

   This run was terminated on:  10:30:51  21May2023

   JOB DONE.