     Program PWSCF v.7.0 starts on 21May2023 at  1:54:46

     Reading input from espresso_4823.pwi
Warning: card &CELL ignored
Warning: card / ignored

     Current dimensions of program PWSCF are:
     Max number of different atomic species (ntypx) = 10
     Max number of k-points (npk) =  40000
     Max angular momentum in pseudopotentials (lmaxx) =  4

     gamma-point specific algorithms are used
     Message from routine setup:
     using ibrav=0 with symmetry is DISCOURAGED, use correct ibrav instead

     Subspace diagonalization in iterative solution of the eigenvalue problem:
     a serial algorithm will be used

     Using Slab Decomposition

     bravais-lattice index     =            0
     lattice parameter (alat)  =      12.3898  a.u.
     unit-cell volume          =     908.4146 (a.u.)^3
     number of atoms/cell      =            9
     number of atomic types    =            3
     number of electrons       =       126.00
     number of Kohn-Sham states=           76
     kinetic-energy cutoff     =      30.0000  Ry
     charge density cutoff     =     240.0000  Ry
     scf convergence threshold =      1.0E-06
     mixing beta               =       0.7000
     number of iterations used =            8  plain     mixing
     Exchange-correlation=  SLA  PW   PBX  PBC
                           (   1   4   3   4   0   0   0)

     celldm(1)=  12.389838  celldm(2)=   0.000000  celldm(3)=   0.000000
     celldm(4)=   0.000000  celldm(5)=   0.000000  celldm(6)=   0.000000

     crystal axes: (cart. coord. in units of alat)
               a(1) = (   1.000000   0.000000   0.000000 )
               a(2) = (  -0.500000   0.866025   0.000000 )
               a(3) = (   0.000000   0.000000   0.551514 )

     reciprocal axes: (cart. coord. in units 2 pi/alat)
               b(1) = (  1.000000  0.577350  0.000000 )
               b(2) = (  0.000000  1.154701  0.000000 )
               b(3) = (  0.000000  0.000000  1.813190 )

     PseudoPot. # 1 for Ta read from file:
     /home/pragov/projects/rrg-bengioy-ad/pragov/crystal_structure_design/SSSP/Ta_pbe_v1.uspp.F.UPF
     MD5 check sum: f8bbe9446314a3b8ea5d9f3e3836c939
     Pseudo is Ultrasoft + core correction, Zval = 13.0
     Generated by new atomic code, or converted to UPF format
     Using radial grid of  921 points,  7 beta functions with:
                l(1) =   0
                l(2) =   0
                l(3) =   1
                l(4) =   1
                l(5) =   2
                l(6) =   2
                l(7) =   3
     Q(r) pseudized with  6 coefficients,  rinner =    1.300   1.300   1.300
                                                       1.300   1.300   1.300
                                                       1.300

     PseudoPot. # 2 for Mn read from file:
     /home/pragov/projects/rrg-bengioy-ad/pragov/crystal_structure_design/SSSP/mn_pbe_v1.5.uspp.F.UPF
     MD5 check sum: 82ef2b46521d7a7d9e736dc3972e4928
     Pseudo is Ultrasoft + core correction, Zval = 15.0
     Generated by new atomic code, or converted to UPF format
     Using radial grid of  859 points,  6 beta functions with:
                l(1) =   0
                l(2) =   0
                l(3) =   1
                l(4) =   1
                l(5) =   2
                l(6) =   2
     Q(r) pseudized with  8 coefficients,  rinner =    0.950   0.950   0.950
                                                       0.950   0.950

     PseudoPot. # 3 for Ge read from file:
     /home/pragov/projects/rrg-bengioy-ad/pragov/crystal_structure_design/SSSP/ge_pbe_v1.4.uspp.F.UPF
     MD5 check sum: 9c9eaa91e581c3f09632fb3098b2c6b2
     Pseudo is Ultrasoft + core correction, Zval = 14.0
     Generated by new atomic code, or converted to UPF format
     Using radial grid of  873 points,  6 beta functions with:
                l(1) =   0
                l(2) =   0
                l(3) =   1
                l(4) =   1
                l(5) =   2
                l(6) =   2
     Q(r) pseudized with  8 coefficients,  rinner =    1.400   1.400   1.400
                                                       1.400   1.400

     atomic species   valence    mass     pseudopotential
        Ta            13.00   180.94788     Ta( 1.00)
        Mn            15.00    54.93804     Mn( 1.00)
        Ge            14.00    72.63000     Ge( 1.00)

     12 Sym. Ops. (no inversion) found

                                    s                        frac. trans.

      isym =  1     identity

 cryst.   s( 1) = (     1          0          0      )
                  (     0          1          0      )
                  (     0          0          1      )

 cart.    s( 1) = (  1.0000000  0.0000000  0.0000000 )
                  (  0.0000000  1.0000000  0.0000000 )
                  (  0.0000000  0.0000000  1.0000000 )

      isym =  2     180 deg rotation - cart. axis [1,0,0]

[...]

      isym =  3     120 deg rotation - cryst. axis [0,0,1]

[...]

      isym =  6     180 deg rotation - cryst. axis [1,1,0]

[...]

      isym =  7     inv. 180 deg rotation - cart. axis [0,0,1]

[...]

      isym =  8     inv. 180 deg rotation - cart. axis [0,1,0]

[...]

      isym =  9     inv.  60 deg rotation - cryst. axis [0,0,1]

 cryst.   s( 9) = (    -1         -1          0      )
                  (     1          0          0      )
                  (     0          0         -1      )

 cart.    s( 9) = ( -0.5000000  0.8660254  0.0000000 )
                  ( -0.8660254 -0.5000000  0.0000000 )
                  (  0.0000000  0.0000000 -1.0000000 )

[...]

 cryst.   s(10) = (     0          1          0      )
                  (    -1         -1          0      )
                  (     0          0         -1      )

 cart.    s(10) = ( -0.5000000 -0.8660254  0.0000000 )
                  (  0.8660254 -0.5000000  0.0000000 )
                  (  0.0000000  0.0000000 -1.0000000 )

[...]

      isym = 12     inv. 180 deg rotation - cryst. axis [2,1,0]

 cryst.   s(12) = (    -1         -1          0      )
                  (     0          1          0      )
                  (     0          0          1      )

 cart.    s(12) = ( -0.5000000 -0.8660253  0.0000000 )
                  ( -0.8660254  0.5000000  0.0000000 )
                  (  0.0000000  0.0000000  1.0000000 )

   Cartesian axes

     site n.     atom                  positions (alat units)
         1           Ta  tau(   1) = (   0.2077300   0.3597989   0.2757571  )
         2           Ta  tau(   2) = (   0.5845400   0.0000000   0.2757571  )
         3           Ta  tau(   3) = (   0.7077300   0.5062265   0.2757571  )
         4           Mn  tau(   4) = (   0.3750310   0.6495728   0.0000000  )
         5           Mn  tau(   5) = (   0.2499380   0.0000000   0.0000000  )
         6           Mn  tau(   6) = (  -0.1249690   0.2164527   0.0000000  )
         7           Ge  tau(   7) = (   0.5000005   0.2886749   0.0000000  )
         8           Ge  tau(   8) = (  -0.0000005   0.5773506   0.0000000  )
         9           Ge  tau(   9) = (   0.0000000   0.0000000   0.2757571  )

   Crystallographic axes

     site n.     atom                  positions (cryst. coord.)
         1           Ta  tau(   1) = (  0.4154600  0.4154600  0.5000000  )
         2           Ta  tau(   2) = (  0.5845400  0.0000000  0.5000000  )
         3           Ta  tau(   3) = (  1.0000000  0.5845400  0.5000000  )
         4           Mn  tau(   4) = (  0.7500620  0.7500620  0.0000000  )
         5           Mn  tau(   5) = (  0.2499380  0.0000000  0.0000000  )
         6           Mn  tau(   6) = ( -0.0000000  0.2499380  0.0000000  )
         7           Ge  tau(   7) = (  0.6666670  0.3333330  0.0000000  )
         8           Ge  tau(   8) = (  0.3333330  0.6666670  0.0000000  )
         9           Ge  tau(   9) = (  0.0000000  0.0000000  0.5000000  )

     number of k points=     1  Methfessel-Paxton smearing, width (Ry)=  0.0010
                       cart. coord. in units 2pi/alat
        k(    1) = (   0.0000000   0.0000000   0.0000000), wk =   2.0000000

                       cryst. coord.
        k(    1) = (   0.0000000   0.0000000   0.0000000), wk =   2.0000000

     Check: negative core charge=   -0.000013

     Initial potential from superposition of free atoms

     starting charge     124.4938, renormalised to     126.0000

     negative rho (up, down):  2.849E-01 0.000E+00
     Starting wfcs are  105 randomized atomic wfcs

     Self-consistent Calculation

     iteration #  1     ecut=    30.00 Ry     beta= 0.70
     Davidson diagonalization with overlap

     ethr =  1.00E-02,  avg # of iterations =  2.0

     negative rho (up, down):  2.815E-01 0.000E+00

     total energy              =   -1699.45536686 Ry
     estimated scf accuracy    <       1.31559938 Ry

[...]

     total energy              =   -1699.97231175 Ry
     estimated scf accuracy    <       0.00000299 Ry

     iteration # 22     ecut=    30.00 Ry     beta= 0.70
     Davidson diagonalization with overlap

     ethr =  2.37E-09,  avg # of iterations =  1.0

[...]

     End of self-consistent calculation

          k = 0.0000 0.0000 0.0000 (  1254 PWs)   bands (ev):

   -61.6692 -61.6615 -61.6615 -50.9807 -50.9735 -50.9734 -30.6996 -30.6408
   -30.6407 -30.4235 -30.4234 -30.4044 -30.1637 -30.1494 -30.1494 -17.7545
   -17.6028 -17.6027 -17.3547 -17.3546 -17.3194 -17.3188 -17.3009 -17.3008
    -7.0148  -7.0148  -7.0031  -7.0031  -6.9998  -6.9998  -6.9864  -6.9774
    -6.9774  -6.9722  -6.6976  -6.6976  -6.6975  -6.6975  -6.6944   5.5337
     7.6929   8.2449  11.5966  11.5967  12.6881  12.6881  13.8760  14.1151
    14.1702  14.4469  14.4469  15.5868  15.6342  15.6342  15.8558  15.8558
    15.9323  15.9323  16.5135  16.5135  17.1063  17.1552  17.4559  17.4560
    17.7815  17.9779  18.0573  18.0574  18.3292  18.3292  19.0122  19.0524
    19.5771  19.5771  19.9889  20.1974

     occupation numbers
     1.0000   1.0000   1.0000   1.0000   1.0000   1.0000   1.0000   1.0000
     1.0000   1.0000   1.0000   1.0000   1.0000   1.0000   1.0000   1.0000
     1.0000   1.0000   1.0000   1.0000   1.0000   1.0000   1.0000   1.0000
     1.0000   1.0000   1.0000   1.0000   1.0000   1.0000   1.0000   1.0000
     1.0000   1.0000   1.0000   1.0000   1.0000   1.0000   1.0000   1.0000
     1.0000   1.0000   1.0000   1.0000   1.0000   1.0000   1.0000   1.0000
     1.0000   1.0000   1.0000   1.0000   1.0000   1.0000   1.0000   1.0000
     1.0000   1.0000   1.0000   1.0000   1.0000   1.0000   0.5007   0.4993
    -0.0000  -0.0000  -0.0000  -0.0000  -0.0000  -0.0000  -0.0000  -0.0000
    -0.0000  -0.0000  -0.0000  -0.0000

     the Fermi energy is    17.4559 ev

!    total energy              =   -1699.97231165 Ry
     estimated scf accuracy    <       0.00000016 Ry
     smearing contrib. (-TS)   =      -0.00056419 Ry
     internal energy E=F+TS    =   -1699.97174746 Ry

     The total energy is F=E-TS. E is the sum of the following terms:
     one-electron contribution =    -662.71586859 Ry
     hartree contribution      =     425.05971007 Ry
     xc contribution           =    -381.50296985 Ry
     ewald contribution        =   -1080.81261909 Ry

     convergence has been achieved in  22 iterations

     negative rho (up, down):  2.843E-01 0.000E+00

     Forces acting on atoms (cartesian axes, Ry/au):

     atom    1 type  1   force =     0.03796617    0.06575934    0.00000000
     atom    2 type  1   force =    -0.07593235    0.00000000    0.00000000
     atom    3 type  1   force =     0.03796617   -0.06575934    0.00000000
     atom    4 type  2   force =     0.01974522    0.03419972    0.00000000
     atom    5 type  2   force =    -0.03949044    0.00000000    0.00000000
     atom    6 type  2   force =     0.01974522   -0.03419972    0.00000000
     atom    7 type  3   force =     0.00000000   -0.00000000   -0.00000000
     atom    8 type  3   force =    -0.00000000    0.00000000    0.00000000
     atom    9 type  3   force =    -0.00000000    0.00000000    0.00000000
     The non-local contrib.  to forces
     atom    1 type  1   force =     0.02167642    0.03754467    0.00000000
     atom    2 type  1   force =    -0.04335285    0.00000000   -0.00000000
     atom    3 type  1   force =     0.02167642   -0.03754467    0.00000000
     atom    4 type  2   force =     0.08062120    0.13964001    0.00000000
     atom    5 type  2   force =    -0.16124240    0.00000001    0.00000000
     atom    6 type  2   force =     0.08062120   -0.13964002    0.00000000
     atom    7 type  3   force =     0.00000000    0.00000000    0.00000000
     atom    8 type  3   force =     0.00000000    0.00000000    0.00000000
     atom    9 type  3   force =    -0.00000000    0.00000000    0.00000000
     The ionic contribution  to forces
     atom    1 type  1   force =     1.07972407    1.87013685   -0.00000000
     atom    2 type  1   force =    -2.15939117   -0.00003330   -0.00000000
     atom    3 type  1   force =     1.07966667   -1.87010430   -0.00000000
     atom    4 type  2   force =    -3.93948752   -6.82339221    0.00000000
     atom    5 type  2   force =     7.87882939    0.00008504    0.00000000
     atom    6 type  2   force =    -3.93934076    6.82330910    0.00000000
     atom    7 type  3   force =    -0.00013625    0.00007798   -0.00000000
     atom    8 type  3   force =     0.00013566   -0.00007901   -0.00000000
     atom    9 type  3   force =    -0.00000009   -0.00000016    0.00000000
     The local contribution  to forces
     atom    1 type  1   force =    -1.05686489   -1.82952253    0.00000023
     atom    2 type  1   force =     2.11309200   -0.00054260   -0.00000011
     atom    3 type  1   force =    -1.05629157    1.83005398   -0.00000016
     atom    4 type  2   force =     3.87972325    6.71974388   -0.00000050
     atom    5 type  2   force =    -7.76018687   -0.00002915    0.00000025
     atom    6 type  2   force =     3.88068512   -6.71967113   -0.00000006
     atom    7 type  3   force =    -0.00047820    0.00066485   -0.00000072
     atom    8 type  3   force =     0.00029124   -0.00072473   -0.00000046
     atom    9 type  3   force =     0.00028407    0.00016377    0.00000034
     The core correction contribution to forces
     atom    1 type  1   force =    -0.00695881   -0.01204616    0.00000001
     atom    2 type  1   force =     0.01390562   -0.00000425   -0.00000002
     atom    3 type  1   force =    -0.00695211    0.01204792   -0.00000007
     atom    4 type  2   force =    -0.00125152   -0.00216575   -0.00000003
     atom    5 type  2   force =     0.00251002    0.00000031    0.00000000
     atom    6 type  2   force =    -0.00124786    0.00217392   -0.00000001
     atom    7 type  3   force =    -0.00000174   -0.00000019   -0.00000002
     atom    8 type  3   force =    -0.00000126   -0.00000132   -0.00000001
     atom    9 type  3   force =     0.00000273    0.00000177    0.00000001
     The Hubbard contrib.    to forces
     atom    1 type  1   force =     0.00000000    0.00000000    0.00000000
     atom    2 type  1   force =     0.00000000    0.00000000    0.00000000
     atom    3 type  1   force =     0.00000000    0.00000000    0.00000000
     atom    4 type  2   force =     0.00000000    0.00000000    0.00000000
     atom    5 type  2   force =     0.00000000    0.00000000    0.00000000
     atom    6 type  2   force =     0.00000000    0.00000000    0.00000000
     atom    7 type  3   force =     0.00000000    0.00000000    0.00000000
     atom    8 type  3   force =     0.00000000    0.00000000    0.00000000
     atom    9 type  3   force =     0.00000000    0.00000000    0.00000000
     The SCF correction term to forces
     atom    1 type  1   force =     0.00042506   -0.00038192   -0.00000005
     atom    2 type  1   force =    -0.00018569    0.00062762    0.00000023
     atom    3 type  1   force =    -0.00017480   -0.00024441   -0.00000003
     atom    4 type  2   force =     0.00017613    0.00038880    0.00000049
     atom    5 type  2   force =     0.00063055    0.00000853   -0.00000001
     atom    6 type  2   force =    -0.00089999   -0.00032967    0.00000002
     atom    7 type  3   force =     0.00060126   -0.00075694    0.00000041
     atom    8 type  3   force =    -0.00043605    0.00078177    0.00000036
     atom    9 type  3   force =    -0.00021965   -0.00011199   -0.00000050

     Total force =     0.148242     Total SCF correction =     0.002035

     Computing stress (Cartesian axis) and pressure

     negative rho (up, down):  2.843E-01 0.000E+00
          total   stress  (Ry/bohr**3)                   (kbar)     P=     -244.77
  -0.00224281   0.00000000   0.00000000         -329.93        0.00        0.00
   0.00000000  -0.00224281   0.00000000            0.00     -329.93        0.00
   0.00000000  -0.00000000  -0.00050609            0.00       -0.00      -74.45

     kinetic stress (kbar)  31807.44     -0.00      0.00
                               -0.00  31807.44      0.00
                               -0.00     -0.00  32585.37

     local   stress (kbar)  14807.18     -0.17     -0.00
                               -0.17  14806.65     -0.00
                               -0.00     -0.00  17392.71

     nonloc. stress (kbar)     83.09     -0.00      0.00
                               -0.00     83.09     -0.00
                                0.00      0.00    252.13

     hartree stress (kbar)  23416.21      0.13      0.00
                                0.13  23416.61      0.00
                                0.00      0.00  21999.67

     exc-cor stress (kbar)  17974.91      0.00      0.00
                                0.00  17974.92     -0.00
                                0.00     -0.00  17986.12

     corecor stress (kbar) -30699.00     -0.00     -0.00
                               -0.00 -30699.01      0.00
                               -0.00      0.00 -30707.29

     ewald   stress (kbar) -57719.68     -0.02     -0.00
                               -0.02 -57719.70      0.00
                               -0.00      0.00 -59583.15

     hubbard stress (kbar)      0.00      0.00      0.00
                                0.00      0.00      0.00
                                0.00      0.00      0.00

     DFT-D   stress (kbar)      0.00      0.00      0.00
                                0.00      0.00      0.00
                                0.00      0.00      0.00

     XDM     stress (kbar)      0.00      0.00      0.00
                                0.00      0.00      0.00
                                0.00      0.00      0.00

     dft-nl  stress (kbar)      0.00      0.00      0.00
                                0.00      0.00      0.00
                                0.00      0.00      0.00

     TS-vdW  stress (kbar)      0.00      0.00      0.00
                                0.00      0.00      0.00
                                0.00      0.00      0.00

[...]

                                0.00      0.00      0.00

     Writing all to output data dir new_calculations/myprefix.save/

     General routines

     Parallel routines

   This run was terminated on:   1:55:28  21May2023

   JOB DONE.