     Program PWSCF v.7.0 starts on 21May2023 at 18:21:14

     Reading input from espresso_20777.pwi
Warning: card &CELL ignored
Warning: card / ignored

     Current dimensions of program PWSCF are:
     Max number of different atomic species (ntypx) = 10
     Max number of k-points (npk) =  40000
     Max angular momentum in pseudopotentials (lmaxx) =  4
     file O.pbe-n-kjpaw_psl.0.1.UPF: wavefunction(s)  2P renormalized

     gamma-point specific algorithms are used
     Message from routine setup:
     using ibrav=0 with symmetry is DISCOURAGED, use correct ibrav instead

     Subspace diagonalization in iterative solution of the eigenvalue problem:
     a serial algorithm will be used

     Using Slab Decomposition

     bravais-lattice index     =            0
     lattice parameter (alat)  =       8.3038  a.u.
     unit-cell volume          =    1754.9352 (a.u.)^3
     number of atoms/cell      =           18
     number of atomic types    =            3
     number of electrons       =       128.00
     number of Kohn-Sham states=           77
     kinetic-energy cutoff     =      30.0000  Ry
     charge density cutoff     =     240.0000  Ry
     scf convergence threshold =      1.0E-06
     mixing beta               =       0.7000
     number of iterations used =            8  plain     mixing
     Exchange-correlation= SLA  PW   PBX  PBC
                           (   1   4   3   4   0   0   0)

     celldm(1)=   8.303793  celldm(2)=   0.000000  celldm(3)=   0.000000
     celldm(4)=   0.000000  celldm(5)=   0.000000  celldm(6)=   0.000000

     crystal axes: (cart. coord. in units of alat)
               a(1) = (   1.000000   0.000000   0.000000 )
               a(2) = (   0.000000   1.071360   0.000000 )
               a(3) = (   0.000000   0.000000   2.860857 )

     reciprocal axes: (cart. coord. in units 2 pi/alat)
               b(1) = (  1.000000  0.000000  0.000000 )
               b(2) = (  0.000000  0.933393  0.000000 )
               b(3) = (  0.000000  0.000000  0.349546 )

     PseudoPot. # 1 for P  read from file:
     /home/pragov/projects/rrg-bengioy-ad/pragov/crystal_structure_design/SSSP/P.pbe-n-rrkjus_psl.1.0.0.UPF
     MD5 check sum: 8b930f418f0a4573dca56cd030ffe088
     Pseudo is Ultrasoft + core correction, Zval =  5.0
     Generated using "atomic" code by A. Dal Corso  v.5.1
     Using radial grid of 1147 points,  6 beta functions with:
                l(1) =   0
                l(2) =   0
                l(3) =   1
                l(4) =   1
                l(5) =   2
                l(6) =   2
     Q(r) pseudized with 0 coefficients

     PseudoPot. # 2 for Pd read from file:
     /home/pragov/projects/rrg-bengioy-ad/pragov/crystal_structure_design/SSSP/Pd_ONCV_PBE-1.0.oncvpsp.upf
     MD5 check sum: eb77f42b51d86fb18e25f68156a31cf1
     Pseudo is Norm-conserving, Zval = 18.0
     Generated using ONCVPSP code by D. R. Hamann
     Using radial grid of 1410 points,  6 beta functions with:
                l(1) =   0
                l(2) =   0
                l(3) =   1
                l(4) =   1
                l(5) =   2
                l(6) =   2

     PseudoPot. # 3 for O  read from file:
     /home/pragov/projects/rrg-bengioy-ad/pragov/crystal_structure_design/SSSP/O.pbe-n-kjpaw_psl.0.1.UPF
     MD5 check sum: 0234752ac141de4415c5fc33072bef88
     Pseudo is Projector augmented-wave + core cor, Zval =  6.0
     Generated using "atomic" code by A. Dal Corso  v.5.0.99 svn rev. 10869
     Shape of augmentation charge: BESSEL
     Using radial grid of 1095 points,  4 beta functions with:
                l(1) =   0
                l(2) =   0
                l(3) =   1
                l(4) =   1
     Q(r) pseudized with 0 coefficients

     atomic species   valence    mass     pseudopotential
        P              5.00    30.97376     P ( 1.00)
        Pd            18.00   106.42000     Pd( 1.00)
        O              6.00    15.99900     O ( 1.00)

      8 Sym. Ops., with inversion, found ( 4 have fractional translation)

                                    s                        frac. trans.

      isym =  1     identity

 cryst.   s( 1) = (     1          0          0      )
                  (     0          1          0      )
                  (     0          0          1      )

 cart.    s( 1) = (  1.0000000  0.0000000  0.0000000 )
                  (  0.0000000  1.0000000  0.0000000 )
                  (  0.0000000  0.0000000  1.0000000 )

      isym =  2     180 deg rotation - cart. axis [0,0,1]

[...]

 cryst.   s( 3) = (    -1          0          0      )    f =(  0.5000000 )
                  (     0          1          0      )       (  0.0000000 )
                  (     0          0         -1      )       ( -0.5000000 )

 cart.    s( 3) = ( -1.0000000  0.0000000  0.0000000 )    f =(  0.5000000 )
                  (  0.0000000  1.0000000  0.0000000 )       (  0.0000000 )
                  (  0.0000000  0.0000000 -1.0000000 )       ( -1.4304283 )

      isym =  4     180 deg rotation - cart. axis [1,0,0]

[...]

      isym =  5     inversion

[...]

      isym =  6     inv. 180 deg rotation - cart. axis [0,0,1]

 cryst.   s( 6) = (     1          0          0      )
                  (     0          1          0      )
                  (     0          0         -1      )

 cart.    s( 6) = (  1.0000000  0.0000000  0.0000000 )
                  (  0.0000000  1.0000000  0.0000000 )
                  (  0.0000000  0.0000000 -1.0000000 )

[...]

      isym =  8     inv. 180 deg rotation - cart. axis [1,0,0]

 cryst.   s( 8) = (    -1          0          0      )    f =(  0.5000000 )
                  (     0          1          0      )       (  0.0000000 )
                  (     0          0          1      )       (  0.5000000 )

 cart.    s( 8) = ( -1.0000000  0.0000000  0.0000000 )    f =(  0.5000000 )
                  (  0.0000000  1.0000000  0.0000000 )       (  0.0000000 )
                  (  0.0000000  0.0000000  1.0000000 )       (  1.4304283 )

   Cartesian axes

     site n.     atom                  positions (alat units)
         1           P   tau(   1) = (   0.5000000   0.5356801   0.9376229  )
         2           P   tau(   2) = (   0.0000000   0.5356801   0.4928054  )
         3           P   tau(   3) = (   0.5000000   0.5356801   1.9232337  )
         4           P   tau(   4) = (   0.0000000   0.5356801   2.3680511  )
         5           Pd  tau(   5) = (   0.5000000   0.0000000   1.4304283  )
         6           Pd  tau(   6) = (   0.0000000   0.0000000   0.0000000  )
         7           O   tau(   7) = (   0.7500000   0.6851541   0.7152141  )
         8           O   tau(   8) = (   0.2500000   0.3862060   0.7152141  )
         9           O   tau(   9) = (   0.2500000   0.3862060   2.1456424  )
        10           O   tau(  10) = (   0.7500000   0.6851541   2.1456424  )
        11           O   tau(  11) = (   0.8377780   0.2828884   0.3261033  )
        12           O   tau(  12) = (   0.3377780   0.7884718   1.1043250  )
        13           O   tau(  13) = (   0.8377780   0.2828884   2.5347533  )
        14           O   tau(  14) = (   0.3377780   0.7884718   1.7565316  )
        15           O   tau(  15) = (   0.6622220   0.2828884   1.7565316  )
        16           O   tau(  16) = (   0.1622220   0.7884718   2.5347533  )
        17           O   tau(  17) = (   0.1622220   0.7884718   0.3261033  )
        18           O   tau(  18) = (   0.6622220   0.2828884   1.1043250  )

   Crystallographic axes

     site n.     atom                  positions (cryst. coord.)
         1           P   tau(   1) = (  0.5000000  0.5000000  0.3277420  )
         2           P   tau(   2) = (  0.0000000  0.5000000  0.1722580  )
         3           P   tau(   3) = (  0.5000000  0.5000000  0.6722580  )
         4           P   tau(   4) = (  0.0000000  0.5000000  0.8277420  )
         5           Pd  tau(   5) = (  0.5000000  0.0000000  0.5000000  )
         6           Pd  tau(   6) = (  0.0000000  0.0000000  0.0000000  )
         7           O   tau(   7) = (  0.7500000  0.6395180  0.2500000  )
         8           O   tau(   8) = (  0.2500000  0.3604820  0.2500000  )
         9           O   tau(   9) = (  0.2500000  0.3604820  0.7500000  )
        10           O   tau(  10) = (  0.7500000  0.6395180  0.7500000  )
        11           O   tau(  11) = (  0.8377780  0.2640460  0.1139880  )
        12           O   tau(  12) = (  0.3377780  0.7359540  0.3860120  )
        13           O   tau(  13) = (  0.8377780  0.2640460  0.8860120  )
        14           O   tau(  14) = (  0.3377780  0.7359540  0.6139880  )
        15           O   tau(  15) = (  0.6622220  0.2640460  0.6139880  )
        16           O   tau(  16) = (  0.1622220  0.7359540  0.8860120  )
        17           O   tau(  17) = (  0.1622220  0.7359540  0.1139880  )
        18           O   tau(  18) = (  0.6622220  0.2640460  0.3860120  )

     number of k points=     1  Methfessel-Paxton smearing, width (Ry)=  0.0010
                       cart. coord. in units 2pi/alat
        k(    1) = (   0.0000000   0.0000000   0.0000000), wk =   2.0000000

                       cryst. coord.
        k(    1) = (   0.0000000   0.0000000   0.0000000), wk =   2.0000000

     Check: negative core charge=   -0.000012

     Initial potential from superposition of free atoms

     starting charge     127.9986, renormalised to     128.0000
     Starting wfcs are   84 randomized atomic wfcs
     Checking if some PAW data can be deallocated...

     Self-consistent Calculation

     iteration #  1     ecut=    30.00 Ry     beta= 0.70
     Davidson diagonalization with overlap

     ethr =  1.00E-02,  avg # of iterations =  3.0

     total energy              =   -1060.51869002 Ry
     estimated scf accuracy    <       3.31009563 Ry

[...]

     total energy              =   -1061.93646566 Ry
     estimated scf accuracy    <       0.00000481 Ry

     iteration #  9     ecut=    30.00 Ry     beta= 0.70
     Davidson diagonalization with overlap

     ethr =  3.76E-09,  avg # of iterations =  2.0

     End of self-consistent calculation

          k = 0.0000 0.0000 0.0000 (  2433 PWs)   bands (ev):

   -80.6325 -80.6320 -46.4144 -46.4137 -46.3409 -46.3392 -45.2207 -45.2200
   -18.9706 -18.9480 -16.5924 -16.5840 -16.5812 -16.4225 -15.4611 -15.2737
   -15.0543 -15.0092 -14.9890 -14.9431  -8.0080  -7.8277  -5.1702  -5.1654
    -3.9496  -3.3074  -3.1426  -3.1005  -2.7621  -2.5800  -2.4752  -1.6232
    -1.2688  -1.0853  -0.9482  -0.7339  -0.7273  -0.4265  -0.2590   0.2169
     0.2226   0.3815   0.5582   0.5860   0.7356   0.7689   0.8471   1.1195
     1.1509   1.5138   1.5896   1.8587   2.0487   2.1910   2.1982   2.4956
     3.3021   3.3490   3.3939   3.4532   3.7549   3.7808   3.8930   3.9084
     5.7705   5.9285   8.1252   9.3747   9.7505  10.4241  10.9950  11.0410
    11.1697  11.4904  11.7661  12.4861  12.9470

     occupation numbers
     1.0000   1.0000   1.0000   1.0000   1.0000   1.0000   1.0000   1.0000
     1.0000   1.0000   1.0000   1.0000   1.0000   1.0000   1.0000   1.0000
     1.0000   1.0000   1.0000   1.0000   1.0000   1.0000   1.0000   1.0000
     1.0000   1.0000   1.0000   1.0000   1.0000   1.0000   1.0000   1.0000
     1.0000   1.0000   1.0000   1.0000   1.0000   1.0000   1.0000   1.0000
     1.0000   1.0000   1.0000   1.0000   1.0000   1.0000   1.0000   1.0000
     1.0000   1.0000   1.0000   1.0000   1.0000   1.0000   1.0000   1.0000
     1.0000   1.0000   1.0000   1.0000   1.0000   1.0000   1.0000   1.0000
    -0.0000  -0.0000  -0.0000  -0.0000  -0.0000  -0.0000  -0.0000  -0.0000
    -0.0000  -0.0000  -0.0000  -0.0000  -0.0000

     the Fermi energy is     4.2844 ev

!    total energy              =   -1061.93646568 Ry
     estimated scf accuracy    <       0.00000082 Ry
     smearing contrib. (-TS)   =       0.00000000 Ry
     internal energy E=F+TS    =   -1061.93646568 Ry

     The total energy is F=E-TS. E is the sum of the following terms:
     one-electron contribution =    -623.55219826 Ry
     hartree contribution      =     363.43596060 Ry
     xc contribution           =    -157.22630560 Ry
     ewald contribution        =    -530.38687300 Ry
     one-center paw contrib.   =    -114.20704942 Ry
      -> PAW hartree energy AE =     375.16256436 Ry
      -> PAW hartree energy PS =    -373.84284345 Ry
      -> PAW xc energy AE      =    -209.03460832 Ry
      -> PAW xc energy PS      =      93.50783800 Ry
      -> total E_H with PAW    =     364.75568151 Ry
      -> total E_XC with PAW   =    -272.75307592 Ry

     convergence has been achieved in   9 iterations

     Forces acting on atoms (cartesian axes, Ry/au):

     atom    1 type  1   force =     0.00000000    0.00000000    0.00445372
     atom    2 type  1   force =     0.00000000    0.00000000   -0.00445372
     atom    3 type  1   force =     0.00000000    0.00000000   -0.00445372
     atom    4 type  1   force =     0.00000000    0.00000000    0.00445372
     atom    5 type  2   force =     0.00000000    0.00000000    0.00000000
     atom    6 type  2   force =     0.00000000    0.00000000   -0.00000000
     atom    7 type  3   force =     0.00000000    0.02554321    0.00000000
     atom    8 type  3   force =     0.00000000   -0.02554321    0.00000000
     atom    9 type  3   force =     0.00000000   -0.02554321   -0.00000000
     atom   10 type  3   force =     0.00000000    0.02554321    0.00000000
     atom   11 type  3   force =    -0.00954762   -0.00967142    0.00160416
     atom   12 type  3   force =    -0.00954762    0.00967142   -0.00160416
     atom   13 type  3   force =    -0.00954762   -0.00967142   -0.00160416
     atom   14 type  3   force =    -0.00954762    0.00967142    0.00160416
     atom   15 type  3   force =     0.00954762   -0.00967142    0.00160416
     atom   16 type  3   force =     0.00954762    0.00967142   -0.00160416
     atom   17 type  3   force =     0.00954762    0.00967142    0.00160416
     atom   18 type  3   force =     0.00954762   -0.00967142   -0.00160416
     The non-local contrib.  to forces
     atom    1 type  1   force =     0.00000000    0.00000000   -0.25798669
     atom    2 type  1   force =     0.00000000    0.00000000    0.25798669
     atom    3 type  1   force =     0.00000000    0.00000000    0.25798669
     atom    4 type  1   force =     0.00000000    0.00000000   -0.25798669
     atom    5 type  2   force =     0.00000000    0.00000000    0.00000000
     atom    6 type  2   force =     0.00000000    0.00000000    0.00000000
     atom    7 type  3   force =     0.00000000   -1.70078085    0.00000000
     atom    8 type  3   force =     0.00000000    1.70078085    0.00000000
     atom    9 type  3   force =     0.00000000    1.70078085    0.00000000
     atom   10 type  3   force =     0.00000000   -1.70078085    0.00000000
     atom   11 type  3   force =     1.55226159    1.03818402    0.29703774
     atom   12 type  3   force =     1.55226159   -1.03818402   -0.29703774
     atom   13 type  3   force =     1.55226159    1.03818402   -0.29703774
     atom   14 type  3   force =     1.55226159   -1.03818402    0.29703774
     atom   15 type  3   force =    -1.55226159    1.03818402    0.29703774
     atom   16 type  3   force =    -1.55226159   -1.03818402   -0.29703774
     atom   17 type  3   force =    -1.55226159   -1.03818402    0.29703774
     atom   18 type  3   force =    -1.55226159    1.03818402   -0.29703774
     The ionic contribution  to forces
     atom    1 type  1   force =     0.00000000    0.00000000   -0.64027043
     atom    2 type  1   force =     0.00000000   -0.00000000    0.64027043
     atom    3 type  1   force =     0.00000000   -0.00000000    0.64027043
     atom    4 type  1   force =    -0.00000000    0.00000000   -0.64027043
     atom    5 type  2   force =    -0.00000000   -0.00000000    0.00000000
     atom    6 type  2   force =     0.00000000    0.00000000   -0.00000000
     atom    7 type  3   force =     0.00000000    6.60426832    0.00000000
     atom    8 type  3   force =    -0.00000000   -6.60426832    0.00000000
     atom    9 type  3   force =     0.00000000   -6.60426832   -0.00000000
     atom   10 type  3   force =     0.00000000    6.60426832    0.00000000
     atom   11 type  3   force =    -7.97895841   -0.49246744    2.82760112
     atom   12 type  3   force =    -7.97895841    0.49246744   -2.82760112
     atom   13 type  3   force =    -7.97895841   -0.49246744   -2.82760112
     atom   14 type  3   force =    -7.97895841    0.49246744    2.82760112
     atom   15 type  3   force =     7.97895841   -0.49246744    2.82760112
     atom   16 type  3   force =     7.97895841    0.49246744   -2.82760112
     atom   17 type  3   force =     7.97895841    0.49246744    2.82760112
     atom   18 type  3   force =     7.97895841   -0.49246744   -2.82760112
     The local contribution  to forces
     atom    1 type  1   force =     0.00000639   -0.00006016    0.88490259
     atom    2 type  1   force =    -0.00014053   -0.00021255   -0.88490716
     atom    3 type  1   force =    -0.00005547   -0.00003681   -0.88515242
     atom    4 type  1   force =    -0.00002243   -0.00012669    0.88518885
     atom    5 type  2   force =     0.00003147    0.00004982   -0.00130439
     atom    6 type  2   force =    -0.00055062    0.00079750    0.00110621
     atom    7 type  3   force =     0.00001591   -4.89491279    0.00000127
     atom    8 type  3   force =     0.00004743    4.89486963    0.00001556
     atom    9 type  3   force =     0.00003886    4.89475926    0.00000263
     atom   10 type  3   force =    -0.00000686   -4.89482270    0.00003498
     atom   11 type  3   force =     6.43280259   -0.54697195   -3.12179475
     atom   12 type  3   force =     6.43279428    0.54698409    3.12161532
     atom   13 type  3   force =     6.43262641   -0.54692258    3.12211380
     atom   14 type  3   force =     6.43262024    0.54694213   -3.12195582
     atom   15 type  3   force =    -6.43260791   -0.54691624   -3.12193871
     atom   16 type  3   force =    -6.43257150    0.54688615    3.12183796
     atom   17 type  3   force =    -6.43270690    0.54689674   -3.12141376
     atom   18 type  3   force =    -6.43278799   -0.54696424    3.12162463
     The core correction contribution to forces
     atom    1 type  1   force =     0.00000140    0.00000136    0.01744676
     atom    2 type  1   force =     0.00000013    0.00000617   -0.01744587
     atom    3 type  1   force =     0.00000053    0.00000047   -0.01744413
     atom    4 type  1   force =    -0.00000043    0.00000166    0.01744239
     atom    5 type  2   force =     0.00000000    0.00000000    0.00000000
     atom    6 type  2   force =     0.00000000    0.00000000    0.00000000
     atom    7 type  3   force =     0.00000051    0.01663386   -0.00000003
     atom    8 type  3   force =     0.00000043   -0.01663189    0.00000014
     atom    9 type  3   force =     0.00000045   -0.01663352   -0.00000034
     atom   10 type  3   force =     0.00000021    0.01663446   -0.00000008
     atom   11 type  3   force =    -0.01535090   -0.00806535   -0.00082443
     atom   12 type  3   force =    -0.01535291    0.00806609    0.00082246
     atom   13 type  3   force =    -0.01535314   -0.00806440    0.00082057
     atom   14 type  3   force =    -0.01535410    0.00806495   -0.00081914
     atom   15 type  3   force =     0.01535463   -0.00806438   -0.00081889
     atom   16 type  3   force =     0.01535440    0.00806487    0.00081862
     atom   17 type  3   force =     0.01535441    0.00806622   -0.00082120
     atom   18 type  3   force =     0.01535281   -0.00806545    0.00082286
     The Hubbard contrib.    to forces
     atom    1 type  1   force =     0.00000000    0.00000000    0.00000000
     atom    2 type  1   force =     0.00000000    0.00000000    0.00000000
     atom    3 type  1   force =     0.00000000    0.00000000    0.00000000
     atom    4 type  1   force =     0.00000000    0.00000000    0.00000000
     atom    5 type  2   force =     0.00000000    0.00000000    0.00000000
     atom    6 type  2   force =     0.00000000    0.00000000    0.00000000
     atom    7 type  3   force =     0.00000000    0.00000000    0.00000000
     atom    8 type  3   force =     0.00000000    0.00000000    0.00000000
     atom    9 type  3   force =     0.00000000    0.00000000    0.00000000
     atom   10 type  3   force =     0.00000000    0.00000000    0.00000000
     atom   11 type  3   force =     0.00000000    0.00000000    0.00000000
     atom   12 type  3   force =     0.00000000    0.00000000    0.00000000
     atom   13 type  3   force =     0.00000000    0.00000000    0.00000000
     atom   14 type  3   force =     0.00000000    0.00000000    0.00000000
     atom   15 type  3   force =     0.00000000    0.00000000    0.00000000
     atom   16 type  3   force =     0.00000000    0.00000000    0.00000000
     atom   17 type  3   force =     0.00000000    0.00000000    0.00000000
     atom   18 type  3   force =     0.00000000    0.00000000    0.00000000
     The SCF correction term to forces
     atom    1 type  1   force =     0.00002009    0.00009198    0.00043386
     atom    2 type  1   force =     0.00012964    0.00031526   -0.00041998
     atom    3 type  1   force =     0.00007935    0.00005245   -0.00006377
     atom    4 type  1   force =    -0.00000332    0.00016430   -0.00000441
     atom    5 type  2   force =    -0.00002807   -0.00007953    0.00147242
     atom    6 type  2   force =     0.00060086   -0.00095008   -0.00123898
     atom    7 type  3   force =     0.00001362    0.00037144   -0.00000207
     atom    8 type  3   force =    -0.00002467   -0.00021205   -0.00000453
     atom    9 type  3   force =    -0.00002307   -0.00017368   -0.00002406
     atom   10 type  3   force =     0.00002212    0.00029642   -0.00004246
     atom   11 type  3   force =    -0.00015341   -0.00035115   -0.00063964
     atom   12 type  3   force =    -0.00026215    0.00037349    0.00069966
     atom   13 type  3   force =    -0.00011320   -0.00037165    0.00005476
     atom   14 type  3   force =    -0.00016582    0.00037407   -0.00012103
     atom   15 type  3   force =     0.00018384   -0.00037160   -0.00012856
     atom   16 type  3   force =     0.00012441    0.00042953    0.00022336
     atom   17 type  3   force =     0.00024418    0.00046822   -0.00083146
     atom   18 type  3   force =     0.00024993   -0.00035840    0.00071620

     Total force =     0.064709     Total SCF correction =     0.003084

     Computing stress (Cartesian axis) and pressure

          total   stress  (Ry/bohr**3)                   (kbar)     P=     -536.63
  -0.00372588   0.00000000   0.00000000         -548.10        0.00        0.00
   0.00000000  -0.00356336   0.00000000            0.00     -524.19        0.00
   0.00000000   0.00000000  -0.00365453            0.00        0.00     -537.60

     kinetic stress (kbar)  22796.21      0.00      0.00
                                0.00  22134.25      0.00
                                0.00      0.00  22043.30

     local   stress (kbar)  -2568.88     -0.02      0.05
                               -0.02 -23911.93     -0.07
                                0.05     -0.07 -27659.23

     nonloc. stress (kbar)   3840.61      0.00      0.00
                                0.00   3981.91      0.00
                                0.00      0.00   3979.54

     hartree stress (kbar)   3762.59      0.00     -0.04
                                0.00  12530.99      0.04
                               -0.04      0.04  14170.95

     exc-cor stress (kbar)  -3321.96      0.00     -0.00
                                0.00  -3312.62     -0.00
                               -0.00     -0.00  -3313.65

     corecor stress (kbar)   -766.10      0.00      0.00
                                0.00   -770.64      0.00
                                0.00      0.00   -766.26

     ewald   stress (kbar) -24290.57     -0.00     -0.00
                               -0.00 -11176.15      0.00
                               -0.00      0.00  -8992.24

     hubbard stress (kbar)      0.00      0.00      0.00
                                0.00      0.00      0.00
                                0.00      0.00      0.00

     DFT-D   stress (kbar)      0.00      0.00      0.00
                                0.00      0.00      0.00
                                0.00      0.00      0.00

     XDM     stress (kbar)      0.00      0.00      0.00
                                0.00      0.00      0.00
                                0.00      0.00      0.00

     dft-nl  stress (kbar)      0.00      0.00      0.00
                                0.00      0.00      0.00
                                0.00      0.00      0.00

     TS-vdW  stress (kbar)      0.00      0.00      0.00
                                0.00      0.00      0.00
                                0.00      0.00      0.00

[...]

                                0.00      0.00      0.00

     Writing all to output data dir new_calculations/myprefix.save/

     General routines

     Parallel routines

     PAW routines

   This run was terminated on:  18:21:29  21May2023

   JOB DONE.