     Program PWSCF v.7.0 starts on 20May2023 at 16: 4:38

     Reading input from espresso_22055.pwi
Warning: card &CELL ignored
Warning: card / ignored

     Current dimensions of program PWSCF are:
     Max number of different atomic species (ntypx) = 10
     Max number of k-points (npk) =  40000
     Max angular momentum in pseudopotentials (lmaxx) =  4
     file O.pbe-n-kjpaw_psl.0.1.UPF: wavefunction(s)  2P renormalized

     gamma-point specific algorithms are used
     Message from routine setup:
     using ibrav=0 with symmetry is DISCOURAGED, use correct ibrav instead

     Subspace diagonalization in iterative solution of the eigenvalue problem:
     a serial algorithm will be used

     Using Slab Decomposition

     bravais-lattice index     =            0
     lattice parameter (alat)  =      13.2800  a.u.
     unit-cell volume          =    1782.1045 (a.u.)^3
     number of atoms/cell      =           18
     number of atomic types    =            3
     number of electrons       =       158.00
     number of Kohn-Sham states=           95
     kinetic-energy cutoff     =      30.0000  Ry
     charge density cutoff     =     240.0000  Ry
     scf convergence threshold =      1.0E-06
     mixing beta               =       0.7000
     number of iterations used =            8  plain     mixing
     Exchange-correlation= SLA  PW   PBX  PBC
                           (   1   4   3   4   0   0   0)

     celldm(1)=  13.280018  celldm(2)=   0.000000  celldm(3)=   0.000000
     celldm(4)=   0.000000  celldm(5)=   0.000000  celldm(6)=   0.000000

     crystal axes: (cart. coord. in units of alat)
               a(1) = (   1.000000   0.000000   0.000000 )
               a(2) = (   0.447140   0.894464   0.000000 )
               a(3) = (   0.447140   0.276373   0.850696 )

     reciprocal axes: (cart. coord. in units 2 pi/alat)
               b(1) = (  1.000000 -0.499897 -0.363211 )
               b(2) = (  0.000000  1.117988 -0.363211 )
               b(3) = (  0.000000  0.000000  1.175508 )

     PseudoPot. # 1 for La read from file:
     /home/pragov/projects/rrg-bengioy-ad/pragov/crystal_structure_design/SSSP/La.GGA-PBE-paw-v1.0.UPF
     MD5 check sum: 436541e95c1ad8901025bd0b0ed42ae2
     Pseudo is Projector augmented-wave + core cor, Zval = 11.0
     Generated using ATOMPAW code
     Shape of augmentation charge: BESSEL
     Using radial grid of 1101 points,  8 beta functions with:
                l(1) =   0
                l(2) =   0
                l(3) =   1
                l(4) =   1
                l(5) =   2
                l(6) =   2
                l(7) =   3
                l(8) =   3
     Q(r) pseudized with 0 coefficients

     PseudoPot. # 2 for Sb read from file:
     /home/pragov/projects/rrg-bengioy-ad/pragov/crystal_structure_design/SSSP/sb_pbe_v1.4.uspp.F.UPF
     MD5 check sum: 9bc50dfb53373b713f5709b9110fe27f
     Pseudo is Ultrasoft + core correction, Zval = 15.0
     Generated by new atomic code, or converted to UPF format
     Using radial grid of  891 points,  6 beta functions with:
                l(1) =   0
                l(2) =   0
                l(3) =   1
                l(4) =   1
                l(5) =   2
                l(6) =   2
     Q(r) pseudized with  8 coefficients,  rinner =    1.350   1.350   1.350
                                                       1.350   1.350

     PseudoPot. # 3 for O  read from file:
     /home/pragov/projects/rrg-bengioy-ad/pragov/crystal_structure_design/SSSP/O.pbe-n-kjpaw_psl.0.1.UPF
     MD5 check sum: 0234752ac141de4415c5fc33072bef88
     Pseudo is Projector augmented-wave + core cor, Zval =  6.0
     Generated using "atomic" code by A. Dal Corso  v.5.0.99 svn rev. 10869
     Shape of augmentation charge: BESSEL
     Using radial grid of 1095 points,  4 beta functions with:
                l(1) =   0
                l(2) =   0
                l(3) =   1
                l(4) =   1
     Q(r) pseudized with 0 coefficients

     atomic species   valence    mass     pseudopotential
        La            11.00   138.90547     La( 1.00)
        Sb            15.00   121.76000     Sb( 1.00)
        O              6.00    15.99900     O ( 1.00)

      2 Sym. Ops., with inversion, found

                                    s                        frac. trans.

      isym =  1     identity

 cryst.   s( 1) = (     1          0          0      )
                  (     0          1          0      )
                  (     0          0          1      )

 cart.    s( 1) = (  1.0000000  0.0000000  0.0000000 )
                  (  0.0000000  1.0000000  0.0000000 )
                  (  0.0000000  0.0000000  1.0000000 )

      isym =  2     inversion

 cryst.   s( 2) = (    -1          0          0      )
                  (     0         -1          0      )
                  (     0          0         -1      )

 cart.    s( 2) = ( -1.0000000 -0.0000000 -0.0000000 )
                  (  0.0000000 -1.0000000 -0.0000000 )
                  (  0.0000000  0.0000000 -1.0000000 )

   Cartesian axes

     site n.     atom                  positions (alat units)
         1           La  tau(   1) = (   0.9471401   0.5854186   0.4253480  )
         2           Sb  tau(   2) = (   0.4471401   0.5854186   0.4253480  )
         3           Sb  tau(   3) = (   0.7235701   0.1381866   0.4253480  )
         4           Sb  tau(   4) = (   0.7235700   0.4472320   0.0000000  )
         5           Sb  tau(   5) = (   1.6044496   0.9916955   0.7205369  )
         6           Sb  tau(   6) = (   0.2898305   0.1791416   0.1301590  )
         7           O   tau(   7) = (   0.6308729   0.7622431   0.5538235  )
         8           O   tau(   8) = (   0.9638875   0.2234636   0.5538235  )
         9           O   tau(   9) = (   0.9638875   0.5957700   0.0414076  )
        10           O   tau(  10) = (   1.2634073   0.4085941   0.2968725  )
        11           O   tau(  11) = (   0.9303927   0.9473735   0.2968725  )
        12           O   tau(  12) = (   0.9303927   0.5750672   0.8092883  )
        13           O   tau(  13) = (   0.6264735   0.6197024   0.2058114  )
        14           O   tau(  14) = (   0.8344229   0.2832641   0.2058114  )
        15           O   tau(  15) = (   0.6264735   0.3872175   0.5257871  )
        16           O   tau(  16) = (   1.0598573   0.8875730   0.6448845  )
        17           O   tau(  17) = (   1.2678067   0.7836196   0.3249089  )
        18           O   tau(  18) = (   1.2678067   0.5511347   0.6448845  )

   Crystallographic axes

     site n.     atom                  positions (cryst. coord.)
         1           La  tau(   1) = (  0.5000000  0.5000000  0.5000000  )
         2           Sb  tau(   2) = (  0.0000000  0.5000000  0.5000000  )
         3           Sb  tau(   3) = (  0.5000000 -0.0000000  0.5000000  )
         4           Sb  tau(   4) = (  0.5000000  0.5000000  0.0000000  )
         5           Sb  tau(   5) = (  0.8469970  0.8469970  0.8469970  )
         6           Sb  tau(   6) = (  0.1530030  0.1530030  0.1530030  )
         7           O   tau(   7) = (  0.0486750  0.6510240  0.6510240  )
         8           O   tau(   8) = (  0.6510240  0.0486750  0.6510240  )
         9           O   tau(   9) = (  0.6510240  0.6510240  0.0486750  )
        10           O   tau(  10) = (  0.9513250  0.3489760  0.3489760  )
        11           O   tau(  11) = (  0.3489760  0.9513250  0.3489760  )
        12           O   tau(  12) = (  0.3489760  0.3489760  0.9513250  )
        13           O   tau(  13) = (  0.2419330  0.6180670  0.2419330  )
        14           O   tau(  14) = (  0.6180670  0.2419330  0.2419330  )
        15           O   tau(  15) = (  0.2419330  0.2419330  0.6180670  )
        16           O   tau(  16) = (  0.3819330  0.7580670  0.7580670  )
        17           O   tau(  17) = (  0.7580670  0.7580670  0.3819330  )
        18           O   tau(  18) = (  0.7580670  0.3819330  0.7580670  )

     number of k points=     1  Methfessel-Paxton smearing, width (Ry)=  0.0010
                       cart. coord. in units 2pi/alat
        k(    1) = (   0.0000000   0.0000000   0.0000000), wk =   2.0000000

                       cryst. coord.
        k(    1) = (   0.0000000   0.0000000   0.0000000), wk =   2.0000000

     Check: negative core charge=   -0.000012

     Initial potential from superposition of free atoms

     starting charge     152.9914, renormalised to     158.0000
     Starting wfcs are  125 randomized atomic wfcs
     Checking if some PAW data can be deallocated...

     Self-consistent Calculation

     iteration #  1     ecut=    30.00 Ry     beta= 0.70
     Davidson diagonalization with overlap

     ethr =  1.00E-02,  avg # of iterations =  2.0

     negative rho (up, down):  1.527E-05 0.000E+00

     total energy              =   -1880.48495324 Ry
     estimated scf accuracy    <       4.54418548 Ry

[...]

     total energy              =   -1882.57457388 Ry
     estimated scf accuracy    <       0.00000136 Ry

     iteration # 10     ecut=    30.00 Ry     beta= 0.70
     Davidson diagonalization with overlap

     ethr =  8.63E-10,  avg # of iterations =  2.0

[...]

     End of self-consistent calculation

          k = 0.0000 0.0000 0.0000 (  2476 PWs)   bands (ev):

   -22.6938 -21.0496 -21.0495 -21.0400 -20.9860 -20.9859 -20.9220 -20.8373
   -20.8358 -20.8357 -20.8267 -20.8265 -20.8263 -20.8168 -20.7937 -20.7933
   -20.6292 -20.6292 -20.6176 -20.6176 -20.5146 -20.5146 -20.5106 -20.5106
   -20.4701 -20.4653 -11.4426 -10.3481  -9.9130  -9.9030  -9.9029  -9.8687
    -9.8685  -9.4050  -9.4049  -9.3596  -8.5250  -8.5249  -6.1319  -6.0572
    -6.0572  -0.9848  -0.9846  -0.5089  -0.4406   1.8448   1.8450   2.2045
     2.3905   3.4414   3.4464   3.4466   3.8045   3.8045   4.5591   5.2824
     5.2825   5.2891   5.3695   5.5398   5.5399   5.8459   5.8461   5.8599
     5.9211   5.9211   6.0427   6.4574   6.5625   6.6359   6.6361   6.6861
     6.6862   6.8740   6.8740   6.9112   6.9119   6.9121   7.3310  10.8028
    12.0380  12.0381  12.1002  12.1822  12.2073  12.2777  12.2777  12.3267
    12.3268  12.6226  12.6226  13.5044  13.5045  13.7004  14.7870

     occupation numbers
     1.0000   1.0000   1.0000   1.0000   1.0000   1.0000   1.0000   1.0000
     1.0000   1.0000   1.0000   1.0000   1.0000   1.0000   1.0000   1.0000
     1.0000   1.0000   1.0000   1.0000   1.0000   1.0000   1.0000   1.0000
     1.0000   1.0000   1.0000   1.0000   1.0000   1.0000   1.0000   1.0000
     1.0000   1.0000   1.0000   1.0000   1.0000   1.0000   1.0000   1.0000
     1.0000   1.0000   1.0000   1.0000   1.0000   1.0000   1.0000   1.0000
     1.0000   1.0000   1.0000   1.0000   1.0000   1.0000   1.0000   1.0000
     1.0000   1.0000   1.0000   1.0000   1.0000   1.0000   1.0000   1.0000
     1.0000   1.0000   1.0000   1.0000   1.0000   1.0000   1.0000   1.0000
     1.0000   1.0000   1.0000   1.0000   1.0000   1.0000   1.0000  -0.0000
    -0.0000  -0.0000  -0.0000  -0.0000  -0.0000  -0.0000  -0.0000  -0.0000
    -0.0000  -0.0000  -0.0000  -0.0000  -0.0000  -0.0000  -0.0000

     the Fermi energy is    10.2040 ev

!    total energy              =   -1882.57457409 Ry
     estimated scf accuracy    <       0.00000010 Ry
     smearing contrib. (-TS)   =       0.00000000 Ry
     internal energy E=F+TS    =   -1882.57457409 Ry

     The total energy is F=E-TS. E is the sum of the following terms:
     one-electron contribution =    -620.27880349 Ry
     hartree contribution      =     410.48242139 Ry
     xc contribution           =    -319.08116501 Ry
     ewald contribution        =    -841.31943410 Ry
     one-center paw contrib.   =    -512.37759289 Ry
      -> PAW hartree energy AE =     391.86500934 Ry
      -> PAW hartree energy PS =    -390.68611863 Ry
      -> PAW xc energy AE      =    -611.63513653 Ry
      -> PAW xc energy PS      =      98.07865293 Ry
      -> total E_H with PAW    =     411.66131210 Ry
      -> total E_XC with PAW   =    -832.63764860 Ry

     convergence has been achieved in  10 iterations

     negative rho (up, down):  1.711E-05 0.000E+00

     Forces acting on atoms (cartesian axes, Ry/au):

     atom    1 type  1   force =     0.00000000    0.00000000    0.00000000
     atom    2 type  2   force =     0.00000000    0.00000000    0.00000000
     atom    3 type  2   force =     0.00000000    0.00000000    0.00000000
     atom    4 type  2   force =     0.00000000    0.00000000    0.00000000
     atom    5 type  2   force =    -0.01063216   -0.00670717   -0.00478398
     atom    6 type  2   force =     0.01063216    0.00670717    0.00478398
     atom    7 type  3   force =     0.00529578    0.01740154    0.01264677
     atom    8 type  3   force =     0.01793076   -0.00303816    0.01263388
     atom    9 type  3   force =     0.01792925    0.01107487   -0.00681200
     atom   10 type  3   force =    -0.00529578   -0.01740154   -0.01264677
     atom   11 type  3   force =    -0.01793076    0.00303816   -0.01263388
     atom   12 type  3   force =    -0.01792925   -0.01107487    0.00681200
     atom   13 type  3   force =    -0.00038864    0.00611025   -0.00225407
     atom   14 type  3   force =     0.00532044   -0.00309290   -0.00224524
     atom   15 type  3   force =    -0.00038284   -0.00023873    0.00652091
     atom   16 type  3   force =    -0.00532044    0.00309290    0.00224524
     atom   17 type  3   force =     0.00038284    0.00023873   -0.00652091
     atom   18 type  3   force =     0.00038864   -0.00611025    0.00225407
     The non-local contrib.  to forces
     atom    1 type  1   force =     0.00000000    0.00000000    0.00000000
     atom    2 type  2   force =     0.00000000    0.00000000    0.00000000
     atom    3 type  2   force =     0.00000000    0.00000000    0.00000000
     atom    4 type  2   force =     0.00000000    0.00000000    0.00000000
     atom    5 type  2   force =    -0.55309990   -0.34195881   -0.24839734
     atom    6 type  2   force =     0.55309990    0.34195881    0.24839734
     atom    7 type  3   force =    -0.72357621    0.16304075    0.11844876
     atom    8 type  3   force =    -0.17773451   -0.72007249    0.11843116
     atom    9 type  3   force =    -0.17771620   -0.10982939   -0.72148950
     atom   10 type  3   force =     0.72357621   -0.16304075   -0.11844876
     atom   11 type  3   force =     0.17773451    0.72007249   -0.11843116
     atom   12 type  3   force =     0.17771620    0.10982939    0.72148950
     atom   13 type  3   force =    -0.21313766   -0.89876278    0.15347758
     atom   14 type  3   force =    -0.89916519    0.21117668    0.15348890
     atom   15 type  3   force =    -0.21310381   -0.13174172   -0.90217186
     atom   16 type  3   force =     0.89916519   -0.21117668   -0.15348890
     atom   17 type  3   force =     0.21310381    0.13174172    0.90217186
     atom   18 type  3   force =     0.21313766    0.89876278   -0.15347758
     The ionic contribution  to forces
     atom    1 type  1   force =     0.00000000    0.00000000    0.00000000
     atom    2 type  2   force =    -0.00000000   -0.00000000    0.00000000
     atom    3 type  2   force =    -0.00000000    0.00000000    0.00000000
     atom    4 type  2   force =    -0.00000000   -0.00000000   -0.00000000
     atom    5 type  2   force =    15.97180793    9.87202738    7.17272448
     atom    6 type  2   force =   -15.97180793   -9.87202738   -7.17272448
     atom    7 type  3   force =     6.55921043    1.30113168    0.94536418
     atom    8 type  3   force =     4.09670120    5.28518916    0.94536418
     atom    9 type  3   force =     4.09670111    2.53213322    4.73447371
     atom   10 type  3   force =    -6.55921043   -1.30113168   -0.94536418
     atom   11 type  3   force =    -4.09670120   -5.28518916   -0.94536418
     atom   12 type  3   force =    -4.09670110   -2.53213322   -4.73447372
     atom   13 type  3   force =    -0.16426483    9.59510863   -3.22400314
     atom   14 type  3   force =     8.50902938   -4.43728651   -3.22400314
     atom   15 type  3   force =    -0.16426527   -0.10153085   10.12175799
     atom   16 type  3   force =    -8.50902938    4.43728651    3.22400314
     atom   17 type  3   force =     0.16426527    0.10153085  -10.12175799
     atom   18 type  3   force =     0.16426483   -9.59510863    3.22400314
     The local contribution  to forces
     atom    1 type  1   force =     0.00004366   -0.00006029   -0.00002941
     atom    2 type  2   force =    -0.00003765   -0.00005430    0.00004453
     atom    3 type  2   force =    -0.00001134    0.00002730    0.00000678
     atom    4 type  2   force =     0.00004632   -0.00002060    0.00001171
     atom    5 type  2   force =   -15.43507012   -9.54001770   -6.93164013
     atom    6 type  2   force =    15.43500369    9.54007529    6.93169582
     atom    7 type  3   force =    -5.83775497   -1.44489485   -1.04985924
     atom    8 type  3   force =    -3.90273560   -4.57561784   -1.04981914
     atom    9 type  3   force =    -3.90268548   -2.41216114   -4.02731198
     atom   10 type  3   force =     5.83772498    1.44489479    1.04987622
     atom   11 type  3   force =     3.90275031    4.57561664    1.04983698
     atom   12 type  3   force =     3.90268916    2.41216028    4.02729474
     atom   13 type  3   force =     0.37460116   -8.69920403    3.06966723
     atom   14 type  3   force =    -7.61369195    4.22479632    3.06972000
     atom   15 type  3   force =     0.37458344    0.23144619   -9.22206106
     atom   16 type  3   force =     7.61370723   -4.22478484   -3.06972989
     atom   17 type  3   force =    -0.37460577   -0.23145304    9.22207462
     atom   18 type  3   force =    -0.37459667    8.69920647   -3.06967743
     The core correction contribution to forces
     atom    1 type  1   force =     0.00000001   -0.00000001    0.00000000
     atom    2 type  2   force =    -0.00000053    0.00000023    0.00000059
     atom    3 type  2   force =    -0.00000001   -0.00000054    0.00000022
     atom    4 type  2   force =    -0.00000050   -0.00000021   -0.00000011
     atom    5 type  2   force =     0.00568871    0.00351936    0.00255543
     atom    6 type  2   force =    -0.00568922   -0.00351856   -0.00255532
     atom    7 type  3   force =     0.00749637   -0.00170495   -0.00123874
     atom    8 type  3   force =     0.00182738    0.00746680   -0.00123824
     atom    9 type  3   force =     0.00182703    0.00112921    0.00748499
     atom   10 type  3   force =    -0.00749629    0.00170486    0.00123861
     atom   11 type  3   force =    -0.00182720   -0.00746715    0.00123847
     atom   12 type  3   force =    -0.00182711   -0.00112909   -0.00748507
     atom   13 type  3   force =     0.00240246    0.00920110   -0.00142786
     atom   14 type  3   force =     0.00930342   -0.00196445   -0.00142793
     atom   15 type  3   force =     0.00240193    0.00148494    0.00919146
     atom   16 type  3   force =    -0.00930345    0.00196429    0.00142797
     atom   17 type  3   force =    -0.00240220   -0.00148503   -0.00919147
     atom   18 type  3   force =    -0.00240268   -0.00920088    0.00142775
     The Hubbard contrib.    to forces
     atom    1 type  1   force =     0.00000000    0.00000000    0.00000000
     atom    2 type  2   force =     0.00000000    0.00000000    0.00000000
     atom    3 type  2   force =     0.00000000    0.00000000    0.00000000
     atom    4 type  2   force =     0.00000000    0.00000000    0.00000000
     atom    5 type  2   force =     0.00000000    0.00000000    0.00000000
     atom    6 type  2   force =     0.00000000    0.00000000    0.00000000
     atom    7 type  3   force =     0.00000000    0.00000000    0.00000000
     atom    8 type  3   force =     0.00000000    0.00000000    0.00000000
     atom    9 type  3   force =     0.00000000    0.00000000    0.00000000
     atom   10 type  3   force =     0.00000000    0.00000000    0.00000000
     atom   11 type  3   force =     0.00000000    0.00000000    0.00000000
     atom   12 type  3   force =     0.00000000    0.00000000    0.00000000
     atom   13 type  3   force =     0.00000000    0.00000000    0.00000000
     atom   14 type  3   force =     0.00000000    0.00000000    0.00000000
     atom   15 type  3   force =     0.00000000    0.00000000    0.00000000
     atom   16 type  3   force =     0.00000000    0.00000000    0.00000000
     atom   17 type  3   force =     0.00000000    0.00000000    0.00000000
     atom   18 type  3   force =     0.00000000    0.00000000    0.00000000
     The SCF correction term to forces
     atom    1 type  1   force =    -0.00003874    0.00006404    0.00003553
     atom    2 type  2   force =     0.00004653    0.00006789   -0.00006279
     atom    3 type  2   force =     0.00002240   -0.00003992   -0.00000907
     atom    4 type  2   force =    -0.00005671    0.00002856   -0.00000559
     atom    5 type  2   force =     0.00005281   -0.00028698   -0.00002708
     atom    6 type  2   force =     0.00003729    0.00020946   -0.00003004
     atom    7 type  3   force =    -0.00007757   -0.00017058   -0.00007182
     atom    8 type  3   force =    -0.00012632   -0.00001077   -0.00010252
     atom    9 type  3   force =    -0.00019922   -0.00019294    0.00003159
     atom   10 type  3   force =     0.00011203    0.00017177    0.00004770
     atom   11 type  3   force =     0.00011422   -0.00000163    0.00008758
     atom   12 type  3   force =     0.00019159    0.00020187   -0.00001263
     atom   13 type  3   force =     0.00000232   -0.00022690    0.00003196
     atom   14 type  3   force =    -0.00015724    0.00018176   -0.00002078
     atom   15 type  3   force =    -0.00000499    0.00010162   -0.00019958
     atom   16 type  3   force =     0.00013795   -0.00019968    0.00003521
     atom   17 type  3   force =     0.00001588   -0.00009686    0.00017813
     atom   18 type  3   force =    -0.00002240    0.00023577   -0.00002197

     Total force =     0.059679     Total SCF correction =     0.000873

     Computing stress (Cartesian axis) and pressure

     negative rho (up, down):  1.711E-05 0.000E+00
          total   stress  (Ry/bohr**3)                   (kbar)     P=     -434.74
  -0.00283252   0.00016074   0.00011676         -416.68       23.65       17.18
   0.00016074  -0.00299329   0.00007219           23.65     -440.33       10.62
   0.00011676   0.00007219  -0.00304002           17.18       10.62     -447.20

     kinetic stress (kbar)  22151.09    -57.69    -41.91
                              -57.69  22208.76    -25.91
                              -41.91    -25.91  22225.59

     local   stress (kbar)  -8558.71  -1489.36  -1082.17
                            -1489.36  -7069.70   -668.84
                            -1082.17   -668.84  -6635.01

     nonloc. stress (kbar)   2677.07     19.94     14.48
                               19.94   2657.14      8.96
                               14.48      8.96   2651.33

     hartree stress (kbar)  11672.88    495.37    359.95
                              495.37  11177.66    222.45
                              359.95    222.45  11033.03

     exc-cor stress (kbar)   3893.86      1.46      1.06
                                1.46   3892.39      0.66
                                1.06      0.66   3891.97

     corecor stress (kbar)  -9908.68      0.09      0.06
                                0.09  -9908.77      0.04
                                0.06      0.04  -9908.79

     ewald   stress (kbar) -22344.19   1053.84    765.69
                             1053.84 -23397.81    473.26
                              765.69    473.26 -23705.31

     hubbard stress (kbar)      0.00      0.00      0.00
                                0.00      0.00      0.00
                                0.00      0.00      0.00

     DFT-D   stress (kbar)      0.00      0.00      0.00
                                0.00      0.00      0.00
                                0.00      0.00      0.00

     XDM     stress (kbar)      0.00      0.00      0.00
                                0.00      0.00      0.00
                                0.00      0.00      0.00

     dft-nl  stress (kbar)      0.00      0.00      0.00
                                0.00      0.00      0.00
                                0.00      0.00      0.00

     TS-vdW  stress (kbar)      0.00      0.00      0.00
                                0.00      0.00      0.00
                                0.00      0.00      0.00

[...]

                                0.00      0.00      0.00

     Writing all to output data dir new_calculations/myprefix.save/

     General routines

     Parallel routines

     PAW routines

   This run was terminated on:  16: 5:27  20May2023

   JOB DONE.