     Program PWSCF v.7.0 starts on 20May2023 at 15:34:43

     Reading input from espresso_11433.pwi
Warning: card &CELL ignored
Warning: card / ignored

     Current dimensions of program PWSCF are:
     Max number of different atomic species (ntypx) = 10
     Max number of k-points (npk) =  40000
     Max angular momentum in pseudopotentials (lmaxx) =  4
     file Ba.pbe-spn-kjpaw_psl.1.0.0.UPF: wavefunction(s)  5S 6S renormalized
     file O.pbe-n-kjpaw_psl.0.1.UPF: wavefunction(s)  2P renormalized

     gamma-point specific algorithms are used
     Message from routine setup:
     using ibrav=0 with symmetry is DISCOURAGED, use correct ibrav instead

     Subspace diagonalization in iterative solution of the eigenvalue problem:
     a serial algorithm will be used

     Using Slab Decomposition

     bravais-lattice index     =            0
     lattice parameter (alat)  =      11.6527  a.u.
     unit-cell volume          =    1118.8391 (a.u.)^3
     number of atoms/cell      =           10
     number of atomic types    =            4
     number of electrons       =        82.00
     number of Kohn-Sham states=           49
     kinetic-energy cutoff     =      30.0000  Ry
     charge density cutoff     =     240.0000  Ry
     scf convergence threshold =      1.0E-06
     mixing beta               =       0.7000
     number of iterations used =            8  plain     mixing
     Exchange-correlation= SLA  PW   PBX  PBC
                           (   1   4   3   4   0   0   0)

     celldm(1)=  11.652726  celldm(2)=   0.000000  celldm(3)=   0.000000
     celldm(4)=   0.000000  celldm(5)=   0.000000  celldm(6)=   0.000000

     crystal axes: (cart. coord. in units of alat)
               a(1) = (   1.000000   0.000000   0.000000 )
               a(2) = (   0.500000   0.866025   0.000000 )
               a(3) = (   0.500000   0.288675   0.816497 )

     reciprocal axes: (cart. coord. in units 2 pi/alat)
               b(1) = (  1.000000 -0.577350 -0.408248 )
               b(2) = (  0.000000  1.154701 -0.408248 )
               b(3) = (  0.000000  0.000000  1.224745 )

     PseudoPot. # 1 for Ba read from file:
     /home/pragov/projects/rrg-bengioy-ad/pragov/crystal_structure_design/SSSP/Ba.pbe-spn-kjpaw_psl.1.0.0.UPF
     MD5 check sum: c432291d3e53af55f19d5e8866385beb
     Pseudo is Projector augmented-wave + core cor, Zval = 10.0
     Generated using "atomic" code by A. Dal Corso  v.5.1
     Shape of augmentation charge: PSQ
     Using radial grid of 1251 points,  7 beta functions with:
                l(1) =   0
                l(2) =   0
                l(3) =   0
                l(4) =   1
                l(5) =   1
                l(6) =   2
                l(7) =   2
     Q(r) pseudized with 0 coefficients

     PseudoPot. # 2 for Y  read from file:
     /home/pragov/projects/rrg-bengioy-ad/pragov/crystal_structure_design/SSSP/Y_pbe_v1.uspp.F.UPF
     MD5 check sum: 2cf71db95cafeb975fc457bd7f14888e
     Pseudo is Ultrasoft + core correction, Zval = 11.0
     Generated by new atomic code, or converted to UPF format
     Using radial grid of  885 points,  6 beta functions with:
                l(1) =   0
                l(2) =   0
                l(3) =   1
                l(4) =   1
                l(5) =   2
                l(6) =   2
     Q(r) pseudized with  6 coefficients,  rinner =    1.200   1.200   1.200
                                                       1.200   1.200

     PseudoPot. # 3 for Bi read from file:
     /home/pragov/projects/rrg-bengioy-ad/pragov/crystal_structure_design/SSSP/Bi_pbe_v1.uspp.F.UPF
     MD5 check sum: cceb9f28ec65b6d7ff33140f5b0b1758
     Pseudo is Ultrasoft + core correction, Zval = 15.0
     Generated by new atomic code, or converted to UPF format
     Using radial grid of  899 points,  6 beta functions with:
                l(1) =   0
                l(2) =   0
                l(3) =   1
                l(4) =   1
                l(5) =   2
                l(6) =   2
     Q(r) pseudized with  6 coefficients,  rinner =    1.000   1.000   1.000
                                                       1.000   1.000

     PseudoPot. # 4 for O  read from file:
     /home/pragov/projects/rrg-bengioy-ad/pragov/crystal_structure_design/SSSP/O.pbe-n-kjpaw_psl.0.1.UPF
     MD5 check sum: 0234752ac141de4415c5fc33072bef88
     Pseudo is Projector augmented-wave + core cor, Zval =  6.0
     Generated using "atomic" code by A. Dal Corso  v.5.0.99 svn rev. 10869
     Shape of augmentation charge: BESSEL
     Using radial grid of 1095 points,  4 beta functions with:
                l(1) =   0
                l(2) =   0
                l(3) =   1
                l(4) =   1
     Q(r) pseudized with 0 coefficients

     atomic species   valence    mass     pseudopotential
        Ba            10.00   137.32700     Ba( 1.00)
        Y             11.00    88.90584     Y ( 1.00)
        Bi            15.00   208.98040     Bi( 1.00)
        O              6.00    15.99900     O ( 1.00)

     12 Sym. Ops., with inversion, found

                                    s                        frac. trans.

      isym =  1     identity

 cryst.   s( 1) = (     1          0          0      )
                  (     0          1          0      )
                  (     0          0          1      )

 cart.    s( 1) = (  1.0000000  0.0000000  0.0000000 )
                  (  0.0000000  1.0000000  0.0000000 )
                  (  0.0000000  0.0000000  1.0000000 )

      isym =  2     180 deg rotation - cart. axis [1,0,0]

[...]

      isym =  3     120 deg rotation - cryst. axis [0,0,1]

[...]

      isym =  6     180 deg rotation - cryst. axis [1,1,0]

[...]

      isym =  7     inversion

[...]

      isym =  8     inv. 180 deg rotation - cart. axis [1,0,0]

[...]

      isym =  9     inv. 120 deg rotation - cryst. axis [0,0,1]

 cryst.   s( 9) = (     1         -1          0      )
                  (     1          0          0      )
                  (     1          0         -1      )

 cart.    s( 9) = (  0.5000000  0.8660254 -0.0000000 )
                  ( -0.8660254  0.5000000 -0.0000000 )
                  (  0.0000000  0.0000000 -1.0000000 )

[...]

 cryst.   s(10) = (     0          1          0      )
                  (    -1          1          0      )
                  (     0          1         -1      )

 cart.    s(10) = (  0.5000000 -0.8660254  0.0000000 )
                  (  0.8660254  0.5000000 -0.0000000 )
                  (  0.0000000  0.0000000 -1.0000000 )

[...]

      isym = 12     inv. 180 deg rotation - cryst. axis [1,1,0]

 cryst.   s(12) = (     1         -1          0      )
                  (     0         -1          0      )
                  (     0         -1          1      )

 cart.    s(12) = (  0.5000000 -0.8660254  0.0000000 )
                  ( -0.8660254 -0.5000000  0.0000000 )
                  (  0.0000000  0.0000000  1.0000000 )

   Cartesian axes

     site n.     atom                  positions (alat units)
         1           Ba  tau(   1) = (   0.5000000   0.2886751   0.2041241  )
         2           Ba  tau(   2) = (   1.5000000   0.8660254   0.6123724  )
         3           Y   tau(   3) = (   1.0000000   0.5773503   0.4082483  )
         4           Bi  tau(   4) = (   0.0000000   0.0000000   0.0000000  )
         5           O   tau(   5) = (   1.0000000   0.8729929   0.6172992  )
         6           O   tau(   6) = (   1.2560340   0.4295290   0.6172992  )
         7           O   tau(   7) = (   0.7439660   0.7251716   0.1991974  )
         8           O   tau(   8) = (   1.2560340   0.7251716   0.1991974  )
         9           O   tau(   9) = (   1.0000000   0.2817077   0.1991974  )
        10           O   tau(  10) = (   0.7439660   0.4295290   0.6172992  )

   Crystallographic axes

     site n.     atom                  positions (cryst. coord.)
         1           Ba  tau(   1) = (  0.2500000  0.2500000  0.2500000  )
         2           Ba  tau(   2) = (  0.7500000  0.7500000  0.7500000  )
         3           Y   tau(   3) = (  0.5000000  0.5000000  0.5000000  )
         4           Bi  tau(   4) = (  0.0000000  0.0000000  0.0000000  )
         5           O   tau(   5) = (  0.2439660  0.7560340  0.7560340  )
         6           O   tau(   6) = (  0.7560340  0.2439660  0.7560340  )
         7           O   tau(   7) = (  0.2439660  0.7560340  0.2439660  )
         8           O   tau(   8) = (  0.7560340  0.7560340  0.2439660  )
         9           O   tau(   9) = (  0.7560340  0.2439660  0.2439660  )
        10           O   tau(  10) = (  0.2439660  0.2439660  0.7560340  )

     number of k points=     1  Methfessel-Paxton smearing, width (Ry)=  0.0010
                       cart. coord. in units 2pi/alat
        k(    1) = (   0.0000000   0.0000000   0.0000000), wk =   2.0000000

                       cryst. coord.
        k(    1) = (   0.0000000   0.0000000   0.0000000), wk =   2.0000000

     Check: negative core charge=   -0.000010

     Initial potential from superposition of free atoms

     starting charge      80.9615, renormalised to      82.0000

     negative rho (up, down):  8.321E-02 0.000E+00
     Starting wfcs are   56 randomized atomic wfcs
     Checking if some PAW data can be deallocated...

     Self-consistent Calculation

     iteration #  1     ecut=    30.00 Ry     beta= 0.70
     Davidson diagonalization with overlap

     ethr =  1.00E-02,  avg # of iterations =  5.0

     negative rho (up, down):  8.224E-02 0.000E+00

     total energy              =   -1393.87698212 Ry
     estimated scf accuracy    <       2.61615540 Ry

[...]

     total energy              =   -1395.13090796 Ry
     estimated scf accuracy    <       0.00000339 Ry

     iteration # 18     ecut=    30.00 Ry     beta= 0.70
     Davidson diagonalization with overlap

     ethr =  4.14E-09,  avg # of iterations =  2.0

[...]

     End of self-consistent calculation

          k = 0.0000 0.0000 0.0000 (  1560 PWs)   bands (ev):

   -30.5043 -17.4586 -17.3917 -12.6644 -12.6644 -12.3045 -12.3045 -12.3045
   -10.9730 -10.9730 -10.9730  -7.9032  -6.2615  -6.2615  -6.2615  -5.9141
    -5.9141  -2.7825  -2.7825  -2.7825  -2.5202  -2.5202  -2.5202   0.6881
     6.1927   6.1927   6.1927   7.3921   7.3921   7.3921   7.6735   7.6735
     8.5451   8.5451   8.5451   8.8917   8.8917   8.8917   9.4575   9.4575
     9.4575  11.1099  13.0853  13.0853  13.9046  13.9046  13.9046  14.2088
    14.2088

     occupation numbers
     1.0000   1.0000   1.0000   1.0000   1.0000   1.0000   1.0000   1.0000
     1.0000   1.0000   1.0000   1.0000   1.0000   1.0000   1.0000   1.0000
     1.0000   1.0000   1.0000   1.0000   1.0000   1.0000   1.0000   1.0000
     1.0000   1.0000   1.0000   1.0000   1.0000   1.0000   1.0000   1.0000
     1.0000   1.0000   1.0000   1.0000   1.0000   1.0000   1.0000   1.0000
     1.0000  -0.0000  -0.0000  -0.0000  -0.0000  -0.0000  -0.0000  -0.0000
    -0.0000

     the Fermi energy is    10.1275 ev

!    total energy              =   -1395.13090777 Ry
     estimated scf accuracy    <       0.00000069 Ry
     smearing contrib. (-TS)   =       0.00000000 Ry
     internal energy E=F+TS    =   -1395.13090777 Ry

     The total energy is F=E-TS. E is the sum of the following terms:
     one-electron contribution =    -137.11726174 Ry
     hartree contribution      =     124.24001242 Ry
     xc contribution           =    -172.70382223 Ry
     ewald contribution        =    -402.52625539 Ry
     one-center paw contrib.   =    -807.02358083 Ry
      -> PAW hartree energy AE =     236.42871649 Ry
      -> PAW hartree energy PS =    -235.51975181 Ry
      -> PAW xc energy AE      =    -891.69769259 Ry
      -> PAW xc energy PS      =      83.76514708 Ry
      -> total E_H with PAW    =     125.14897710 Ry
      -> total E_XC with PAW   =    -980.63636774 Ry

     convergence has been achieved in  18 iterations

     negative rho (up, down):  8.472E-02 0.000E+00

     Forces acting on atoms (cartesian axes, Ry/au):

     atom    1 type  1   force =     0.00000000    0.00000000   -0.00000537
     atom    2 type  1   force =     0.00000000   -0.00000000    0.00000537
     atom    3 type  2   force =     0.00000000    0.00000000    0.00000000
     atom    4 type  3   force =     0.00000000    0.00000000   -0.00000000
     atom    5 type  4   force =     0.00000000    0.00384162    0.00271608
     atom    6 type  4   force =     0.00332694   -0.00192081    0.00271608
     atom    7 type  4   force =    -0.00332694    0.00192081   -0.00271608
     atom    8 type  4   force =     0.00332694    0.00192081   -0.00271608
     atom    9 type  4   force =    -0.00000000   -0.00384162   -0.00271608
     atom   10 type  4   force =    -0.00332694   -0.00192081    0.00271608
     The non-local contrib.  to forces
     atom    1 type  1   force =    -0.00000000    0.00000000   -0.00002854
     atom    2 type  1   force =     0.00000000    0.00000000    0.00002854
     atom    3 type  2   force =     0.00000000    0.00000000   -0.00000000
     atom    4 type  3   force =     0.00000000    0.00000000   -0.00000000
     atom    5 type  4   force =     0.00000000    0.48724576    0.34453741
     atom    6 type  4   force =     0.42196721   -0.24362288    0.34453741
     atom    7 type  4   force =    -0.42196721    0.24362288   -0.34453741
     atom    8 type  4   force =     0.42196721    0.24362288   -0.34453741
     atom    9 type  4   force =     0.00000000   -0.48724576   -0.34453741
     atom   10 type  4   force =    -0.42196721   -0.24362288    0.34453741
     The ionic contribution  to forces
     atom    1 type  1   force =    -0.00000000   -0.00000000    0.00000000
     atom    2 type  1   force =     0.00000000   -0.00000000   -0.00000000
     atom    3 type  2   force =    -0.00000000    0.00000000    0.00000000
     atom    4 type  3   force =    -0.00000000    0.00000000    0.00000000
     atom    5 type  4   force =     0.00000000   -3.01714746   -2.13344543
     atom    6 type  4   force =    -2.61292635    1.50857373   -2.13344543
     atom    7 type  4   force =     2.61292635   -1.50857373    2.13344543
     atom    8 type  4   force =    -2.61292635   -1.50857373    2.13344543
     atom    9 type  4   force =    -0.00000000    3.01714746    2.13344543
     atom   10 type  4   force =     2.61292635    1.50857373   -2.13344543
     The local contribution  to forces
     atom    1 type  1   force =    -0.00001824   -0.00024421   -0.00056864
     atom    2 type  1   force =     0.00020934    0.00105564   -0.00060712
     atom    3 type  2   force =    -0.00001139    0.00001923    0.00002207
     atom    4 type  3   force =     0.00001558    0.00000280   -0.00001406
     atom    5 type  4   force =    -0.00000375    2.53959616    1.79576977
     atom    6 type  4   force =     2.19935938   -1.26979494    1.79576711
     atom    7 type  4   force =    -2.19936202    1.26979835   -1.79576345
     atom    8 type  4   force =     2.19935491    1.26979821   -1.79576035
     atom    9 type  4   force =    -0.00000542   -2.53962246   -1.79578421
     atom   10 type  4   force =    -2.19936542   -1.26979880    1.79576948
     The core correction contribution to forces
     atom    1 type  1   force =     0.00000049   -0.00000490   -0.00001168
     atom    2 type  1   force =     0.00000281    0.00002986   -0.00001275
     atom    3 type  2   force =     0.00000015   -0.00000009    0.00000016
     atom    4 type  3   force =    -0.00000046   -0.00000021    0.00000028
     atom    5 type  4   force =    -0.00000009   -0.00588647   -0.00416233
     atom    6 type  4   force =    -0.00509787    0.00294318   -0.00416237
     atom    7 type  4   force =     0.00509772   -0.00294325    0.00416243
     atom    8 type  4   force =    -0.00509784   -0.00294326    0.00416242
     atom    9 type  4   force =    -0.00000007    0.00588621    0.00416232
     atom   10 type  4   force =     0.00509780    0.00294320   -0.00416238
     The Hubbard contrib.    to forces
     atom    1 type  1   force =     0.00000000    0.00000000    0.00000000
     atom    2 type  1   force =     0.00000000    0.00000000    0.00000000
     atom    3 type  2   force =     0.00000000    0.00000000    0.00000000
     atom    4 type  3   force =     0.00000000    0.00000000    0.00000000
     atom    5 type  4   force =     0.00000000    0.00000000    0.00000000
     atom    6 type  4   force =     0.00000000    0.00000000    0.00000000
     atom    7 type  4   force =     0.00000000    0.00000000    0.00000000
     atom    8 type  4   force =     0.00000000    0.00000000    0.00000000
     atom    9 type  4   force =     0.00000000    0.00000000    0.00000000
     atom   10 type  4   force =     0.00000000    0.00000000    0.00000000
     The SCF correction term to forces
     atom    1 type  1   force =     0.00000580    0.00003368    0.00007652
     atom    2 type  1   force =    -0.00001974   -0.00012000    0.00006976
     atom    3 type  2   force =     0.00000979   -0.00001065   -0.00001393
     atom    4 type  3   force =    -0.00002008   -0.00001028    0.00001101
     atom    5 type  4   force =    -0.00000304    0.00002701    0.00001740
     atom    6 type  4   force =     0.00001967   -0.00002401    0.00001987
     atom    7 type  4   force =    -0.00002620    0.00001358   -0.00002030
     atom    8 type  4   force =     0.00002605    0.00001333   -0.00002488
     atom    9 type  4   force =     0.00000187   -0.00001838   -0.00000532
     atom   10 type  4   force =    -0.00001727   -0.00001684    0.00001666

     Total force =     0.011524     Total SCF correction =     0.000185

     Computing stress (Cartesian axis) and pressure

     negative rho (up, down):  8.472E-02 0.000E+00
          total   stress  (Ry/bohr**3)                   (kbar)     P=     -177.35
  -0.00120562  -0.00000000  -0.00000000         -177.35       -0.00       -0.00
  -0.00000000  -0.00120562   0.00000000           -0.00     -177.35        0.00
  -0.00000000   0.00000000  -0.00120561           -0.00        0.00     -177.35

     kinetic stress (kbar)  15427.71      0.00      0.00
                                0.00  15427.71     -0.00
                                0.00     -0.00  15427.71

     local   stress (kbar)  -7256.18      0.00     -0.00
                                0.00  -7256.19     -0.01
                               -0.00     -0.01  -7256.18

     nonloc. stress (kbar)   8616.18     -0.00      0.00
                                0.00   8616.18     -0.00
                                0.00     -0.00   8616.18

     hartree stress (kbar)   5445.03     -0.00      0.00
                               -0.00   5445.03      0.01
                                0.00      0.01   5445.03

     exc-cor stress (kbar)   6863.57     -0.00     -0.00
                               -0.00   6863.57      0.00
                               -0.00      0.00   6863.57

     corecor stress (kbar) -11632.26      0.00     -0.00
                                0.00 -11632.26      0.00
                               -0.00      0.00 -11632.26

     ewald   stress (kbar) -17641.40      0.00      0.00
                                0.00 -17641.40      0.00
                                0.00      0.00 -17641.40

     hubbard stress (kbar)      0.00      0.00      0.00
                                0.00      0.00      0.00
                                0.00      0.00      0.00

     DFT-D   stress (kbar)      0.00      0.00      0.00
                                0.00      0.00      0.00
                                0.00      0.00      0.00

     XDM     stress (kbar)      0.00      0.00      0.00
                                0.00      0.00      0.00
                                0.00      0.00      0.00

     dft-nl  stress (kbar)      0.00      0.00      0.00
                                0.00      0.00      0.00
                                0.00      0.00      0.00

     TS-vdW  stress (kbar)      0.00      0.00      0.00
                                0.00      0.00      0.00
                                0.00      0.00      0.00

[...]

                                0.00      0.00      0.00

     Writing all to output data dir new_calculations/myprefix.save/

     General routines

     Parallel routines

     PAW routines

   This run was terminated on:  15:35:12  20May2023

   JOB DONE.