     Program PWSCF v.7.0 starts on 21May2023 at  3:46:47

     Reading input from espresso_18844.pwi
Warning: card &CELL ignored
Warning: card / ignored

     Current dimensions of program PWSCF are:
     Max number of different atomic species (ntypx) = 10
     Max number of k-points (npk) =  40000
     Max angular momentum in pseudopotentials (lmaxx) =  4
     file Ba.pbe-spn-kjpaw_psl.1.0.0.UPF: wavefunction(s)  5S 6S renormalized
     file O.pbe-n-kjpaw_psl.0.1.UPF: wavefunction(s)  2P renormalized

     gamma-point specific algorithms are used
     Message from routine setup:
     using ibrav=0 with symmetry is DISCOURAGED, use correct ibrav instead

     Subspace diagonalization in iterative solution of the eigenvalue problem:
     a serial algorithm will be used

     Using Slab Decomposition

     bravais-lattice index     =            0
     lattice parameter (alat)  =      12.0423  a.u.
     unit-cell volume          =    1022.4298 (a.u.)^3
     number of atoms/cell      =            8
     number of atomic types    =            3
     number of electrons       =        82.00
     number of Kohn-Sham states=           49
     kinetic-energy cutoff     =      30.0000  Ry
     charge density cutoff     =     240.0000  Ry
     scf convergence threshold =      1.0E-06
     mixing beta               =       0.7000
     number of iterations used =            8  plain     mixing
     Exchange-correlation= SLA  PW   PBX  PBC
                           (   1   4   3   4   0   0   0)

     celldm(1)=  12.042286  celldm(2)=   0.000000  celldm(3)=   0.000000
     celldm(4)=   0.000000  celldm(5)=   0.000000  celldm(6)=   0.000000

     crystal axes: (cart. coord. in units of alat)
               a(1) = (   1.000000   0.000000   0.000000 )
               a(2) = (  -0.316067   0.948737   0.000000 )
               a(3) = (   0.001670   0.002316   0.617108 )

     reciprocal axes: (cart. coord. in units 2 pi/alat)
               b(1) = (  1.000000  0.333145 -0.003956 )
               b(2) = (  0.000000  1.054033 -0.003956 )
               b(3) = (  0.000000  0.000000  1.620463 )

     PseudoPot. # 1 for Ba read from file:
     /home/pragov/projects/rrg-bengioy-ad/pragov/crystal_structure_design/SSSP/Ba.pbe-spn-kjpaw_psl.1.0.0.UPF
     MD5 check sum: c432291d3e53af55f19d5e8866385beb
     Pseudo is Projector augmented-wave + core cor, Zval = 10.0
     Generated using "atomic" code by A. Dal Corso  v.5.1
     Shape of augmentation charge: PSQ
     Using radial grid of 1251 points,  7 beta functions with:
                l(1) =   0
                l(2) =   0
                l(3) =   0
                l(4) =   1
                l(5) =   1
                l(6) =   2
                l(7) =   2
     Q(r) pseudized with 0 coefficients

     PseudoPot. # 2 for Au read from file:
     /home/pragov/projects/rrg-bengioy-ad/pragov/crystal_structure_design/SSSP/Au_ONCV_PBE-1.0.oncvpsp.upf
     MD5 check sum: d14007822ba0e19f0206237467fc06c2
     Pseudo is Norm-conserving, Zval = 19.0
     Generated using ONCVPSP code by D. R. Hamann
     Using radial grid of 1278 points,  8 beta functions with:
                l(1) =   0
                l(2) =   0
                l(3) =   1
                l(4) =   1
                l(5) =   2
                l(6) =   2
                l(7) =   3
                l(8) =   3

     PseudoPot. # 3 for O  read from file:
     /home/pragov/projects/rrg-bengioy-ad/pragov/crystal_structure_design/SSSP/O.pbe-n-kjpaw_psl.0.1.UPF
     MD5 check sum: 0234752ac141de4415c5fc33072bef88
     Pseudo is Projector augmented-wave + core cor, Zval =  6.0
     Generated using "atomic" code by A. Dal Corso  v.5.0.99 svn rev. 10869
     Shape of augmentation charge: BESSEL
     Using radial grid of 1095 points,  4 beta functions with:
                l(1) =   0
                l(2) =   0
                l(3) =   1
                l(4) =   1
     Q(r) pseudized with 0 coefficients

     atomic species   valence    mass     pseudopotential
        Ba            10.00   137.32700     Ba( 1.00)
        Au            19.00   196.96657     Au( 1.00)
        O              6.00    15.99900     O ( 1.00)

      2 Sym. Ops., with inversion, found

                                    s                        frac. trans.

      isym =  1     identity

 cryst.   s( 1) = (     1          0          0      )
                  (     0          1          0      )
                  (     0          0          1      )

 cart.    s( 1) = (  1.0000000  0.0000000 -0.0000000 )
                  (  0.0000000  1.0000000  0.0000000 )
                  (  0.0000000  0.0000000  1.0000000 )

      isym =  2     inversion

 cryst.   s( 2) = (    -1          0          0      )
                  (     0         -1          0      )
                  (     0          0         -1      )

 cart.    s( 2) = ( -1.0000000 -0.0000000  0.0000000 )
                  (  0.0000000 -1.0000000 -0.0000000 )
                  (  0.0000000  0.0000000 -1.0000000 )

   Cartesian axes

     site n.     atom                  positions (alat units)
         1           Ba  tau(   1) = (   0.5000000   0.0000000   0.0000000  )
         2           Ba  tau(   2) = (  -0.1580333   0.4743685   0.0000000  )
         3           Au  tau(   3) = (   0.0008349   0.0011581   0.3085538  )
         4           Au  tau(   4) = (   0.3428015   0.4755266   0.3085538  )
         5           O   tau(   5) = (   0.5155732   0.7151916   0.1677113  )
         6           O   tau(   6) = (   0.0810833   0.6641963   0.3085538  )
         7           O   tau(   7) = (   0.6045198   0.2868570   0.3085538  )
         8           O   tau(   8) = (   0.1700299   0.2358616   0.4493963  )

   Crystallographic axes

     site n.     atom                  positions (cryst. coord.)
         1           Ba  tau(   1) = (  0.5000000  0.0000000  0.0000000  )
         2           Ba  tau(   2) = ( -0.0000000  0.5000000  0.0000000  )
         3           Au  tau(   3) = ( -0.0000000  0.0000000  0.5000000  )
         4           Au  tau(   4) = (  0.5000000  0.5000000  0.5000000  )
         5           O   tau(   5) = (  0.7531720  0.7531720  0.2717700  )
         6           O   tau(   6) = (  0.3011360  0.6988640  0.5000000  )
         7           O   tau(   7) = (  0.6988640  0.3011360  0.5000000  )
         8           O   tau(   8) = (  0.2468280  0.2468280  0.7282300  )

     number of k points=     1  Methfessel-Paxton smearing, width (Ry)=  0.0010
                       cart. coord. in units 2pi/alat
        k(    1) = (   0.0000000   0.0000000   0.0000000), wk =   2.0000000

                       cryst. coord.
        k(    1) = (   0.0000000   0.0000000   0.0000000), wk =   2.0000000

     Check: negative core charge=   -0.000009

     Initial potential from superposition of free atoms

     starting charge      81.9658, renormalised to      82.0000
     Starting wfcs are   46 randomized atomic wfcs +    3 random wfcs
     Checking if some PAW data can be deallocated...

     Self-consistent Calculation

     iteration #  1     ecut=    30.00 Ry     beta= 0.70
     Davidson diagonalization with overlap

     ethr =  1.00E-02,  avg # of iterations =  7.0

     negative rho (up, down):  1.067E-04 0.000E+00

     total energy              =   -1586.90296351 Ry
     estimated scf accuracy    <       2.22814183 Ry

[...]

     negative rho (up, down):  3.434E-05 0.000E+00

[...]

     total energy              =   -1588.15151113 Ry
     estimated scf accuracy    <       0.00000168 Ry

     iteration # 18     ecut=    30.00 Ry     beta= 0.70
     Davidson diagonalization with overlap

     ethr =  2.04E-09,  avg # of iterations =  2.0

     End of self-consistent calculation

          k = 0.0000 0.0000 0.0000 (  1421 PWs)   bands (ev):

   -97.2789 -96.5239 -48.4355 -48.2814 -47.9716 -47.8468 -47.4433 -47.2122
   -16.5066 -16.3539  -8.1603  -7.6896  -7.0414  -7.0087  -2.0577  -1.5476
    -1.5083  -1.3239  -1.2296  -1.1314   2.5666   4.1100   4.1926   4.4437
     5.1594   5.6307   5.8003   5.8337   6.4226   6.4280   6.5392   6.6655
     7.0723   7.4375   8.0569   8.3032   8.3303   8.4700   8.5192   8.7088
     9.0587  10.6981  12.3889  12.8112  14.5865  14.7984  14.9155  15.5288
    15.7018

     occupation numbers
     1.0000   1.0000   1.0000   1.0000   1.0000   1.0000   1.0000   1.0000
     1.0000   1.0000   1.0000   1.0000   1.0000   1.0000   1.0000   1.0000
     1.0000   1.0000   1.0000   1.0000   1.0000   1.0000   1.0000   1.0000
     1.0000   1.0000   1.0000   1.0000   1.0000   1.0000   1.0000   1.0000
     1.0000   1.0000   1.0000   1.0000   1.0000   1.0000   1.0000   1.0000
     1.0000  -0.0000  -0.0000  -0.0000  -0.0000  -0.0000  -0.0000  -0.0000
    -0.0000

     the Fermi energy is    10.5291 ev

!    total energy              =   -1588.15151092 Ry
     estimated scf accuracy    <       0.00000067 Ry
     smearing contrib. (-TS)   =       0.00000000 Ry
     internal energy E=F+TS    =   -1588.15151092 Ry

     The total energy is F=E-TS. E is the sum of the following terms:
     one-electron contribution =    -392.67222655 Ry
     hartree contribution      =     230.01790439 Ry
     xc contribution           =    -120.68642964 Ry
     ewald contribution        =    -516.77291615 Ry
     one-center paw contrib.   =    -788.03784298 Ry
      -> PAW hartree energy AE =     171.30650851 Ry
      -> PAW hartree energy PS =    -170.69852453 Ry
      -> PAW xc energy AE      =    -856.43753256 Ry
      -> PAW xc energy PS      =      67.79170560 Ry
      -> total E_H with PAW    =     230.62588837 Ry
      -> total E_XC with PAW   =    -909.33225659 Ry

     convergence has been achieved in  18 iterations

     Forces acting on atoms (cartesian axes, Ry/au):

     atom    1 type  1   force =     0.00000000    0.00000000    0.00000000
     atom    2 type  1   force =     0.00000000    0.00000000    0.00000000
     atom    3 type  2   force =     0.00000000    0.00000000    0.00000000
     atom    4 type  2   force =     0.00000000    0.00000000    0.00000000
     atom    5 type  3   force =     0.00648213    0.00899148    0.02446300
     atom    6 type  3   force =    -0.00107197    0.00077311   -0.00000020
     atom    7 type  3   force =     0.00107197   -0.00077311    0.00000020
     atom    8 type  3   force =    -0.00648213   -0.00899148   -0.02446300
     The non-local contrib.  to forces
     atom    1 type  1   force =     0.00000000    0.00000000    0.00000000
     atom    2 type  1   force =     0.00000000    0.00000000    0.00000000
     atom    3 type  2   force =     0.00000000    0.00000000    0.00000000
     atom    4 type  2   force =     0.00000000    0.00000000    0.00000000
     atom    5 type  3   force =     0.04929414    0.06837896    1.50402119
     atom    6 type  3   force =     0.74127775   -0.53437896    0.00000080
     atom    7 type  3   force =    -0.74127775    0.53437896   -0.00000080
     atom    8 type  3   force =    -0.04929414   -0.06837896   -1.50402119
     The ionic contribution  to forces
     atom    1 type  1   force =    -0.00000000    0.00000000   -0.00000000
     atom    2 type  1   force =    -0.00000000    0.00000000   -0.00000000
     atom    3 type  2   force =     0.00000000    0.00000000    0.00000000
     atom    4 type  2   force =     0.00000000   -0.00000000   -0.00000000
     atom    5 type  3   force =     0.70278892    0.97489304   -6.95776213
     atom    6 type  3   force =    -7.45302982    5.37280149    0.00000000
     atom    7 type  3   force =     7.45302982   -5.37280149    0.00000000
     atom    8 type  3   force =    -0.70278892   -0.97489305    6.95776213
     The local contribution  to forces
     atom    1 type  1   force =    -0.00080444    0.00085513   -0.00053691
     atom    2 type  1   force =    -0.00009534    0.00042397   -0.00000728
     atom    3 type  2   force =     0.00006819    0.00015879    0.00003646
     atom    4 type  2   force =    -0.00005305   -0.00017360    0.00003680
     atom    5 type  3   force =    -0.74493120   -1.03335188    5.49724790
     atom    6 type  3   force =     6.71949394   -4.84401541   -0.00000184
     atom    7 type  3   force =    -6.71950406    4.84400205    0.00000302
     atom    8 type  3   force =     0.74493647    1.03336159   -5.49734510
     The core correction contribution to forces
     atom    1 type  1   force =    -0.00001101    0.00001773   -0.00001423
     atom    2 type  1   force =     0.00000366    0.00000762   -0.00000702
     atom    3 type  2   force =     0.00000000    0.00000000    0.00000000
     atom    4 type  2   force =     0.00000000    0.00000000    0.00000000
     atom    5 type  3   force =    -0.00055568   -0.00077087   -0.01908854
     atom    6 type  3   force =    -0.00890785    0.00642160   -0.00000002
     atom    7 type  3   force =     0.00890783   -0.00642152    0.00000001
     atom    8 type  3   force =     0.00055571    0.00077082    0.01908720
     The Hubbard contrib.    to forces
     atom    1 type  1   force =     0.00000000    0.00000000    0.00000000
     atom    2 type  1   force =     0.00000000    0.00000000    0.00000000
     atom    3 type  2   force =     0.00000000    0.00000000    0.00000000
     atom    4 type  2   force =     0.00000000    0.00000000    0.00000000
     atom    5 type  3   force =     0.00000000    0.00000000    0.00000000
     atom    6 type  3   force =     0.00000000    0.00000000    0.00000000
     atom    7 type  3   force =     0.00000000    0.00000000    0.00000000
     atom    8 type  3   force =     0.00000000    0.00000000    0.00000000
     The SCF correction term to forces
     atom    1 type  1   force =     0.00012197   -0.00013347    0.00007258
     atom    2 type  1   force =    -0.00000610   -0.00001845   -0.00000487
     atom    3 type  2   force =    -0.00008400   -0.00017462   -0.00003791
     atom    4 type  2   force =     0.00006640    0.00019042   -0.00003835
     atom    5 type  3   force =    -0.00010992   -0.00015670    0.00000734
     atom    6 type  3   force =     0.00009516   -0.00005134    0.00000041
     atom    7 type  3   force =    -0.00008270    0.00007316   -0.00000251
     atom    8 type  3   force =     0.00011287    0.00014921    0.00001673

     Total force =     0.038028     Total SCF correction =     0.000464

     Computing stress (Cartesian axis) and pressure

          total   stress  (Ry/bohr**3)                   (kbar)     P=     -434.33
  -0.00322381  -0.00014546  -0.00004365         -474.24      -21.40       -6.42
  -0.00014546  -0.00332072  -0.00006055          -21.40     -488.50       -8.91
  -0.00004365  -0.00006055  -0.00231301           -6.42       -8.91     -340.25

     kinetic stress (kbar)  25703.29   -272.19     -0.45
                             -272.19  25521.93     -0.62
                               -0.45     -0.62  26269.18

     local   stress (kbar) -15632.50  -6763.04    226.86
                            -6763.04 -20138.64    314.69
                              226.86    314.69  -2720.61

     nonloc. stress (kbar)   5028.24     17.71      1.04
                               17.71   5040.04      1.44
                                1.04      1.44   4956.71

     hartree stress (kbar)  12024.54   3011.92   -121.13
                             3011.92  14031.35   -168.03
                             -121.13   -168.03   7038.61

     exc-cor stress (kbar)   -732.28      2.90      0.17
                                2.90   -730.34      0.24
                                0.17      0.24   -739.96

     corecor stress (kbar)  -3956.69      0.03     -0.07
                                0.03  -3956.67     -0.09
                               -0.07     -0.09  -3956.96

     ewald   stress (kbar) -22908.83   3981.28   -112.85
                             3981.28 -20256.15   -156.54
                             -112.85   -156.54 -31187.23

     hubbard stress (kbar)      0.00      0.00      0.00
                                0.00      0.00      0.00
                                0.00      0.00      0.00

     DFT-D   stress (kbar)      0.00      0.00      0.00
                                0.00      0.00      0.00
                                0.00      0.00      0.00

     XDM     stress (kbar)      0.00      0.00      0.00
                                0.00      0.00      0.00
                                0.00      0.00      0.00

     dft-nl  stress (kbar)      0.00      0.00      0.00
                                0.00      0.00      0.00
                                0.00      0.00      0.00

     TS-vdW  stress (kbar)      0.00      0.00      0.00
                                0.00      0.00      0.00
                                0.00      0.00      0.00

[...]

                                0.00      0.00      0.00

     Writing all to output data dir new_calculations/myprefix.save/

     General routines

     Parallel routines

     PAW routines

   This run was terminated on:   3:47: 5  21May2023

   JOB DONE.