     Program PWSCF v.7.0 starts on 21May2023 at  2:40:45

     Reading input from espresso_8995.pwi
Warning: card &CELL ignored
Warning: card / ignored

     Current dimensions of program PWSCF are:
     Max number of different atomic species (ntypx) = 10
     Max number of k-points (npk) =  40000
     Max angular momentum in pseudopotentials (lmaxx) =  4
     file K.pbe-spn-kjpaw_psl.1.0.0.UPF: wavefunction(s)  3S renormalized

     gamma-point specific algorithms are used
     Message from routine setup:
     using ibrav=0 with symmetry is DISCOURAGED, use correct ibrav instead

     Subspace diagonalization in iterative solution of the eigenvalue problem:
     a serial algorithm will be used

     Using Slab Decomposition

     bravais-lattice index     =            0
     lattice parameter (alat)  =      16.3600  a.u.
     unit-cell volume          =    3993.4059 (a.u.)^3
     number of atoms/cell      =            8
     number of atomic types    =            1
     number of electrons       =        72.00
     number of Kohn-Sham states=           43
     kinetic-energy cutoff     =      30.0000  Ry
     charge density cutoff     =     240.0000  Ry
     scf convergence threshold =      1.0E-06
     mixing beta               =       0.7000
     number of iterations used =            8  plain     mixing
     Exchange-correlation= SLA  PW   PBX  PBC
                           (   1   4   3   4   0   0   0)

     celldm(1)=  16.359992  celldm(2)=   0.000000  celldm(3)=   0.000000
     celldm(4)=   0.000000  celldm(5)=   0.000000  celldm(6)=   0.000000

     crystal axes: (cart. coord. in units of alat)
               a(1) = (   1.000000   0.000000   0.000000 )
               a(2) = (  -0.464332   0.885661   0.000000 )
               a(3) = (   0.000000   0.000000   1.029737 )

     reciprocal axes: (cart. coord. in units 2 pi/alat)
               b(1) = (  1.000000  0.524277  0.000000 )
               b(2) = (  0.000000  1.129100  0.000000 )
               b(3) = (  0.000000  0.000000  0.971121 )

     PseudoPot. # 1 for K  read from file:
     /home/pragov/projects/rrg-bengioy-ad/pragov/crystal_structure_design/SSSP/K.pbe-spn-kjpaw_psl.1.0.0.UPF
     MD5 check sum: 7d58810084cac21f60fbe77ea2b688fd
     Pseudo is Projector augmented-wave + core cor, Zval =  9.0
     Generated using "atomic" code by A. Dal Corso  v.5.1
     Shape of augmentation charge: PSQ
     Using radial grid of 1165 points,  6 beta functions with:
                l(1) =   0
                l(2) =   0
                l(3) =   1
                l(4) =   1
                l(5) =   2
                l(6) =   2
     Q(r) pseudized with 0 coefficients

     atomic species   valence    mass     pseudopotential
        K              9.00    39.09830     K ( 1.00)

      4 Sym. Ops., with inversion, found ( 2 have fractional translation)

                                    s                        frac. trans.

      isym =  1     identity

 cryst.   s( 1) = (     1          0          0      )
                  (     0          1          0      )
                  (     0          0          1      )

 cart.    s( 1) = (  1.0000000 -0.0000000  0.0000000 )
                  (  0.0000000  1.0000000  0.0000000 )
                  (  0.0000000  0.0000000  1.0000000 )

      isym =  2     180 deg rotation - cart. axis [0,0,1]

 cryst.   s( 2) = (    -1          0          0      )    f =(  0.5000000 )
                  (     0         -1          0      )       (  0.5000000 )
                  (     0          0          1      )       ( -0.5000000 )

 cart.    s( 2) = ( -1.0000000  0.0000000  0.0000000 )    f =(  0.2678341 )
                  (  0.0000000 -1.0000000  0.0000000 )       (  0.4428307 )
                  (  0.0000000  0.0000000  1.0000000 )       ( -0.5148687 )

      isym =  3     inversion

 cryst.   s( 3) = (    -1          0          0      )
                  (     0         -1          0      )
                  (     0          0         -1      )

 cart.    s( 3) = ( -1.0000000  0.0000000  0.0000000 )
                  (  0.0000000 -1.0000000  0.0000000 )
                  (  0.0000000  0.0000000 -1.0000000 )

      isym =  4     inv. 180 deg rotation - cart. axis [0,0,1]

 cryst.   s( 4) = (     1          0          0      )    f =(  0.5000000 )
                  (     0          1          0      )       (  0.5000000 )
                  (     0          0         -1      )       (  0.5000000 )

 cart.    s( 4) = (  1.0000000 -0.0000000  0.0000000 )    f =(  0.2678341 )
                  (  0.0000000  1.0000000  0.0000000 )       (  0.4428307 )
                  (  0.0000000  0.0000000 -1.0000000 )       (  0.5148687 )

   Cartesian axes

     site n.     atom                  positions (alat units)
         1           K   tau(   1) = (   0.6758804   0.1960349   0.0000000  )
         2           K   tau(   2) = (   0.5919537   0.2467957   0.5148687  )
         3           K   tau(   3) = (   0.3647987   0.6031496   0.1855103  )
         4           K   tau(   4) = (  -0.0562854   0.6388656   0.5148687  )
         5           K   tau(   5) = (   0.0969645   0.1603189   0.3293584  )
         6           K   tau(   6) = (   0.4387037   0.7253425   0.7003790  )
         7           K   tau(   7) = (  -0.1402122   0.6896264   0.0000000  )
         8           K   tau(   8) = (   0.1708696   0.2825118   0.8442272  )

   Crystallographic axes

     site n.     atom                  positions (cryst. coord.)
         1           K   tau(   1) = (  0.7786570  0.2213430  0.0000000  )
         2           K   tau(   2) = (  0.7213430  0.2786570  0.5000000  )
         3           K   tau(   3) = (  0.6810160  0.6810160  0.1801530  )
         4           K   tau(   4) = (  0.2786570  0.7213430  0.5000000  )
         5           K   tau(   5) = (  0.1810160  0.1810160  0.3198470  )
         6           K   tau(   6) = (  0.8189840  0.8189840  0.6801530  )
         7           K   tau(   7) = (  0.2213430  0.7786570  0.0000000  )
         8           K   tau(   8) = (  0.3189840  0.3189840  0.8198470  )

     number of k points=     1  Methfessel-Paxton smearing, width (Ry)=  0.0010
                       cart. coord. in units 2pi/alat
        k(    1) = (   0.0000000   0.0000000   0.0000000), wk =   2.0000000

                       cryst. coord.
        k(    1) = (   0.0000000   0.0000000   0.0000000), wk =   2.0000000

     Check: negative core charge=   -0.000003

     Initial potential from superposition of free atoms

     starting charge      71.8494, renormalised to      72.0000
     Starting wfcs are   64 randomized atomic wfcs
     Checking if some PAW data can be deallocated...

     Self-consistent Calculation

     iteration #  1     ecut=    30.00 Ry     beta= 0.70
     Davidson diagonalization with overlap

     ethr =  1.00E-02,  avg # of iterations =  2.0

     Threshold (ethr) on eigenvalues was too large:
     Diagonalizing with lowered threshold

     Davidson diagonalization with overlap

[...]

     total energy              =    -903.87088939 Ry
     estimated scf accuracy    <       0.04215368 Ry

[...]

     total energy              =    -903.88293194 Ry
     estimated scf accuracy    <       0.00000151 Ry

     iteration # 13     ecut=    30.00 Ry     beta= 0.70
     Davidson diagonalization with overlap

     ethr =  2.09E-09,  avg # of iterations =  4.0

     End of self-consistent calculation

          k = 0.0000 0.0000 0.0000 (  5544 PWs)   bands (ev):

   -30.4040 -30.4020 -30.4019 -30.4000 -30.2521 -30.2497 -30.2496 -30.2491
   -13.9243 -13.9160 -13.9062 -13.8991 -13.8921 -13.8873 -13.8835 -13.8813
   -13.8763 -13.8728 -13.8572 -13.8533 -13.7727 -13.7634 -13.7415 -13.7390
   -13.7387 -13.7376 -13.7371 -13.7363 -13.7358 -13.7224 -13.7030 -13.6933
    -0.3566   1.6170   1.6681   2.1376   2.1418   2.3069   2.3514   2.3519
     2.4967   3.2363   3.5110

     occupation numbers
     1.0000   1.0000   1.0000   1.0000   1.0000   1.0000   1.0000   1.0000
     1.0000   1.0000   1.0000   1.0000   1.0000   1.0000   1.0000   1.0000
     1.0000   1.0000   1.0000   1.0000   1.0000   1.0000   1.0000   1.0000
     1.0000   1.0000   1.0000   1.0000   1.0000   1.0000   1.0000   1.0000
     1.0000   1.0000   1.0000   0.6284   0.3716  -0.0000  -0.0000  -0.0000
    -0.0000  -0.0000  -0.0000

     the Fermi energy is     2.1397 ev

!    total energy              =    -903.88293201 Ry

     total all-electron energy =     -9633.792627 Ry
     estimated scf accuracy    <       0.00000004 Ry
     smearing contrib. (-TS)   =      -0.00052500 Ry
     internal energy E=F+TS    =    -903.88240700 Ry

     The total energy is F=E-TS. E is the sum of the following terms:
     one-electron contribution =    -289.70376953 Ry
     hartree contribution      =     153.91694970 Ry
     xc contribution           =     -89.33923351 Ry
     ewald contribution        =    -235.41371798 Ry
     one-center paw contrib.   =    -443.34263569 Ry
      -> PAW hartree energy AE =     300.53533489 Ry
      -> PAW hartree energy PS =    -298.85418274 Ry
      -> PAW xc energy AE      =    -529.59928627 Ry
      -> PAW xc energy PS      =      84.57549843 Ry
      -> total E_H with PAW    =     155.59810185 Ry
      -> total E_XC with PAW   =    -534.36302135 Ry

     convergence has been achieved in  13 iterations

     Forces acting on atoms (cartesian axes, Ry/au):

     atom    1 type  1   force =    -0.00107214    0.00065544   -0.00000059
     atom    2 type  1   force =     0.00107214   -0.00065544   -0.00000059
     atom    3 type  1   force =     0.00079136    0.00135150    0.00071050
     atom    4 type  1   force =    -0.00107214    0.00065544    0.00000059
     atom    5 type  1   force =     0.00079136    0.00135150   -0.00071050
     atom    6 type  1   force =    -0.00079136   -0.00135150    0.00071050
     atom    7 type  1   force =     0.00107214   -0.00065544    0.00000059
     atom    8 type  1   force =    -0.00079136   -0.00135150   -0.00071050
     The non-local contrib.  to forces
     atom    1 type  1   force =     0.00947682   -0.00574729   -0.00000172
     atom    2 type  1   force =    -0.00947682    0.00574729   -0.00000172
     atom    3 type  1   force =    -0.02676469   -0.04429719    0.00174969
     atom    4 type  1   force =     0.00947682   -0.00574729    0.00000172
     atom    5 type  1   force =    -0.02676469   -0.04429719   -0.00174969
     atom    6 type  1   force =     0.02676469    0.04429719    0.00174969
     atom    7 type  1   force =    -0.00947682    0.00574729    0.00000172
     atom    8 type  1   force =     0.02676469    0.04429719   -0.00174969
     The ionic contribution  to forces
     atom    1 type  1   force =    -0.11125317    0.06728846    0.00000000
     atom    2 type  1   force =     0.11125317   -0.06728846    0.00000000
     atom    3 type  1   force =     0.03691053    0.06102701    0.07217778
     atom    4 type  1   force =    -0.11125317    0.06728846    0.00000000
     atom    5 type  1   force =     0.03691053    0.06102701   -0.07217778
     atom    6 type  1   force =    -0.03691053   -0.06102701    0.07217778
     atom    7 type  1   force =     0.11125317   -0.06728846   -0.00000000
     atom    8 type  1   force =    -0.03691053   -0.06102701   -0.07217778
     The local contribution  to forces
     atom    1 type  1   force =     0.10102538   -0.06110238    0.00001872
     atom    2 type  1   force =    -0.10133477    0.06126570   -0.00001107
     atom    3 type  1   force =    -0.01031039   -0.01706323   -0.07311348
     atom    4 type  1   force =     0.10125718   -0.06123870   -0.00001623
     atom    5 type  1   force =    -0.01023792   -0.01693786    0.07318728
     atom    6 type  1   force =     0.01026890    0.01684063   -0.07318404
     atom    7 type  1   force =    -0.10109941    0.06112662    0.00001869
     atom    8 type  1   force =     0.01038940    0.01702975    0.07310689
     The core correction contribution to forces
     atom    1 type  1   force =    -0.00035308    0.00021311    0.00000011
     atom    2 type  1   force =     0.00035174   -0.00021407    0.00000022
     atom    3 type  1   force =     0.00099362    0.00164705   -0.00004451
     atom    4 type  1   force =    -0.00035178    0.00021372   -0.00000008
     atom    5 type  1   force =     0.00099424    0.00164691    0.00004516
     atom    6 type  1   force =    -0.00099563   -0.00164654   -0.00004492
     atom    7 type  1   force =     0.00035333   -0.00021374   -0.00000016
     atom    8 type  1   force =    -0.00099506   -0.00164685    0.00004434
     The Hubbard contrib.    to forces
     atom    1 type  1   force =     0.00000000    0.00000000    0.00000000
     atom    2 type  1   force =     0.00000000    0.00000000    0.00000000
     atom    3 type  1   force =     0.00000000    0.00000000    0.00000000
     atom    4 type  1   force =     0.00000000    0.00000000    0.00000000
     atom    5 type  1   force =     0.00000000    0.00000000    0.00000000
     atom    6 type  1   force =     0.00000000    0.00000000    0.00000000
     atom    7 type  1   force =     0.00000000    0.00000000    0.00000000
     atom    8 type  1   force =     0.00000000    0.00000000    0.00000000
     The SCF correction term to forces
     atom    1 type  1   force =     0.00000992    0.00001793   -0.00001979
     atom    2 type  1   force =     0.00025430   -0.00014783    0.00001209
     atom    3 type  1   force =    -0.00006606    0.00002085   -0.00005205
     atom    4 type  1   force =    -0.00018687    0.00012957    0.00001354
     atom    5 type  1   force =    -0.00012134   -0.00009465   -0.00001084
     atom    6 type  1   force =     0.00007001    0.00020473    0.00000868
     atom    7 type  1   force =     0.00005872   -0.00004049   -0.00002001
     atom    8 type  1   force =    -0.00006752   -0.00004940    0.00006474

     Total force =     0.004260     Total SCF correction =     0.000484
     SCF correction compared to forces is large: reduce conv_thr to get better values

     Computing stress (Cartesian axis) and pressure

          total   stress  (Ry/bohr**3)                   (kbar)     P=       -2.86
  -0.00010353   0.00003406   0.00000000          -15.23        5.01        0.00
   0.00003406  -0.00006770   0.00000000            5.01       -9.96        0.00
   0.00000000   0.00000000   0.00011281            0.00        0.00       16.60

     kinetic stress (kbar)   4416.66      1.01      0.00
                                1.01   4417.73      0.00
                                0.00      0.00   4455.73

     local   stress (kbar)  -3837.92     -3.99      0.00
                               -3.99  -3842.06      0.00
                                0.00      0.00  -3913.86

     nonloc. stress (kbar)   1382.55      2.67      0.00
                                2.67   1385.35      0.00
                                0.00      0.00   1389.99

     hartree stress (kbar)   1881.84     -3.55     -0.00
                               -3.55   1878.08     -0.00
                               -0.00     -0.00   1909.92

     exc-cor stress (kbar)   -158.46     -0.12     -0.00
                               -0.12   -158.59     -0.00
                               -0.00     -0.00   -158.55

     corecor stress (kbar)   -794.81     -0.09     -0.00
                               -0.09   -794.90      0.00
                               -0.00      0.00   -795.37

     ewald   stress (kbar)  -2905.10      9.08     -0.00
                                9.08  -2895.58     -0.00
                               -0.00     -0.00  -2871.26

     hubbard stress (kbar)      0.00      0.00      0.00
                                0.00      0.00      0.00
                                0.00      0.00      0.00

     DFT-D   stress (kbar)      0.00      0.00      0.00
                                0.00      0.00      0.00
                                0.00      0.00      0.00

     XDM     stress (kbar)      0.00      0.00      0.00
                                0.00      0.00      0.00
                                0.00      0.00      0.00

     dft-nl  stress (kbar)      0.00      0.00      0.00
                                0.00      0.00      0.00
                                0.00      0.00      0.00

     TS-vdW  stress (kbar)      0.00      0.00      0.00
                                0.00      0.00      0.00
                                0.00      0.00      0.00

[...]

                                0.00      0.00      0.00

     Writing all to output data dir new_calculations/myprefix.save/

     General routines

     Parallel routines

     PAW routines

   This run was terminated on:   2:41:17  21May2023

   JOB DONE.