     Program PWSCF v.7.0 starts on 20May2023 at  1:33:46

     Reading input from espresso_6025.pwi
Warning: card &CELL ignored
Warning: card / ignored

     Current dimensions of program PWSCF are:
     Max number of different atomic species (ntypx) = 10
     Max number of k-points (npk) =  40000
     Max angular momentum in pseudopotentials (lmaxx) =  4
     file O.pbe-n-kjpaw_psl.0.1.UPF: wavefunction(s)  2P renormalized

     gamma-point specific algorithms are used
     Message from routine setup:
     using ibrav=0 with symmetry is DISCOURAGED, use correct ibrav instead

     Subspace diagonalization in iterative solution of the eigenvalue problem:
     a serial algorithm will be used

     Using Slab Decomposition

     bravais-lattice index     =            0
     lattice parameter (alat)  =      10.3299  a.u.
     unit-cell volume          =    1604.4309 (a.u.)^3
     number of atoms/cell      =           16
     number of atomic types    =            4
     number of electrons       =       146.00
     number of Kohn-Sham states=           88
     kinetic-energy cutoff     =      30.0000  Ry
     charge density cutoff     =     240.0000  Ry
     scf convergence threshold =      1.0E-06
     mixing beta               =       0.7000
     number of iterations used =            8  plain     mixing
     Exchange-correlation= SLA  PW   PBX  PBC
                           (   1   4   3   4   0   0   0)

     celldm(1)=  10.329855  celldm(2)=   0.000000  celldm(3)=   0.000000
     celldm(4)=   0.000000  celldm(5)=   0.000000  celldm(6)=   0.000000

     crystal axes: (cart. coord. in units of alat)
               a(1) = (   1.000000   0.000000   0.000000 )
               a(2) = (  -0.153515   1.280634   0.000000 )
               a(3) = (  -0.394059  -0.489560   1.136615 )

     reciprocal axes: (cart. coord. in units 2 pi/alat)
               b(1) = (  1.000000  0.119874  0.398327 )
               b(2) = (  0.000000  0.780863  0.336331 )
               b(3) = (  0.000000  0.000000  0.879805 )

     PseudoPot. # 1 for Mn read from file:
     /home/pragov/projects/rrg-bengioy-ad/pragov/crystal_structure_design/SSSP/mn_pbe_v1.5.uspp.F.UPF
     MD5 check sum: 82ef2b46521d7a7d9e736dc3972e4928
     Pseudo is Ultrasoft + core correction, Zval = 15.0
     Generated by new atomic code, or converted to UPF format
     Using radial grid of  859 points,  6 beta functions with:
                l(1) =   0
                l(2) =   0
                l(3) =   1
                l(4) =   1
                l(5) =   2
                l(6) =   2
     Q(r) pseudized with  8 coefficients,  rinner =    0.950   0.950   0.950
                                                       0.950   0.950

     PseudoPot. # 2 for V  read from file:
     /home/pragov/projects/rrg-bengioy-ad/pragov/crystal_structure_design/SSSP/v_pbe_v1.4.uspp.F.UPF
     MD5 check sum: 22b79981416ebb76fdaf5b1b8640f6fb
     Pseudo is Ultrasoft + core correction, Zval = 13.0
     Generated by new atomic code, or converted to UPF format
     Using radial grid of  853 points,  6 beta functions with:
                l(1) =   0
                l(2) =   0
                l(3) =   1
                l(4) =   1
                l(5) =   2
                l(6) =   2
     Q(r) pseudized with  8 coefficients,  rinner =    1.100   1.100   1.100
                                                       1.100   1.100

     PseudoPot. # 3 for Bi read from file:
     /home/pragov/projects/rrg-bengioy-ad/pragov/crystal_structure_design/SSSP/Bi_pbe_v1.uspp.F.UPF
     MD5 check sum: cceb9f28ec65b6d7ff33140f5b0b1758
     Pseudo is Ultrasoft + core correction, Zval = 15.0
     Generated by new atomic code, or converted to UPF format
     Using radial grid of  899 points,  6 beta functions with:
                l(1) =   0
                l(2) =   0
                l(3) =   1
                l(4) =   1
                l(5) =   2
                l(6) =   2
     Q(r) pseudized with  6 coefficients,  rinner =    1.000   1.000   1.000
                                                       1.000   1.000

     PseudoPot. # 4 for O  read from file:
     /home/pragov/projects/rrg-bengioy-ad/pragov/crystal_structure_design/SSSP/O.pbe-n-kjpaw_psl.0.1.UPF
     MD5 check sum: 0234752ac141de4415c5fc33072bef88
     Pseudo is Projector augmented-wave + core cor, Zval =  6.0
     Generated using "atomic" code by A. Dal Corso  v.5.0.99 svn rev. 10869
     Shape of augmentation charge: BESSEL
     Using radial grid of 1095 points,  4 beta functions with:
                l(1) =   0
                l(2) =   0
                l(3) =   1
                l(4) =   1
     Q(r) pseudized with 0 coefficients

     atomic species   valence    mass     pseudopotential
        Mn            15.00    54.93804     Mn( 1.00)
        V             13.00    50.94150     V ( 1.00)
        Bi            15.00   208.98040     Bi( 1.00)
        O              6.00    15.99900     O ( 1.00)

      2 Sym. Ops., with inversion, found

                                    s                        frac. trans.

      isym =  1     identity

 cryst.   s( 1) = (     1          0          0      )
                  (     0          1          0      )
                  (     0          0          1      )

 cart.    s( 1) = (  1.0000000  0.0000000  0.0000000 )
                  (  0.0000000  1.0000000 -0.0000000 )
                  (  0.0000000  0.0000000  1.0000000 )

      isym =  2     inversion

 cryst.   s( 2) = (    -1          0          0      )
                  (     0         -1          0      )
                  (     0          0         -1      )

 cart.    s( 2) = ( -1.0000000 -0.0000000 -0.0000000 )
                  (  0.0000000 -1.0000000  0.0000000 )
                  (  0.0000000  0.0000000 -1.0000000 )

   Cartesian axes

     site n.     atom                  positions (alat units)
         1           Mn  tau(   1) = (   0.1809988   0.3592508   0.2587334  )
         2           Mn  tau(   2) = (   0.2714280   0.4318230   0.8778818  )
         3           V   tau(   3) = (   0.2813274  -0.2021069   1.0069649  )
         4           V   tau(   4) = (   0.1710993   0.9931807   0.1296503  )
         5           Bi  tau(   5) = (  -0.2240154   0.7061177   0.6083983  )
         6           Bi  tau(   6) = (   0.6764421   0.0849560   0.5282169  )
         7           O   tau(   7) = (   0.0332961   0.7323233   0.2619216  )
         8           O   tau(   8) = (   0.4191306   0.0587504   0.8746936  )
         9           O   tau(   9) = (   0.3073132  -0.0326942   0.3286750  )
        10           O   tau(  10) = (   0.1451135   0.8237680   0.8079402  )
        11           O   tau(  11) = (   0.4733258   0.9326804   0.0812828  )
        12           O   tau(  12) = (  -0.0208991  -0.1416066   1.0553324  )
        13           O   tau(  13) = (   0.4812545   0.4236583   0.5112836  )
        14           O   tau(  14) = (  -0.0288278   0.3674155   0.6253316  )
        15           O   tau(  15) = (   0.8252183   0.2144739   0.1473610  )
        16           O   tau(  16) = (  -0.3727916   0.5765998   0.9892541  )

   Crystallographic axes

     site n.     atom                  positions (cryst. coord.)
         1           Mn  tau(   1) = (  0.3271240  0.3675460  0.2276350  )
         2           Mn  tau(   2) = (  0.6728760  0.6324540  0.7723650  )
         3           V   tau(   3) = (  0.6582010  0.1808560  0.8859330  )
         4           V   tau(   4) = (  0.3417990  0.8191440  0.1140670  )
         5           Bi  tau(   5) = (  0.1029710  0.7560050  0.5352720  )
         6           Bi  tau(   6) = (  0.8970290  0.2439950  0.4647280  )
         7           O   tau(   7) = (  0.2254130  0.6599370  0.2304400  )
         8           O   tau(   8) = (  0.7745870  0.3400630  0.7695600  )
         9           O   tau(   9) = (  0.4343140  0.0850140  0.2891700  )
        10           O   tau(  10) = (  0.5656860  0.9149860  0.7108300  )
        11           O   tau(  11) = (  0.6175070  0.7556340  0.0715130  )
        12           O   tau(  12) = (  0.3824930  0.2443660  0.9284870  )
        13           O   tau(  13) = (  0.7356980  0.5027800  0.4498300  )
        14           O   tau(  14) = (  0.2643020  0.4972200  0.5501700  )
        15           O   tau(  15) = (  0.9096260  0.2170370  0.1296490  )
        16           O   tau(  16) = (  0.0903740  0.7829630  0.8703510  )

     number of k points=     1  Methfessel-Paxton smearing, width (Ry)=  0.0010
                       cart. coord. in units 2pi/alat
        k(    1) = (   0.0000000   0.0000000   0.0000000), wk =   2.0000000

                       cryst. coord.
        k(    1) = (   0.0000000   0.0000000   0.0000000), wk =   2.0000000

     Check: negative core charge=   -0.000018

     Initial potential from superposition of free atoms

     starting charge     142.9973, renormalised to     146.0000

     negative rho (up, down):  8.276E-02 0.000E+00
     Starting wfcs are  104 randomized atomic wfcs
     Checking if some PAW data can be deallocated...

     Self-consistent Calculation

     iteration #  1     ecut=    30.00 Ry     beta= 0.70
     Davidson diagonalization with overlap

     ethr =  1.00E-02,  avg # of iterations =  2.0

     negative rho (up, down):  8.403E-02 0.000E+00

     total energy              =   -1492.07742205 Ry
     estimated scf accuracy    <      10.85994878 Ry

[...]

     total energy              =   -1499.35864845 Ry
     estimated scf accuracy    <       0.00000745 Ry

     iteration # 78     ecut=    30.00 Ry     beta= 0.70
     Davidson diagonalization with overlap

     ethr =  5.10E-09,  avg # of iterations =  1.0

[...]

     End of self-consistent calculation

          k = 0.0000 0.0000 0.0000 (  2217 PWs)   bands (ev):

   -70.8888 -70.8883 -57.4627 -57.4619 -39.7037 -39.7021 -39.6514 -39.6502
   -39.4915 -39.4910 -31.4135 -31.4115 -31.3974 -31.3966 -31.3540 -31.3519
   -15.6702 -15.6556 -15.5444 -15.5175 -15.4809 -15.4692 -15.4672 -15.4541
   -15.4256 -15.3897 -11.6291 -10.5802 -10.4788 -10.3550 -10.3538 -10.2770
   -10.0885  -9.9375  -9.9208  -9.9169  -2.9803  -2.4442   1.7191   1.8586
     2.3141   2.4808   2.6523   2.7082   2.8557   3.0522   3.0901   3.2451
     3.3411   3.3903   3.4628   3.5615   3.7409   3.9131   4.0746   4.1085
     4.2635   4.6507   4.7044   4.8057   4.8942   4.9775   5.0913   5.1777
     5.2906   5.4244   5.5625   5.7339   8.0960   8.1008   8.2317   8.2945
     8.3088   8.3136   8.7097   8.9819   9.0339   9.0663   9.3948   9.8092
     9.9185   9.9572  10.4119  10.5101  10.8607  10.9106  10.9566  11.1103

     occupation numbers
     1.0000   1.0000   1.0000   1.0000   1.0000   1.0000   1.0000   1.0000
     1.0000   1.0000   1.0000   1.0000   1.0000   1.0000   1.0000   1.0000
     1.0000   1.0000   1.0000   1.0000   1.0000   1.0000   1.0000   1.0000
     1.0000   1.0000   1.0000   1.0000   1.0000   1.0000   1.0000   1.0000
     1.0000   1.0000   1.0000   1.0000   1.0000   1.0000   1.0000   1.0000
     1.0000   1.0000   1.0000   1.0000   1.0000   1.0000   1.0000   1.0000
     1.0000   1.0000   1.0000   1.0000   1.0000   1.0000   1.0000   1.0000
     1.0000   1.0000   1.0000   1.0000   1.0000   1.0000   1.0000   1.0000
     1.0000   1.0000   1.0000   1.0000   1.0000   1.0000   1.0000   1.0354
     0.6306   0.3340  -0.0000  -0.0000  -0.0000  -0.0000  -0.0000  -0.0000
    -0.0000  -0.0000  -0.0000  -0.0000  -0.0000  -0.0000  -0.0000  -0.0000

     the Fermi energy is     8.3109 ev

!    total energy              =   -1499.35864956 Ry
     estimated scf accuracy    <       0.00000055 Ry
     smearing contrib. (-TS)   =      -0.00038527 Ry
     internal energy E=F+TS    =   -1499.35826429 Ry

     The total energy is F=E-TS. E is the sum of the following terms:
     one-electron contribution =    -735.48712561 Ry
     hartree contribution      =     435.98803028 Ry
     xc contribution           =    -294.80664908 Ry
     ewald contribution        =    -809.75933267 Ry
     one-center paw contrib.   =     -95.29318721 Ry
      -> PAW hartree energy AE =     290.59688136 Ry
      -> PAW hartree energy PS =    -289.61351269 Ry
      -> PAW xc energy AE      =    -170.82983928 Ry
      -> PAW xc energy PS      =      74.55328341 Ry
      -> total E_H with PAW    =     436.97139895 Ry
      -> total E_XC with PAW   =    -391.08320495 Ry

     convergence has been achieved in  78 iterations

     negative rho (up, down):  8.254E-02 0.000E+00

     Forces acting on atoms (cartesian axes, Ry/au):

     atom    1 type  1   force =    -0.01609136   -0.00070729    0.02432127
     atom    2 type  1   force =     0.01609136    0.00070729   -0.02432127
     atom    3 type  2   force =    -0.01805552    0.00250751    0.01790907
     atom    4 type  2   force =     0.01805552   -0.00250751   -0.01790907
     atom    5 type  3   force =     0.00139652    0.01453183    0.01546196
     atom    6 type  3   force =    -0.00139652   -0.01453183   -0.01546196
     atom    7 type  4   force =     0.01809372   -0.05008678   -0.00213037
     atom    8 type  4   force =    -0.01809372    0.05008678    0.00213037
     atom    9 type  4   force =    -0.01208788    0.03400412    0.00157501
     atom   10 type  4   force =     0.01208788   -0.03400412   -0.00157501
     atom   11 type  4   force =     0.01084700    0.00633952   -0.04300571
     atom   12 type  4   force =    -0.01084700   -0.00633952    0.04300571
     atom   13 type  4   force =    -0.05232040    0.00235755   -0.01145010
     atom   14 type  4   force =     0.05232040   -0.00235755    0.01145010
     atom   15 type  4   force =     0.04419980    0.03575617    0.00259114
     atom   16 type  4   force =    -0.04419980   -0.03575617   -0.00259114
     The non-local contrib.  to forces
     atom    1 type  1   force =     0.00789454    0.03964301   -0.00778603
     atom    2 type  1   force =    -0.00789454   -0.03964301    0.00778603
     atom    3 type  2   force =    -0.05084294   -0.01531611   -0.04635222
     atom    4 type  2   force =     0.05084294    0.01531611    0.04635222
     atom    5 type  3   force =     0.21847171   -0.50253208    0.02230855
     atom    6 type  3   force =    -0.21847171    0.50253208   -0.02230855
     atom    7 type  4   force =     0.36290393    0.30465646    0.01564274
     atom    8 type  4   force =    -0.36290393   -0.30465646   -0.01564274
     atom    9 type  4   force =     0.25243548   -0.19916212   -0.51088720
     atom   10 type  4   force =    -0.25243548    0.19916212    0.51088720
     atom   11 type  4   force =    -0.66963862    0.19020918   -0.37250099
     atom   12 type  4   force =     0.66963862   -0.19020918    0.37250099
     atom   13 type  4   force =     0.25335782   -0.37447457    0.16437822
     atom   14 type  4   force =    -0.25335782    0.37447457   -0.16437822
     atom   15 type  4   force =    -0.15328436    0.28790914   -0.26068619
     atom   16 type  4   force =     0.15328436   -0.28790914    0.26068619
     The ionic contribution  to forces
     atom    1 type  1   force =     0.20685745    0.71658037   -7.10823632
     atom    2 type  1   force =    -0.20685745   -0.71658037    7.10823632
     atom    3 type  2   force =     1.97785470    0.95644169   -4.40827347
     atom    4 type  2   force =    -1.97785470   -0.95644169    4.40827347
     atom    5 type  3   force =    -7.76263024   19.16671997   -4.31948580
     atom    6 type  3   force =     7.76263024  -19.16671997    4.31948580
     atom    7 type  4   force =    -4.59519085   -0.61931085    0.92137526
     atom    8 type  4   force =     4.59519085    0.61931085   -0.92137526
     atom    9 type  4   force =    -3.27769271   -0.32724402    6.36625057
     atom   10 type  4   force =     3.27769271    0.32724402   -6.36625057
     atom   11 type  4   force =     9.31833970   -3.06891213    5.66723897
     atom   12 type  4   force =    -9.31833970    3.06891213   -5.66723897
     atom   13 type  4   force =     0.57014741    5.19691460   -2.47651834
     atom   14 type  4   force =    -0.57014741   -5.19691460    2.47651834
     atom   15 type  4   force =     2.32267423   -4.43777712    2.25681548
     atom   16 type  4   force =    -2.32267423    4.43777712   -2.25681548
     The local contribution  to forces
     atom    1 type  1   force =    -0.22999170   -0.75384116    7.13798537
     atom    2 type  1   force =     0.22986580    0.75375723   -7.13821543
     atom    3 type  2   force =    -1.95101343   -0.93756224    4.47152328
     atom    4 type  2   force =     1.95096625    0.93762486   -4.47127471
     atom    5 type  3   force =     7.55601735  -18.67003087    4.31213622
     atom    6 type  3   force =    -7.55583086   18.67011193   -4.31242258
     atom    7 type  4   force =     4.25389920    0.26602337   -0.93839230
     atom    8 type  4   force =    -4.25390235   -0.26671560    0.93864439
     atom    9 type  4   force =     3.01529140    0.56016914   -5.85851041
     atom   10 type  4   force =    -3.01550798   -0.55954449    5.85864294
     atom   11 type  4   force =    -8.64234365    2.88641803   -5.34223712
     atom   12 type  4   force =     8.64251350   -2.88666649    5.34261659
     atom   13 type  4   force =    -0.87381334   -4.82373942    2.30204705
     atom   14 type  4   force =     0.87373918    4.82368785   -2.30266332
     atom   15 type  4   force =    -2.12559884    4.18861911   -1.99522473
     atom   16 type  4   force =     2.12565424   -4.18825942    1.99507326
     The core correction contribution to forces
     atom    1 type  1   force =    -0.00092169   -0.00320081    0.00207665
     atom    2 type  1   force =     0.00091987    0.00320316   -0.00207567
     atom    3 type  2   force =     0.00593600   -0.00114549    0.00117792
     atom    4 type  2   force =    -0.00593502    0.00114456   -0.00117832
     atom    5 type  3   force =    -0.01038102    0.02051270    0.00044112
     atom    6 type  3   force =     0.01038176   -0.02051223   -0.00044090
     atom    7 type  4   force =    -0.00348175   -0.00153705   -0.00071403
     atom    8 type  4   force =     0.00348223    0.00153779    0.00071408
     atom    9 type  4   force =    -0.00218325    0.00029678    0.00462390
     atom   10 type  4   force =     0.00218229   -0.00029740   -0.00462432
     atom   11 type  4   force =     0.00434876   -0.00139509    0.00475423
     atom   12 type  4   force =    -0.00434957    0.00139420   -0.00475390
     atom   13 type  4   force =    -0.00196536    0.00363505   -0.00170868
     atom   14 type  4   force =     0.00196502   -0.00363522    0.00170895
     atom   15 type  4   force =     0.00030901   -0.00281485    0.00141123
     atom   16 type  4   force =    -0.00030920    0.00281519   -0.00141024
     The Hubbard contrib.    to forces
     atom    1 type  1   force =     0.00000000    0.00000000    0.00000000
     atom    2 type  1   force =     0.00000000    0.00000000    0.00000000
     atom    3 type  2   force =     0.00000000    0.00000000    0.00000000
     atom    4 type  2   force =     0.00000000    0.00000000    0.00000000
     atom    5 type  3   force =     0.00000000    0.00000000    0.00000000
     atom    6 type  3   force =     0.00000000    0.00000000    0.00000000
     atom    7 type  4   force =     0.00000000    0.00000000    0.00000000
     atom    8 type  4   force =     0.00000000    0.00000000    0.00000000
     atom    9 type  4   force =     0.00000000    0.00000000    0.00000000
     atom   10 type  4   force =     0.00000000    0.00000000    0.00000000
     atom   11 type  4   force =     0.00000000    0.00000000    0.00000000
     atom   12 type  4   force =     0.00000000    0.00000000    0.00000000
     atom   13 type  4   force =     0.00000000    0.00000000    0.00000000
     atom   14 type  4   force =     0.00000000    0.00000000    0.00000000
     atom   15 type  4   force =     0.00000000    0.00000000    0.00000000
     atom   16 type  4   force =     0.00000000    0.00000000    0.00000000
     The SCF correction term to forces
     atom    1 type  1   force =     0.00005043    0.00012116    0.00028966
     atom    2 type  1   force =     0.00003807   -0.00001986   -0.00004445
     atom    3 type  2   force =     0.00000821    0.00008515   -0.00016376
     atom    4 type  2   force =     0.00003411   -0.00015585   -0.00007906
     atom    5 type  3   force =    -0.00006810   -0.00013396    0.00004606
     atom    6 type  3   force =    -0.00009278    0.00006028    0.00020847
     atom    7 type  4   force =    -0.00002208    0.00010199   -0.00003918
     atom    8 type  4   force =     0.00005423    0.00063087   -0.00020724
     atom    9 type  4   force =     0.00002743   -0.00007273    0.00008635
     atom   10 type  4   force =     0.00012258   -0.00058541   -0.00024207
     atom   11 type  4   force =     0.00012869   -0.00001341   -0.00024973
     atom   12 type  4   force =    -0.00032197    0.00019688   -0.00010791
     atom   13 type  4   force =    -0.00005563    0.00001736    0.00035533
     atom   14 type  4   force =     0.00011273    0.00002532    0.00026803
     atom   15 type  4   force =     0.00009037   -0.00016391    0.00030523
     atom   16 type  4   force =    -0.00016436   -0.00016374   -0.00009498

     Total force =     0.168653     Total SCF correction =     0.001333

     Computing stress (Cartesian axis) and pressure

     negative rho (up, down):  8.254E-02 0.000E+00
          total   stress  (Ry/bohr**3)                   (kbar)     P=     -445.22
  -0.00309110   0.00004167   0.00004902         -454.72        6.13        7.21
   0.00004167  -0.00289835  -0.00008360            6.13     -426.36      -12.30
   0.00004902  -0.00008360  -0.00309025            7.21      -12.30     -454.59

     kinetic stress (kbar)  21727.69     36.69      8.30
                               36.69  21722.92    -30.15
                                8.30    -30.15  21699.21

     local   stress (kbar) -18020.98  -1600.83   2360.81
                            -1600.83  -8475.25  -3388.15
                             2360.81  -3388.15 -14104.51

     nonloc. stress (kbar)   9326.12      9.16     -5.83
                                9.16   9365.93     -8.75
                               -5.83     -8.75   9300.74

     hartree stress (kbar)  15154.13    625.52   -951.66
                              625.52  11053.10   1556.28
                             -951.66   1556.28  13767.11

     exc-cor stress (kbar)   3751.94      1.00     -1.35
                                1.00   3747.96      0.17
                               -1.35      0.17   3746.50

     corecor stress (kbar) -10284.87      0.18      0.13
                                0.18 -10286.15      0.22
                                0.13      0.22 -10283.05

     ewald   stress (kbar) -22108.74    934.40  -1403.18
                              934.40 -27554.88   1858.10
                            -1403.18   1858.10 -24580.59

     hubbard stress (kbar)      0.00      0.00      0.00
                                0.00      0.00      0.00
                                0.00      0.00      0.00

     DFT-D   stress (kbar)      0.00      0.00      0.00
                                0.00      0.00      0.00
                                0.00      0.00      0.00

     XDM     stress (kbar)      0.00      0.00      0.00
                                0.00      0.00      0.00
                                0.00      0.00      0.00

     dft-nl  stress (kbar)      0.00      0.00      0.00
                                0.00      0.00      0.00
                                0.00      0.00      0.00

     TS-vdW  stress (kbar)      0.00      0.00      0.00
                                0.00      0.00      0.00
                                0.00      0.00      0.00

[...]

                                0.00      0.00      0.00

     Writing all to output data dir new_calculations/myprefix.save/

     General routines

     Parallel routines

     PAW routines

   This run was terminated on:   1:35:57  20May2023

   JOB DONE.