     Program PWSCF v.7.0 starts on 20May2023 at  7:18: 0

     Reading input from espresso_19136.pwi
Warning: card &CELL ignored
Warning: card / ignored

     Current dimensions of program PWSCF are:
     Max number of different atomic species (ntypx) = 10
     Max number of k-points (npk) =  40000
     Max angular momentum in pseudopotentials (lmaxx) =  4

     gamma-point specific algorithms are used
     Message from routine setup:
     using ibrav=0 with symmetry is DISCOURAGED, use correct ibrav instead

     Subspace diagonalization in iterative solution of the eigenvalue problem:
     a serial algorithm will be used

     Using Slab Decomposition

     bravais-lattice index     =            0
     lattice parameter (alat)  =      13.0748  a.u.
     unit-cell volume          =     947.8923 (a.u.)^3
     number of atoms/cell      =            7
     number of atomic types    =            2
     number of electrons       =        66.00
     number of Kohn-Sham states=           40
     kinetic-energy cutoff     =      30.0000  Ry
     charge density cutoff     =     240.0000  Ry
     scf convergence threshold =      1.0E-06
     mixing beta               =       0.7000
     number of iterations used =            8  plain     mixing
     Exchange-correlation= SLA  PW   PBE  PBE
                           (   1   4   3   4   0   0   0)

     celldm(1)=  13.074839  celldm(2)=   0.000000  celldm(3)=   0.000000
     celldm(4)=   0.000000  celldm(5)=   0.000000  celldm(6)=   0.000000

     crystal axes: (cart. coord. in units of alat)
               a(1) = (   1.000000   0.000000   0.000000 )
               a(2) = (   0.858586   0.512670   0.000000 )
               a(3) = (   0.409715   0.113015   0.827203 )

     reciprocal axes: (cart. coord. in units 2 pi/alat)
               b(1) = (  1.000000 -1.674733 -0.266494 )
               b(2) = (  0.000000  1.950572 -0.266494 )
               b(3) = (  0.000000  0.000000  1.208894 )

     PseudoPot. # 1 for Cr read from file:
     /home/pragov/projects/rrg-bengioy-ad/pragov/crystal_structure_design/SSSP/cr_pbe_v1.5.uspp.F.UPF
     MD5 check sum: 0d52af634a40206e4dee301ad30da4bf
     Pseudo is Ultrasoft + core correction, Zval = 14.0
     Generated by new atomic code, or converted to UPF format
     Using radial grid of  857 points,  6 beta functions with:
                l(1) =   0
                l(2) =   0
                l(3) =   1
                l(4) =   1
                l(5) =   2
                l(6) =   2
     Q(r) pseudized with  8 coefficients,  rinner =    0.950   0.950   0.950
                                                       0.950   0.950

     PseudoPot. # 2 for Se read from file:
     /home/pragov/projects/rrg-bengioy-ad/pragov/crystal_structure_design/SSSP/Se_pbe_v1.uspp.F.UPF
     MD5 check sum: 1b3568f3a8ae88f9a2a0ad0698632c85
     Pseudo is Ultrasoft + core correction, Zval =  6.0
     Generated by new atomic code, or converted to UPF format
     Using radial grid of  877 points,  6 beta functions with:
                l(1) =   0
                l(2) =   0
                l(3) =   1
                l(4) =   1
                l(5) =   2
                l(6) =   2
     Q(r) pseudized with  8 coefficients,  rinner =    1.300   1.300   1.300
                                                       1.300   1.300

     atomic species   valence    mass     pseudopotential
        Cr            14.00    51.99610     Cr( 1.00)
        Se             6.00    78.97100     Se( 1.00)

      2 Sym. Ops., with inversion, found

                                    s                        frac. trans.

      isym =  1     identity

 cryst.   s( 1) = (     1          0          0      )
                  (     0          1          0      )
                  (     0          0          1      )

 cart.    s( 1) = (  1.0000000  0.0000000 -0.0000000 )
                  (  0.0000000  1.0000000 -0.0000000 )
                  (  0.0000000  0.0000000  1.0000000 )

      isym =  2     inversion

 cryst.   s( 2) = (    -1          0          0      )
                  (     0         -1          0      )
                  (     0          0         -1      )

 cart.    s( 2) = ( -1.0000000 -0.0000000  0.0000000 )
                  (  0.0000000 -1.0000000  0.0000000 )
                  (  0.0000000  0.0000000 -1.0000000 )

   Cartesian axes

     site n.     atom                  positions (alat units)
         1           Cr  tau(   1) = (   1.1341503   0.3128427   0.4136013  )
         2           Cr  tau(   2) = (   1.5048682   0.4151011   0.1801151  )
         3           Cr  tau(   3) = (   0.7634325   0.2105843   0.6470875  )
         4           Se  tau(   4) = (   0.4637044   0.1279077   0.4324045  )
         5           Se  tau(   5) = (   1.8045962   0.4977777   0.3947982  )
         6           Se  tau(   6) = (   1.1775899   0.3248250   0.0404949  )
         7           Se  tau(   7) = (   1.0907107   0.3008604   0.7867077  )

   Crystallographic axes

     site n.     atom                  positions (cryst. coord.)
         1           Cr  tau(   1) = (  0.5000000  0.5000000  0.5000000  )
         2           Cr  tau(   2) = (  0.7616850  0.7616850  0.2177400  )
         3           Cr  tau(   3) = (  0.2383150  0.2383150  0.7822600  )
         4           Se  tau(   4) = (  0.1342600  0.1342600  0.5227310  )
         5           Se  tau(   5) = (  0.8657400  0.8657400  0.4772690  )
         6           Se  tau(   6) = (  0.6228030  0.6228030  0.0489540  )
         7           Se  tau(   7) = (  0.3771970  0.3771970  0.9510460  )

     number of k points=     1  Methfessel-Paxton smearing, width (Ry)=  0.0010
                       cart. coord. in units 2pi/alat
        k(    1) = (   0.0000000   0.0000000   0.0000000), wk =   2.0000000

                       cryst. coord.
        k(    1) = (   0.0000000   0.0000000   0.0000000), wk =   2.0000000

     Check: negative core charge=   -0.000005

     Initial potential from superposition of free atoms

     starting charge      62.9997, renormalised to      66.0000

     negative rho (up, down):  3.868E-03 0.000E+00
     Starting wfcs are   46 randomized atomic wfcs

     Self-consistent Calculation

     iteration #  1     ecut=    30.00 Ry     beta= 0.70
     Davidson diagonalization with overlap

     ethr =  1.00E-02,  avg # of iterations =  4.0

     negative rho (up, down):  8.653E-03 0.000E+00

     total energy              =    -697.02540755 Ry
     estimated scf accuracy    <       4.92464424 Ry

[...]

     total energy              =    -700.26253144 Ry
     estimated scf accuracy    <       0.00000359 Ry

     iteration # 31     ecut=    30.00 Ry     beta= 0.70
     Davidson diagonalization with overlap

     ethr =  4.33E-09,  avg # of iterations =  1.0

[...]

     End of self-consistent calculation

          k = 0.0000 0.0000 0.0000 (  1309 PWs)   bands (ev):

   -62.6270 -62.5440 -62.5428 -34.1577 -34.1543 -34.1370 -33.8854 -33.8672
   -33.8619 -33.8464 -33.6383 -33.6361  -5.1135  -3.8404  -3.6397  -3.3470
     3.1671   3.4830   3.9075   5.7067   6.0676   6.2428   6.2628   6.5621
     6.6406   8.1404   8.3942   8.5876   8.6849   8.6875   8.6990   8.8851
     8.9020   8.9129   9.2214   9.6694   9.8474   9.9178  10.2131  10.9558

     occupation numbers
     1.0000   1.0000   1.0000   1.0000   1.0000   1.0000   1.0000   1.0000
     1.0000   1.0000   1.0000   1.0000   1.0000   1.0000   1.0000   1.0000
     1.0000   1.0000   1.0000   1.0000   1.0000   1.0000   1.0000   1.0000
     1.0000   1.0000   1.0000   1.0000   1.0000   1.0000   1.0000   1.0217
     0.7995   0.1788  -0.0000  -0.0000  -0.0000  -0.0000  -0.0000  -0.0000

     the Fermi energy is     8.9073 ev

!    total energy              =    -700.26253106 Ry
     estimated scf accuracy    <       0.00000052 Ry
     smearing contrib. (-TS)   =      -0.00024104 Ry
     internal energy E=F+TS    =    -700.26229002 Ry

     The total energy is F=E-TS. E is the sum of the following terms:
     one-electron contribution =    -363.31082448 Ry
     hartree contribution      =     205.32687504 Ry
     xc contribution           =    -186.13511643 Ry
     ewald contribution        =    -356.14322416 Ry

     convergence has been achieved in  31 iterations

     negative rho (up, down):  3.293E-03 0.000E+00

     Forces acting on atoms (cartesian axes, Ry/au):

     atom    1 type  1   force =     0.00000000    0.00000000    0.00000000
     atom    2 type  1   force =     0.01718244    0.00474905   -0.06272048
     atom    3 type  1   force =    -0.01718244   -0.00474905    0.06272048
     atom    4 type  2   force =     0.00113281    0.00030240    0.01107790
     atom    5 type  2   force =    -0.00113281   -0.00030240   -0.01107790
     atom    6 type  2   force =     0.05091303    0.01404268   -0.00696939
     atom    7 type  2   force =    -0.05091303   -0.01404268    0.00696939
     The non-local contrib.  to forces
     atom    1 type  1   force =     0.00000000    0.00000000    0.00000000
     atom    2 type  1   force =     0.05452016    0.01504314   -0.06202071
     atom    3 type  1   force =    -0.05452016   -0.01504314    0.06202071
     atom    4 type  2   force =    -0.04807400   -0.01325567   -0.01297291
     atom    5 type  2   force =     0.04807400    0.01325567    0.01297291
     atom    6 type  2   force =     0.10366005    0.02858393    0.02194085
     atom    7 type  2   force =    -0.10366005   -0.02858393   -0.02194085
     The ionic contribution  to forces
     atom    1 type  1   force =     0.00000000   -0.00000000    0.00000000
     atom    2 type  1   force =     7.20783277    1.98820019   -0.41424781
     atom    3 type  1   force =    -7.20783277   -1.98820019    0.41424781
     atom    4 type  2   force =    -0.49083733   -0.13539200    4.34099363
     atom    5 type  2   force =     0.49083733    0.13539200   -4.34099363
     atom    6 type  2   force =    -7.85961692   -2.16798758   -0.28074557
     atom    7 type  2   force =     7.85961692    2.16798758    0.28074557
     The local contribution  to forces
     atom    1 type  1   force =    -0.00035144   -0.00007187    0.00040613
     atom    2 type  1   force =    -7.24174755   -1.99752921    0.41198666
     atom    3 type  1   force =     7.24223472    1.99769504   -0.41226058
     atom    4 type  2   force =     0.53332331    0.14709411   -4.31791300
     atom    5 type  2   force =    -0.53330576   -0.14707368    4.31808864
     atom    6 type  2   force =     7.81797327    2.15650602    0.25468580
     atom    7 type  2   force =    -7.81796209   -2.15650723   -0.25503652
     The core correction contribution to forces
     atom    1 type  1   force =     0.00000055    0.00000020    0.00000140
     atom    2 type  1   force =    -0.00361860   -0.00099792    0.00084690
     atom    3 type  1   force =     0.00362082    0.00099807   -0.00084677
     atom    4 type  2   force =     0.00616666    0.00170389    0.00106745
     atom    5 type  2   force =    -0.00617242   -0.00169599   -0.00107113
     atom    6 type  2   force =    -0.01116749   -0.00307626   -0.00268647
     atom    7 type  2   force =     0.01116792    0.00308202    0.00268300
     The Hubbard contrib.    to forces
     atom    1 type  1   force =     0.00000000    0.00000000    0.00000000
     atom    2 type  1   force =     0.00000000    0.00000000    0.00000000
     atom    3 type  1   force =     0.00000000    0.00000000    0.00000000
     atom    4 type  2   force =     0.00000000    0.00000000    0.00000000
     atom    5 type  2   force =     0.00000000    0.00000000    0.00000000
     atom    6 type  2   force =     0.00000000    0.00000000    0.00000000
     atom    7 type  2   force =     0.00000000    0.00000000    0.00000000
     The SCF correction term to forces
     atom    1 type  1   force =     0.00036623    0.00007568   -0.00040904
     atom    2 type  1   force =     0.00019279    0.00002320    0.00073639
     atom    3 type  1   force =    -0.00068793   -0.00020847   -0.00041877
     atom    4 type  2   force =     0.00053467    0.00016282   -0.00012698
     atom    5 type  2   force =    -0.00058547   -0.00016964   -0.00010441
     atom    6 type  2   force =     0.00008049    0.00002670   -0.00019648
     atom    7 type  2   force =    -0.00005935   -0.00001098    0.00048571

     Total force =     0.120114     Total SCF correction =     0.001605

     Computing stress (Cartesian axis) and pressure

     negative rho (up, down):  3.293E-03 0.000E+00
          total   stress  (Ry/bohr**3)                   (kbar)     P=      -82.98
  -0.00086182  -0.00032637  -0.00008363         -126.78      -48.01      -12.30
  -0.00032637   0.00023090  -0.00002307          -48.01       33.97       -3.39
  -0.00008363  -0.00002307  -0.00106143          -12.30       -3.39     -156.14

     kinetic stress (kbar)  14725.50    -61.52   -145.36
                              -61.52  14931.62    -40.11
                             -145.36    -40.11  14695.77

     local   stress (kbar)  -5998.53   2370.40   1968.47
                             2370.40 -13938.37    543.01
                             1968.47    543.01  -8857.68

     nonloc. stress (kbar)   7072.94    -28.13    -72.70
                              -28.13   7167.20    -20.07
                              -72.70    -20.07   7085.28

     hartree stress (kbar)   8964.77  -1098.59   -773.91
                            -1098.59  12644.57   -213.48
                             -773.91   -213.48  10255.70

     exc-cor stress (kbar)  12208.74      0.28     -3.30
                                0.28  12207.81     -0.91
                               -3.30     -0.91  12208.26

     corecor stress (kbar) -16781.42      3.12      7.49
                                3.12 -16791.86      2.07
                                7.49      2.07 -16778.76

     ewald   stress (kbar) -20318.78  -1233.56   -992.99
                            -1233.56 -16187.00   -273.91
                             -992.99   -273.91 -18764.72

     hubbard stress (kbar)      0.00      0.00      0.00
                                0.00      0.00      0.00
                                0.00      0.00      0.00

     DFT-D   stress (kbar)      0.00      0.00      0.00
                                0.00      0.00      0.00
                                0.00      0.00      0.00

     XDM     stress (kbar)      0.00      0.00      0.00
                                0.00      0.00      0.00
                                0.00      0.00      0.00

     dft-nl  stress (kbar)      0.00      0.00      0.00
                                0.00      0.00      0.00
                                0.00      0.00      0.00

     TS-vdW  stress (kbar)      0.00      0.00      0.00
                                0.00      0.00      0.00
                                0.00      0.00      0.00

[...]

                                0.00      0.00      0.00

     Writing all to output data dir new_calculations/myprefix.save/

     General routines

     Parallel routines

   This run was terminated on:   7:18:40  20May2023

   JOB DONE.