     Program PWSCF v.7.0 starts on 20May2023 at 21:37:21

     Reading input from espresso_20243.pwi
Warning: card &CELL ignored
Warning: card / ignored

     Current dimensions of program PWSCF are:
     Max number of different atomic species (ntypx) = 10
     Max number of k-points (npk) =  40000
     Max angular momentum in pseudopotentials (lmaxx) =  4
     file K.pbe-spn-kjpaw_psl.1.0.0.UPF: wavefunction(s)  3S renormalized
     file O.pbe-n-kjpaw_psl.0.1.UPF: wavefunction(s)  2P renormalized

     gamma-point specific algorithms are used
     Message from routine setup:
     using ibrav=0 with symmetry is DISCOURAGED, use correct ibrav instead

     Subspace diagonalization in iterative solution of the eigenvalue problem:
     a serial algorithm will be used

     Using Slab Decomposition

     bravais-lattice index     =            0
     lattice parameter (alat)  =      13.6141  a.u.
     unit-cell volume          =    1004.9021 (a.u.)^3
     number of atoms/cell      =           13
     number of atomic types    =            3
     number of electrons       =       117.00
     number of Kohn-Sham states=           71
     kinetic-energy cutoff     =      30.0000  Ry
     charge density cutoff     =     240.0000  Ry
     scf convergence threshold =      1.0E-06
     mixing beta               =       0.7000
     number of iterations used =            8  plain     mixing
     Exchange-correlation= SLA  PW   PBX  PBC
                           (   1   4   3   4   0   0   0)

     celldm(1)=  13.614052  celldm(2)=   0.000000  celldm(3)=   0.000000
     celldm(4)=   0.000000  celldm(5)=   0.000000  celldm(6)=   0.000000

     crystal axes: (cart. coord. in units of alat)
               a(1) = (   1.000000   0.000000   0.000000 )
               a(2) = (  -0.913351   0.407173   0.000000 )
               a(3) = (  -0.043325  -0.203587   0.978098 )

     reciprocal axes: (cart. coord. in units 2 pi/alat)
               b(1) = (  1.000000  2.243151  0.511196 )
               b(2) = (  0.000000  2.455957  0.511196 )
               b(3) = (  0.000000  0.000000  1.022393 )

     PseudoPot. # 1 for K  read from file:
     /home/pragov/projects/rrg-bengioy-ad/pragov/crystal_structure_design/SSSP/K.pbe-spn-kjpaw_psl.1.0.0.UPF
     MD5 check sum: 7d58810084cac21f60fbe77ea2b688fd
     Pseudo is Projector augmented-wave + core cor, Zval =  9.0
     Generated using "atomic" code by A. Dal Corso  v.5.1
     Shape of augmentation charge: PSQ
     Using radial grid of 1165 points,  6 beta functions with:
                l(1) =   0
                l(2) =   0
                l(3) =   1
                l(4) =   1
                l(5) =   2
                l(6) =   2
     Q(r) pseudized with 0 coefficients

     PseudoPot. # 2 for Mn read from file:
     /home/pragov/projects/rrg-bengioy-ad/pragov/crystal_structure_design/SSSP/mn_pbe_v1.5.uspp.F.UPF
     MD5 check sum: 82ef2b46521d7a7d9e736dc3972e4928
     Pseudo is Ultrasoft + core correction, Zval = 15.0
     Generated by new atomic code, or converted to UPF format
     Using radial grid of  859 points,  6 beta functions with:
                l(1) =   0
                l(2) =   0
                l(3) =   1
                l(4) =   1
                l(5) =   2
                l(6) =   2
     Q(r) pseudized with  8 coefficients,  rinner =    0.950   0.950   0.950
                                                       0.950   0.950

     PseudoPot. # 3 for O  read from file:
     /home/pragov/projects/rrg-bengioy-ad/pragov/crystal_structure_design/SSSP/O.pbe-n-kjpaw_psl.0.1.UPF
     MD5 check sum: 0234752ac141de4415c5fc33072bef88
     Pseudo is Projector augmented-wave + core cor, Zval =  6.0
     Generated using "atomic" code by A. Dal Corso  v.5.0.99 svn rev. 10869
     Shape of augmentation charge: BESSEL
     Using radial grid of 1095 points,  4 beta functions with:
                l(1) =   0
                l(2) =   0
                l(3) =   1
                l(4) =   1
     Q(r) pseudized with 0 coefficients

     atomic species   valence    mass     pseudopotential
        K              9.00    39.09830     K ( 1.00)
        Mn            15.00    54.93804     Mn( 1.00)
        O              6.00    15.99900     O ( 1.00)

      2 Sym. Ops., with inversion, found

                                    s                        frac. trans.

      isym =  1     identity

 cryst.   s( 1) = (     1          0          0      )
                  (     0          1          0      )
                  (     0          0          1      )

 cart.    s( 1) = (  1.0000000 -0.0000000  0.0000000 )
                  (  0.0000000  1.0000000  0.0000000 )
                  (  0.0000000  0.0000000  1.0000000 )

      isym =  2     inversion

 cryst.   s( 2) = (    -1          0          0      )
                  (     0         -1          0      )
                  (     0          0         -1      )

 cart.    s( 2) = ( -1.0000000  0.0000000 -0.0000000 )
                  (  0.0000000 -1.0000000 -0.0000000 )
                  (  0.0000000  0.0000000 -1.0000000 )

   Cartesian axes

     site n.     atom                  positions (alat units)
         1           K   tau(   1) = (   0.0433245   0.2035866   0.0000000  )
         2           Mn  tau(   2) = (  -0.4198968   0.3021631   0.1792883  )
         3           Mn  tau(   3) = (   0.2186860   0.1662686   0.4735940  )
         4           Mn  tau(   4) = (  -0.1753615   0.0373180   0.5045039  )
         5           Mn  tau(   5) = (   0.4632213  -0.0985764   0.7988096  )
         6           O   tau(   6) = (  -0.3602142   0.0766557   0.6944945  )
         7           O   tau(   7) = (  -0.2340683   0.2626176   0.3682803  )
         8           O   tau(   8) = (   0.2773928  -0.0590310   0.6098176  )
         9           O   tau(   9) = (   0.4035387   0.1269310   0.2836034  )
        10           O   tau(  10) = (   0.6602137   0.0723087   0.0473106  )
        11           O   tau(  11) = (   0.0462744  -0.0098475   0.3473949  )
        12           O   tau(  12) = (  -0.6168892   0.1312779   0.9307873  )
        13           O   tau(  13) = (  -0.0029499   0.2134341   0.6307029  )

   Crystallographic axes

     site n.     atom                  positions (cryst. coord.)
         1           K   tau(   1) = (  0.5000000  0.5000000  0.0000000  )
         2           Mn  tau(   2) = (  0.3495520  0.8337510  0.1833030  )
         3           Mn  tau(   3) = (  0.8337510  0.6504480  0.4841990  )
         4           Mn  tau(   4) = (  0.1662490  0.3495520  0.5158010  )
         5           Mn  tau(   5) = (  0.6504480  0.1662490  0.8166970  )
         6           O   tau(   6) = (  0.1667590  0.5432860  0.7100460  )
         7           O   tau(   7) = (  0.5432860  0.8332410  0.3765270  )
         8           O   tau(   8) = (  0.4567140  0.1667590  0.6234730  )
         9           O   tau(   9) = (  0.8332410  0.4567140  0.2899540  )
        10           O   tau(  10) = (  0.8465980  0.2017720  0.0483700  )
        11           O   tau(  11) = (  0.2017720  0.1534020  0.3551740  )
        12           O   tau(  12) = (  0.1534020  0.7982280  0.9516300  )
        13           O   tau(  13) = (  0.7982280  0.8465980  0.6448260  )

     number of k points=     1  Methfessel-Paxton smearing, width (Ry)=  0.0010
                       cart. coord. in units 2pi/alat
        k(    1) = (   0.0000000   0.0000000   0.0000000), wk =   2.0000000

                       cryst. coord.
        k(    1) = (   0.0000000   0.0000000   0.0000000), wk =   2.0000000

     Check: negative core charge=   -0.000030

     Initial potential from superposition of free atoms

     starting charge     114.9808, renormalised to     117.0000
     Starting wfcs are   92 randomized atomic wfcs
     Checking if some PAW data can be deallocated...

     Self-consistent Calculation

     iteration #  1     ecut=    30.00 Ry     beta= 0.70
     Davidson diagonalization with overlap

     ethr =  1.00E-02,  avg # of iterations =  3.0

     total energy              =   -1285.00434293 Ry
     estimated scf accuracy    <       9.13559702 Ry

[...]

     total energy              =   -1290.88097837 Ry
     estimated scf accuracy    <       0.00000289 Ry

     iteration # 41     ecut=    30.00 Ry     beta= 0.70
     Davidson diagonalization with overlap

     ethr =  8.92E-10,  avg # of iterations =  1.0

     End of self-consistent calculation

          k = 0.0000 0.0000 0.0000 (  1373 PWs)   bands (ev):

   -72.9848 -72.9821 -72.4641 -71.8788 -40.0404 -39.9856 -39.7133 -39.6003
   -39.5862 -39.4708 -39.4534 -39.3497 -39.3084 -39.1090 -38.9543 -38.8365
   -20.3484 -12.1732 -11.2742 -10.9634 -10.5459 -10.3087 -10.1191 -10.0183
    -9.6401  -4.0878  -3.8709  -3.4573   2.6886   2.9023   2.9883   3.0976
     3.8016   4.0103   4.3641   4.5148   4.5499   4.7158   4.8894   4.9913
     5.2208   5.5307   5.9131   5.9612   6.2770   6.3989   6.5116   6.5424
     7.1907   7.3054   7.3120   7.3451   8.3982   8.7012   8.7820   8.8517
     8.9973   9.1154   9.1199   9.1242   9.2030   9.3474   9.7343  10.3621
    10.6645  11.1675  11.2856  12.0049  12.0546  12.1275  12.1535

     occupation numbers
     1.0000   1.0000   1.0000   1.0000   1.0000   1.0000   1.0000   1.0000
     1.0000   1.0000   1.0000   1.0000   1.0000   1.0000   1.0000   1.0000
     1.0000   1.0000   1.0000   1.0000   1.0000   1.0000   1.0000   1.0000
     1.0000   1.0000   1.0000   1.0000   1.0000   1.0000   1.0000   1.0000
     1.0000   1.0000   1.0000   1.0000   1.0000   1.0000   1.0000   1.0000
     1.0000   1.0000   1.0000   1.0000   1.0000   1.0000   1.0000   1.0000
     1.0000   1.0000   1.0000   1.0000   1.0000   1.0000   1.0000   1.0000
     1.0000   0.7601   0.4960   0.2440  -0.0000  -0.0000  -0.0000  -0.0000
    -0.0000  -0.0000  -0.0000  -0.0000  -0.0000  -0.0000  -0.0000

     the Fermi energy is     9.1198 ev

!    total energy              =   -1290.88097757 Ry
     estimated scf accuracy    <       0.00000093 Ry
     smearing contrib. (-TS)   =      -0.00068449 Ry
     internal energy E=F+TS    =   -1290.88029308 Ry

     The total energy is F=E-TS. E is the sum of the following terms:
     one-electron contribution =    -727.91704881 Ry
     hartree contribution      =     417.70663733 Ry
     xc contribution           =    -175.61101550 Ry
     ewald contribution        =    -673.43236729 Ry
     one-center paw contrib.   =    -131.62649881 Ry
      -> PAW hartree energy AE =     261.39071327 Ry
      -> PAW hartree energy PS =    -260.51362043 Ry
      -> PAW xc energy AE      =    -201.20530247 Ry
      -> PAW xc energy PS      =      68.70171081 Ry
      -> total E_H with PAW    =     418.58373018 Ry
      -> total E_XC with PAW   =    -308.11460716 Ry

     convergence has been achieved in  41 iterations

     Forces acting on atoms (cartesian axes, Ry/au):

     atom    1 type  1   force =     0.00000000    0.00000000    0.00000000
     atom    2 type  2   force =    -0.09059495   -0.08712952    0.10403153
     atom    3 type  2   force =     0.00930688   -0.23663707    0.16811908
     atom    4 type  2   force =    -0.00930688    0.23663707   -0.16811908
     atom    5 type  2   force =     0.09059495    0.08712952   -0.10403153
     atom    6 type  3   force =    -0.05187307    0.19920208   -0.03712427
     atom    7 type  3   force =    -0.04043468   -0.15831111    0.06680290
     atom    8 type  3   force =     0.04043468    0.15831111   -0.06680290
     atom    9 type  3   force =     0.05187307   -0.19920208    0.03712427
     atom   10 type  3   force =    -0.11181877   -0.06663872    0.08548223
     atom   11 type  3   force =     0.02004906    0.12189891    0.13055508
     atom   12 type  3   force =     0.11181877    0.06663872   -0.08548223
     atom   13 type  3   force =    -0.02004906   -0.12189891   -0.13055508
     The non-local contrib.  to forces
     atom    1 type  1   force =     0.00000000    0.00000000    0.00000000
     atom    2 type  2   force =    -0.07622897   -0.14819930    0.25094418
     atom    3 type  2   force =     0.14912572   -0.04425358    0.21094774
     atom    4 type  2   force =    -0.14912572    0.04425358   -0.21094774
     atom    5 type  2   force =     0.07622897    0.14819930   -0.25094418
     atom    6 type  3   force =    -0.08782661    0.15453297   -0.07520377
     atom    7 type  3   force =    -0.10158075   -0.11847270    0.06195371
     atom    8 type  3   force =     0.10158075    0.11847270   -0.06195371
     atom    9 type  3   force =     0.08782661   -0.15453297    0.07520377
     atom   10 type  3   force =    -0.57037626    0.03937785   -0.04919039
     atom   11 type  3   force =     0.03208516    0.15567301    0.68100376
     atom   12 type  3   force =     0.57037626   -0.03937785    0.04919039
     atom   13 type  3   force =    -0.03208516   -0.15567301   -0.68100376
     The ionic contribution  to forces
     atom    1 type  1   force =    -0.00000000    0.00000000    0.00000000
     atom    2 type  2   force =     1.83253345   -0.38995412    0.31964134
     atom    3 type  2   force =     0.31263282   -0.06653519   -1.87353844
     atom    4 type  2   force =    -0.31263282    0.06653519    1.87353843
     atom    5 type  2   force =    -1.83253344    0.38995412   -0.31964134
     atom    6 type  3   force =     5.49147843   -1.16860441    1.67706486
     atom    7 type  3   force =     1.64039924   -0.34908739   -5.61428006
     atom    8 type  3   force =    -1.64039924    0.34908739    5.61428006
     atom    9 type  3   force =    -5.49147844    1.16860441   -1.67706486
     atom   10 type  3   force =    17.69699031   -3.76603320   -1.85313434
     atom   11 type  3   force =    -1.81255941    0.38572488  -18.09324035
     atom   12 type  3   force =   -17.69699031    3.76603320    1.85313434
     atom   13 type  3   force =     1.81255941   -0.38572488   18.09324034
     The local contribution  to forces
     atom    1 type  1   force =    -0.00005002    0.00001595   -0.00021500
     atom    2 type  2   force =    -1.84696972    0.45019823   -0.45971789
     atom    3 type  2   force =    -0.44476089   -0.12439601    1.83521983
     atom    4 type  2   force =     0.44442212    0.12468780   -1.83431670
     atom    5 type  2   force =     1.84740818   -0.45023222    0.45875312
     atom    6 type  3   force =    -5.45691703    1.21310166   -1.64035704
     atom    7 type  3   force =    -1.57868905    0.30844123    5.62086143
     atom    8 type  3   force =     1.57960631   -0.30859588   -5.61978529
     atom    9 type  3   force =     5.45656989   -1.21296688    1.64070886
     atom   10 type  3   force =   -17.24213514    3.66043271    1.98609272
     atom   11 type  3   force =     1.79988225   -0.41894926   17.54923076
     atom   12 type  3   force =    17.24235708   -3.66058974   -1.98759482
     atom   13 type  3   force =    -1.80064260    0.41906612  -17.54900864
     The core correction contribution to forces
     atom    1 type  1   force =     0.00000009   -0.00000003   -0.00000017
     atom    2 type  2   force =     0.00041113    0.00080355   -0.00666311
     atom    3 type  2   force =    -0.00879634   -0.00104552   -0.00397752
     atom    4 type  2   force =     0.00880170    0.00105164    0.00397297
     atom    5 type  2   force =    -0.00041334   -0.00079708    0.00666488
     atom    6 type  3   force =     0.00166179    0.00013129    0.00107763
     atom    7 type  3   force =     0.00041601    0.00063218   -0.00075236
     atom    8 type  3   force =    -0.00041520   -0.00063183    0.00075199
     atom    9 type  3   force =    -0.00166172   -0.00013149   -0.00107762
     atom   10 type  3   force =     0.00427423   -0.00062254    0.00103256
     atom   11 type  3   force =     0.00018367   -0.00045371   -0.00593588
     atom   12 type  3   force =    -0.00427484    0.00062233   -0.00103200
     atom   13 type  3   force =    -0.00018382    0.00045396    0.00593778
     The Hubbard contrib.    to forces
     atom    1 type  1   force =     0.00000000    0.00000000    0.00000000
     atom    2 type  2   force =     0.00000000    0.00000000    0.00000000
     atom    3 type  2   force =     0.00000000    0.00000000    0.00000000
     atom    4 type  2   force =     0.00000000    0.00000000    0.00000000
     atom    5 type  2   force =     0.00000000    0.00000000    0.00000000
     atom    6 type  3   force =     0.00000000    0.00000000    0.00000000
     atom    7 type  3   force =     0.00000000    0.00000000    0.00000000
     atom    8 type  3   force =     0.00000000    0.00000000    0.00000000
     atom    9 type  3   force =     0.00000000    0.00000000    0.00000000
     atom   10 type  3   force =     0.00000000    0.00000000    0.00000000
     atom   11 type  3   force =     0.00000000    0.00000000    0.00000000
     atom   12 type  3   force =     0.00000000    0.00000000    0.00000000
     atom   13 type  3   force =     0.00000000    0.00000000    0.00000000
     The SCF correction term to forces
     atom    1 type  1   force =     0.00005591   -0.00001676    0.00020281
     atom    2 type  2   force =    -0.00032791    0.00005580   -0.00017654
     atom    3 type  2   force =     0.00112574   -0.00035133   -0.00051931
     atom    4 type  2   force =    -0.00075199    0.00016432   -0.00035282
     atom    5 type  2   force =    -0.00008248    0.00003907    0.00113245
     atom    6 type  3   force =    -0.00026594    0.00004090    0.00029327
     atom    7 type  3   force =    -0.00095888    0.00017153   -0.00100146
     atom    8 type  3   force =     0.00008332   -0.00002530   -0.00011760
     atom    9 type  3   force =     0.00062043   -0.00017481   -0.00064667
     atom   10 type  3   force =    -0.00058773    0.00019088    0.00069759
     atom   11 type  3   force =     0.00045060   -0.00009486   -0.00043783
     atom   12 type  3   force =     0.00033473   -0.00006479    0.00083576
     atom   13 type  3   force =     0.00029632   -0.00001995    0.00034458

     Total force =     0.696329     Total SCF correction =     0.003019

     Computing stress (Cartesian axis) and pressure

          total   stress  (Ry/bohr**3)                   (kbar)     P=     -637.58
  -0.00446828  -0.00013231  -0.00011760         -657.31      -19.46      -17.30
  -0.00013231  -0.00344520   0.00030404          -19.46     -506.81       44.73
  -0.00011760   0.00030404  -0.00508913          -17.30       44.73     -748.64

     kinetic stress (kbar)  32601.12     15.70    -14.08
                               15.70  32749.02     25.69
                              -14.08     25.69  32587.16

     local   stress (kbar)  -9729.95 -10282.18     97.79
                           -10282.18 -55043.63    107.07
                               97.79    107.07  -7829.57

     nonloc. stress (kbar)  11326.88    108.35    -82.21
                              108.35  11268.22    -67.39
                              -82.21    -67.39  11469.28

     hartree stress (kbar)  14001.86   4498.46    -19.41
                             4498.46  34058.47    -21.35
                              -19.41    -21.35  13086.69

     exc-cor stress (kbar)  -4962.84      1.59     -0.28
                                1.59  -4955.32     -0.08
                               -0.28     -0.08  -4963.78

     corecor stress (kbar)  -2996.30     -3.65      0.88
                               -3.65  -2998.29      0.80
                                0.88      0.80  -2999.71

     ewald   stress (kbar) -40898.07   5642.26      0.03
                             5642.26 -15585.27     -0.02
                                0.03     -0.02 -42098.72

     hubbard stress (kbar)      0.00      0.00      0.00
                                0.00      0.00      0.00
                                0.00      0.00      0.00

     DFT-D   stress (kbar)      0.00      0.00      0.00
                                0.00      0.00      0.00
                                0.00      0.00      0.00

     XDM     stress (kbar)      0.00      0.00      0.00
                                0.00      0.00      0.00
                                0.00      0.00      0.00

     dft-nl  stress (kbar)      0.00      0.00      0.00
                                0.00      0.00      0.00
                                0.00      0.00      0.00

     TS-vdW  stress (kbar)      0.00      0.00      0.00
                                0.00      0.00      0.00
                                0.00      0.00      0.00

[...]

                                0.00      0.00      0.00

     Writing all to output data dir new_calculations/myprefix.save/

     General routines

     Parallel routines

     PAW routines

   This run was terminated on:  21:38:10  20May2023

   JOB DONE.