     Program PWSCF v.7.0 starts on 20May2023 at 23:27:30

     Reading input from espresso_9753.pwi
Warning: card &CELL ignored
Warning: card / ignored

     Current dimensions of program PWSCF are:
     Max number of different atomic species (ntypx) = 10
     Max number of k-points (npk) =  40000
     Max angular momentum in pseudopotentials (lmaxx) =  4
     file Al.pbe-n-kjpaw_psl.1.0.0.UPF: wavefunction(s)  3S 3P renormalized
     file O.pbe-n-kjpaw_psl.0.1.UPF: wavefunction(s)  2P renormalized

     gamma-point specific algorithms are used
     Message from routine setup:
     using ibrav=0 with symmetry is DISCOURAGED, use correct ibrav instead

     Subspace diagonalization in iterative solution of the eigenvalue problem:
     a serial algorithm will be used

     Using Slab Decomposition

     bravais-lattice index     =            0
     lattice parameter (alat)  =      13.1302  a.u.
     unit-cell volume          =    1675.3297 (a.u.)^3
     number of atoms/cell      =           20
     number of atomic types    =            3
     number of electrons       =       228.00
     number of Kohn-Sham states=          137
     kinetic-energy cutoff     =      30.0000  Ry
     charge density cutoff     =     240.0000  Ry
     scf convergence threshold =      1.0E-06
     mixing beta               =       0.7000
     number of iterations used =            8  plain     mixing
     Exchange-correlation= SLA  PW   PBX  PBC
                           (   1   4   3   4   0   0   0)

     celldm(1)=  13.130209  celldm(2)=   0.000000  celldm(3)=   0.000000
     celldm(4)=   0.000000  celldm(5)=   0.000000  celldm(6)=   0.000000

     crystal axes: (cart. coord. in units of alat)
               a(1) = (   1.000000   0.000000   0.000000 )
               a(2) = (  -0.223150   0.974784   0.000000 )
               a(3) = (   0.000000   0.000000   0.759236 )

     reciprocal axes: (cart. coord. in units 2 pi/alat)
               b(1) = (  1.000000  0.228923  0.000000 )
               b(2) = (  0.000000  1.025868  0.000000 )
               b(3) = (  0.000000  0.000000  1.317113 )

     PseudoPot. # 1 for Lu read from file:
     /home/pragov/projects/rrg-bengioy-ad/pragov/crystal_structure_design/SSSP/Lu.GGA-PBE-paw-v1.0.UPF
     MD5 check sum: 9ceca61ee0c17e9380a83635bfffa61d
     Pseudo is Projector augmented-wave + core cor, Zval = 25.0
     Generated using ATOMPAW code
     Shape of augmentation charge: BESSEL
     Using radial grid of 1118 points,  8 beta functions with:
                l(1) =   0
                l(2) =   0
                l(3) =   1
                l(4) =   1
                l(5) =   2
                l(6) =   2
                l(7) =   3
                l(8) =   3
     Q(r) pseudized with 0 coefficients

     PseudoPot. # 2 for Al read from file:
     /home/pragov/projects/rrg-bengioy-ad/pragov/crystal_structure_design/SSSP/Al.pbe-n-kjpaw_psl.1.0.0.UPF
     MD5 check sum: cfc449ca30b5f3223ec38ddd88ac046d
     Pseudo is Projector augmented-wave + core cor, Zval =  3.0
     Generated using "atomic" code by A. Dal Corso  v.5.1
     Shape of augmentation charge: PSQ
     Using radial grid of 1135 points,  6 beta functions with:
                l(1) =   0
                l(2) =   0
                l(3) =   1
                l(4) =   1
                l(5) =   2
                l(6) =   2
     Q(r) pseudized with 0 coefficients

     PseudoPot. # 3 for O  read from file:
     /home/pragov/projects/rrg-bengioy-ad/pragov/crystal_structure_design/SSSP/O.pbe-n-kjpaw_psl.0.1.UPF
     MD5 check sum: 0234752ac141de4415c5fc33072bef88
     Pseudo is Projector augmented-wave + core cor, Zval =  6.0
     Generated using "atomic" code by A. Dal Corso  v.5.0.99 svn rev. 10869
     Shape of augmentation charge: BESSEL
     Using radial grid of 1095 points,  4 beta functions with:
                l(1) =   0
                l(2) =   0
                l(3) =   1
                l(4) =   1
     Q(r) pseudized with 0 coefficients

     atomic species   valence    mass     pseudopotential
        Lu            25.00   174.96680     Lu( 1.00)
        Al             3.00    26.98154     Al( 1.00)
        O              6.00    15.99900     O ( 1.00)

      2 Sym. Ops. (no inversion) found ( 1 have fractional translation)

                                    s                        frac. trans.

      isym =  1     identity

 cryst.   s( 1) = (     1          0          0      )
                  (     0          1          0      )
                  (     0          0          1      )

 cart.    s( 1) = (  1.0000000  0.0000000  0.0000000 )
                  (  0.0000000  1.0000000  0.0000000 )
                  (  0.0000000  0.0000000  1.0000000 )

      isym =  2     180 deg rotation - cart. axis [0,0,1]

 cryst.   s( 2) = (    -1          0          0      )    f =( -0.0000000 )
                  (     0         -1          0      )       ( -0.0000000 )
                  (     0          0          1      )       (  0.5000000 )

 cart.    s( 2) = ( -1.0000000 -0.0000000  0.0000000 )    f =(  0.0000000 )
                  (  0.0000000 -1.0000000  0.0000000 )       ( -0.0000000 )
                  (  0.0000000  0.0000000  1.0000000 )       (  0.3796181 )

   Cartesian axes

     site n.     atom                  positions (alat units)
         1           Lu  tau(   1) = (   0.0206097   0.2913269   0.3612583  )
         2           Lu  tau(   2) = (   0.2793818   0.0850996   0.7408764  )
         3           Lu  tau(   3) = (   0.5125563   0.3884661   0.3246745  )
         4           Lu  tau(   4) = (   0.2642935   0.5863180   0.7042926  )
         5           Lu  tau(   5) = (   0.7562402   0.6834572   0.7408764  )
         6           Lu  tau(   6) = (   0.4974681   0.8896845   0.3612583  )
         7           Al  tau(   7) = (   0.7616129   0.1899815   0.0093925  )
         8           Al  tau(   8) = (   0.0152369   0.7848026   0.3890106  )
         9           O   tau(   9) = (   0.2421502   0.3475359   0.1531736  )
        10           O   tau(  10) = (   0.2847366   0.3135968   0.5327918  )
        11           O   tau(  11) = (   0.5555673   0.1058206   0.1382789  )
        12           O   tau(  12) = (  -0.0208227   0.5651720   0.5178971  )
        13           O   tau(  13) = (   0.9464774   0.0426546   0.1124786  )
        14           O   tau(  14) = (   0.7388281   0.2081398   0.5146255  )
        15           O   tau(  15) = (   0.0380218   0.7666443   0.1350074  )
        16           O   tau(  16) = (  -0.1696276   0.9321295   0.4920967  )
        17           O   tau(  17) = (   0.7976725   0.4096121   0.1382789  )
        18           O   tau(  18) = (   0.2212826   0.8689635   0.5178971  )
        19           O   tau(  19) = (   0.4921133   0.6611873   0.1531736  )
        20           O   tau(  20) = (   0.5346997   0.6272482   0.5327918  )

   Crystallographic axes

     site n.     atom                  positions (cryst. coord.)
         1           Lu  tau(   1) = (  0.0873010  0.2988630  0.4758180  )
         2           Lu  tau(   2) = (  0.2988630  0.0873010  0.9758180  )
         3           Lu  tau(   3) = (  0.6014850  0.3985150  0.4276330  )
         4           Lu  tau(   4) = (  0.3985150  0.6014850  0.9276330  )
         5           Lu  tau(   5) = (  0.9126990  0.7011370  0.9758180  )
         6           Lu  tau(   6) = (  0.7011370  0.9126990  0.4758180  )
         7           Al  tau(   7) = (  0.8051040  0.1948960  0.0123710  )
         8           Al  tau(   8) = (  0.1948960  0.8051040  0.5123710  )
         9           O   tau(   9) = (  0.3217090  0.3565260  0.2017470  )
        10           O   tau(  10) = (  0.3565260  0.3217090  0.7017470  )
        11           O   tau(  11) = (  0.5797920  0.1085580  0.1821290  )
        12           O   tau(  12) = (  0.1085580  0.5797920  0.6821290  )
        13           O   tau(  13) = (  0.9562420  0.0437580  0.1481470  )
        14           O   tau(  14) = (  0.7864760  0.2135240  0.6778200  )
        15           O   tau(  15) = (  0.2135240  0.7864760  0.1778200  )
        16           O   tau(  16) = (  0.0437580  0.9562420  0.6481470  )
        17           O   tau(  17) = (  0.8914420  0.4202080  0.1821290  )
        18           O   tau(  18) = (  0.4202080  0.8914420  0.6821290  )
        19           O   tau(  19) = (  0.6434740  0.6782910  0.2017470  )
        20           O   tau(  20) = (  0.6782910  0.6434740  0.7017470  )

     number of k points=     1  Methfessel-Paxton smearing, width (Ry)=  0.0010
                       cart. coord. in units 2pi/alat
        k(    1) = (   0.0000000   0.0000000   0.0000000), wk =   2.0000000

                       cryst. coord.
        k(    1) = (   0.0000000   0.0000000   0.0000000), wk =   2.0000000

     Check: negative core charge=   -0.000012

     Initial potential from superposition of free atoms

     starting charge     227.9728, renormalised to     228.0000
     Starting wfcs are  248 randomized atomic wfcs
     Checking if some PAW data can be deallocated...

     Self-consistent Calculation

     iteration #  1     ecut=    30.00 Ry     beta= 0.70
     Davidson diagonalization with overlap

     ethr =  1.00E-02,  avg # of iterations =  2.0

     total energy              =   -7059.64011783 Ry
     estimated scf accuracy    <       5.50291125 Ry

[...]

     total energy              =   -7062.32980851 Ry
     estimated scf accuracy    <       0.00000515 Ry

     iteration # 10     ecut=    30.00 Ry     beta= 0.70
     Davidson diagonalization with overlap

     ethr =  2.26E-09,  avg # of iterations =  2.0

     End of self-consistent calculation

          k = 0.0000 0.0000 0.0000 (  2340 PWs)   bands (ev):

   -41.6547 -41.6447 -41.6429 -41.6354 -41.4956 -41.4829 -12.9079 -12.8254
   -12.8032 -12.6693 -12.6607 -12.5900 -12.5096 -12.4614 -12.4235 -12.3906
   -12.3856 -12.3837 -12.3414 -12.2987 -12.1928 -12.1849 -12.1828 -12.1686
    -5.9323  -5.1933  -4.9296  -4.8911  -4.7286  -4.6151  -4.6115  -4.5815
    -4.1263  -4.0782  -4.0356  -3.8388   6.6109   7.0175   7.3261   7.6704
     7.6886   7.8238   8.0030   8.2150   8.2546   8.7171   8.7808   8.8532
     8.9150   8.9999   9.0774   9.1971   9.1983   9.2005   9.2583   9.2976
     9.3791   9.5222   9.5514   9.5591   9.5773   9.6155   9.6167   9.6837
     9.7482   9.7632   9.7875   9.7996   9.8317   9.8550   9.8558   9.8982
     9.9223   9.9241   9.9303   9.9342   9.9352   9.9651   9.9685   9.9816
     9.9886  10.0007  10.0065  10.0114  10.0198  10.0402  10.0528  10.0673
    10.0811  10.0921  10.1053  10.1134  10.1598  10.1619  10.2148  10.2227
    10.2553  10.2826  10.4077  10.4259  10.5051  10.6946  10.7016  10.7142
    10.7160  11.0023  11.0144  11.0915  11.1523  11.2925  11.3448  11.4128
    11.7825  11.7955  15.7628  16.8188  16.9783  17.1554  17.8039  17.8681
    18.1926  18.3417  18.4721  18.5954  18.7456  19.0662  19.0941  19.4441
    19.6180  19.7705  20.1341  20.1951  20.2530  20.4759  20.5213  20.6440
    20.9118

     occupation numbers
     1.0000   1.0000   1.0000   1.0000   1.0000   1.0000   1.0000   1.0000
     1.0000   1.0000   1.0000   1.0000   1.0000   1.0000   1.0000   1.0000
     1.0000   1.0000   1.0000   1.0000   1.0000   1.0000   1.0000   1.0000
     1.0000   1.0000   1.0000   1.0000   1.0000   1.0000   1.0000   1.0000
     1.0000   1.0000   1.0000   1.0000   1.0000   1.0000   1.0000   1.0000
     1.0000   1.0000   1.0000   1.0000   1.0000   1.0000   1.0000   1.0000
     1.0000   1.0000   1.0000   1.0000   1.0000   1.0000   1.0000   1.0000
     1.0000   1.0000   1.0000   1.0000   1.0000   1.0000   1.0000   1.0000
     1.0000   1.0000   1.0000   1.0000   1.0000   1.0000   1.0000   1.0000
     1.0000   1.0000   1.0000   1.0000   1.0000   1.0000   1.0000   1.0000
     1.0000   1.0000   1.0000   1.0000   1.0000   1.0000   1.0000   1.0000
     1.0000   1.0000   1.0000   1.0000   1.0000   1.0000   1.0000   1.0000
     1.0000   1.0000   1.0000   1.0000   1.0000   1.0000   1.0000   1.0000
     1.0000   1.0000   1.0000   1.0000   1.0000   1.0000   1.0000   1.0000
     1.0000   1.0000  -0.0000  -0.0000  -0.0000  -0.0000  -0.0000  -0.0000
    -0.0000  -0.0000  -0.0000  -0.0000  -0.0000  -0.0000  -0.0000  -0.0000
    -0.0000  -0.0000  -0.0000  -0.0000  -0.0000  -0.0000  -0.0000  -0.0000
    -0.0000

     the Fermi energy is    13.1930 ev

!    total energy              =   -7062.32980891 Ry

     total all-electron energy =     -9260.778081 Ry
     estimated scf accuracy    <       0.00000055 Ry
     smearing contrib. (-TS)   =       0.00000000 Ry
     internal energy E=F+TS    =   -7062.32980891 Ry

     The total energy is F=E-TS. E is the sum of the following terms:
     one-electron contribution =   -2682.31320896 Ry
     hartree contribution      =    1258.61675255 Ry
     xc contribution           =    -344.95150437 Ry
     ewald contribution        =   -2165.23889793 Ry
     one-center paw contrib.   =   -3128.44295020 Ry
      -> PAW hartree energy AE =    3321.57913191 Ry
      -> PAW hartree energy PS =   -2909.08578828 Ry
      -> PAW xc energy AE      =   -3878.39951897 Ry
      -> PAW xc energy PS      =     337.46322513 Ry
      -> total E_H with PAW    =    1671.11009619 Ry
      -> total E_XC with PAW   =   -3885.88779821 Ry

     convergence has been achieved in  10 iterations

     Forces acting on atoms (cartesian axes, Ry/au):

     atom    1 type  1   force =    -0.00582636   -0.00316614   -0.00196384
     atom    2 type  1   force =    -0.00175736   -0.00627792   -0.00149078
     atom    3 type  1   force =     0.00114384   -0.00089666    0.00256913
     atom    4 type  1   force =    -0.00114384    0.00089666    0.00256913
     atom    5 type  1   force =     0.00582636    0.00316614   -0.00196384
     atom    6 type  1   force =     0.00175736    0.00627792   -0.00149078
     atom    7 type  2   force =     0.00046225   -0.00036882   -0.00773635
     atom    8 type  2   force =    -0.00046225    0.00036882   -0.00773635
     atom    9 type  3   force =    -0.01390198    0.01366230    0.00279742
     atom   10 type  3   force =     0.01641739   -0.01049950    0.00279777
     atom   11 type  3   force =    -0.00751520   -0.00154610   -0.00318573
     atom   12 type  3   force =     0.00017073   -0.00766742   -0.00318516
     atom   13 type  3   force =    -0.00907187    0.00723406   -0.00016956
     atom   14 type  3   force =     0.00500195   -0.00398460    0.00956710
     atom   15 type  3   force =    -0.00500195    0.00398460    0.00956710
     atom   16 type  3   force =     0.00907187   -0.00723406   -0.00016956
     atom   17 type  3   force =    -0.00017073    0.00766742   -0.00318516
     atom   18 type  3   force =     0.00751520    0.00154610   -0.00318573
     atom   19 type  3   force =    -0.01641739    0.01049950    0.00279777
     atom   20 type  3   force =     0.01390198   -0.01366230    0.00279742
     The non-local contrib.  to forces
     atom    1 type  1   force =     0.05949579    0.03859293    0.01036299
     atom    2 type  1   force =     0.02438366    0.06667117    0.01073186
     atom    3 type  1   force =    -0.05022135    0.04003632   -0.03012823
     atom    4 type  1   force =     0.05022135   -0.04003632   -0.03012823
     atom    5 type  1   force =    -0.05949579   -0.03859293    0.01036299
     atom    6 type  1   force =    -0.02438366   -0.06667117    0.01073186
     atom    7 type  2   force =     0.00205176   -0.00163684   -0.06438010
     atom    8 type  2   force =    -0.00205176    0.00163684   -0.06438010
     atom    9 type  3   force =     0.07474269   -0.08045045    0.02361860
     atom   10 type  3   force =    -0.09510471    0.05489674    0.02361413
     atom   11 type  3   force =     0.41094678    0.29098505   -0.27602748
     atom   12 type  3   force =     0.19195367    0.46551714   -0.27602621
     atom   13 type  3   force =    -0.40801940    0.32515809   -0.21057909
     atom   14 type  3   force =     0.11825204   -0.09424349    0.41486216
     atom   15 type  3   force =    -0.11825204    0.09424349    0.41486216
     atom   16 type  3   force =     0.40801940   -0.32515809   -0.21057909
     atom   17 type  3   force =    -0.19195367   -0.46551714   -0.27602621
     atom   18 type  3   force =    -0.41094678   -0.29098505   -0.27602748
     atom   19 type  3   force =     0.09510471   -0.05489674    0.02361413
     atom   20 type  3   force =    -0.07474269    0.08045045    0.02361860
     The ionic contribution  to forces
     atom    1 type  1   force =   -11.03437252   -0.02786060    0.12044088
     atom    2 type  1   force =     2.43516387  -10.76234780    0.12044088
     atom    3 type  1   force =    13.48140773  -10.74394800    3.54696334
     atom    4 type  1   force =   -13.48140773   10.74394800    3.54696334
     atom    5 type  1   force =    11.03437252    0.02786060    0.12044088
     atom    6 type  1   force =    -2.43516387   10.76234780    0.12044088
     atom    7 type  2   force =     0.22913382   -0.18260718   -2.29547731
     atom    8 type  2   force =    -0.22913382    0.18260718   -2.29547731
     atom    9 type  3   force =    -3.73607981    0.86344486   -0.21104180
     atom   10 type  3   force =     1.67537910   -3.44919328   -0.21104180
     atom   11 type  3   force =     4.03762405   -2.81438951   -3.99791274
     atom   12 type  3   force =    -3.64441853    3.30778020   -3.99791274
     atom   13 type  3   force =    -2.17463447    1.73306528   -3.38997699
     atom   14 type  3   force =    -1.54186312    1.22878097   10.31551827
     atom   15 type  3   force =     1.54186312   -1.22878097   10.31551827
     atom   16 type  3   force =     2.17463447   -1.73306528   -3.38997699
     atom   17 type  3   force =     3.64441853   -3.30778020   -3.99791274
     atom   18 type  3   force =    -4.03762405    2.81438951   -3.99791274
     atom   19 type  3   force =    -1.67537910    3.44919328   -0.21104180
     atom   20 type  3   force =     3.73607981   -0.86344486   -0.21104180
     The local contribution  to forces
     atom    1 type  1   force =    10.96874968   -0.01209506   -0.13260217
     atom    2 type  1   force =    -2.45943323   10.68941196   -0.13331856
     atom    3 type  1   force =   -13.42952317   10.70257497   -3.51467765
     atom    4 type  1   force =    13.42960639  -10.70264588   -3.51502574
     atom    5 type  1   force =   -10.96877152    0.01197643   -0.13282810
     atom    6 type  1   force =     2.45947033  -10.68938302   -0.13314363
     atom    7 type  2   force =    -0.23016162    0.18341912    2.34187791
     atom    8 type  2   force =     0.23016040   -0.18341649    2.34188606
     atom    9 type  3   force =     3.64826133   -0.77006131    0.19057528
     atom   10 type  3   force =    -1.56475106    3.38440963    0.19057572
     atom   11 type  3   force =    -4.45240742    2.52438496    4.26841201
     atom   12 type  3   force =     3.45429538   -3.77687264    4.26841342
     atom   13 type  3   force =     2.57006934   -2.04822445    3.59858703
     atom   14 type  3   force =     1.42935436   -1.13909491  -10.71699795
     atom   15 type  3   force =    -1.42935763    1.13911441  -10.71701073
     atom   16 type  3   force =    -2.57007017    2.04824358    3.59859873
     atom   17 type  3   force =    -3.45430922    3.77684960    4.26839525
     atom   18 type  3   force =     4.45242018   -2.52436086    4.26842298
     atom   19 type  3   force =     1.56477106   -3.38441193    0.19057941
     atom   20 type  3   force =    -3.64826067    0.77002877    0.19057540
     The core correction contribution to forces
     atom    1 type  1   force =     0.00000448   -0.00000032    0.00000063
     atom    2 type  1   force =    -0.00000131    0.00000429    0.00000062
     atom    3 type  1   force =    -0.00000271    0.00000216   -0.00000012
     atom    4 type  1   force =     0.00000271   -0.00000216   -0.00000012
     atom    5 type  1   force =    -0.00000448    0.00000032    0.00000062
     atom    6 type  1   force =     0.00000131   -0.00000429    0.00000062
     atom    7 type  2   force =    -0.00065206    0.00051993    0.01036912
     atom    8 type  2   force =     0.00065227   -0.00051987    0.01036899
     atom    9 type  3   force =    -0.00085013    0.00069438   -0.00019374
     atom   10 type  3   force =     0.00086651   -0.00067364   -0.00019361
     atom   11 type  3   force =    -0.00375769   -0.00255861    0.00245839
     atom   12 type  3   force =    -0.00165562   -0.00423387    0.00245831
     atom   13 type  3   force =     0.00340685   -0.00271497    0.00193948
     atom   14 type  3   force =    -0.00079397    0.00063284   -0.00374434
     atom   15 type  3   force =     0.00079402   -0.00063287   -0.00374423
     atom   16 type  3   force =    -0.00340678    0.00271490    0.00193944
     atom   17 type  3   force =     0.00165565    0.00423398    0.00245831
     atom   18 type  3   force =     0.00375771    0.00255860    0.00245829
     atom   19 type  3   force =    -0.00086659    0.00067365   -0.00019364
     atom   20 type  3   force =     0.00085008   -0.00069434   -0.00019369
     The Hubbard contrib.    to forces
     atom    1 type  1   force =     0.00000000    0.00000000    0.00000000
     atom    2 type  1   force =     0.00000000    0.00000000    0.00000000
     atom    3 type  1   force =     0.00000000    0.00000000    0.00000000
     atom    4 type  1   force =     0.00000000    0.00000000    0.00000000
     atom    5 type  1   force =     0.00000000    0.00000000    0.00000000
     atom    6 type  1   force =     0.00000000    0.00000000    0.00000000
     atom    7 type  2   force =     0.00000000    0.00000000    0.00000000
     atom    8 type  2   force =     0.00000000    0.00000000    0.00000000
     atom    9 type  3   force =     0.00000000    0.00000000    0.00000000
     atom   10 type  3   force =     0.00000000    0.00000000    0.00000000
     atom   11 type  3   force =     0.00000000    0.00000000    0.00000000
     atom   12 type  3   force =     0.00000000    0.00000000    0.00000000
     atom   13 type  3   force =     0.00000000    0.00000000    0.00000000
     atom   14 type  3   force =     0.00000000    0.00000000    0.00000000
     atom   15 type  3   force =     0.00000000    0.00000000    0.00000000
     atom   16 type  3   force =     0.00000000    0.00000000    0.00000000
     atom   17 type  3   force =     0.00000000    0.00000000    0.00000000
     atom   18 type  3   force =     0.00000000    0.00000000    0.00000000
     atom   19 type  3   force =     0.00000000    0.00000000    0.00000000
     atom   20 type  3   force =     0.00000000    0.00000000    0.00000000
     The SCF correction term to forces
     atom    1 type  1   force =     0.00029946   -0.00178943   -0.00007498
     atom    2 type  1   force =    -0.00187566   -0.00001636    0.00077836
     atom    3 type  1   force =    -0.00052584    0.00044480    0.00049479
     atom    4 type  1   force =     0.00042428   -0.00036006    0.00090286
     atom    5 type  1   force =    -0.00027114    0.00193536    0.00019457
     atom    6 type  1   force =     0.00182794   -0.00001020    0.00058153
     atom    7 type  2   force =     0.00009136   -0.00006382   -0.00001158
     atom    8 type  2   force =    -0.00008834    0.00006121   -0.00002239
     atom    9 type  3   force =     0.00002318    0.00003695   -0.00005004
     atom   10 type  3   force =     0.00002536    0.00006193   -0.00004301
     atom   11 type  3   force =     0.00007797    0.00002961    0.00000125
     atom   12 type  3   force =    -0.00000114    0.00014809   -0.00000720
     atom   13 type  3   force =     0.00010953   -0.00005448   -0.00002441
     atom   14 type  3   force =     0.00005340   -0.00006188    0.00003083
     atom   15 type  3   force =    -0.00004866    0.00003866    0.00006575
     atom   16 type  3   force =    -0.00010134    0.00002624   -0.00004124
     atom   17 type  3   force =     0.00002099   -0.00011248    0.00001548
     atom   18 type  3   force =    -0.00009296   -0.00005850   -0.00001797
     atom   19 type  3   force =    -0.00004966   -0.00005789   -0.00004803
     atom   20 type  3   force =    -0.00002531   -0.00000018   -0.00004601

     Total force =     0.051805     Total SCF correction =     0.004117

     Computing stress (Cartesian axis) and pressure

          total   stress  (Ry/bohr**3)                   (kbar)     P=     -297.09
  -0.00198730   0.00002169   0.00000000         -292.34        3.19        0.00
   0.00002169  -0.00197734   0.00000000            3.19     -290.88        0.00
   0.00000000   0.00000000  -0.00209408            0.00        0.00     -308.05

     kinetic stress (kbar)  21495.78     -0.49      0.00
                               -0.49  21495.56      0.00
                                0.00      0.00  21455.26

     local   stress (kbar)  -4899.93  -6765.88      0.00
                            -6765.88  -7997.67     -0.01
                                0.00     -0.01    786.39

     nonloc. stress (kbar)  18320.71      4.75      0.00
                                4.75  18322.88      0.00
                                0.00      0.00  18343.28

     hartree stress (kbar)  37289.92   3035.46     -0.00
                             3035.46  38679.71      0.01
                               -0.00      0.01  34545.29

     exc-cor stress (kbar)  -8915.17      0.63     -0.00
                                0.63  -8914.88      0.00
                               -0.00      0.00  -8912.44

     corecor stress (kbar)   -620.07      0.30      0.00
                                0.30   -619.93      0.00
                                0.00      0.00   -623.57

     ewald   stress (kbar) -62963.58   3728.43     -0.00
                             3728.43 -61256.53      0.00
                               -0.00      0.00 -65902.25

     hubbard stress (kbar)      0.00      0.00      0.00
                                0.00      0.00      0.00
                                0.00      0.00      0.00

     DFT-D   stress (kbar)      0.00      0.00      0.00
                                0.00      0.00      0.00
                                0.00      0.00      0.00

     XDM     stress (kbar)      0.00      0.00      0.00
                                0.00      0.00      0.00
                                0.00      0.00      0.00

     dft-nl  stress (kbar)      0.00      0.00      0.00
                                0.00      0.00      0.00
                                0.00      0.00      0.00

     TS-vdW  stress (kbar)      0.00      0.00      0.00
                                0.00      0.00      0.00
                                0.00      0.00      0.00

[...]

                                0.00      0.00      0.00

     Writing all to output data dir new_calculations/myprefix.save/

     General routines

     Parallel routines

     PAW routines

   This run was terminated on:  23:28:34  20May2023

   JOB DONE.