     Program PWSCF v.7.0 starts on 21May2023 at 14:11: 2

     Reading input from espresso_23702.pwi
Warning: card &CELL ignored
Warning: card / ignored

     Current dimensions of program PWSCF are:
     Max number of different atomic species (ntypx) = 10
     Max number of k-points (npk) =  40000
     Max angular momentum in pseudopotentials (lmaxx) =  4

     gamma-point specific algorithms are used
     Message from routine setup:
     using ibrav=0 with symmetry is DISCOURAGED, use correct ibrav instead

     Subspace diagonalization in iterative solution of the eigenvalue problem:
     a serial algorithm will be used

     Using Slab Decomposition

     bravais-lattice index     =            0
     lattice parameter (alat)  =      17.2400  a.u.
     unit-cell volume          =    3130.1560 (a.u.)^3
     number of atoms/cell      =           20
     number of atomic types    =            3
     number of electrons       =       286.00
     number of Kohn-Sham states=          172
     kinetic-energy cutoff     =      30.0000  Ry
     charge density cutoff     =     240.0000  Ry
     scf convergence threshold =      1.0E-06
     mixing beta               =       0.7000
     number of iterations used =            8  plain     mixing
     Exchange-correlation= PBE
                           (   1   4   3   4   0   0   0)

     celldm(1)=  17.240007  celldm(2)=   0.000000  celldm(3)=   0.000000
     celldm(4)=   0.000000  celldm(5)=   0.000000  celldm(6)=   0.000000

     crystal axes: (cart. coord. in units of alat)
               a(1) = (   1.000000   0.000000   0.000000 )
               a(2) = (   0.025663   0.999671   0.000000 )
               a(3) = (  -0.277424  -0.741363   0.611078 )

     reciprocal axes: (cart. coord. in units 2 pi/alat)
               b(1) = (  1.000000 -0.025671  0.422847 )
               b(2) = (  0.000000  1.000329  1.213605 )
               b(3) = (  0.000000  0.000000  1.636452 )

     PseudoPot. # 1 for La read from file:
     /home/pragov/projects/rrg-bengioy-ad/pragov/crystal_structure_design/SSSP/La.GGA-PBE-paw-v1.0.UPF
     MD5 check sum: 436541e95c1ad8901025bd0b0ed42ae2
     Pseudo is Projector augmented-wave + core cor, Zval = 11.0
     Generated using ATOMPAW code
     Shape of augmentation charge: BESSEL
     Using radial grid of 1101 points,  8 beta functions with:
                l(1) =   0
                l(2) =   0
                l(3) =   1
                l(4) =   1
                l(5) =   2
                l(6) =   2
                l(7) =   3
                l(8) =   3
     Q(r) pseudized with 0 coefficients

     PseudoPot. # 2 for Sn read from file:
     /home/pragov/projects/rrg-bengioy-ad/pragov/crystal_structure_design/SSSP/Sn_pbe_v1.uspp.F.UPF
     MD5 check sum: 4cf58ce39ec5d5d420df3dd08604eb00
     Pseudo is Ultrasoft + core correction, Zval = 14.0
     Generated by new atomic code, or converted to UPF format
     Using radial grid of  891 points,  6 beta functions with:
                l(1) =   0
                l(2) =   0
                l(3) =   1
                l(4) =   1
                l(5) =   2
                l(6) =   2
     Q(r) pseudized with  6 coefficients,  rinner =    1.200   1.200   1.200
                                                       1.200   1.200

     PseudoPot. # 3 for Rh read from file:
     /home/pragov/projects/rrg-bengioy-ad/pragov/crystal_structure_design/SSSP/Rh_ONCV_PBE-1.0.oncvpsp.upf
     MD5 check sum: ba07c69523b14cacd10683cd4c4284c1
     Pseudo is Norm-conserving, Zval = 17.0
     Generated using ONCVPSP code by D. R. Hamann
     Using radial grid of 1442 points,  6 beta functions with:
                l(1) =   0
                l(2) =   0
                l(3) =   1
                l(4) =   1
                l(5) =   2
                l(6) =   2

     atomic species   valence    mass     pseudopotential
        La            11.00   138.90547     La( 1.00)
        Sn            14.00   118.71000     Sn( 1.00)
        Rh            17.00   102.90550     Rh( 1.00)

      2 Sym. Ops., with inversion, found

                                    s                        frac. trans.

      isym =  1     identity

 cryst.   s( 1) = (     1          0          0      )
                  (     0          1          0      )
                  (     0          0          1      )

 cart.    s( 1) = (  1.0000000  0.0000000  0.0000000 )
                  (  0.0000000  1.0000000  0.0000000 )
                  (  0.0000000  0.0000000  1.0000000 )

      isym =  2     inversion

 cryst.   s( 2) = (    -1          0          0      )
                  (     0         -1          0      )
                  (     0          0         -1      )

 cart.    s( 2) = ( -1.0000000 -0.0000000 -0.0000000 )
                  (  0.0000000 -1.0000000 -0.0000000 )
                  (  0.0000000  0.0000000 -1.0000000 )

   Cartesian axes

     site n.     atom                  positions (alat units)
         1           La  tau(   1) = (   0.7048349  -0.4279498   0.4712867  )
         2           La  tau(   2) = (   0.0434035   0.6862573   0.1397915  )
         3           La  tau(   3) = (   0.5612644   0.1549318   0.1657476  )
         4           La  tau(   4) = (   0.1869741   0.1033756   0.4453305  )
         5           Sn  tau(   5) = (   0.4185133   0.4177163   0.4078494  )
         6           Sn  tau(   6) = (   0.0250150  -0.2045537   0.5087678  )
         7           Sn  tau(   7) = (   0.3297252  -0.1594088   0.2032287  )
         8           Sn  tau(   8) = (   0.7232235   0.4628611   0.1023104  )
         9           Sn  tau(   9) = (   0.9370596   0.0645769   0.1527695  )
        10           Sn  tau(  10) = (   0.8111788   0.1937306   0.4583086  )
        11           Sn  tau(  11) = (   0.6770198   0.7857853   0.1527695  )
        12           Sn  tau(  12) = (   0.2227620   0.3430391   0.1527695  )
        13           Sn  tau(  13) = (   0.0712187  -0.5274778   0.4583086  )
        14           Sn  tau(  14) = (   0.5254764  -0.0847316   0.4583086  )
        15           Rh  tau(  15) = (   0.2205665   0.0635171   0.0640233  )
        16           Rh  tau(  16) = (   0.8049627  -0.0897101   0.3695623  )
        17           Rh  tau(  17) = (  -0.0567243   0.3480176   0.2415158  )
        18           Rh  tau(  18) = (   0.5276719   0.1947904   0.5470549  )
        19           Rh  tau(  19) = (   0.2983475  -0.3061047   0.4583086  )
        20           Rh  tau(  20) = (   0.4498909   0.5644122   0.1527695  )

   Crystallographic axes

     site n.     atom                  positions (cryst. coord.)
         1           La  tau(   1) = (  0.9151030  0.1438650  0.7712380  )
         2           La  tau(   2) = (  0.0848970  0.8561350  0.2287620  )
         3           La  tau(   3) = (  0.6273730  0.3561350  0.2712380  )
         4           La  tau(   4) = (  0.3726270  0.6438650  0.7287620  )
         5           Sn  tau(   5) = (  0.5802480  0.9128220  0.6674260  )
         6           Sn  tau(   6) = (  0.2453970  0.4128220  0.8325740  )
         7           Sn  tau(   7) = (  0.4197520  0.0871780  0.3325740  )
         8           Sn  tau(   8) = (  0.7546030  0.5871780  0.1674260  )
         9           Sn  tau(   9) = (  1.0000000  0.2500000  0.2500000  )
        10           Sn  tau(  10) = (  1.0000000  0.7500000  0.7500000  )
        11           Sn  tau(  11) = (  0.7214460  0.9714460  0.2500000  )
        12           Sn  tau(  12) = (  0.2785540  0.5285540  0.2500000  )
        13           Sn  tau(  13) = (  0.2785540  0.0285540  0.7500000  )
        14           Sn  tau(  14) = (  0.7214460  0.4714460  0.7500000  )
        15           Rh  tau(  15) = (  0.2460080  0.1412370  0.1047710  )
        16           Rh  tau(  16) = (  0.9635340  0.3587630  0.6047710  )
        17           Rh  tau(  17) = (  0.0364660  0.6412370  0.3952290  )
        18           Rh  tau(  18) = (  0.7539920  0.8587630  0.8952290  )
        19           Rh  tau(  19) = (  0.5000000  0.2500000  0.7500000  )
        20           Rh  tau(  20) = (  0.5000000  0.7500000  0.2500000  )

     number of k points=     1  Methfessel-Paxton smearing, width (Ry)=  0.0010
                       cart. coord. in units 2pi/alat
        k(    1) = (   0.0000000   0.0000000   0.0000000), wk =   2.0000000

                       cryst. coord.
        k(    1) = (   0.0000000   0.0000000   0.0000000), wk =   2.0000000

     Initial potential from superposition of free atoms

     starting charge     275.9628, renormalised to     286.0000
     Starting wfcs are  278 randomized atomic wfcs
     Checking if some PAW data can be deallocated...

     Self-consistent Calculation

     iteration #  1     ecut=    30.00 Ry     beta= 0.70
     Davidson diagonalization with overlap

     ethr =  1.00E-02,  avg # of iterations =  2.0

     total energy              =   -4765.86058907 Ry
     estimated scf accuracy    <       4.79328083 Ry

[...]

     c_bands:  1 eigenvalues not converged
     ethr =  8.44E-10,  avg # of iterations = 20.0

     total energy              =   -4767.98426187 Ry
     estimated scf accuracy    <       0.00000281 Ry

     iteration # 18     ecut=    30.00 Ry     beta= 0.70
     Davidson diagonalization with overlap

     ethr =  8.44E-10,  avg # of iterations =  2.0

     End of self-consistent calculation

          k = 0.0000 0.0000 0.0000 (  4323 PWs)   bands (ev):

   -63.9918 -63.9913 -63.9903 -63.9894 -63.7754 -63.7722 -32.0381 -32.0375
   -32.0366 -32.0358 -31.8633 -31.8626 -31.8613 -31.8606 -31.8204 -31.8154
   -31.7506 -31.7502 -31.7473 -31.7468 -31.6260 -31.6211 -31.5639 -31.5094
   -18.7604 -18.7576 -18.7469 -18.7452  -7.4959  -7.4943  -7.4795  -7.4762
    -7.4696  -7.4574  -7.4499  -7.4341  -7.3941  -7.3919  -7.3810  -7.3744
    -7.3257  -7.3246  -7.3176  -7.3162  -7.3161  -7.3156  -7.3154  -7.3077
    -7.2721  -7.2710  -7.1963  -7.1931  -7.1771  -7.1759  -7.1335  -7.1320
    -7.1220  -7.1194  -7.0768  -7.0744  -7.0672  -7.0626  -7.0589  -7.0547
    -7.0497  -7.0488  -7.0456  -7.0453  -6.9799  -6.9339  -6.8977  -6.8559
    -6.8559  -6.8489  -6.8431  -6.8277  -6.8218  -6.7346  -2.6325  -2.5863
    -2.5571  -2.5316  -2.5146  -2.4935  -2.4880  -2.4852  -2.4762  -2.4489
    -2.3896  -2.3515   3.8891   4.8370   5.7101   6.1497   6.4252   7.0211
     7.1633   7.1949   7.6958   7.8219   9.5454   9.6615   9.7266  10.1045
    10.1811  10.3384  10.6200  10.7119  10.7764  10.8894  10.9153  10.9187
    10.9823  11.0410  11.3232  11.3319  11.3741  11.6171  11.6236  11.7410
    11.7640  11.8525  11.8809  11.9186  11.9652  12.1909  12.2076  12.4109
    12.4244  12.5349  12.5616  12.6223  12.6443  12.7120  12.7255  12.9277
    13.0130  13.0746  13.5874  13.7164  13.8558  14.0497  14.0707  14.3926
    14.3951  14.4699  14.6145  14.7631  15.3638  15.4960  15.5528  15.5688
    15.6961  15.6966  15.7405  15.7873  15.8805  15.8984  15.9300  15.9621
    15.9623  15.9626  15.9807  15.9886  15.9954  15.9993  16.0227  16.0274
    16.0292  16.0370  16.0377  16.1019

     occupation numbers
     1.0000   1.0000   1.0000   1.0000   1.0000   1.0000   1.0000   1.0000
     1.0000   1.0000   1.0000   1.0000   1.0000   1.0000   1.0000   1.0000
     1.0000   1.0000   1.0000   1.0000   1.0000   1.0000   1.0000   1.0000
     1.0000   1.0000   1.0000   1.0000   1.0000   1.0000   1.0000   1.0000
     1.0000   1.0000   1.0000   1.0000   1.0000   1.0000   1.0000   1.0000
     1.0000   1.0000   1.0000   1.0000   1.0000   1.0000   1.0000   1.0000
     1.0000   1.0000   1.0000   1.0000   1.0000   1.0000   1.0000   1.0000
     1.0000   1.0000   1.0000   1.0000   1.0000   1.0000   1.0000   1.0000
     1.0000   1.0000   1.0000   1.0000   1.0000   1.0000   1.0000   1.0000
     1.0000   1.0000   1.0000   1.0000   1.0000   1.0000   1.0000   1.0000
     1.0000   1.0000   1.0000   1.0000   1.0000   1.0000   1.0000   1.0000
     1.0000   1.0000   1.0000   1.0000   1.0000   1.0000   1.0000   1.0000
     1.0000   1.0000   1.0000   1.0000   1.0000   1.0000   1.0000   1.0000
     1.0000   1.0000   1.0000   1.0000   1.0000   1.0000   1.0000   1.0000
     1.0000   1.0000   1.0000   1.0000   1.0000   1.0000   1.0000   1.0000
     1.0000   1.0000   1.0000   1.0000   1.0000   1.0000   1.0000   1.0000
     1.0000   1.0000   1.0000   1.0000   1.0000   1.0000   1.0000   1.0000
     1.0000   1.0000   1.0000   1.0000   1.0000   1.0000   1.0000  -0.0000
    -0.0000  -0.0000  -0.0000  -0.0000  -0.0000  -0.0000  -0.0000  -0.0000
    -0.0000  -0.0000  -0.0000  -0.0000  -0.0000  -0.0000  -0.0000  -0.0000
    -0.0000  -0.0000  -0.0000  -0.0000  -0.0000  -0.0000  -0.0000  -0.0000
    -0.0000  -0.0000  -0.0000  -0.0000

     the Fermi energy is    14.1974 ev

!    total energy              =   -4767.98426158 Ry
     estimated scf accuracy    <       0.00000071 Ry
     smearing contrib. (-TS)   =       0.00000000 Ry
     internal energy E=F+TS    =   -4767.98426158 Ry

     The total energy is F=E-TS. E is the sum of the following terms:
     one-electron contribution =   -1195.31037143 Ry
     hartree contribution      =     785.61338786 Ry
     xc contribution           =    -643.92528626 Ry
     ewald contribution        =   -2122.10169598 Ry
     one-center paw contrib.   =   -1592.26029578 Ry
      -> PAW hartree energy AE =     139.58658077 Ry
      -> PAW hartree energy PS =    -139.72850362 Ry
      -> PAW xc energy AE      =   -1621.30388066 Ry
      -> PAW xc energy PS      =      29.18550773 Ry
      -> total E_H with PAW    =     785.47146501 Ry
      -> total E_XC with PAW   =   -2236.04365919 Ry

     convergence has been achieved in  18 iterations

     Forces acting on atoms (cartesian axes, Ry/au):

     atom    1 type  1   force =     0.00370935   -0.01312658    0.00707308
     atom    2 type  1   force =    -0.00370935    0.01312658   -0.00707308
     atom    3 type  1   force =     0.01292436   -0.00407345    0.00705311
     atom    4 type  1   force =    -0.01292436    0.00407345   -0.00705311
     atom    5 type  2   force =     0.01184438    0.03125554   -0.00829412
     atom    6 type  2   force =     0.03103813    0.01098403    0.00814315
     atom    7 type  2   force =    -0.01184438   -0.03125554    0.00829412
     atom    8 type  2   force =    -0.03103813   -0.01098403   -0.00814315
     atom    9 type  2   force =    -0.00013053    0.00011322    0.00028036
     atom   10 type  2   force =     0.00013053   -0.00011322   -0.00028036
     atom   11 type  2   force =    -0.00804823   -0.00823418    0.00035360
     atom   12 type  2   force =     0.00791368    0.00836218   -0.00007815
     atom   13 type  2   force =     0.00804823    0.00823418   -0.00035360
     atom   14 type  2   force =    -0.00791368   -0.00836218    0.00007815
     atom   15 type  3   force =    -0.00169218   -0.02092754    0.00815154
     atom   16 type  3   force =     0.02098548    0.00110227    0.00817985
     atom   17 type  3   force =    -0.02098548   -0.00110227   -0.00817985
     atom   18 type  3   force =     0.00169218    0.02092754   -0.00815154
     atom   19 type  3   force =     0.00000794   -0.00000303   -0.00000206
     atom   20 type  3   force =    -0.00000794    0.00000303    0.00000206
     The non-local contrib.  to forces
     atom    1 type  1   force =    -0.00300902    0.01769177   -0.00872067
     atom    2 type  1   force =     0.00300902   -0.01769177    0.00872067
     atom    3 type  1   force =    -0.01762578    0.00343781   -0.00871292
     atom    4 type  1   force =     0.01762578   -0.00343781    0.00871292
     atom    5 type  2   force =    -0.13146096   -0.12314984   -0.00207613
     atom    6 type  2   force =    -0.12695010   -0.12831190    0.00193588
     atom    7 type  2   force =     0.13146096    0.12314984    0.00207613
     atom    8 type  2   force =     0.12695010    0.12831190   -0.00193588
     atom    9 type  2   force =    -0.00012198    0.00011045    0.00026702
     atom   10 type  2   force =     0.00012198   -0.00011045   -0.00026702
     atom   11 type  2   force =    -0.08355543   -0.08182443    0.00033504
     atom   12 type  2   force =     0.08343363    0.08193262   -0.00008170
     atom   13 type  2   force =     0.08355543    0.08182443   -0.00033504
     atom   14 type  2   force =    -0.08343363   -0.08193262    0.00008170
     atom   15 type  3   force =     0.04788834   -0.03065711    0.03269146
     atom   16 type  3   force =     0.02942691   -0.04863816    0.03268343
     atom   17 type  3   force =    -0.02942691    0.04863816   -0.03268343
     atom   18 type  3   force =    -0.04788834    0.03065711   -0.03269146
     atom   19 type  3   force =     0.00000020   -0.00000188    0.00000183
     atom   20 type  3   force =    -0.00000020    0.00000188   -0.00000183
     The ionic contribution  to forces
     atom    1 type  1   force =     0.02180411    1.14015651   -0.47294113
     atom    2 type  1   force =    -0.02180411   -1.14015651    0.47294113
     atom    3 type  1   force =    -1.14029422    0.00745853   -0.47295422
     atom    4 type  1   force =     1.14029422   -0.00745853    0.47295422
     atom    5 type  2   force =     3.32549894   -6.51948827    4.12594123
     atom    6 type  2   force =    -6.43225761    3.49178984   -4.12602333
     atom    7 type  2   force =    -3.32549894    6.51948827   -4.12594122
     atom    8 type  2   force =     6.43225761   -3.49178984    4.12602333
     atom    9 type  2   force =    -0.00000422    0.00000857    0.00000154
     atom   10 type  2   force =     0.00000422   -0.00000857   -0.00000154
     atom   11 type  2   force =    -0.90746576   -0.88450344    0.00002557
     atom   12 type  2   force =     0.90745663    0.88453629   -0.00002828
     atom   13 type  2   force =     0.90746576    0.88450344   -0.00002557
     atom   14 type  2   force =    -0.90745663   -0.88453629    0.00002828
     atom   15 type  3   force =     6.30849249   -3.40624068    4.03891542
     atom   16 type  3   force =     3.24329817   -6.39392855    4.03901493
     atom   17 type  3   force =    -3.24329817    6.39392854   -4.03901494
     atom   18 type  3   force =    -6.30849249    3.40624068   -4.03891541
     atom   19 type  3   force =     0.00010310   -0.00006178   -0.00010013
     atom   20 type  3   force =    -0.00010310    0.00006177    0.00010013
     The local contribution  to forces
     atom    1 type  1   force =    -0.01530362   -1.17124935    0.48882298
     atom    2 type  1   force =     0.01499595    1.17096158   -0.48869663
     atom    3 type  1   force =     1.17028578   -0.01504373    0.48843617
     atom    4 type  1   force =    -1.17020945    0.01538181   -0.48876824
     atom    5 type  2   force =    -3.18527256    6.66925629   -4.13112454
     atom    6 type  2   force =     6.58619513   -3.35580698    4.13158280
     atom    7 type  2   force =     3.18536159   -6.66851429    4.13164529
     atom    8 type  2   force =    -6.58612181    3.35497675   -4.13196874
     atom    9 type  2   force =     0.00034650    0.00018941   -0.00073002
     atom   10 type  2   force =    -0.00018269    0.00068564    0.00042739
     atom   11 type  2   force =     0.98016671    0.95600902   -0.00037180
     atom   12 type  2   force =    -0.97977733   -0.95668735    0.00006888
     atom   13 type  2   force =    -0.97989529   -0.95592915    0.00103523
     atom   14 type  2   force =     0.97977275    0.95578130   -0.00026599
     atom   15 type  3   force =    -6.35753921    3.41668876   -4.06337728
     atom   16 type  3   force =    -3.25237658    6.44383986   -4.06389089
     atom   17 type  3   force =     3.25183373   -6.44415305    4.06371786
     atom   18 type  3   force =     6.35747411   -3.41564606    4.06309219
     atom   19 type  3   force =     0.00025199   -0.00050116    0.00026406
     atom   20 type  3   force =     0.00025059   -0.00056824    0.00039614
     The core correction contribution to forces
     atom    1 type  1   force =    -0.00006363   -0.00007446    0.00000526
     atom    2 type  1   force =     0.00006352    0.00007440   -0.00000527
     atom    3 type  1   force =     0.00007592    0.00006162    0.00000521
     atom    4 type  1   force =    -0.00007585   -0.00006159   -0.00000525
     atom    5 type  2   force =     0.00280032    0.00455334   -0.00077125
     atom    6 type  2   force =     0.00462193    0.00268082    0.00077033
     atom    7 type  2   force =    -0.00279597   -0.00454966    0.00077287
     atom    8 type  2   force =    -0.00462132   -0.00268400   -0.00076943
     atom    9 type  2   force =    -0.00000133    0.00000508   -0.00000192
     atom   10 type  2   force =    -0.00000112    0.00000417   -0.00000279
     atom   11 type  2   force =     0.00242386    0.00236569   -0.00000142
     atom   12 type  2   force =    -0.00242173   -0.00236627    0.00000278
     atom   13 type  2   force =    -0.00242015   -0.00236469    0.00000187
     atom   14 type  2   force =     0.00242102    0.00236344   -0.00000094
     atom   15 type  3   force =     0.00000000    0.00000000    0.00000000
     atom   16 type  3   force =     0.00000000    0.00000000    0.00000000
     atom   17 type  3   force =     0.00000000    0.00000000    0.00000000
     atom   18 type  3   force =     0.00000000    0.00000000    0.00000000
     atom   19 type  3   force =     0.00000000    0.00000000    0.00000000
     atom   20 type  3   force =     0.00000000    0.00000000    0.00000000
     The Hubbard contrib.    to forces
     atom    1 type  1   force =     0.00000000    0.00000000    0.00000000
     atom    2 type  1   force =     0.00000000    0.00000000    0.00000000
     atom    3 type  1   force =     0.00000000    0.00000000    0.00000000
     atom    4 type  1   force =     0.00000000    0.00000000    0.00000000
     atom    5 type  2   force =     0.00000000    0.00000000    0.00000000
     atom    6 type  2   force =     0.00000000    0.00000000    0.00000000
     atom    7 type  2   force =     0.00000000    0.00000000    0.00000000
     atom    8 type  2   force =     0.00000000    0.00000000    0.00000000
     atom    9 type  2   force =     0.00000000    0.00000000    0.00000000
     atom   10 type  2   force =     0.00000000    0.00000000    0.00000000
     atom   11 type  2   force =     0.00000000    0.00000000    0.00000000
     atom   12 type  2   force =     0.00000000    0.00000000    0.00000000
     atom   13 type  2   force =     0.00000000    0.00000000    0.00000000
     atom   14 type  2   force =     0.00000000    0.00000000    0.00000000
     atom   15 type  3   force =     0.00000000    0.00000000    0.00000000
     atom   16 type  3   force =     0.00000000    0.00000000    0.00000000
     atom   17 type  3   force =     0.00000000    0.00000000    0.00000000
     atom   18 type  3   force =     0.00000000    0.00000000    0.00000000
     atom   19 type  3   force =     0.00000000    0.00000000    0.00000000
     atom   20 type  3   force =     0.00000000    0.00000000    0.00000000
     The SCF correction term to forces
     atom    1 type  1   force =     0.00026471    0.00031743   -0.00009246
     atom    2 type  1   force =     0.00000946   -0.00009264   -0.00003208
     atom    3 type  1   force =     0.00049019    0.00001984    0.00026456
     atom    4 type  1   force =    -0.00055153   -0.00034289    0.00003894
     atom    5 type  2   force =     0.00027346    0.00006959   -0.00027796
     atom    6 type  2   force =    -0.00058342    0.00063044   -0.00012099
     atom    7 type  2   force =    -0.00037721   -0.00084414   -0.00027349
     atom    8 type  2   force =     0.00048508    0.00019934    0.00050912
     atom    9 type  2   force =    -0.00032671   -0.00016517    0.00074101
     atom   10 type  2   force =     0.00021094   -0.00064890   -0.00043912
     atom   11 type  2   force =     0.00038724   -0.00030356    0.00035841
     atom   12 type  2   force =    -0.00077899    0.00094394   -0.00001892
     atom   13 type  2   force =    -0.00065267    0.00017760   -0.00103788
     atom   14 type  2   force =     0.00078136   -0.00004097    0.00025601
     atom   15 type  3   force =    -0.00054268   -0.00072918   -0.00006888
     atom   16 type  3   force =     0.00070100   -0.00019418    0.00039620
     atom   17 type  3   force =    -0.00003013    0.00046078   -0.00017553
     atom   18 type  3   force =     0.00059003   -0.00033483    0.00037232
     atom   19 type  3   force =    -0.00036735    0.00056248   -0.00017569
     atom   20 type  3   force =    -0.00017524    0.00050832   -0.00050023

     Total force =     0.090410     Total SCF correction =     0.003479

     Computing stress (Cartesian axis) and pressure

          total   stress  (Ry/bohr**3)                   (kbar)     P=      -21.79
  -0.00011171   0.00020539  -0.00007080          -16.43       30.21      -10.42
   0.00020539  -0.00012228   0.00007265           30.21      -17.99       10.69
  -0.00007080   0.00007265  -0.00021048          -10.42       10.69      -30.96

     kinetic stress (kbar)  21983.81    -26.64    -53.81
                              -26.64  21985.15     55.22
                              -53.81     55.22  22096.24

     local   stress (kbar)  -2588.45  -3855.58   2731.16
                            -3855.58  -2390.53  -2802.14
                             2731.16  -2802.14  -2951.95

     nonloc. stress (kbar)   7992.86     -4.86     10.36
                               -4.86   7993.13    -10.64
                               10.36    -10.64   7981.46

     hartree stress (kbar)  12225.09   1789.07  -1373.93
                             1789.07  12133.29   1409.62
                            -1373.93   1409.62  12562.38

     exc-cor stress (kbar)   7087.53      0.11      1.01
                                0.11   7087.53     -1.04
                                1.01     -1.04   7085.82

     corecor stress (kbar) -13539.69      0.11     -0.58
                                0.11 -13539.70      0.60
                               -0.58      0.60 -13538.88

     ewald   stress (kbar) -33177.59   2128.01  -1324.63
                             2128.01 -33286.85   1359.07
                            -1324.63   1359.07 -33266.03

     hubbard stress (kbar)      0.00      0.00      0.00
                                0.00      0.00      0.00
                                0.00      0.00      0.00

     DFT-D   stress (kbar)      0.00      0.00      0.00
                                0.00      0.00      0.00
                                0.00      0.00      0.00

     XDM     stress (kbar)      0.00      0.00      0.00
                                0.00      0.00      0.00
                                0.00      0.00      0.00

     dft-nl  stress (kbar)      0.00      0.00      0.00
                                0.00      0.00      0.00
                                0.00      0.00      0.00

     TS-vdW  stress (kbar)      0.00      0.00      0.00
                                0.00      0.00      0.00
                                0.00      0.00      0.00

[...]

                                0.00      0.00      0.00

     Writing all to output data dir new_calculations/myprefix.save/

     General routines

     Parallel routines

     PAW routines

   This run was terminated on:  14:12:32  21May2023

   JOB DONE.