     Program PWSCF v.7.0 starts on 20May2023 at 21: 8: 7

     Reading input from espresso_14754.pwi
Warning: card &CELL ignored
Warning: card / ignored

     Current dimensions of program PWSCF are:
     Max number of different atomic species (ntypx) = 10
     Max number of k-points (npk) =  40000
     Max angular momentum in pseudopotentials (lmaxx) =  4

     gamma-point specific algorithms are used
     Message from routine setup:
     using ibrav=0 with symmetry is DISCOURAGED, use correct ibrav instead

     Subspace diagonalization in iterative solution of the eigenvalue problem:
     a serial algorithm will be used

     Using Slab Decomposition

     bravais-lattice index     =            0
     lattice parameter (alat)  =      12.2390  a.u.
     unit-cell volume          =    1833.2683 (a.u.)^3
     number of atoms/cell      =           15
     number of atomic types    =            3
     number of electrons       =       157.00
     number of Kohn-Sham states=           95
     kinetic-energy cutoff     =      30.0000  Ry
     charge density cutoff     =     240.0000  Ry
     scf convergence threshold =      1.0E-06
     mixing beta               =       0.7000
     number of iterations used =            8  plain     mixing
     Exchange-correlation=  SLA  PW   PBX  PBC
                           (   1   4   3   4   0   0   0)

     celldm(1)=  12.238952  celldm(2)=   0.000000  celldm(3)=   0.000000
     celldm(4)=   0.000000  celldm(5)=   0.000000  celldm(6)=   0.000000

     crystal axes: (cart. coord. in units of alat)
               a(1) = (   1.000000   0.000000   0.000000 )
               a(2) = (   0.003212   0.999995   0.000000 )
               a(3) = (   0.003213   0.003202   0.999990 )

     reciprocal axes: (cart. coord. in units 2 pi/alat)
               b(1) = (  1.000000 -0.003212 -0.003202 )
               b(2) = (  0.000000  1.000005 -0.003202 )
               b(3) = (  0.000000  0.000000  1.000010 )

     PseudoPot. # 1 for Lu read from file:
     /home/pragov/projects/rrg-bengioy-ad/pragov/crystal_structure_design/SSSP/Lu.GGA-PBE-paw-v1.0.UPF
     MD5 check sum: 9ceca61ee0c17e9380a83635bfffa61d
     Pseudo is Projector augmented-wave + core cor, Zval = 25.0
     Generated using ATOMPAW code
     Shape of augmentation charge: BESSEL
     Using radial grid of 1118 points,  8 beta functions with:
                l(1) =   0
                l(2) =   0
                l(3) =   1
                l(4) =   1
                l(5) =   2
                l(6) =   2
                l(7) =   3
                l(8) =   3
     Q(r) pseudized with 0 coefficients

     PseudoPot. # 2 for Mo read from file:
     /home/pragov/projects/rrg-bengioy-ad/pragov/crystal_structure_design/SSSP/Mo_ONCV_PBE-1.0.oncvpsp.upf
     MD5 check sum: 1b5d28e075c9ccadda658a603575cd1f
     Pseudo is Norm-conserving, Zval = 14.0
     Generated using ONCVPSP code by D. R. Hamann
     Using radial grid of 1526 points,  6 beta functions with:
                l(1) =   0
                l(2) =   0
                l(3) =   1
                l(4) =   1
                l(5) =   2
                l(6) =   2

     PseudoPot. # 3 for S  read from file:
     /home/pragov/projects/rrg-bengioy-ad/pragov/crystal_structure_design/SSSP/s_pbe_v1.4.uspp.F.UPF
     MD5 check sum: 88d86576ff6df21479756cfb9bdac1df
     Pseudo is Ultrasoft + core correction, Zval =  6.0
     Generated by new atomic code, or converted to UPF format
     Using radial grid of  907 points,  6 beta functions with:
                l(1) =   0
                l(2) =   0
                l(3) =   1
                l(4) =   1
                l(5) =   2
                l(6) =   2
     Q(r) pseudized with  8 coefficients,  rinner =    1.300   1.300   1.300
                                                       1.300   1.300

     atomic species   valence    mass     pseudopotential
        Lu            25.00   174.96680     Lu( 1.00)
        Mo            14.00    95.95000     Mo( 1.00)
        S              6.00    32.06000     S ( 1.00)

      2 Sym. Ops., with inversion, found

                                    s                        frac. trans.

      isym =  1     identity

 cryst.   s( 1) = (     1          0          0      )
                  (     0          1          0      )
                  (     0          0          1      )

 cart.    s( 1) = (  1.0000000 -0.0000000 -0.0000000 )
                  (  0.0000000  1.0000000 -0.0000000 )
                  (  0.0000000  0.0000000  1.0000000 )

      isym =  2     inversion

 cryst.   s( 2) = (    -1          0          0      )
                  (     0         -1          0      )
                  (     0          0         -1      )

 cart.    s( 2) = ( -1.0000000  0.0000000  0.0000000 )
                  (  0.0000000 -1.0000000  0.0000000 )
                  (  0.0000000  0.0000000 -1.0000000 )

   Cartesian axes

     site n.     atom                  positions (alat units)
         1           Lu  tau(   1) = (   0.0000000   0.0000000   0.0000000  )
         2           Mo  tau(   2) = (   0.7801921   0.5826782   0.4406995  )
         3           Mo  tau(   3) = (   0.4450671   0.7787663   0.5812640  )
         4           Mo  tau(   4) = (   0.5851816   0.4431895   0.7769010  )
         5           Mo  tau(   5) = (   0.2262329   0.4205188   0.5592902  )
         6           Mo  tau(   6) = (   0.5613578   0.2244307   0.4187257  )
         7           Mo  tau(   7) = (   0.4212434   0.5600075   0.2230887  )
         8           S   tau(   8) = (   0.7700148   0.7675451   0.7650911  )
         9           S   tau(   9) = (   0.2364102   0.2356520   0.2348986  )
        10           S   tau(  10) = (   0.2531594   0.6355684   0.8723970  )
        11           S   tau(  11) = (   0.8752365   0.2503490   0.6327715  )
        12           S   tau(  12) = (   0.6363783   0.8731967   0.2483214  )
        13           S   tau(  13) = (   0.7532656   0.3676287   0.1275927  )
        14           S   tau(  14) = (   0.1311884   0.7528480   0.3672182  )
        15           S   tau(  15) = (   0.3700467   0.1300004   0.7516683  )

   Crystallographic axes

     site n.     atom                  positions (cryst. coord.)
         1           Lu  tau(   1) = (  0.0000000  0.0000000  0.0000000  )
         2           Mo  tau(   2) = (  0.7769090  0.5812700  0.4407040  )
         3           Mo  tau(   3) = (  0.4407040  0.7769090  0.5812700  )
         4           Mo  tau(   4) = (  0.5812700  0.4407040  0.7769090  )
         5           Mo  tau(   5) = (  0.2230910  0.4187300  0.5592960  )
         6           Mo  tau(   6) = (  0.5592960  0.2230910  0.4187300  )
         7           Mo  tau(   7) = (  0.4187300  0.5592960  0.2230910  )
         8           S   tau(   8) = (  0.7650990  0.7650990  0.7650990  )
         9           S   tau(   9) = (  0.2349010  0.2349010  0.2349010  )
        10           S   tau(  10) = (  0.2483240  0.6327780  0.8724060  )
        11           S   tau(  11) = (  0.8724060  0.2483240  0.6327780  )
        12           S   tau(  12) = (  0.6327780  0.8724060  0.2483240  )
        13           S   tau(  13) = (  0.7516760  0.3672220  0.1275940  )
        14           S   tau(  14) = (  0.1275940  0.7516760  0.3672220  )
        15           S   tau(  15) = (  0.3672220  0.1275940  0.7516760  )

     number of k points=     1  Methfessel-Paxton smearing, width (Ry)=  0.0010
                       cart. coord. in units 2pi/alat
        k(    1) = (   0.0000000   0.0000000   0.0000000), wk =   2.0000000

                       cryst. coord.
        k(    1) = (   0.0000000   0.0000000   0.0000000), wk =   2.0000000

     Initial potential from superposition of free atoms

     starting charge     156.9900, renormalised to     157.0000
     Starting wfcs are  124 randomized atomic wfcs
     Checking if some PAW data can be deallocated...

     Self-consistent Calculation

     iteration #  1     ecut=    30.00 Ry     beta= 0.70
     Davidson diagonalization with overlap

     ethr =  1.00E-02,  avg # of iterations =  2.0

     total energy              =   -2095.34928008 Ry
     estimated scf accuracy    <       2.20053852 Ry

[...]

     total energy              =   -2096.69430081 Ry
     estimated scf accuracy    <       0.00000270 Ry

     iteration # 19     ecut=    30.00 Ry     beta= 0.70
     Davidson diagonalization with overlap

     ethr =  1.49E-09,  avg # of iterations =  1.0

     End of self-consistent calculation

          k = 0.0000 0.0000 0.0000 (  2539 PWs)   bands (ev):

   -48.2318 -48.1033 -48.0837 -48.0833 -48.0341 -48.0337 -44.6448 -22.8959
   -22.6481 -22.5877 -22.5876 -22.5746 -22.5744 -22.5238 -22.1529 -22.1528
   -22.1309 -22.0163 -22.0160 -21.9629 -21.9407 -21.9173 -21.9172 -21.8900
   -21.8899 -15.3043 -15.3042 -15.1751  -1.7329  -0.5547  -0.5546  -0.3934
    -0.2881  -0.2880  -0.2088   0.0704   6.4218   6.4901   6.4901   6.7989
     6.8185   6.8424   6.8630   6.8630   6.8733   6.8734   7.1039   7.1040
     7.4140   7.6805   7.8337   7.8934   7.8934   7.9328   8.0613   8.0614
     8.7564   8.7564   8.8727   8.9580   8.9580   9.4372   9.7822  10.2398
    10.2398  10.3319  10.3319  10.5565  10.7325  10.7326  11.3946  11.5714
    11.6098  11.6098  11.9171  12.2790  12.2791  12.5391  12.5392  13.6706
    14.0765  14.0766  14.5742  14.5743  14.8090  14.8090  14.9218  15.2586
    15.5195  15.5195  15.5938  15.5939  15.8408  15.9579  15.9972

     occupation numbers
     1.0000   1.0000   1.0000   1.0000   1.0000   1.0000   1.0000   1.0000
     1.0000   1.0000   1.0000   1.0000   1.0000   1.0000   1.0000   1.0000
     1.0000   1.0000   1.0000   1.0000   1.0000   1.0000   1.0000   1.0000
     1.0000   1.0000   1.0000   1.0000   1.0000   1.0000   1.0000   1.0000
     1.0000   1.0000   1.0000   1.0000   1.0000   1.0000   1.0000   1.0000
     1.0000   1.0000   1.0000   1.0000   1.0000   1.0000   1.0000   1.0000
     1.0000   1.0000   1.0000   1.0000   1.0000   1.0000   1.0000   1.0000
     1.0000   1.0000   1.0000   1.0000   1.0000   1.0000   1.0000   1.0000
     1.0000   1.0000   1.0000   1.0000   1.0000   1.0000   1.0000   1.0000
     1.0000   1.0000   1.0000   1.0000   1.0000   0.7506   0.7494  -0.0000
    -0.0000  -0.0000  -0.0000  -0.0000  -0.0000  -0.0000  -0.0000  -0.0000
    -0.0000  -0.0000  -0.0000  -0.0000  -0.0000  -0.0000  -0.0000

     the Fermi energy is    12.5434 ev

!    total energy              =   -2096.69430084 Ry
     estimated scf accuracy    <       0.00000017 Ry
     smearing contrib. (-TS)   =      -0.00041261 Ry
     internal energy E=F+TS    =   -2096.69388822 Ry

     The total energy is F=E-TS. E is the sum of the following terms:
     one-electron contribution =    -872.26899145 Ry
     hartree contribution      =     466.27487417 Ry
     xc contribution           =    -203.53450271 Ry
     ewald contribution        =    -996.44255095 Ry
     one-center paw contrib.   =    -490.72271729 Ry
      -> PAW hartree energy AE =     488.64103068 Ry
      -> PAW hartree energy PS =    -420.00718151 Ry
      -> PAW xc energy AE      =    -599.26600587 Ry
      -> PAW xc energy PS      =      39.90943941 Ry
      -> total E_H with PAW    =     534.90872334 Ry
      -> total E_XC with PAW   =    -762.89106917 Ry

     convergence has been achieved in  19 iterations

     Forces acting on atoms (cartesian axes, Ry/au):

     atom    1 type  1   force =     0.00000000    0.00000000    0.00000000
     atom    2 type  2   force =    -0.04384853   -0.02565585    0.00625823
     atom    3 type  2   force =     0.00600252   -0.04389345   -0.02569228
     atom    4 type  2   force =    -0.02584314    0.00609473   -0.04372954
     atom    5 type  2   force =     0.04384853    0.02565585   -0.00625823
     atom    6 type  2   force =    -0.00600252    0.04389345    0.02569228
     atom    7 type  2   force =     0.02584314   -0.00609473    0.04372954
     atom    8 type  3   force =     0.00064474    0.00062449    0.00064293
     atom    9 type  3   force =    -0.00064474   -0.00062449   -0.00064293
     atom   10 type  3   force =    -0.00538437   -0.00658218    0.00684305
     atom   11 type  3   force =     0.00681400   -0.00541472   -0.00663881
     atom   12 type  3   force =    -0.00660092    0.00685354   -0.00545805
     atom   13 type  3   force =     0.00538437    0.00658218   -0.00684305
     atom   14 type  3   force =    -0.00681400    0.00541472    0.00663881
     atom   15 type  3   force =     0.00660092   -0.00685354    0.00545805
     The non-local contrib.  to forces
     atom    1 type  1   force =     0.00000000    0.00000000    0.00000000
     atom    2 type  2   force =    -0.03972326    0.02225686    0.01673249
     atom    3 type  2   force =     0.01679686   -0.03973022    0.02215480
     atom    4 type  2   force =     0.02201699    0.01664819   -0.03980158
     atom    5 type  2   force =     0.03972326   -0.02225686   -0.01673249
     atom    6 type  2   force =    -0.01679686    0.03973022   -0.02215480
     atom    7 type  2   force =    -0.02201699   -0.01664819    0.03980158
     atom    8 type  3   force =    -0.03300348   -0.03288110   -0.03277031
     atom    9 type  3   force =     0.03300348    0.03288110    0.03277031
     atom   10 type  3   force =     0.16425648   -0.02657295   -0.01651237
     atom   11 type  3   force =    -0.01605787    0.16427991   -0.02649589
     atom   12 type  3   force =    -0.02607621   -0.01601869    0.16442161
     atom   13 type  3   force =    -0.16425648    0.02657295    0.01651237
     atom   14 type  3   force =     0.01605787   -0.16427991    0.02649589
     atom   15 type  3   force =     0.02607621    0.01601869   -0.16442161
     The ionic contribution  to forces
     atom    1 type  1   force =     0.00000000   -0.00000000   -0.00000000
     atom    2 type  2   force =    19.73892652    6.50424948   -5.95394262
     atom    3 type  2   force =    -5.86964205   19.75788463    6.52328164
     atom    4 type  2   force =     6.56762696   -5.89077102   19.73689417
     atom    5 type  2   force =   -19.73892652   -6.50424948    5.95394262
     atom    6 type  2   force =     5.86964205  -19.75788463   -6.52328164
     atom    7 type  2   force =    -6.56762696    5.89077102  -19.73689417
     atom    8 type  3   force =     4.31420355    4.30036653    4.28661752
     atom    9 type  3   force =    -4.31420354   -4.30036653   -4.28661752
     atom   10 type  3   force =    -6.15021902    1.57985074    5.20469685
     atom   11 type  3   force =     5.18994451   -6.16692319    1.56317594
     atom   12 type  3   force =     1.56008484    5.18495982   -6.17189725
     atom   13 type  3   force =     6.15021902   -1.57985074   -5.20469685
     atom   14 type  3   force =    -5.18994451    6.16692319   -1.56317594
     atom   15 type  3   force =    -1.56008484   -5.18495982    6.17189725
     The local contribution  to forces
     atom    1 type  1   force =     0.00044470    0.00008898   -0.00002502
     atom    2 type  2   force =   -19.74325352   -6.55203870    5.94333784
     atom    3 type  2   force =     5.85855914  -19.76220734   -6.57080934
     atom    4 type  2   force =    -6.61593390    5.88038349  -19.74019689
     atom    5 type  2   force =    19.74332700    6.55206841   -5.94355017
     atom    6 type  2   force =    -5.85931330   19.76218716    6.57060364
     atom    7 type  2   force =     6.61526644   -5.88040711   19.74033422
     atom    8 type  3   force =    -4.28183240   -4.26809865   -4.25417441
     atom    9 type  3   force =     4.28188165    4.26821357    4.25426479
     atom   10 type  3   force =     5.98958394   -1.56125999   -5.18148603
     atom   11 type  3   force =    -5.16722764    6.00608693   -1.54459772
     atom   12 type  3   force =    -1.54210273   -5.16235626    6.01062866
     atom   13 type  3   force =    -5.98961588    1.56123911    5.18148353
     atom   14 type  3   force =     5.16751453   -6.00615656    1.54458710
     atom   15 type  3   force =     1.54188918    5.16236747   -6.01067694
     The core correction contribution to forces
     atom    1 type  1   force =     0.00000000    0.00000000   -0.00000000
     atom    2 type  2   force =     0.00000000    0.00000000    0.00000000
     atom    3 type  2   force =     0.00000000    0.00000000    0.00000000
     atom    4 type  2   force =     0.00000000    0.00000000    0.00000000
     atom    5 type  2   force =     0.00000000    0.00000000    0.00000000
     atom    6 type  2   force =     0.00000000    0.00000000    0.00000000
     atom    7 type  2   force =     0.00000000    0.00000000    0.00000000
     atom    8 type  3   force =     0.00125469    0.00124923    0.00124524
     atom    9 type  3   force =    -0.00125418   -0.00124972   -0.00124615
     atom   10 type  3   force =    -0.00891102    0.00141247    0.00030242
     atom   11 type  3   force =     0.00027677   -0.00891021    0.00140978
     atom   12 type  3   force =     0.00138567    0.00027542   -0.00891877
     atom   13 type  3   force =     0.00891061   -0.00141226   -0.00030202
     atom   14 type  3   force =    -0.00027733    0.00891063   -0.00141037
     atom   15 type  3   force =    -0.00138524   -0.00027536    0.00891936
     The Hubbard contrib.    to forces
     atom    1 type  1   force =     0.00000000    0.00000000    0.00000000
     atom    2 type  2   force =     0.00000000    0.00000000    0.00000000
     atom    3 type  2   force =     0.00000000    0.00000000    0.00000000
     atom    4 type  2   force =     0.00000000    0.00000000    0.00000000
     atom    5 type  2   force =     0.00000000    0.00000000    0.00000000
     atom    6 type  2   force =     0.00000000    0.00000000    0.00000000
     atom    7 type  2   force =     0.00000000    0.00000000    0.00000000
     atom    8 type  3   force =     0.00000000    0.00000000    0.00000000
     atom    9 type  3   force =     0.00000000    0.00000000    0.00000000
     atom   10 type  3   force =     0.00000000    0.00000000    0.00000000
     atom   11 type  3   force =     0.00000000    0.00000000    0.00000000
     atom   12 type  3   force =     0.00000000    0.00000000    0.00000000
     atom   13 type  3   force =     0.00000000    0.00000000    0.00000000
     atom   14 type  3   force =     0.00000000    0.00000000    0.00000000
     atom   15 type  3   force =     0.00000000    0.00000000    0.00000000
     The SCF correction term to forces
     atom    1 type  1   force =    -0.00051699   -0.00010763    0.00001380
     atom    2 type  2   force =     0.00019634   -0.00012112    0.00012722
     atom    3 type  2   force =     0.00029467    0.00015849   -0.00033079
     atom    4 type  2   force =     0.00043984   -0.00017021   -0.00062541
     atom    5 type  2   force =    -0.00028060    0.00009615    0.00007852
     atom    6 type  2   force =     0.00047169   -0.00014026    0.00051367
     atom    7 type  2   force =     0.00021366    0.00018529    0.00048777
     atom    8 type  3   force =     0.00002515   -0.00001294   -0.00027861
     atom    9 type  3   force =    -0.00006937   -0.00010433    0.00018214
     atom   10 type  3   force =    -0.00009811   -0.00000881   -0.00015376
     atom   11 type  3   force =    -0.00012964    0.00005514   -0.00013650
     atom   12 type  3   force =     0.00010961   -0.00000494    0.00031270
     atom   13 type  3   force =     0.00012373    0.00003677    0.00016398
     atom   14 type  3   force =    -0.00017243    0.00002064    0.00013656
     atom   15 type  3   force =     0.00010771   -0.00000271   -0.00025500

     Total force =     0.128224     Total SCF correction =     0.001606

     Computing stress (Cartesian axis) and pressure

          total   stress  (Ry/bohr**3)                   (kbar)     P=      -20.14
  -0.00013692   0.00000411   0.00000414          -20.14        0.60        0.61
   0.00000411  -0.00013664   0.00000422            0.60      -20.10        0.62
   0.00000414   0.00000422  -0.00013711            0.61        0.62      -20.17

     kinetic stress (kbar)  18452.29     17.85     17.69
                               17.85  18452.12     17.62
                               17.69     17.62  18452.13

     local   stress (kbar) -10363.83   -112.20   -111.61
                             -112.20 -10363.01   -111.27
                             -111.61   -111.27 -10362.81

     nonloc. stress (kbar)  10614.00     18.62     18.52
                               18.62  10613.89     18.46
                               18.52     18.46  10613.78

     hartree stress (kbar)  12471.40    -17.02    -17.05
                              -17.02  12471.49    -16.95
                              -17.05    -16.95  12471.92

     exc-cor stress (kbar)  -2040.72      1.78      1.77
                                1.78  -2040.73      1.76
                                1.77      1.76  -2040.74

     corecor stress (kbar)  -2501.70     -0.59     -0.58
                               -0.59  -2501.70     -0.58
                               -0.58     -0.58  -2501.70

     ewald   stress (kbar) -26651.58     92.17     91.88
                               92.17 -26652.18     91.58
                               91.88     91.58 -26652.76

     hubbard stress (kbar)      0.00      0.00      0.00
                                0.00      0.00      0.00
                                0.00      0.00      0.00

     DFT-D   stress (kbar)      0.00      0.00      0.00
                                0.00      0.00      0.00
                                0.00      0.00      0.00

     XDM     stress (kbar)      0.00      0.00      0.00
                                0.00      0.00      0.00
                                0.00      0.00      0.00

     dft-nl  stress (kbar)      0.00      0.00      0.00
                                0.00      0.00      0.00
                                0.00      0.00      0.00

     TS-vdW  stress (kbar)      0.00      0.00      0.00
                                0.00      0.00      0.00
                                0.00      0.00      0.00

[...]

                                0.00      0.00      0.00

     Writing all to output data dir new_calculations/myprefix.save/

     General routines

     Parallel routines

     PAW routines

   This run was terminated on:  21: 8:57  20May2023

   JOB DONE.