     Program PWSCF v.7.0 starts on 21May2023 at  5: 3:52

     Reading input from espresso_18891.pwi
Warning: card &CELL ignored
Warning: card / ignored

     Current dimensions of program PWSCF are:
     Max number of different atomic species (ntypx) = 10
     Max number of k-points (npk) =  40000
     Max angular momentum in pseudopotentials (lmaxx) =  4

     gamma-point specific algorithms are used
     Message from routine setup:
     using ibrav=0 with symmetry is DISCOURAGED, use correct ibrav instead

     Subspace diagonalization in iterative solution of the eigenvalue problem:
     a serial algorithm will be used

     Using Slab Decomposition

     bravais-lattice index     =            0
     lattice parameter (alat)  =      10.7054  a.u.
     unit-cell volume          =    1741.3079 (a.u.)^3
     number of atoms/cell      =           12
     number of atomic types    =            2
     number of electrons       =       212.00
     number of Kohn-Sham states=          127
     kinetic-energy cutoff     =      30.0000  Ry
     charge density cutoff     =     240.0000  Ry
     scf convergence threshold =      1.0E-06
     mixing beta               =       0.7000
     number of iterations used =            8  plain     mixing
     Exchange-correlation= PBE
                           (   1   4   3   4   0   0   0)

     celldm(1)=  10.705371  celldm(2)=   0.000000  celldm(3)=   0.000000
     celldm(4)=   0.000000  celldm(5)=   0.000000  celldm(6)=   0.000000

     crystal axes: (cart. coord. in units of alat)
               a(1) = (   1.000000   0.000000   0.000000 )
               a(2) = (  -0.500000   0.866025   0.000000 )
               a(3) = (   0.000000   0.000000   1.638852 )

     reciprocal axes: (cart. coord. in units 2 pi/alat)
               b(1) = (  1.000000  0.577350  0.000000 )
               b(2) = (  0.000000  1.154701  0.000000 )
               b(3) = (  0.000000  0.000000  0.610183 )

     PseudoPot. # 1 for La read from file:
     /home/pragov/projects/rrg-bengioy-ad/pragov/crystal_structure_design/SSSP/La.GGA-PBE-paw-v1.0.UPF
     MD5 check sum: 436541e95c1ad8901025bd0b0ed42ae2
     Pseudo is Projector augmented-wave + core cor, Zval = 11.0
     Generated using ATOMPAW code
     Shape of augmentation charge: BESSEL
     Using radial grid of 1101 points,  8 beta functions with:
                l(1) =   0
                l(2) =   0
                l(3) =   1
                l(4) =   1
                l(5) =   2
                l(6) =   2
                l(7) =   3
                l(8) =   3
     Q(r) pseudized with 0 coefficients

     PseudoPot. # 2 for Ag read from file:
     /home/pragov/projects/rrg-bengioy-ad/pragov/crystal_structure_design/SSSP/Ag_ONCV_PBE-1.0.oncvpsp.upf
     MD5 check sum: 94f47bd0669c641108e45594df92fabc
     Pseudo is Norm-conserving, Zval = 19.0
     Generated using ONCVPSP code by D. R. Hamann
     Using radial grid of 1398 points,  6 beta functions with:
                l(1) =   0
                l(2) =   0
                l(3) =   1
                l(4) =   1
                l(5) =   2
                l(6) =   2

     atomic species   valence    mass     pseudopotential
        La            11.00   138.90547     La( 1.00)
        Ag            19.00   107.86820     Ag( 1.00)

     12 Sym. Ops., with inversion, found

                                    s                        frac. trans.

      isym =  1     identity

 cryst.   s( 1) = (     1          0          0      )
                  (     0          1          0      )
                  (     0          0          1      )

 cart.    s( 1) = (  1.0000000  0.0000000  0.0000000 )
                  (  0.0000000  1.0000000  0.0000000 )
                  (  0.0000000  0.0000000  1.0000000 )

      isym =  2     180 deg rotation - cart. axis [1,0,0]

[...]

      isym =  3     120 deg rotation - cryst. axis [0,0,1]

[...]

      isym =  6     180 deg rotation - cryst. axis [1,1,0]

[...]

      isym =  7     inversion

[...]

      isym =  8     inv. 180 deg rotation - cart. axis [1,0,0]

[...]

      isym =  9     inv. 120 deg rotation - cryst. axis [0,0,1]

 cryst.   s( 9) = (     0         -1          0      )
                  (     1          1          0      )
                  (     0          0         -1      )

 cart.    s( 9) = (  0.5000000  0.8660254  0.0000000 )
                  ( -0.8660254  0.5000000  0.0000000 )
                  (  0.0000000  0.0000000 -1.0000000 )

[...]

 cryst.   s(10) = (     1          1          0      )
                  (    -1          0          0      )
                  (     0          0         -1      )

 cart.    s(10) = (  0.5000000 -0.8660254  0.0000000 )
                  (  0.8660254  0.5000000  0.0000000 )
                  (  0.0000000  0.0000000 -1.0000000 )

[...]

      isym = 12     inv. 180 deg rotation - cryst. axis [1,1,0]

 cryst.   s(12) = (     0         -1          0      )
                  (    -1          0          0      )
                  (     0          0          1      )

 cart.    s(12) = (  0.5000000 -0.8660254  0.0000000 )
                  ( -0.8660254 -0.5000000  0.0000000 )
                  (  0.0000000  0.0000000  1.0000000 )

   Cartesian axes

     site n.     atom                  positions (alat units)
         1           La  tau(   1) = (   0.5000005   0.2886748   1.4918293  )
         2           La  tau(   2) = (  -0.0000005   0.5773505   0.1470231  )
         3           Ag  tau(   3) = (   0.0000000   0.0000000   0.8194262  )
         4           Ag  tau(   4) = (   0.0000000   0.0000000   0.0000000  )
         5           Ag  tau(   5) = (   0.7447420   0.1473733   0.4287025  )
         6           Ag  tau(   6) = (   0.5000000   0.5712788   0.4287025  )
         7           Ag  tau(   7) = (   0.2552580   0.1473733   0.4287025  )
         8           Ag  tau(   8) = (  -0.2447420   0.7186521   1.2101499  )
         9           Ag  tau(   9) = (  -0.0000000   0.2947465   1.2101499  )
        10           Ag  tau(  10) = (   0.2447420   0.7186521   1.2101499  )
        11           Ag  tau(  11) = (  -0.0000005   0.5773505   0.7352580  )
        12           Ag  tau(  12) = (   0.5000005   0.2886748   0.9035943  )

   Crystallographic axes

     site n.     atom                  positions (cryst. coord.)
         1           La  tau(   1) = (  0.6666670  0.3333330  0.9102890  )
         2           La  tau(   2) = (  0.3333330  0.6666670  0.0897110  )
         3           Ag  tau(   3) = (  0.0000000  0.0000000  0.5000000  )
         4           Ag  tau(   4) = (  0.0000000  0.0000000  0.0000000  )
         5           Ag  tau(   5) = (  0.8298280  0.1701720  0.2615870  )
         6           Ag  tau(   6) = (  0.8298280  0.6596560  0.2615870  )
         7           Ag  tau(   7) = (  0.3403440  0.1701720  0.2615870  )
         8           Ag  tau(   8) = (  0.1701720  0.8298280  0.7384130  )
         9           Ag  tau(   9) = (  0.1701720  0.3403440  0.7384130  )
        10           Ag  tau(  10) = (  0.6596560  0.8298280  0.7384130  )
        11           Ag  tau(  11) = (  0.3333330  0.6666670  0.4486420  )
        12           Ag  tau(  12) = (  0.6666670  0.3333330  0.5513580  )

     number of k points=     1  Methfessel-Paxton smearing, width (Ry)=  0.0010
                       cart. coord. in units 2pi/alat
        k(    1) = (   0.0000000   0.0000000   0.0000000), wk =   2.0000000

                       cryst. coord.
        k(    1) = (   0.0000000   0.0000000   0.0000000), wk =   2.0000000

     Initial potential from superposition of free atoms

     starting charge     211.9800, renormalised to     212.0000
     Starting wfcs are  164 randomized atomic wfcs
     Checking if some PAW data can be deallocated...

     Self-consistent Calculation

     iteration #  1     ecut=    30.00 Ry     beta= 0.70
     Davidson diagonalization with overlap

     ethr =  1.00E-02,  avg # of iterations =  5.0

     Threshold (ethr) on eigenvalues was too large:
     Diagonalizing with lowered threshold

     Davidson diagonalization with overlap

[...]

     total energy              =   -3785.77647736 Ry
     estimated scf accuracy    <       1.53587281 Ry

[...]

     total energy              =   -3786.77189188 Ry
     estimated scf accuracy    <       0.00000657 Ry

     iteration # 21     ecut=    30.00 Ry     beta= 0.70
     Davidson diagonalization with overlap

     ethr =  3.10E-09,  avg # of iterations =  5.0

     End of self-consistent calculation

          k = 0.0000 0.0000 0.0000 (  2404 PWs)   bands (ev):

   -78.9941 -78.9933 -78.6573 -78.4085 -78.4080 -78.3975 -78.3970 -78.3969
   -78.3967 -78.0655 -42.0226 -42.0226 -42.0202 -42.0201 -41.9286 -41.9272
   -41.7149 -41.7148 -41.6230 -41.5170 -41.5166 -41.5153 -41.5150 -41.4963
   -41.4915 -41.4631 -41.4627 -41.3795 -41.3792 -41.3776 -41.3773 -41.3592
   -41.3512 -41.3474 -41.3470 -41.3417 -41.3414 -41.1108 -41.0237 -41.0237
   -17.3113 -17.1914  -1.2383  -1.2382  -1.1017  -0.9818  -0.8268  -0.8267
     7.9017   8.5486   8.6456   8.9310   8.9682   8.9683   9.1482   9.1484
     9.3490   9.3856   9.3856   9.5151   9.5152   9.5275   9.5276   9.5323
     9.5772   9.7443   9.7443   9.9054   9.9055  10.0855  10.1033  10.1168
    10.1168  10.3316  10.3316  10.5180  10.5181  10.6301  10.8169  10.8172
    10.8203  10.8204  10.9245  10.9658  11.0257  11.0259  11.0935  11.1532
    11.1569  11.1570  11.1808  11.1811  11.2162  11.2165  11.5689  11.7105
    11.7107  11.8454  11.8456  11.9986  12.0400  14.4088  14.8418  14.8418
    14.9027  15.3726  15.3840  15.3841  15.8083  15.8083  16.4112  16.4112
    16.9646  17.1500  17.3248  17.3249  17.3624  17.3755  17.3847  17.3847
    17.4561  17.4561  17.6252  17.6254  17.6798  17.6799  17.8671

     occupation numbers
     1.0000   1.0000   1.0000   1.0000   1.0000   1.0000   1.0000   1.0000
     1.0000   1.0000   1.0000   1.0000   1.0000   1.0000   1.0000   1.0000
     1.0000   1.0000   1.0000   1.0000   1.0000   1.0000   1.0000   1.0000
     1.0000   1.0000   1.0000   1.0000   1.0000   1.0000   1.0000   1.0000
     1.0000   1.0000   1.0000   1.0000   1.0000   1.0000   1.0000   1.0000
     1.0000   1.0000   1.0000   1.0000   1.0000   1.0000   1.0000   1.0000
     1.0000   1.0000   1.0000   1.0000   1.0000   1.0000   1.0000   1.0000
     1.0000   1.0000   1.0000   1.0000   1.0000   1.0000   1.0000   1.0000
     1.0000   1.0000   1.0000   1.0000   1.0000   1.0000   1.0000   1.0000
     1.0000   1.0000   1.0000   1.0000   1.0000   1.0000   1.0000   1.0000
     1.0000   1.0000   1.0000   1.0000   1.0000   1.0000   1.0000   1.0000
     1.0000   1.0000   1.0000   1.0000   1.0000   1.0000   1.0000   1.0000
     1.0000   1.0000   1.0000   1.0000   1.0000   1.0000   1.0000   1.0000
     1.0000   0.7570   0.1235   0.1195  -0.0000  -0.0000  -0.0000  -0.0000
    -0.0000  -0.0000  -0.0000  -0.0000  -0.0000  -0.0000  -0.0000  -0.0000
    -0.0000  -0.0000  -0.0000  -0.0000  -0.0000  -0.0000  -0.0000

     the Fermi energy is    15.3770 ev

!    total energy              =   -3786.77189196 Ry
     estimated scf accuracy    <       0.00000086 Ry
     smearing contrib. (-TS)   =      -0.00040445 Ry
     internal energy E=F+TS    =   -3786.77148751 Ry

     The total energy is F=E-TS. E is the sum of the following terms:
     one-electron contribution =   -1587.03250795 Ry
     hartree contribution      =     877.93423750 Ry
     xc contribution           =    -287.69617803 Ry
     ewald contribution        =   -1993.87787649 Ry
     one-center paw contrib.   =    -796.09916253 Ry
      -> PAW hartree energy AE =      70.48628817 Ry
      -> PAW hartree energy PS =     -70.54818610 Ry
      -> PAW xc energy AE      =    -810.70414497 Ry
      -> PAW xc energy PS      =      14.66688036 Ry
      -> total E_H with PAW    =     877.87233957 Ry
      -> total E_XC with PAW   =   -1083.73344264 Ry

     convergence has been achieved in  21 iterations

     Forces acting on atoms (cartesian axes, Ry/au):

     atom    1 type  1   force =    -0.00000000    0.00000000    0.01033032
     atom    2 type  1   force =     0.00000000    0.00000000   -0.01033032
     atom    3 type  2   force =     0.00000000    0.00000000    0.00000000
     atom    4 type  2   force =     0.00000000    0.00000000    0.00000000
     atom    5 type  2   force =    -0.01087897    0.00628098   -0.01090339
     atom    6 type  2   force =     0.00000000   -0.01256195   -0.01090339
     atom    7 type  2   force =     0.01087897    0.00628098   -0.01090339
     atom    8 type  2   force =     0.01087897   -0.00628098    0.01090339
     atom    9 type  2   force =     0.00000000    0.01256195    0.01090339
     atom   10 type  2   force =    -0.01087897   -0.00628098    0.01090339
     atom   11 type  2   force =     0.00000000   -0.00000000    0.01381124
     atom   12 type  2   force =     0.00000000    0.00000000   -0.01381124
     The non-local contrib.  to forces
     atom    1 type  1   force =     0.00000000   -0.00000000    0.10201114
     atom    2 type  1   force =    -0.00000000   -0.00000000   -0.10201114
     atom    3 type  2   force =     0.00000000    0.00000000    0.00000000
     atom    4 type  2   force =     0.00000000    0.00000000    0.00000000
     atom    5 type  2   force =     0.12189908   -0.07037846    0.20759022
     atom    6 type  2   force =     0.00000000    0.14075693    0.20759022
     atom    7 type  2   force =    -0.12189908   -0.07037847    0.20759022
     atom    8 type  2   force =    -0.12189908    0.07037846   -0.20759022
     atom    9 type  2   force =     0.00000000   -0.14075693   -0.20759022
     atom   10 type  2   force =     0.12189908    0.07037847   -0.20759022
     atom   11 type  2   force =     0.00000000    0.00000000   -0.07830409
     atom   12 type  2   force =     0.00000000   -0.00000000    0.07830409
     The ionic contribution  to forces
     atom    1 type  1   force =    -0.00005881    0.00003396   11.71954615
     atom    2 type  1   force =     0.00005881   -0.00003396  -11.71954615
     atom    3 type  2   force =     0.00000000    0.00000000    0.00000000
     atom    4 type  2   force =     0.00000000    0.00000000    0.00000000
     atom    5 type  2   force =    -5.72876572    3.30750431  -29.07900047
     atom    6 type  2   force =    -0.00007703   -6.61504798  -29.07897731
     atom    7 type  2   force =     5.72876098    3.30759088  -29.07897731
     atom    8 type  2   force =     5.72876572   -3.30750431   29.07900047
     atom    9 type  2   force =     0.00007703    6.61504798   29.07897731
     atom   10 type  2   force =    -5.72876098   -3.30759088   29.07897731
     atom   11 type  2   force =     0.00013205   -0.00007624  -11.51430267
     atom   12 type  2   force =    -0.00013206    0.00007624   11.51430267
     The local contribution  to forces
     atom    1 type  1   force =     0.00019469    0.00086548  -11.81101206
     atom    2 type  1   force =    -0.00017526   -0.00033860   11.81114116
     atom    3 type  2   force =     0.00008246   -0.00075863   -0.00018458
     atom    4 type  2   force =     0.00001872   -0.00070391    0.00007168
     atom    5 type  2   force =     5.59566804   -3.23027974   28.86120154
     atom    6 type  2   force =     0.00011060    6.46108443   28.86150505
     atom    7 type  2   force =    -5.59560220   -3.23035091   28.86122516
     atom    8 type  2   force =    -5.59562117    3.23039011  -28.86142661
     atom    9 type  2   force =    -0.00020072   -6.46116289  -28.86126133
     atom   10 type  2   force =     5.59550672    3.23060688  -28.86134369
     atom   11 type  2   force =    -0.00036657   -0.00055875   11.60769233
     atom   12 type  2   force =     0.00038371    0.00158106  -11.60767456
     The core correction contribution to forces
     atom    1 type  1   force =     0.00000006    0.00000041   -0.00020539
     atom    2 type  1   force =    -0.00000005   -0.00000015    0.00020540
     atom    3 type  2   force =     0.00000000    0.00000000    0.00000000
     atom    4 type  2   force =     0.00000000    0.00000000    0.00000000
     atom    5 type  2   force =     0.00000000    0.00000000    0.00000000
     atom    6 type  2   force =     0.00000000    0.00000000    0.00000000
     atom    7 type  2   force =     0.00000000    0.00000000    0.00000000
     atom    8 type  2   force =     0.00000000    0.00000000    0.00000000
     atom    9 type  2   force =     0.00000000    0.00000000    0.00000000
     atom   10 type  2   force =     0.00000000    0.00000000    0.00000000
     atom   11 type  2   force =     0.00000000    0.00000000    0.00000000
     atom   12 type  2   force =     0.00000000    0.00000000    0.00000000
     The Hubbard contrib.    to forces
     atom    1 type  1   force =     0.00000000    0.00000000    0.00000000
     atom    2 type  1   force =     0.00000000    0.00000000    0.00000000
     atom    3 type  2   force =     0.00000000    0.00000000    0.00000000
     atom    4 type  2   force =     0.00000000    0.00000000    0.00000000
     atom    5 type  2   force =     0.00000000    0.00000000    0.00000000
     atom    6 type  2   force =     0.00000000    0.00000000    0.00000000
     atom    7 type  2   force =     0.00000000    0.00000000    0.00000000
     atom    8 type  2   force =     0.00000000    0.00000000    0.00000000
     atom    9 type  2   force =     0.00000000    0.00000000    0.00000000
     atom   10 type  2   force =     0.00000000    0.00000000    0.00000000
     atom   11 type  2   force =     0.00000000    0.00000000    0.00000000
     atom   12 type  2   force =     0.00000000    0.00000000    0.00000000
     The SCF correction term to forces
     atom    1 type  1   force =    -0.00007721   -0.00047621   -0.00001847
     atom    2 type  1   force =     0.00006131    0.00022019   -0.00012854
     atom    3 type  2   force =    -0.00009240    0.00079599    0.00030447
     atom    4 type  2   force =    -0.00001499    0.00059099   -0.00019360
     atom    5 type  2   force =     0.00034894   -0.00058890   -0.00068515
     atom    6 type  2   force =    -0.00004794    0.00070277   -0.00100424
     atom    7 type  2   force =    -0.00039529   -0.00058730   -0.00073849
     atom    8 type  2   force =    -0.00024245    0.00056262    0.00094586
     atom    9 type  2   force =     0.00017439   -0.00062416    0.00076171
     atom   10 type  2   force =     0.00031168    0.00037795    0.00087940
     atom   11 type  2   force =     0.00022408    0.00053488   -0.00119950
     atom   12 type  2   force =    -0.00020204   -0.00152343    0.00133139

     Total force =     0.047487     Total SCF correction =     0.003756

     Computing stress (Cartesian axis) and pressure

          total   stress  (Ry/bohr**3)                   (kbar)     P=    -1195.41
  -0.00801051  -0.00000000   0.00000000        -1178.39       -0.00        0.00
  -0.00000000  -0.00801051   0.00000000           -0.00    -1178.39        0.00
   0.00000000   0.00000000  -0.00835775            0.00        0.00    -1229.47

     kinetic stress (kbar)  55566.89      0.00      0.00
                                0.00  55566.89     -0.00
                               -0.00     -0.00  55785.67

     local   stress (kbar) -24249.60     -0.01     -0.08
                               -0.01 -24249.14     -0.31
                               -0.08     -0.31   -577.74

     nonloc. stress (kbar)  -1374.85     -0.00      0.00
                               -0.00  -1374.85     -0.00
                                0.00     -0.00  -1373.49

     hartree stress (kbar)  28557.17     -0.05      0.02
                               -0.05  28557.44      0.05
                                0.02      0.05  17052.96

     exc-cor stress (kbar)  -7667.42      0.00      0.00
                                0.00  -7667.43      0.00
                                0.00      0.00  -7664.00

     corecor stress (kbar)    -10.88     -0.00     -0.00
                               -0.00    -10.88     -0.00
                               -0.00     -0.00    -10.88

     ewald   stress (kbar) -52000.04     -0.02      0.01
                               -0.02 -52000.07     -0.00
                                0.01     -0.00 -64441.99

     hubbard stress (kbar)      0.00      0.00      0.00
                                0.00      0.00      0.00
                                0.00      0.00      0.00

     DFT-D   stress (kbar)      0.00      0.00      0.00
                                0.00      0.00      0.00
                                0.00      0.00      0.00

     XDM     stress (kbar)      0.00      0.00      0.00
                                0.00      0.00      0.00
                                0.00      0.00      0.00

     dft-nl  stress (kbar)      0.00      0.00      0.00
                                0.00      0.00      0.00
                                0.00      0.00      0.00

     TS-vdW  stress (kbar)      0.00      0.00      0.00
                                0.00      0.00      0.00
                                0.00      0.00      0.00

[...]

                                0.00      0.00      0.00

     Writing all to output data dir new_calculations/myprefix.save/

     General routines

     Parallel routines

     PAW routines

   This run was terminated on:   5: 4:36  21May2023

   JOB DONE.