     Program PWSCF v.7.0 starts on 21May2023 at  6:15:11

     Reading input from espresso_10085.pwi
Warning: card &CELL ignored
Warning: card / ignored

     Current dimensions of program PWSCF are:
     Max number of different atomic species (ntypx) = 10
     Max number of k-points (npk) =  40000
     Max angular momentum in pseudopotentials (lmaxx) =  4
     file Cd.pbe-dn-rrkjus_psl.0.3.1.UPF: wavefunction(s)  4D renormalized
     file O.pbe-n-kjpaw_psl.0.1.UPF: wavefunction(s)  2P renormalized

     gamma-point specific algorithms are used
     Message from routine setup:
     using ibrav=0 with symmetry is DISCOURAGED, use correct ibrav instead

     Subspace diagonalization in iterative solution of the eigenvalue problem:
     a serial algorithm will be used

     Using Slab Decomposition

     bravais-lattice index     =            0
     lattice parameter (alat)  =      11.9284  a.u.
     unit-cell volume          =    1200.1351 (a.u.)^3
     number of atoms/cell      =           14
     number of atomic types    =            3
     number of electrons       =       140.00
     number of Kohn-Sham states=           84
     kinetic-energy cutoff     =      30.0000  Ry
     charge density cutoff     =     240.0000  Ry
     scf convergence threshold =      1.0E-06
     mixing beta               =       0.7000
     number of iterations used =            8  plain     mixing
     Exchange-correlation= SLA  PW   PBX  PBC
                           (   1   4   3   4   0   0   0)

     celldm(1)=  11.928387  celldm(2)=   0.000000  celldm(3)=   0.000000
     celldm(4)=   0.000000  celldm(5)=   0.000000  celldm(6)=   0.000000

     crystal axes: (cart. coord. in units of alat)
               a(1) = (   1.000000   0.000000   0.000000 )
               a(2) = (   0.500000   0.866025   0.000000 )
               a(3) = (   0.500000   0.288675   0.816497 )

     reciprocal axes: (cart. coord. in units 2 pi/alat)
               b(1) = (  1.000000 -0.577350 -0.408248 )
               b(2) = (  0.000000  1.154701 -0.408248 )
               b(3) = (  0.000000  0.000000  1.224745 )

     PseudoPot. # 1 for Cd read from file:
     /home/pragov/projects/rrg-bengioy-ad/pragov/crystal_structure_design/SSSP/Cd.pbe-dn-rrkjus_psl.0.3.1.UPF
     MD5 check sum: 558e9f355611b531a870a69ef6ace9e2
     Pseudo is Ultrasoft + core correction, Zval = 12.0
     Generated using "atomic" code by A. Dal Corso  v.5.0.99 svn rev. 10869
     Using radial grid of 1239 points,  6 beta functions with:
                l(1) =   0
                l(2) =   0
                l(3) =   1
                l(4) =   1
                l(5) =   2
                l(6) =   2
     Q(r) pseudized with 0 coefficients

     PseudoPot. # 2 for Rh read from file:
     /home/pragov/projects/rrg-bengioy-ad/pragov/crystal_structure_design/SSSP/Rh_ONCV_PBE-1.0.oncvpsp.upf
     MD5 check sum: ba07c69523b14cacd10683cd4c4284c1
     Pseudo is Norm-conserving, Zval = 17.0
     Generated using ONCVPSP code by D. R. Hamann
     Using radial grid of 1442 points,  6 beta functions with:
                l(1) =   0
                l(2) =   0
                l(3) =   1
                l(4) =   1
                l(5) =   2
                l(6) =   2

     PseudoPot. # 3 for O  read from file:
     /home/pragov/projects/rrg-bengioy-ad/pragov/crystal_structure_design/SSSP/O.pbe-n-kjpaw_psl.0.1.UPF
     MD5 check sum: 0234752ac141de4415c5fc33072bef88
     Pseudo is Projector augmented-wave + core cor, Zval =  6.0
     Generated using "atomic" code by A. Dal Corso  v.5.0.99 svn rev. 10869
     Shape of augmentation charge: BESSEL
     Using radial grid of 1095 points,  4 beta functions with:
                l(1) =   0
                l(2) =   0
                l(3) =   1
                l(4) =   1
     Q(r) pseudized with 0 coefficients

     atomic species   valence    mass     pseudopotential
        Cd            12.00   112.41400     Cd( 1.00)
        Rh            17.00   102.90550     Rh( 1.00)
        O              6.00    15.99900     O ( 1.00)

     12 Sym. Ops., with inversion, found ( 6 have fractional translation)

                                    s                        frac. trans.

      isym =  1     identity

 cryst.   s( 1) = (     1          0          0      )
                  (     0          1          0      )
                  (     0          0          1      )

 cart.    s( 1) = (  1.0000000  0.0000000  0.0000000 )
                  (  0.0000000  1.0000000  0.0000000 )
                  (  0.0000000  0.0000000  1.0000000 )

      isym =  2     180 deg rotation - cart. axis [1,0,0]

 cryst.   s( 2) = (     1          0          0      )    f =( -0.2500000 )
                  (     1         -1          0      )       ( -0.2500000 )
                  (     1          0         -1      )       ( -0.2500000 )

 cart.    s( 2) = (  1.0000000  0.0000000  0.0000000 )    f =( -0.5000000 )
                  (  0.0000000 -1.0000000 -0.0000000 )       ( -0.2886751 )
                  (  0.0000000  0.0000000 -1.0000000 )       ( -0.2041241 )

      isym =  3     120 deg rotation - cryst. axis [0,0,1]

[...]

      isym =  6     180 deg rotation - cryst. axis [1,1,0]

[...]

      isym =  7     inversion

[...]

      isym =  8     inv. 180 deg rotation - cart. axis [1,0,0]

 cryst.   s( 8) = (    -1          0          0      )
                  (    -1          1          0      )
                  (    -1          0          1      )

 cart.    s( 8) = ( -1.0000000  0.0000000  0.0000000 )
                  (  0.0000000  1.0000000  0.0000000 )
                  (  0.0000000  0.0000000  1.0000000 )

      isym =  9     inv. 120 deg rotation - cryst. axis [0,0,1]

 cryst.   s( 9) = (     1         -1          0      )    f =( -0.2500000 )
                  (     1          0          0      )       ( -0.2500000 )
                  (     1          0         -1      )       ( -0.2500000 )

 cart.    s( 9) = (  0.5000000  0.8660254  0.0000000 )    f =( -0.5000000 )
                  ( -0.8660254  0.5000000  0.0000000 )       ( -0.2886751 )
                  (  0.0000000  0.0000000 -1.0000000 )       ( -0.2041241 )

[...]

 cryst.   s(10) = (     0          1          0      )    f =( -0.2500000 )
                  (    -1          1          0      )       ( -0.2500000 )
                  (     0          1         -1      )       ( -0.2500000 )

 cart.    s(10) = (  0.5000000 -0.8660254 -0.0000000 )    f =( -0.5000000 )
                  (  0.8660254  0.5000000  0.0000000 )       ( -0.2886751 )
                  (  0.0000000  0.0000000 -1.0000000 )       ( -0.2041241 )

[...]

 cryst.   s(11) = (     0          1          0      )
                  (     1          0          0      )
                  (     0          0          1      )

 cart.    s(11) = (  0.5000000  0.8660254  0.0000000 )
                  (  0.8660254 -0.5000000 -0.0000000 )
                  (  0.0000000  0.0000000  1.0000000 )

      isym = 12     inv. 180 deg rotation - cryst. axis [1,1,0]

 cryst.   s(12) = (     1         -1          0      )
                  (     0         -1          0      )
                  (     0         -1          1      )

 cart.    s(12) = (  0.5000000 -0.8660254 -0.0000000 )
                  ( -0.8660254 -0.5000000 -0.0000000 )
                  (  0.0000000  0.0000000  1.0000000 )

   Cartesian axes

     site n.     atom                  positions (alat units)
         1           Cd  tau(   1) = (   0.5000000   0.2886751   0.2041241  )
         2           Cd  tau(   2) = (   0.0000000   0.0000000   0.0000000  )
         3           Rh  tau(   3) = (   1.0000000   0.5773503   0.1020621  )
         4           Rh  tau(   4) = (   1.0000000   0.2886751   0.5103104  )
         5           Rh  tau(   5) = (   0.7500000   0.7216878   0.5103104  )
         6           Rh  tau(   6) = (   1.2500000   0.7216878   0.5103104  )
         7           O   tau(   7) = (   1.5000005   0.8660257   0.3514144  )
         8           O   tau(   8) = (   1.5000005   0.6199919   0.6993587  )
         9           O   tau(   9) = (   1.2869290   0.9890426   0.6993587  )
        10           O   tau(  10) = (   1.7130720   0.9890426   0.6993587  )
        11           O   tau(  11) = (   0.9999995   0.5773500   0.6692063  )
        12           O   tau(  12) = (   0.9999995   0.8233838   0.3212620  )
        13           O   tau(  13) = (   1.2130710   0.4543331   0.3212620  )
        14           O   tau(  14) = (   0.7869280   0.4543331   0.3212620  )

   Crystallographic axes

     site n.     atom                  positions (cryst. coord.)
         1           Cd  tau(   1) = (  0.2500000  0.2500000  0.2500000  )
         2           Cd  tau(   2) = (  0.0000000  0.0000000  0.0000000  )
         3           Rh  tau(   3) = (  0.6250000  0.6250000  0.1250000  )
         4           Rh  tau(   4) = (  0.6250000  0.1250000  0.6250000  )
         5           Rh  tau(   5) = (  0.1250000  0.6250000  0.6250000  )
         6           Rh  tau(   6) = (  0.6250000  0.6250000  0.6250000  )
         7           O   tau(   7) = (  0.8565360  0.8565360  0.4303930  )
         8           O   tau(   8) = (  0.8565360  0.4303930  0.8565360  )
         9           O   tau(   9) = (  0.4303930  0.8565360  0.8565360  )
        10           O   tau(  10) = (  0.8565360  0.8565360  0.8565360  )
        11           O   tau(  11) = (  0.3934640  0.3934640  0.8196070  )
        12           O   tau(  12) = (  0.3934640  0.8196070  0.3934640  )
        13           O   tau(  13) = (  0.8196070  0.3934640  0.3934640  )
        14           O   tau(  14) = (  0.3934640  0.3934640  0.3934640  )

     number of k points=     1  Methfessel-Paxton smearing, width (Ry)=  0.0010
                       cart. coord. in units 2pi/alat
        k(    1) = (   0.0000000   0.0000000   0.0000000), wk =   2.0000000

                       cryst. coord.
        k(    1) = (   0.0000000   0.0000000   0.0000000), wk =   2.0000000

     Check: negative core charge=   -0.000012

     Initial potential from superposition of free atoms

     starting charge     139.9885, renormalised to     140.0000
     Starting wfcs are   90 randomized atomic wfcs
     Checking if some PAW data can be deallocated...

     Self-consistent Calculation

     iteration #  1     ecut=    30.00 Ry     beta= 0.70
     Davidson diagonalization with overlap

     ethr =  1.00E-02,  avg # of iterations =  2.0

     total energy              =   -1444.13970680 Ry
     estimated scf accuracy    <       1.47076070 Ry

[...]

     total energy              =   -1444.71468024 Ry
     estimated scf accuracy    <       0.00001298 Ry

     iteration # 10     ecut=    30.00 Ry     beta= 0.70
     Davidson diagonalization with overlap

     ethr =  3.39E-09,  avg # of iterations =  2.0

     End of self-consistent calculation

          k = 0.0000 0.0000 0.0000 (  1692 PWs)   bands (ev):

   -66.8222 -66.8136 -66.8128 -66.8116 -34.9506 -34.8331 -34.8325 -34.8315
   -34.6184 -34.6182 -34.6166 -34.6159 -34.6159 -34.5779 -34.5774 -34.5771
    -8.0596  -7.2321  -7.2312  -7.2309  -7.1165  -6.8446  -6.8437  -6.8434
     3.5133   3.5134   3.5135   3.6220   3.6220   3.6613   3.7406   3.7407
     3.7408   3.8278   3.8278   4.9316   4.9316   4.9317   5.4376   5.4377
     5.5381   6.1430   6.1432   6.1435   6.9504   6.9504   7.5522   7.5526
     7.5527   7.8784   7.8785   7.8786   8.2902   8.2903   8.2907   9.1822
     9.1824   9.1825   9.6358   9.6358  10.5454  10.5458  10.5464  10.6810
    11.0710  11.0714  11.0717  11.2971  11.2974  11.2975  12.5336  13.5227
    13.5228  13.5231  14.2438  14.2441  14.2444  14.4556  14.4556  15.3373
    17.4902  17.4902  17.4903  18.1969

     occupation numbers
     1.0000   1.0000   1.0000   1.0000   1.0000   1.0000   1.0000   1.0000
     1.0000   1.0000   1.0000   1.0000   1.0000   1.0000   1.0000   1.0000
     1.0000   1.0000   1.0000   1.0000   1.0000   1.0000   1.0000   1.0000
     1.0000   1.0000   1.0000   1.0000   1.0000   1.0000   1.0000   1.0000
     1.0000   1.0000   1.0000   1.0000   1.0000   1.0000   1.0000   1.0000
     1.0000   1.0000   1.0000   1.0000   1.0000   1.0000   1.0000   1.0000
     1.0000   1.0000   1.0000   1.0000   1.0000   1.0000   1.0000   1.0000
     1.0000   1.0000   1.0000   1.0000   1.0000   1.0000   1.0000   1.0000
     1.0000   1.0000   1.0000   1.0000   1.0000   1.0000  -0.0000  -0.0000
    -0.0000  -0.0000  -0.0000  -0.0000  -0.0000  -0.0000  -0.0000  -0.0000
    -0.0000  -0.0000  -0.0000  -0.0000

     the Fermi energy is    11.6696 ev

!    total energy              =   -1444.71468172 Ry
     estimated scf accuracy    <       0.00000072 Ry
     smearing contrib. (-TS)   =       0.00000000 Ry
     internal energy E=F+TS    =   -1444.71468172 Ry

     The total energy is F=E-TS. E is the sum of the following terms:
     one-electron contribution =    -574.93831695 Ry
     hartree contribution      =     375.34068271 Ry
     xc contribution           =    -232.61855239 Ry
     ewald contribution        =    -936.31249031 Ry
     one-center paw contrib.   =     -76.18600477 Ry
      -> PAW hartree energy AE =     227.00416144 Ry
      -> PAW hartree energy PS =    -226.19169127 Ry
      -> PAW xc energy AE      =    -135.78752507 Ry
      -> PAW xc energy PS      =      58.78905013 Ry
      -> total E_H with PAW    =     376.15315287 Ry
      -> total E_XC with PAW   =    -309.61702733 Ry

     convergence has been achieved in  10 iterations

     Forces acting on atoms (cartesian axes, Ry/au):

     atom    1 type  1   force =     0.00000000    0.00000000   -0.00000944
     atom    2 type  1   force =     0.00000000   -0.00000000    0.00000944
     atom    3 type  2   force =    -0.00000000    0.00000000    0.00000000
     atom    4 type  2   force =     0.00000000    0.00000000   -0.00000000
     atom    5 type  2   force =     0.00000000    0.00000000   -0.00000000
     atom    6 type  2   force =     0.00000000   -0.00000000   -0.00000000
     atom    7 type  3   force =     0.00000000    0.00000000    0.02744967
     atom    8 type  3   force =     0.00000000    0.02589294   -0.00914657
     atom    9 type  3   force =     0.02242394   -0.01294647   -0.00914657
     atom   10 type  3   force =    -0.02242394   -0.01294647   -0.00914657
     atom   11 type  3   force =     0.00000000    0.00000000   -0.02744967
     atom   12 type  3   force =     0.00000000   -0.02589294    0.00914657
     atom   13 type  3   force =    -0.02242394    0.01294647    0.00914657
     atom   14 type  3   force =     0.02242394    0.01294647    0.00914657
     The non-local contrib.  to forces
     atom    1 type  1   force =     0.00000000    0.00000000   -0.00000480
     atom    2 type  1   force =     0.00000000    0.00000000    0.00000480
     atom    3 type  2   force =     0.00000000    0.00000000    0.00000000
     atom    4 type  2   force =    -0.00000000    0.00000000    0.00000000
     atom    5 type  2   force =    -0.00000000    0.00000000    0.00000000
     atom    6 type  2   force =    -0.00000000   -0.00000000    0.00000000
     atom    7 type  3   force =     0.00000000    0.00000000    0.34163808
     atom    8 type  3   force =     0.00000000    0.32209358   -0.11388673
     atom    9 type  3   force =     0.27894122   -0.16104679   -0.11388673
     atom   10 type  3   force =    -0.27894122   -0.16104679   -0.11388673
     atom   11 type  3   force =     0.00000000    0.00000000   -0.34163808
     atom   12 type  3   force =     0.00000000   -0.32209358    0.11388673
     atom   13 type  3   force =    -0.27894122    0.16104679    0.11388673
     atom   14 type  3   force =     0.27894122    0.16104679    0.11388673
     The ionic contribution  to forces
     atom    1 type  1   force =    -0.00000000   -0.00000000   -0.00000000
     atom    2 type  1   force =     0.00000000   -0.00000000    0.00000000
     atom    3 type  2   force =     0.00000000    0.00000000   -0.00000000
     atom    4 type  2   force =    -0.00000000   -0.00000000    0.00000000
     atom    5 type  2   force =    -0.00000000   -0.00000000   -0.00000000
     atom    6 type  2   force =     0.00000000   -0.00000000   -0.00000000
     atom    7 type  3   force =    -0.00004359   -0.00002517  -12.51314489
     atom    8 type  3   force =    -0.00004359  -11.79751453    4.17102457
     atom    9 type  3   force =   -10.21696908    5.89871952    4.17102457
     atom   10 type  3   force =    10.21691637    5.89873941    4.17103864
     atom   11 type  3   force =     0.00004359    0.00002517   12.51314489
     atom   12 type  3   force =     0.00004359   11.79751453   -4.17102457
     atom   13 type  3   force =    10.21696908   -5.89871951   -4.17102457
     atom   14 type  3   force =   -10.21691637   -5.89873941   -4.17103864
     The local contribution  to forces
     atom    1 type  1   force =    -0.00019113    0.00034874   -0.00006713
     atom    2 type  1   force =     0.00017511   -0.00045896   -0.00015111
     atom    3 type  2   force =    -0.00038008    0.00039845   -0.00039448
     atom    4 type  2   force =    -0.00027641    0.00018571    0.00082953
     atom    5 type  2   force =     0.00056892   -0.00040731    0.00028596
     atom    6 type  2   force =    -0.00045117    0.00006544    0.00056014
     atom    7 type  3   force =    -0.00000422   -0.00039789   12.20277536
     atom    8 type  3   force =    -0.00001346   11.50499261   -4.06775367
     atom    9 type  3   force =     9.96310274   -5.75256808   -4.06737455
     atom   10 type  3   force =    -9.96325111   -5.75263042   -4.06749537
     atom   11 type  3   force =    -0.00009296    0.00040470  -12.20268162
     atom   12 type  3   force =    -0.00004274  -11.50486917    4.06783406
     atom   13 type  3   force =    -9.96303358    5.75256043    4.06749936
     atom   14 type  3   force =     9.96320441    5.75276524    4.06759152
     The core correction contribution to forces
     atom    1 type  1   force =    -0.00000514    0.00000714    0.00000650
     atom    2 type  1   force =    -0.00000956    0.00000062    0.00000610
     atom    3 type  2   force =     0.00000000    0.00000000    0.00000000
     atom    4 type  2   force =     0.00000000    0.00000000    0.00000000
     atom    5 type  2   force =     0.00000000    0.00000000    0.00000000
     atom    6 type  2   force =     0.00000000    0.00000000    0.00000000
     atom    7 type  3   force =     0.00000033    0.00000094   -0.00345722
     atom    8 type  3   force =     0.00000016   -0.00325937    0.00115328
     atom    9 type  3   force =    -0.00282311    0.00163075    0.00115315
     atom   10 type  3   force =     0.00282220    0.00163014    0.00115208
     atom   11 type  3   force =    -0.00000065   -0.00000100    0.00345712
     atom   12 type  3   force =    -0.00000051    0.00325965   -0.00115273
     atom   13 type  3   force =     0.00282257   -0.00163085   -0.00115258
     atom   14 type  3   force =    -0.00282170   -0.00162956   -0.00115186
     The Hubbard contrib.    to forces
     atom    1 type  1   force =     0.00000000    0.00000000    0.00000000
     atom    2 type  1   force =     0.00000000    0.00000000    0.00000000
     atom    3 type  2   force =     0.00000000    0.00000000    0.00000000
     atom    4 type  2   force =     0.00000000    0.00000000    0.00000000
     atom    5 type  2   force =     0.00000000    0.00000000    0.00000000
     atom    6 type  2   force =     0.00000000    0.00000000    0.00000000
     atom    7 type  3   force =     0.00000000    0.00000000    0.00000000
     atom    8 type  3   force =     0.00000000    0.00000000    0.00000000
     atom    9 type  3   force =     0.00000000    0.00000000    0.00000000
     atom   10 type  3   force =     0.00000000    0.00000000    0.00000000
     atom   11 type  3   force =     0.00000000    0.00000000    0.00000000
     atom   12 type  3   force =     0.00000000    0.00000000    0.00000000
     atom   13 type  3   force =     0.00000000    0.00000000    0.00000000
     atom   14 type  3   force =     0.00000000    0.00000000    0.00000000
     The SCF correction term to forces
     atom    1 type  1   force =     0.00024284   -0.00041422    0.00008766
     atom    2 type  1   force =    -0.00018987    0.00054679    0.00018132
     atom    3 type  2   force =     0.00040271   -0.00043448    0.00043055
     atom    4 type  2   force =     0.00028495   -0.00018993   -0.00088599
     atom    5 type  2   force =    -0.00062824    0.00043027   -0.00030829
     atom    6 type  2   force =     0.00049021   -0.00007465   -0.00060449
     atom    7 type  3   force =     0.00007558    0.00051859   -0.00036317
     atom    8 type  3   force =     0.00007922   -0.00044112    0.00037897
     atom    9 type  3   force =     0.00016349    0.00042528   -0.00004721
     atom   10 type  3   force =    -0.00003900    0.00040384    0.00000178
     atom   11 type  3   force =     0.00001624   -0.00052017    0.00026651
     atom   12 type  3   force =    -0.00003174    0.00031745   -0.00042665
     atom   13 type  3   force =    -0.00029540   -0.00039950   -0.00004797
     atom   14 type  3   force =     0.00010683   -0.00052588   -0.00009003

     Total force =     0.077663     Total SCF correction =     0.002372

     Computing stress (Cartesian axis) and pressure

          total   stress  (Ry/bohr**3)                   (kbar)     P=     -415.85
  -0.00282700  -0.00000000  -0.00000000         -415.87       -0.00       -0.00
  -0.00000000  -0.00282700  -0.00000000           -0.00     -415.87       -0.00
  -0.00000000  -0.00000000  -0.00282676           -0.00       -0.00     -415.83

     kinetic stress (kbar)  40408.50     -0.00     -0.00
                               -0.00  40408.50      0.00
                                0.00      0.00  40408.49

     local   stress (kbar) -14144.43      0.12      0.08
                                0.12 -14143.49     -0.33
                                0.08     -0.33 -14143.80

     nonloc. stress (kbar)   3501.02      0.00      0.00
                                0.00   3501.02      0.00
                                0.00      0.00   3501.02

     hartree stress (kbar)  15336.07     -0.05     -0.04
                               -0.05  15335.30      0.27
                               -0.04      0.27  15335.55

     exc-cor stress (kbar)   -533.86     -0.00     -0.00
                               -0.00   -533.86      0.00
                               -0.00      0.00   -533.86

     corecor stress (kbar)  -6727.46      0.00      0.00
                                0.00  -6727.46     -0.00
                                0.00     -0.00  -6727.46

     ewald   stress (kbar) -38255.79     -0.01     -0.01
                               -0.01 -38255.78     -0.01
                               -0.01     -0.01 -38255.77

     hubbard stress (kbar)      0.00      0.00      0.00
                                0.00      0.00      0.00
                                0.00      0.00      0.00

     DFT-D   stress (kbar)      0.00      0.00      0.00
                                0.00      0.00      0.00
                                0.00      0.00      0.00

     XDM     stress (kbar)      0.00      0.00      0.00
                                0.00      0.00      0.00
                                0.00      0.00      0.00

     dft-nl  stress (kbar)      0.00      0.00      0.00
                                0.00      0.00      0.00
                                0.00      0.00      0.00

     TS-vdW  stress (kbar)      0.00      0.00      0.00
                                0.00      0.00      0.00
                                0.00      0.00      0.00

[...]

                                0.00      0.00      0.00

     Writing all to output data dir new_calculations/myprefix.save/

     General routines

     Parallel routines

     PAW routines

   This run was terminated on:   6:15:30  21May2023

   JOB DONE.