     Program PWSCF v.7.0 starts on 21May2023 at 16: 8:48

     Reading input from espresso_26863.pwi
Warning: card &CELL ignored
Warning: card / ignored

     Current dimensions of program PWSCF are:
     Max number of different atomic species (ntypx) = 10
     Max number of k-points (npk) =  40000
     Max angular momentum in pseudopotentials (lmaxx) =  4

     gamma-point specific algorithms are used
     Message from routine setup:
     using ibrav=0 with symmetry is DISCOURAGED, use correct ibrav instead

     Subspace diagonalization in iterative solution of the eigenvalue problem:
     a serial algorithm will be used

     Using Slab Decomposition

     bravais-lattice index     =            0
     lattice parameter (alat)  =       8.0034  a.u.
     unit-cell volume          =     870.7845 (a.u.)^3
     number of atoms/cell      =            8
     number of atomic types    =            3
     number of electrons       =       126.00
     number of Kohn-Sham states=           76
     kinetic-energy cutoff     =      30.0000  Ry
     charge density cutoff     =     240.0000  Ry
     scf convergence threshold =      1.0E-06
     mixing beta               =       0.7000
     number of iterations used =            8  plain     mixing
     Exchange-correlation=  SLA  PW   PBX  PBC
                           (   1   4   3   4   0   0   0)

     celldm(1)=   8.003399  celldm(2)=   0.000000  celldm(3)=   0.000000
     celldm(4)=   0.000000  celldm(5)=   0.000000  celldm(6)=   0.000000

     crystal axes: (cart. coord. in units of alat)
               a(1) = (   1.000000   0.000000   0.000000 )
               a(2) = (  -0.500000   0.866025   0.000000 )
               a(3) = (   0.000000   0.000000   1.961357 )

     reciprocal axes: (cart. coord. in units 2 pi/alat)
               b(1) = (  1.000000  0.577350  0.000000 )
               b(2) = (  0.000000  1.154701  0.000000 )
               b(3) = (  0.000000  0.000000  0.509851 )

     PseudoPot. # 1 for Zr read from file:
     /home/pragov/projects/rrg-bengioy-ad/pragov/crystal_structure_design/SSSP/Zr_pbe_v1.uspp.F.UPF
     MD5 check sum: 5db81b1e868ab7776c4564c113de050b
     Pseudo is Ultrasoft + core correction, Zval = 12.0
     Generated by new atomic code, or converted to UPF format
     Using radial grid of  887 points,  6 beta functions with:
                l(1) =   0
                l(2) =   0
                l(3) =   1
                l(4) =   1
                l(5) =   2
                l(6) =   2
     Q(r) pseudized with  6 coefficients,  rinner =    1.200   1.200   1.200
                                                       1.200   1.200

     PseudoPot. # 2 for Ni read from file:
     /home/pragov/projects/rrg-bengioy-ad/pragov/crystal_structure_design/SSSP/ni_pbe_v1.4.uspp.F.UPF
     MD5 check sum: 1ee80287db30b12d2bc1f57a5b5d6409
     Pseudo is Ultrasoft + core correction, Zval = 18.0
     Generated by new atomic code, or converted to UPF format
     Using radial grid of  865 points,  6 beta functions with:
                l(1) =   0
                l(2) =   0
                l(3) =   1
                l(4) =   1
                l(5) =   2
                l(6) =   2
     Q(r) pseudized with 10 coefficients,  rinner =    0.980   0.980   0.980
                                                       0.980   0.980

     PseudoPot. # 3 for Sb read from file:
     /home/pragov/projects/rrg-bengioy-ad/pragov/crystal_structure_design/SSSP/sb_pbe_v1.4.uspp.F.UPF
     MD5 check sum: 9bc50dfb53373b713f5709b9110fe27f
     Pseudo is Ultrasoft + core correction, Zval = 15.0
     Generated by new atomic code, or converted to UPF format
     Using radial grid of  891 points,  6 beta functions with:
                l(1) =   0
                l(2) =   0
                l(3) =   1
                l(4) =   1
                l(5) =   2
                l(6) =   2
     Q(r) pseudized with  8 coefficients,  rinner =    1.350   1.350   1.350
                                                       1.350   1.350

     atomic species   valence    mass     pseudopotential
        Zr            12.00    91.22400     Zr( 1.00)
        Ni            18.00    58.69340     Ni( 1.00)
        Sb            15.00   121.76000     Sb( 1.00)

     24 Sym. Ops., with inversion, found (12 have fractional translation)

                                    s                        frac. trans.

      isym =  1     identity

 cryst.   s( 1) = (     1          0          0      )
                  (     0          1          0      )
                  (     0          0          1      )

 cart.    s( 1) = (  1.0000000 -0.0000000  0.0000000 )
                  (  0.0000000  1.0000000  0.0000000 )
                  (  0.0000000  0.0000000  1.0000000 )

      isym =  2     180 deg rotation - cart. axis [0,0,1]

 cryst.   s( 2) = (    -1          0          0      )    f =(  0.0000000 )
                  (     0         -1          0      )       (  0.0000000 )
                  (     0          0          1      )       (  0.5000000 )

 cart.    s( 2) = ( -1.0000000  0.0000000  0.0000000 )    f =(  0.0000000 )
                  (  0.0000000 -1.0000000  0.0000000 )       (  0.0000000 )
                  (  0.0000000  0.0000000  1.0000000 )       (  0.9806786 )

[...]

      isym =  4     180 deg rotation - cart. axis [1,0,0]

[...]

      isym =  5      60 deg rotation - cryst. axis [0,0,1]

[...]

 cryst.   s( 8) = (    -1         -1          0      )
                  (     1          0          0      )
                  (     0          0          1      )

 cart.    s( 8) = ( -0.4999999  0.8660254  0.0000000 )
                  ( -0.8660254 -0.5000001  0.0000000 )
                  (  0.0000000  0.0000000  1.0000000 )

[...]

 cryst.   s( 9) = (     0         -1          0      )    f =(  0.0000000 )
                  (    -1          0          0      )       (  0.0000000 )
                  (     0          0         -1      )       (  0.5000000 )

 cart.    s( 9) = (  0.5000001 -0.8660254  0.0000000 )    f =(  0.0000000 )
                  ( -0.8660254 -0.5000001  0.0000000 )       (  0.0000000 )
                  (  0.0000000  0.0000000 -1.0000000 )       (  0.9806786 )

[...]

 cryst.   s(10) = (     1          1          0      )    f =(  0.0000000 )
                  (     0         -1          0      )       (  0.0000010 )
                  (     0          0         -1      )       (  0.5000000 )

 cart.    s(10) = (  0.4999999  0.8660255  0.0000000 )    f =( -0.0000005 )
                  (  0.8660254 -0.4999999  0.0000000 )       (  0.0000009 )
                  (  0.0000000  0.0000000 -1.0000000 )       (  0.9806786 )

[...]

 cryst.   s(11) = (    -1         -1          0      )
                  (     0          1          0      )
                  (     0          0         -1      )

 cart.    s(11) = ( -0.4999999 -0.8660255  0.0000000 )
                  ( -0.8660254  0.4999999  0.0000000 )
                  (  0.0000000  0.0000000 -1.0000000 )

      isym = 12     180 deg rotation - cryst. axis [1,1,0]

[...]

      isym = 13     inversion

[...]

      isym = 14     inv. 180 deg rotation - cart. axis [0,0,1]

[...]

      isym = 16     inv. 180 deg rotation - cart. axis [1,0,0]

[...]

      isym = 17     inv.  60 deg rotation - cryst. axis [0,0,1]

[...]

 cryst.   s(22) = (    -1         -1          0      )    f =(  0.0000000 )
                  (     0          1          0      )       (  0.0000010 )
                  (     0          0          1      )       (  0.5000000 )

 cart.    s(22) = ( -0.4999999 -0.8660255  0.0000000 )    f =( -0.0000005 )
                  ( -0.8660254  0.4999999  0.0000000 )       (  0.0000009 )
                  (  0.0000000  0.0000000  1.0000000 )       (  0.9806786 )

[...]

      isym = 24     inv. 180 deg rotation - cryst. axis [1,1,0]

 cryst.   s(24) = (     0         -1          0      )
                  (    -1          0          0      )
                  (     0          0          1      )

 cart.    s(24) = (  0.5000001 -0.8660254  0.0000000 )
                  ( -0.8660254 -0.5000001  0.0000000 )
                  (  0.0000000  0.0000000  1.0000000 )

   Cartesian axes

     site n.     atom                  positions (alat units)
         1           Zr  tau(   1) = (   0.5000005   0.2886748   1.4710179  )
         2           Zr  tau(   2) = (  -0.0000005   0.5773505   0.4903393  )
         3           Ni  tau(   3) = (   0.5000005   0.2886748   0.7927492  )
         4           Ni  tau(   4) = (  -0.0000005   0.5773505   1.7734278  )
         5           Ni  tau(   5) = (   0.5000005   0.2886748   0.1879294  )
         6           Ni  tau(   6) = (  -0.0000005   0.5773505   1.1686080  )
         7           Sb  tau(   7) = (   0.0000000   0.0000000   0.0000000  )
         8           Sb  tau(   8) = (   0.0000000   0.0000000   0.9806786  )

   Crystallographic axes

     site n.     atom                  positions (cryst. coord.)
         1           Zr  tau(   1) = (  0.6666670  0.3333330  0.7500000  )
         2           Zr  tau(   2) = (  0.3333330  0.6666670  0.2500000  )
         3           Ni  tau(   3) = (  0.6666670  0.3333330  0.4041840  )
         4           Ni  tau(   4) = (  0.3333330  0.6666670  0.9041840  )
         5           Ni  tau(   5) = (  0.6666670  0.3333330  0.0958160  )
         6           Ni  tau(   6) = (  0.3333330  0.6666670  0.5958160  )
         7           Sb  tau(   7) = (  0.0000000  0.0000000  0.0000000  )
         8           Sb  tau(   8) = (  0.0000000  0.0000000  0.5000000  )

     number of k points=     1  Methfessel-Paxton smearing, width (Ry)=  0.0010
                       cart. coord. in units 2pi/alat
        k(    1) = (   0.0000000   0.0000000   0.0000000), wk =   2.0000000

                       cryst. coord.
        k(    1) = (   0.0000000   0.0000000   0.0000000), wk =   2.0000000

     Check: negative core charge=   -0.000008

     Initial potential from superposition of free atoms

     starting charge     115.9957, renormalised to     126.0000

     negative rho (up, down):  1.339E-01 0.000E+00
     Starting wfcs are   96 randomized atomic wfcs

     Self-consistent Calculation

     iteration #  1     ecut=    30.00 Ry     beta= 0.70
     Davidson diagonalization with overlap

     ethr =  1.00E-02,  avg # of iterations =  5.0

     negative rho (up, down):  1.140E-01 0.000E+00

     total energy              =   -1807.34938003 Ry
     estimated scf accuracy    <     189.77863922 Ry

[...]

     total energy              =   -1939.89161014 Ry
     estimated scf accuracy    <       0.00000204 Ry

     iteration # 24     ecut=    30.00 Ry     beta= 0.70
     Davidson diagonalization with overlap

     ethr =  1.62E-09,  avg # of iterations =  1.0

[...]

     End of self-consistent calculation

          k = 0.0000 0.0000 0.0000 (  1181 PWs)   bands (ev):

   -87.5274 -87.5262 -87.5231 -87.5201 -47.9768 -47.9768 -47.9757 -47.9757
   -47.9746 -47.9746 -47.9716 -47.9716 -47.6327 -47.6197 -47.5919 -47.5750
   -31.6279 -31.6267 -13.2942 -13.2942 -13.2915 -13.2915 -13.2448 -13.2448
   -13.2304 -13.2304 -13.2266 -13.2175 -10.2224 -10.1921  -9.5021  -9.5021
    -9.4960  -9.4960   4.3453   5.1685  10.3815  11.8699  11.8700  12.0278
    12.0279  12.9330  13.0152  13.2421  13.2421  13.2668  13.2668  13.6975
    13.8432  13.8432  14.1200  14.1201  14.4939  14.4939  14.9677  14.9677
    14.9978  15.0864  16.3963  16.3963  16.7112  16.7112  16.7190  17.2399
    17.5083  17.5083  17.6982  17.6982  18.3443  18.7338  18.9358  18.9359
    20.4217  20.8895  20.8895  21.3305

     occupation numbers
     1.0000   1.0000   1.0000   1.0000   1.0000   1.0000   1.0000   1.0000
     1.0000   1.0000   1.0000   1.0000   1.0000   1.0000   1.0000   1.0000
     1.0000   1.0000   1.0000   1.0000   1.0000   1.0000   1.0000   1.0000
     1.0000   1.0000   1.0000   1.0000   1.0000   1.0000   1.0000   1.0000
     1.0000   1.0000   1.0000   1.0000   1.0000   1.0000   1.0000   1.0000
     1.0000   1.0000   1.0000   1.0000   1.0000   1.0000   1.0000   1.0000
     1.0000   1.0000   1.0000   1.0000   1.0000   1.0000   1.0000   1.0000
     1.0000   1.0000   1.0000   1.0000   1.0000   1.0000   1.0000  -0.0000
    -0.0000  -0.0000  -0.0000  -0.0000  -0.0000  -0.0000  -0.0000  -0.0000
    -0.0000  -0.0000  -0.0000  -0.0000

     the Fermi energy is    16.9906 ev

!    total energy              =   -1939.89161023 Ry
     estimated scf accuracy    <       0.00000010 Ry
     smearing contrib. (-TS)   =       0.00000000 Ry
     internal energy E=F+TS    =   -1939.89161023 Ry

     The total energy is F=E-TS. E is the sum of the following terms:
     one-electron contribution =   -1123.36731821 Ry
     hartree contribution      =     638.35882416 Ry
     xc contribution           =    -266.37484236 Ry
     ewald contribution        =   -1188.50827383 Ry

     convergence has been achieved in  24 iterations

     negative rho (up, down):  1.204E-01 0.000E+00

     Forces acting on atoms (cartesian axes, Ry/au):

     atom    1 type  1   force =    -0.00000000   -0.00000000    0.00000000
     atom    2 type  1   force =     0.00000000    0.00000000    0.00000000
     atom    3 type  2   force =     0.00000000    0.00000000   -0.06669321
     atom    4 type  2   force =     0.00000000    0.00000000   -0.06669321
     atom    5 type  2   force =     0.00000000    0.00000000    0.06669321
     atom    6 type  2   force =     0.00000000   -0.00000000    0.06669321
     atom    7 type  3   force =     0.00000000    0.00000000    0.00000000
     atom    8 type  3   force =     0.00000000    0.00000000    0.00000000
     The non-local contrib.  to forces
     atom    1 type  1   force =    -0.00000000   -0.00000000    0.00000000
     atom    2 type  1   force =     0.00000000    0.00000000    0.00000000
     atom    3 type  2   force =     0.00000000   -0.00000000    0.97555508
     atom    4 type  2   force =     0.00000000   -0.00000000    0.97555508
     atom    5 type  2   force =     0.00000000    0.00000000   -0.97555508
     atom    6 type  2   force =     0.00000000   -0.00000000   -0.97555508
     atom    7 type  3   force =    -0.00000000    0.00000000    0.00000000
     atom    8 type  3   force =    -0.00000000    0.00000000    0.00000000
     The ionic contribution  to forces
     atom    1 type  1   force =    -0.00008355    0.00004824   -0.00000000
     atom    2 type  1   force =     0.00008355   -0.00004824    0.00000000
     atom    3 type  2   force =    -0.00010934    0.00006313   -5.37415891
     atom    4 type  2   force =     0.00010934   -0.00006313   -5.37415891
     atom    5 type  2   force =    -0.00010934    0.00006313    5.37415891
     atom    6 type  2   force =     0.00010934   -0.00006313    5.37415891
     atom    7 type  3   force =    -0.00000000   -0.00000000    0.00000000
     atom    8 type  3   force =    -0.00000000   -0.00000000   -0.00000000
     The local contribution  to forces
     atom    1 type  1   force =     0.00024469    0.00017058    0.00089560
     atom    2 type  1   force =    -0.00023090   -0.00014363   -0.00078624
     atom    3 type  2   force =     0.00041651    0.00032329    4.34744843
     atom    4 type  2   force =    -0.00035219   -0.00027711    4.34810189
     atom    5 type  2   force =     0.00041317    0.00033799   -4.34889182
     atom    6 type  2   force =    -0.00037367   -0.00029159   -4.34682021
     atom    7 type  3   force =    -0.00002576   -0.00003095   -0.00040964
     atom    8 type  3   force =    -0.00000861   -0.00002201    0.00019751
     The core correction contribution to forces
     atom    1 type  1   force =     0.00000269    0.00000343    0.00000155
     atom    2 type  1   force =    -0.00000159   -0.00000234    0.00000001
     atom    3 type  2   force =    -0.00000024   -0.00000022   -0.01598657
     atom    4 type  2   force =     0.00000006   -0.00000009   -0.01598797
     atom    5 type  2   force =    -0.00000006   -0.00000020    0.01598736
     atom    6 type  2   force =    -0.00000026   -0.00000039    0.01598680
     atom    7 type  3   force =    -0.00000072   -0.00000096   -0.00000327
     atom    8 type  3   force =    -0.00000026   -0.00000057   -0.00000157
     The Hubbard contrib.    to forces
     atom    1 type  1   force =     0.00000000    0.00000000    0.00000000
     atom    2 type  1   force =     0.00000000    0.00000000    0.00000000
     atom    3 type  2   force =     0.00000000    0.00000000    0.00000000
     atom    4 type  2   force =     0.00000000    0.00000000    0.00000000
     atom    5 type  2   force =     0.00000000    0.00000000    0.00000000
     atom    6 type  2   force =     0.00000000    0.00000000    0.00000000
     atom    7 type  3   force =     0.00000000    0.00000000    0.00000000
     atom    8 type  3   force =     0.00000000    0.00000000    0.00000000
     The SCF correction term to forces
     atom    1 type  1   force =    -0.00013082   -0.00017809   -0.00083378
     atom    2 type  1   force =     0.00012853    0.00016404    0.00073418
     atom    3 type  2   force =    -0.00039549   -0.00049905    0.00043149
     atom    4 type  2   force =     0.00031317    0.00043379   -0.00012722
     atom    5 type  2   force =    -0.00037444   -0.00049656    0.00097055
     atom    6 type  2   force =     0.00034709    0.00047064   -0.00099513
     atom    7 type  3   force =     0.00002468    0.00003628    0.00044869
     atom    8 type  3   force =     0.00001107    0.00002539   -0.00017114

     Total force =     0.133386     Total SCF correction =     0.002262

     Computing stress (Cartesian axis) and pressure

     negative rho (up, down):  1.204E-01 0.000E+00
          total   stress  (Ry/bohr**3)                   (kbar)     P=     -919.42
  -0.00617818  -0.00000000  -0.00000000         -908.84       -0.00       -0.00
  -0.00000000  -0.00617818   0.00000000           -0.00     -908.84        0.00
   0.00000000   0.00000000  -0.00639401            0.00        0.00     -940.59

     kinetic stress (kbar)  35734.90      0.00      0.00
                                0.00  35734.91      0.00
                                0.00      0.00  36078.91

     local   stress (kbar) -12388.85     -0.16     -0.01
                               -0.16 -12388.76     -0.00
                               -0.01     -0.00   2603.99

     nonloc. stress (kbar)  13728.75      0.00      0.00
                                0.00  13728.75      0.00
                                0.00      0.00  13817.23

     hartree stress (kbar)  37668.09      0.09      0.00
                                0.09  37667.99      0.00
                                0.00      0.00  32504.41

     exc-cor stress (kbar)  -1049.98      0.00      0.00
                                0.00  -1049.98      0.00
                                0.00      0.00  -1051.83

     corecor stress (kbar) -11106.14      0.00     -0.00
                                0.00 -11106.15     -0.00
                               -0.00     -0.00 -11105.11

     ewald   stress (kbar) -63495.63      0.05      0.00
                                0.05 -63495.58     -0.00
                                0.00     -0.00 -73788.20

     hubbard stress (kbar)      0.00      0.00      0.00
                                0.00      0.00      0.00
                                0.00      0.00      0.00

     DFT-D   stress (kbar)      0.00      0.00      0.00
                                0.00      0.00      0.00
                                0.00      0.00      0.00

     XDM     stress (kbar)      0.00      0.00      0.00
                                0.00      0.00      0.00
                                0.00      0.00      0.00

     dft-nl  stress (kbar)      0.00      0.00      0.00
                                0.00      0.00      0.00
                                0.00      0.00      0.00

     TS-vdW  stress (kbar)      0.00      0.00      0.00
                                0.00      0.00      0.00
                                0.00      0.00      0.00

[...]

                                0.00      0.00      0.00

     Writing all to output data dir new_calculations/myprefix.save/

     General routines

     Parallel routines

   This run was terminated on:  16: 9: 8  21May2023

   JOB DONE.