     Program PWSCF v.7.0 starts on 20May2023 at 17:33:39

     Reading input from espresso_1560.pwi
Warning: card &CELL ignored
Warning: card / ignored

     Current dimensions of program PWSCF are:
     Max number of different atomic species (ntypx) = 10
     Max number of k-points (npk) =  40000
     Max angular momentum in pseudopotentials (lmaxx) =  4

     gamma-point specific algorithms are used
     Message from routine setup:
     using ibrav=0 with symmetry is DISCOURAGED, use correct ibrav instead

     Subspace diagonalization in iterative solution of the eigenvalue problem:
     a serial algorithm will be used

     Using Slab Decomposition

     bravais-lattice index     =            0
     lattice parameter (alat)  =       8.6062  a.u.
     unit-cell volume          =    1213.3958 (a.u.)^3
     number of atoms/cell      =            8
     number of atomic types    =            2
     number of electrons       =       108.00
     number of Kohn-Sham states=           65
     kinetic-energy cutoff     =      30.0000  Ry
     charge density cutoff     =     240.0000  Ry
     scf convergence threshold =      1.0E-06
     mixing beta               =       0.7000
     number of iterations used =            8  plain     mixing
     Exchange-correlation=  SLA  PW   PBX  PBC
                           (   1   4   3   4   0   0   0)

     celldm(1)=   8.606177  celldm(2)=   0.000000  celldm(3)=   0.000000
     celldm(4)=   0.000000  celldm(5)=   0.000000  celldm(6)=   0.000000

     crystal axes: (cart. coord. in units of alat)
               a(1) = (   1.000000   0.000000   0.000000 )
               a(2) = (   0.000000   1.228404   0.000000 )
               a(3) = (   0.000000   0.000000   1.549639 )

     reciprocal axes: (cart. coord. in units 2 pi/alat)
               b(1) = (  1.000000  0.000000  0.000000 )
               b(2) = (  0.000000  0.814065  0.000000 )
               b(3) = (  0.000000  0.000000  0.645312 )

     PseudoPot. # 1 for Y  read from file:
     /home/pragov/projects/rrg-bengioy-ad/pragov/crystal_structure_design/SSSP/Y_pbe_v1.uspp.F.UPF
     MD5 check sum: 2cf71db95cafeb975fc457bd7f14888e
     Pseudo is Ultrasoft + core correction, Zval = 11.0
     Generated by new atomic code, or converted to UPF format
     Using radial grid of  885 points,  6 beta functions with:
                l(1) =   0
                l(2) =   0
                l(3) =   1
                l(4) =   1
                l(5) =   2
                l(6) =   2
     Q(r) pseudized with  6 coefficients,  rinner =    1.200   1.200   1.200
                                                       1.200   1.200

     PseudoPot. # 2 for Pt read from file:
     /home/pragov/projects/rrg-bengioy-ad/pragov/crystal_structure_design/SSSP/pt_pbe_v1.4.uspp.F.UPF
     MD5 check sum: f09d6de1a584b5a045c4fc126da2d0c4
     Pseudo is Ultrasoft + core correction, Zval = 16.0
     Generated by new atomic code, or converted to UPF format
     Using radial grid of  985 points,  6 beta functions with:
                l(1) =   0
                l(2) =   0
                l(3) =   1
                l(4) =   1
                l(5) =   2
                l(6) =   2
     Q(r) pseudized with  8 coefficients,  rinner =    1.300   1.300   1.300
                                                       1.300   1.300

     atomic species   valence    mass     pseudopotential
        Y             11.00    88.90584     Y ( 1.00)
        Pt            16.00   195.08400     Pt( 1.00)

      8 Sym. Ops., with inversion, found ( 6 have fractional translation)

                                    s                        frac. trans.

      isym =  1     identity

 cryst.   s( 1) = (     1          0          0      )
                  (     0          1          0      )
                  (     0          0          1      )

 cart.    s( 1) = (  1.0000000  0.0000000  0.0000000 )
                  (  0.0000000  1.0000000  0.0000000 )
                  (  0.0000000  0.0000000  1.0000000 )

      isym =  2     180 deg rotation - cart. axis [0,0,1]

 cryst.   s( 2) = (    -1          0          0      )    f =(  0.5000000 )
                  (     0         -1          0      )       (  0.5000000 )
                  (     0          0          1      )       ( -0.5000000 )

 cart.    s( 2) = ( -1.0000000  0.0000000  0.0000000 )    f =(  0.5000000 )
                  (  0.0000000 -1.0000000  0.0000000 )       (  0.6142018 )
                  (  0.0000000  0.0000000  1.0000000 )       ( -0.7748195 )

[...]

      isym =  4     180 deg rotation - cart. axis [1,0,0]

[...]

      isym =  5     inversion

 cryst.   s( 5) = (    -1          0          0      )
                  (     0         -1          0      )
                  (     0          0         -1      )

 cart.    s( 5) = ( -1.0000000  0.0000000  0.0000000 )
                  (  0.0000000 -1.0000000  0.0000000 )
                  (  0.0000000  0.0000000 -1.0000000 )

      isym =  6     inv. 180 deg rotation - cart. axis [0,0,1]

[...]

      isym =  8     inv. 180 deg rotation - cart. axis [1,0,0]

 cryst.   s( 8) = (    -1          0          0      )    f =(  0.5000000 )
                  (     0          1          0      )       (  0.0000000 )
                  (     0          0          1      )       (  0.0000000 )

 cart.    s( 8) = ( -1.0000000  0.0000000  0.0000000 )    f =(  0.5000000 )
                  (  0.0000000  1.0000000  0.0000000 )       (  0.0000000 )
                  (  0.0000000  0.0000000  1.0000000 )       (  0.0000000 )

   Cartesian axes

     site n.     atom                  positions (alat units)
         1           Y   tau(   1) = (   0.2500000   0.7867065   0.2809248  )
         2           Y   tau(   2) = (   0.7500000   0.4416971   1.2687142  )
         3           Y   tau(   3) = (   0.7500000   0.1725047   0.4938947  )
         4           Y   tau(   4) = (   0.2500000   1.0558989   1.0557442  )
         5           Pt  tau(   5) = (   0.2500000   0.1875121   0.0664935  )
         6           Pt  tau(   6) = (   0.7500000   1.0408915   1.4831455  )
         7           Pt  tau(   7) = (   0.7500000   0.8017139   0.7083260  )
         8           Pt  tau(   8) = (   0.2500000   0.4266897   0.8413129  )

   Crystallographic axes

     site n.     atom                  positions (cryst. coord.)
         1           Y   tau(   1) = (  0.2500000  0.6404300  0.1812840  )
         2           Y   tau(   2) = (  0.7500000  0.3595700  0.8187160  )
         3           Y   tau(   3) = (  0.7500000  0.1404300  0.3187160  )
         4           Y   tau(   4) = (  0.2500000  0.8595700  0.6812840  )
         5           Pt  tau(   5) = (  0.2500000  0.1526470  0.0429090  )
         6           Pt  tau(   6) = (  0.7500000  0.8473530  0.9570910  )
         7           Pt  tau(   7) = (  0.7500000  0.6526470  0.4570910  )
         8           Pt  tau(   8) = (  0.2500000  0.3473530  0.5429090  )

     number of k points=     1  Methfessel-Paxton smearing, width (Ry)=  0.0010
                       cart. coord. in units 2pi/alat
        k(    1) = (   0.0000000   0.0000000   0.0000000), wk =   2.0000000

                       cryst. coord.
        k(    1) = (   0.0000000   0.0000000   0.0000000), wk =   2.0000000

     Check: negative core charge=   -0.000004

     Initial potential from superposition of free atoms

     starting charge     105.9821, renormalised to     108.0000

     negative rho (up, down):  9.050E-01 0.000E+00
     Starting wfcs are  100 randomized atomic wfcs

     Self-consistent Calculation

     iteration #  1     ecut=    30.00 Ry     beta= 0.70
     Davidson diagonalization with overlap

     ethr =  1.00E-02,  avg # of iterations =  2.0

     negative rho (up, down):  8.077E-01 0.000E+00

     total energy              =   -1187.63626965 Ry
     estimated scf accuracy    <       9.14601086 Ry

[...]

     total energy              =   -1193.55028538 Ry
     estimated scf accuracy    <       0.00000155 Ry

     iteration # 18     ecut=    30.00 Ry     beta= 0.70
     Davidson diagonalization with overlap

     ethr =  1.44E-09,  avg # of iterations =  2.0

[...]

     End of self-consistent calculation

          k = 0.0000 0.0000 0.0000 (  1672 PWs)   bands (ev):

   -38.1144 -38.1134 -38.0296 -38.0289 -38.0108 -38.0104 -37.9704 -37.9700
   -37.8693 -37.8638 -37.8622 -37.8574 -27.7767 -27.7478 -27.7375 -27.7349
    -7.9966  -7.9322  -7.9280  -7.8834  -7.8397  -7.7793  -7.7789  -7.7047
    -7.7009  -7.6936  -7.6811  -7.6520   7.5551   9.5053   9.8487  10.0966
    10.3533  10.5069  10.6172  10.6352  10.6486  11.0149  11.0508  11.3307
    11.4986  11.8150  11.8895  11.9044  12.0668  12.1785  12.2475  12.2617
    12.3487  12.4237  12.7464  12.8870  13.9842  14.3116  14.3200  14.6411
    16.0433  16.2112  16.6293  16.6892  16.8679  17.0613  17.6100  17.6181
    18.0183

     occupation numbers
     1.0000   1.0000   1.0000   1.0000   1.0000   1.0000   1.0000   1.0000
     1.0000   1.0000   1.0000   1.0000   1.0000   1.0000   1.0000   1.0000
     1.0000   1.0000   1.0000   1.0000   1.0000   1.0000   1.0000   1.0000
     1.0000   1.0000   1.0000   1.0000   1.0000   1.0000   1.0000   1.0000
     1.0000   1.0000   1.0000   1.0000   1.0000   1.0000   1.0000   1.0000
     1.0000   1.0000   1.0000   1.0000   1.0000   1.0000   1.0000   1.0000
     1.0000   1.0000   1.0000   1.0000   1.0000   0.7481   0.2519  -0.0000
    -0.0000  -0.0000  -0.0000  -0.0000  -0.0000  -0.0000  -0.0000  -0.0000
    -0.0000

     the Fermi energy is    14.3158 ev

!    total energy              =   -1193.55028521 Ry
     estimated scf accuracy    <       0.00000045 Ry
     smearing contrib. (-TS)   =      -0.00041495 Ry
     internal energy E=F+TS    =   -1193.54987026 Ry

     The total energy is F=E-TS. E is the sum of the following terms:
     one-electron contribution =    -294.32443568 Ry
     hartree contribution      =     206.00472361 Ry
     xc contribution           =    -315.66354961 Ry
     ewald contribution        =    -789.56660858 Ry

     convergence has been achieved in  18 iterations

     negative rho (up, down):  8.430E-01 0.000E+00

     Forces acting on atoms (cartesian axes, Ry/au):

     atom    1 type  1   force =     0.00000000   -0.04704465   -0.02444873
     atom    2 type  1   force =     0.00000000    0.04704465    0.02444873
     atom    3 type  1   force =     0.00000000   -0.04704465    0.02444873
     atom    4 type  1   force =     0.00000000    0.04704465   -0.02444873
     atom    5 type  2   force =     0.00000000   -0.02647577    0.03708137
     atom    6 type  2   force =    -0.00000000    0.02647577   -0.03708137
     atom    7 type  2   force =     0.00000000   -0.02647577   -0.03708137
     atom    8 type  2   force =     0.00000000    0.02647577    0.03708137
     The non-local contrib.  to forces
     atom    1 type  1   force =     0.00000000   -0.05990926   -0.05817168
     atom    2 type  1   force =     0.00000000    0.05990926    0.05817168
     atom    3 type  1   force =     0.00000000   -0.05990926    0.05817168
     atom    4 type  1   force =     0.00000000    0.05990926   -0.05817168
     atom    5 type  2   force =     0.00000000   -0.14885016   -0.00822808
     atom    6 type  2   force =     0.00000000    0.14885016    0.00822808
     atom    7 type  2   force =     0.00000000   -0.14885016    0.00822808
     atom    8 type  2   force =     0.00000000    0.14885016   -0.00822808
     The ionic contribution  to forces
     atom    1 type  1   force =    -0.00000000   -0.59445197   -1.56983977
     atom    2 type  1   force =    -0.00000000    0.59445197    1.56983977
     atom    3 type  1   force =    -0.00000000   -0.59445197    1.56983977
     atom    4 type  1   force =     0.00000000    0.59445197   -1.56983977
     atom    5 type  2   force =     0.00000000    5.65016874    1.85816104
     atom    6 type  2   force =    -0.00000000   -5.65016874   -1.85816104
     atom    7 type  2   force =    -0.00000000    5.65016874   -1.85816104
     atom    8 type  2   force =     0.00000000   -5.65016874    1.85816104
     The local contribution  to forces
     atom    1 type  1   force =    -0.00000171    0.60246221    1.59903226
     atom    2 type  1   force =    -0.00000150   -0.60196585   -1.59946390
     atom    3 type  1   force =    -0.00000831    0.60229819   -1.59904115
     atom    4 type  1   force =     0.00000468   -0.60268136    1.59918213
     atom    5 type  2   force =     0.00001354   -5.50439949   -1.81136842
     atom    6 type  2   force =    -0.00000003    5.50358997    1.81095689
     atom    7 type  2   force =    -0.00003780   -5.50418590    1.81178331
     atom    8 type  2   force =     0.00003404    5.50473890   -1.81064635
     The core correction contribution to forces
     atom    1 type  1   force =    -0.00000074    0.00501014    0.00433705
     atom    2 type  1   force =     0.00000078   -0.00500551   -0.00434367
     atom    3 type  1   force =     0.00000059    0.00500856   -0.00434299
     atom    4 type  1   force =    -0.00000049   -0.00501139    0.00434110
     atom    5 type  2   force =     0.00000063   -0.02340522   -0.00140892
     atom    6 type  2   force =    -0.00000078    0.02339245    0.00140812
     atom    7 type  2   force =    -0.00000110   -0.02339001    0.00141387
     atom    8 type  2   force =     0.00000089    0.02340067   -0.00140455
     The Hubbard contrib.    to forces
     atom    1 type  1   force =     0.00000000    0.00000000    0.00000000
     atom    2 type  1   force =     0.00000000    0.00000000    0.00000000
     atom    3 type  1   force =     0.00000000    0.00000000    0.00000000
     atom    4 type  1   force =     0.00000000    0.00000000    0.00000000
     atom    5 type  2   force =     0.00000000    0.00000000    0.00000000
     atom    6 type  2   force =     0.00000000    0.00000000    0.00000000
     atom    7 type  2   force =     0.00000000    0.00000000    0.00000000
     atom    8 type  2   force =     0.00000000    0.00000000    0.00000000
     The SCF correction term to forces
     atom    1 type  1   force =    -0.00000688   -0.00013905    0.00012977
     atom    2 type  1   force =     0.00000991   -0.00030725    0.00019926
     atom    3 type  1   force =     0.00001678    0.00000959   -0.00018957
     atom    4 type  1   force =    -0.00001236    0.00035468    0.00004657
     atom    5 type  2   force =    -0.00001192    0.00001028   -0.00010522
     atom    6 type  2   force =    -0.00000528    0.00082552    0.00045089
     atom    7 type  2   force =     0.00004083   -0.00022180   -0.00030854
     atom    8 type  2   force =    -0.00003321   -0.00036225   -0.00076836

     Total force =     0.139813     Total SCF correction =     0.001449

     Computing stress (Cartesian axis) and pressure

     negative rho (up, down):  8.430E-01 0.000E+00
          total   stress  (Ry/bohr**3)                   (kbar)     P=      -63.71
  -0.00118701   0.00000000   0.00000000         -174.61        0.00        0.00
   0.00000000  -0.00007095   0.00000000            0.00      -10.44        0.00
   0.00000000   0.00000000  -0.00004127            0.00        0.00       -6.07

     kinetic stress (kbar)  25392.78      0.00      0.00
                                0.00  25518.82      0.00
                                0.00      0.00  25670.05

     local   stress (kbar)  -6239.38     -0.00      0.04
                               -0.00   -153.89      0.02
                                0.04      0.02   2605.57

     nonloc. stress (kbar)   6576.57      0.00      0.00
                                0.00   6712.50      0.00
                                0.00      0.00   6792.21

     hartree stress (kbar)  10442.98     -0.00     -0.02
                               -0.00   7664.13     -0.01
                               -0.02     -0.01   6867.71

     exc-cor stress (kbar)  17200.73      0.00     -0.00
                                0.00  17199.96      0.00
                               -0.00      0.00  17198.56

     corecor stress (kbar) -24632.85     -0.00      0.00
                               -0.00 -24638.39      0.00
                                0.00      0.00 -24646.72

     ewald   stress (kbar) -28915.45      0.00     -0.00
                                0.00 -32313.57      0.00
                               -0.00      0.00 -34493.46

     hubbard stress (kbar)      0.00      0.00      0.00
                                0.00      0.00      0.00
                                0.00      0.00      0.00

     DFT-D   stress (kbar)      0.00      0.00      0.00
                                0.00      0.00      0.00
                                0.00      0.00      0.00

     XDM     stress (kbar)      0.00      0.00      0.00
                                0.00      0.00      0.00
                                0.00      0.00      0.00

     dft-nl  stress (kbar)      0.00      0.00      0.00
                                0.00      0.00      0.00
                                0.00      0.00      0.00

     TS-vdW  stress (kbar)      0.00      0.00      0.00
                                0.00      0.00      0.00
                                0.00      0.00      0.00

[...]

                                0.00      0.00      0.00

     Writing all to output data dir new_calculations/myprefix.save/

     General routines

     Parallel routines

   This run was terminated on:  17:34:16  20May2023

   JOB DONE.