     Program PWSCF v.7.0 starts on 20May2023 at 22:25:40

     Reading input from espresso_7721.pwi
Warning: card &CELL ignored
Warning: card / ignored

     Current dimensions of program PWSCF are:
     Max number of different atomic species (ntypx) = 10
     Max number of k-points (npk) =  40000
     Max angular momentum in pseudopotentials (lmaxx) =  4

     gamma-point specific algorithms are used
     Message from routine setup:
     using ibrav=0 with symmetry is DISCOURAGED, use correct ibrav instead

     Subspace diagonalization in iterative solution of the eigenvalue problem:
     a serial algorithm will be used

     Using Slab Decomposition

     bravais-lattice index     =            0
     lattice parameter (alat)  =       7.8870  a.u.
     unit-cell volume          =     346.9075 (a.u.)^3
     number of atoms/cell      =            4
     number of atomic types    =            3
     number of electrons       =        40.00
     number of Kohn-Sham states=           24
     kinetic-energy cutoff     =      30.0000  Ry
     charge density cutoff     =     240.0000  Ry
     scf convergence threshold =      1.0E-06
     mixing beta               =       0.7000
     number of iterations used =            8  plain     mixing
     Exchange-correlation= PBE
                           (   1   4   3   4   0   0   0)

     celldm(1)=   7.886959  celldm(2)=   0.000000  celldm(3)=   0.000000
     celldm(4)=   0.000000  celldm(5)=   0.000000  celldm(6)=   0.000000

     crystal axes: (cart. coord. in units of alat)
               a(1) = (   1.000000   0.000000   0.000000 )
               a(2) = (   0.500000   0.866025   0.000000 )
               a(3) = (   0.500000   0.288675   0.816497 )

     reciprocal axes: (cart. coord. in units 2 pi/alat)
               b(1) = (  1.000000 -0.577350 -0.408248 )
               b(2) = (  0.000000  1.154701 -0.408248 )
               b(3) = (  0.000000  0.000000  1.224745 )

     PseudoPot. # 1 for Si read from file:
     /home/pragov/projects/rrg-bengioy-ad/pragov/crystal_structure_design/SSSP/Si.pbe-n-rrkjus_psl.1.0.0.UPF
     MD5 check sum: 0b0bb1205258b0d07b9f9672cf965d36
     Pseudo is Ultrasoft + core correction, Zval =  4.0
     Generated using "atomic" code by A. Dal Corso  v.5.1
     Using radial grid of 1141 points,  6 beta functions with:
                l(1) =   0
                l(2) =   0
                l(3) =   1
                l(4) =   1
                l(5) =   2
                l(6) =   2
     Q(r) pseudized with 0 coefficients

     PseudoPot. # 2 for Os read from file:
     /home/pragov/projects/rrg-bengioy-ad/pragov/crystal_structure_design/SSSP/Os_pbe_v1.2.uspp.F.UPF
     MD5 check sum: a3fb40a04f0c37c25c34bbc47164c9a8
     Pseudo is Ultrasoft + core correction, Zval = 16.0
     Generated by new atomic code, or converted to UPF format
     Using radial grid of  983 points,  8 beta functions with:
                l(1) =   0
                l(2) =   0
                l(3) =   1
                l(4) =   1
                l(5) =   2
                l(6) =   2
                l(7) =   3
                l(8) =   3
     Q(r) pseudized with  8 coefficients,  rinner =    1.150   1.150   1.150
                                                       1.150   1.150   1.150
                                                       1.150

     PseudoPot. # 3 for Ru read from file:
     /home/pragov/projects/rrg-bengioy-ad/pragov/crystal_structure_design/SSSP/Ru_ONCV_PBE-1.0.oncvpsp.upf
     MD5 check sum: be037bb81c227cfb9b1461a9f099f4bd
     Pseudo is Norm-conserving, Zval = 16.0
     Generated using ONCVPSP code by D. R. Hamann
     Using radial grid of 1458 points,  6 beta functions with:
                l(1) =   0
                l(2) =   0
                l(3) =   1
                l(4) =   1
                l(5) =   2
                l(6) =   2

     atomic species   valence    mass     pseudopotential
        Si             4.00    28.08500     Si( 1.00)
        Os            16.00   190.23000     Os( 1.00)
        Ru            16.00   101.07000     Ru( 1.00)

     12 Sym. Ops., with inversion, found

                                    s                        frac. trans.

      isym =  1     identity

 cryst.   s( 1) = (     1          0          0      )
                  (     0          1          0      )
                  (     0          0          1      )

 cart.    s( 1) = (  1.0000000  0.0000000  0.0000000 )
                  (  0.0000000  1.0000000 -0.0000000 )
                  (  0.0000000  0.0000000  1.0000000 )

      isym =  2     180 deg rotation - cart. axis [1,0,0]

[...]

      isym =  3     120 deg rotation - cryst. axis [0,0,1]

[...]

      isym =  6     180 deg rotation - cryst. axis [1,1,0]

[...]

      isym =  7     inversion

[...]

      isym =  8     inv. 180 deg rotation - cart. axis [1,0,0]

[...]

      isym =  9     inv. 120 deg rotation - cryst. axis [0,0,1]

 cryst.   s( 9) = (     1         -1          0      )
                  (     1          0          0      )
                  (     1          0         -1      )

 cart.    s( 9) = (  0.5000000  0.8660254 -0.0000000 )
                  ( -0.8660254  0.5000000 -0.0000000 )
                  (  0.0000000  0.0000000 -1.0000000 )

[...]

 cryst.   s(10) = (     0          1          0      )
                  (    -1          1          0      )
                  (     0          1         -1      )

 cart.    s(10) = (  0.5000000 -0.8660254  0.0000000 )
                  (  0.8660254  0.5000000 -0.0000000 )
                  (  0.0000000  0.0000000 -1.0000000 )

[...]

      isym = 12     inv. 180 deg rotation - cryst. axis [1,1,0]

 cryst.   s(12) = (     1         -1          0      )
                  (     0         -1          0      )
                  (     0         -1          1      )

 cart.    s(12) = (  0.5000000 -0.8660254  0.0000000 )
                  ( -0.8660254 -0.5000000  0.0000000 )
                  (  0.0000000  0.0000000  1.0000000 )

   Cartesian axes

     site n.     atom                  positions (alat units)
         1           Si  tau(   1) = (   0.5000000   0.2886751   0.2041241  )
         2           Si  tau(   2) = (   1.5000000   0.8660254   0.6123724  )
         3           Os  tau(   3) = (   1.0000000   0.5773503   0.4082483  )
         4           Ru  tau(   4) = (   0.0000000   0.0000000   0.0000000  )

   Crystallographic axes

     site n.     atom                  positions (cryst. coord.)
         1           Si  tau(   1) = (  0.2500000  0.2500000  0.2500000  )
         2           Si  tau(   2) = (  0.7500000  0.7500000  0.7500000  )
         3           Os  tau(   3) = (  0.5000000  0.5000000  0.5000000  )
         4           Ru  tau(   4) = (  0.0000000  0.0000000  0.0000000  )

     number of k points=     1  Methfessel-Paxton smearing, width (Ry)=  0.0010
                       cart. coord. in units 2pi/alat
        k(    1) = (   0.0000000   0.0000000   0.0000000), wk =   2.0000000

                       cryst. coord.
        k(    1) = (   0.0000000   0.0000000   0.0000000), wk =   2.0000000

     Initial potential from superposition of free atoms

     starting charge      39.4983, renormalised to      40.0000

     negative rho (up, down):  1.261E-01 0.000E+00
     Starting wfcs are   31 randomized atomic wfcs

     Self-consistent Calculation

     iteration #  1     ecut=    30.00 Ry     beta= 0.70
     Davidson diagonalization with overlap

     ethr =  1.00E-02,  avg # of iterations =  2.0

     negative rho (up, down):  9.786E-02 0.000E+00

     total energy              =    -408.35380334 Ry
     estimated scf accuracy    <       0.72670194 Ry

[...]

     total energy              =    -408.78011414 Ry
     estimated scf accuracy    <       0.00000117 Ry

     iteration # 64     ecut=    30.00 Ry     beta= 0.70
     Davidson diagonalization with overlap

     ethr =  2.92E-09,  avg # of iterations =  1.0

[...]

     End of self-consistent calculation

          k = 0.0000 0.0000 0.0000 (   471 PWs)   bands (ev):

   -64.6628 -51.0290 -24.3034 -24.3034 -24.3033 -21.1894 -21.1893 -21.1893
     6.4014  13.0350  13.0351  13.0351  15.3286  15.3286  16.4221  20.2566
    20.2566  20.2566  22.2497  22.2498  22.2570  22.2571  22.2571  22.5637

     occupation numbers
     1.0000   1.0000   1.0000   1.0000   1.0000   1.0000   1.0000   1.0000
     1.0000   1.0000   1.0000   1.0000   1.0000   1.0000   1.0000   1.0000
     1.0000   1.0000   0.6601   0.6598   0.2274   0.2267   0.2261  -0.0000

     the Fermi energy is    22.2524 ev

!    total energy              =    -408.78011352 Ry
     estimated scf accuracy    <       0.00000080 Ry
     smearing contrib. (-TS)   =      -0.00107626 Ry
     internal energy E=F+TS    =    -408.77903726 Ry

     The total energy is F=E-TS. E is the sum of the following terms:
     one-electron contribution =    -102.68011840 Ry
     hartree contribution      =      78.24282827 Ry
     xc contribution           =     -70.76636359 Ry
     ewald contribution        =    -313.57538354 Ry

     convergence has been achieved in  64 iterations

     negative rho (up, down):  1.006E-01 0.000E+00

     Forces acting on atoms (cartesian axes, Ry/au):

     atom    1 type  1   force =    -0.00000000    0.00000000    0.00011308
     atom    2 type  1   force =    -0.00000000    0.00000000   -0.00011308
     atom    3 type  2   force =     0.00000000   -0.00000000    0.00000000
     atom    4 type  3   force =     0.00000000    0.00000000   -0.00000000
     The non-local contrib.  to forces
     atom    1 type  1   force =     0.00000000    0.00000000   -0.00005303
     atom    2 type  1   force =     0.00000000    0.00000000    0.00005303
     atom    3 type  2   force =     0.00000000    0.00000000    0.00000000
     atom    4 type  3   force =     0.00000000   -0.00000000   -0.00000000
     The ionic contribution  to forces
     atom    1 type  1   force =    -0.00000000   -0.00000000   -0.00000000
     atom    2 type  1   force =    -0.00000000   -0.00000000    0.00000000
     atom    3 type  2   force =     0.00000000    0.00000000    0.00000000
     atom    4 type  3   force =    -0.00000000   -0.00000000   -0.00000000
     The local contribution  to forces
     atom    1 type  1   force =    -0.00013550    0.00044979    0.00021844
     atom    2 type  1   force =     0.00013997   -0.00045033   -0.00022022
     atom    3 type  2   force =     0.00032689    0.00004404   -0.00021571
     atom    4 type  3   force =     0.00074817    0.00008038   -0.00066687
     The core correction contribution to forces
     atom    1 type  1   force =    -0.00000410    0.00001627    0.00000741
     atom    2 type  1   force =     0.00000542   -0.00001609   -0.00000851
     atom    3 type  2   force =    -0.00006268   -0.00000470    0.00004780
     atom    4 type  3   force =     0.00000000    0.00000000    0.00000000
     The Hubbard contrib.    to forces
     atom    1 type  1   force =     0.00000000    0.00000000    0.00000000
     atom    2 type  1   force =     0.00000000    0.00000000    0.00000000
     atom    3 type  2   force =     0.00000000    0.00000000    0.00000000
     atom    4 type  3   force =     0.00000000    0.00000000    0.00000000
     The SCF correction term to forces
     atom    1 type  1   force =     0.00004096   -0.00012756   -0.00006431
     atom    2 type  1   force =    -0.00003306    0.00012907    0.00005805
     atom    3 type  2   force =     0.00016341    0.00000019   -0.00012298
     atom    4 type  3   force =    -0.00036934   -0.00004298    0.00029779

     Total force =     0.000160     Total SCF correction =     0.000559
     SCF correction compared to forces is large: reduce conv_thr to get better values

     Computing stress (Cartesian axis) and pressure

     negative rho (up, down):  1.006E-01 0.000E+00
          total   stress  (Ry/bohr**3)                   (kbar)     P=      562.51
   0.00382339  -0.00000000   0.00000000          562.44       -0.00        0.00
   0.00000000   0.00382339  -0.00000000            0.00      562.44       -0.00
   0.00000000  -0.00000000   0.00382489            0.00       -0.00      562.66

     kinetic stress (kbar)  37986.36     -0.00     -0.00
                                0.00  37986.36     -0.00
                                0.00     -0.00  37986.03

     local   stress (kbar)  15310.99      0.55     -0.16
                                0.55  15312.55     -1.21
                               -0.16     -1.21  15312.58

     nonloc. stress (kbar) -11942.14     -0.00     -0.00
                               -0.00 -11942.14      0.00
                               -0.00      0.00 -11942.17

     hartree stress (kbar)  11059.85     -0.19      0.09
                               -0.19  11059.40      0.38
                                0.09      0.38  11059.38

     exc-cor stress (kbar)   3516.47     -0.00     -0.00
                               -0.00   3516.45      0.01
                               -0.00      0.01   3516.45

     corecor stress (kbar) -11046.10      0.01     -0.00
                                0.01 -11046.04     -0.02
                               -0.00     -0.02 -11046.05

     ewald   stress (kbar) -44323.56      0.00      0.00
                                0.00 -44323.56     -0.00
                                0.00     -0.00 -44323.56

     hubbard stress (kbar)      0.00      0.00      0.00
                                0.00      0.00      0.00
                                0.00      0.00      0.00

     DFT-D   stress (kbar)      0.00      0.00      0.00
                                0.00      0.00      0.00
                                0.00      0.00      0.00

     XDM     stress (kbar)      0.00      0.00      0.00
                                0.00      0.00      0.00
                                0.00      0.00      0.00

     dft-nl  stress (kbar)      0.00      0.00      0.00
                                0.00      0.00      0.00
                                0.00      0.00      0.00

     TS-vdW  stress (kbar)      0.00      0.00      0.00
                                0.00      0.00      0.00
                                0.00      0.00      0.00

[...]

                                0.00      0.00      0.00

     Writing all to output data dir new_calculations/myprefix.save/

     General routines

     Parallel routines

   This run was terminated on:  22:25:59  20May2023

   JOB DONE.