     Program PWSCF v.7.0 starts on 20May2023 at  8:44:40

     Reading input from espresso_6205.pwi
Warning: card &CELL ignored
Warning: card / ignored

     Current dimensions of program PWSCF are:
     Max number of different atomic species (ntypx) = 10
     Max number of k-points (npk) =  40000
     Max angular momentum in pseudopotentials (lmaxx) =  4
     file Ba.pbe-spn-kjpaw_psl.1.0.0.UPF: wavefunction(s)  5S 6S renormalized

     gamma-point specific algorithms are used
     Message from routine setup:
     using ibrav=0 with symmetry is DISCOURAGED, use correct ibrav instead

     Subspace diagonalization in iterative solution of the eigenvalue problem:
     a serial algorithm will be used

     Using Slab Decomposition

     bravais-lattice index     =            0
     lattice parameter (alat)  =      12.5693  a.u.
     unit-cell volume          =     942.5248 (a.u.)^3
     number of atoms/cell      =            5
     number of atomic types    =            3
     number of electrons       =        68.00
     number of Kohn-Sham states=           41
     kinetic-energy cutoff     =      30.0000  Ry
     charge density cutoff     =     240.0000  Ry
     scf convergence threshold =      1.0E-06
     mixing beta               =       0.7000
     number of iterations used =            8  plain     mixing
     Exchange-correlation=  SLA  PW   PBX  PBC
                           (   1   4   3   4   0   0   0)

     celldm(1)=  12.569343  celldm(2)=   0.000000  celldm(3)=   0.000000
     celldm(4)=   0.000000  celldm(5)=   0.000000  celldm(6)=   0.000000

     crystal axes: (cart. coord. in units of alat)
               a(1) = (   1.000000   0.000000   0.000000 )
               a(2) = (   0.440798   0.897606   0.000000 )
               a(3) = (  -0.720399  -0.448803   0.528773 )

     reciprocal axes: (cart. coord. in units 2 pi/alat)
               b(1) = (  1.000000 -0.491082  0.945585 )
               b(2) = (  0.000000  1.114074  0.945585 )
               b(3) = (  0.000000  0.000000  1.891171 )

     PseudoPot. # 1 for Ba read from file:
     /home/pragov/projects/rrg-bengioy-ad/pragov/crystal_structure_design/SSSP/Ba.pbe-spn-kjpaw_psl.1.0.0.UPF
     MD5 check sum: c432291d3e53af55f19d5e8866385beb
     Pseudo is Projector augmented-wave + core cor, Zval = 10.0
     Generated using "atomic" code by A. Dal Corso  v.5.1
     Shape of augmentation charge: PSQ
     Using radial grid of 1251 points,  7 beta functions with:
                l(1) =   0
                l(2) =   0
                l(3) =   0
                l(4) =   1
                l(5) =   1
                l(6) =   2
                l(7) =   2
     Q(r) pseudized with 0 coefficients

     PseudoPot. # 2 for Sn read from file:
     /home/pragov/projects/rrg-bengioy-ad/pragov/crystal_structure_design/SSSP/Sn_pbe_v1.uspp.F.UPF
     MD5 check sum: 4cf58ce39ec5d5d420df3dd08604eb00
     Pseudo is Ultrasoft + core correction, Zval = 14.0
     Generated by new atomic code, or converted to UPF format
     Using radial grid of  891 points,  6 beta functions with:
                l(1) =   0
                l(2) =   0
                l(3) =   1
                l(4) =   1
                l(5) =   2
                l(6) =   2
     Q(r) pseudized with  6 coefficients,  rinner =    1.200   1.200   1.200
                                                       1.200   1.200

     PseudoPot. # 3 for Pt read from file:
     /home/pragov/projects/rrg-bengioy-ad/pragov/crystal_structure_design/SSSP/pt_pbe_v1.4.uspp.F.UPF
     MD5 check sum: f09d6de1a584b5a045c4fc126da2d0c4
     Pseudo is Ultrasoft + core correction, Zval = 16.0
     Generated by new atomic code, or converted to UPF format
     Using radial grid of  985 points,  6 beta functions with:
                l(1) =   0
                l(2) =   0
                l(3) =   1
                l(4) =   1
                l(5) =   2
                l(6) =   2
     Q(r) pseudized with  8 coefficients,  rinner =    1.300   1.300   1.300
                                                       1.300   1.300

     atomic species   valence    mass     pseudopotential
        Ba            10.00   137.32700     Ba( 1.00)
        Sn            14.00   118.71000     Sn( 1.00)
        Pt            16.00   195.08400     Pt( 1.00)

      2 Sym. Ops. (no inversion) found

                                    s                        frac. trans.

      isym =  1     identity

 cryst.   s( 1) = (     1          0          0      )
                  (     0          1          0      )
                  (     0          0          1      )

 cart.    s( 1) = (  1.0000000  0.0000000  0.0000000 )
                  (  0.0000000  1.0000000  0.0000000 )
                  (  0.0000000  0.0000000  1.0000000 )

      isym =  2     inv. 180 deg rotation - cart. axis [0,0,1]

 cryst.   s( 2) = (     1          0          0      )
                  (     0          1          0      )
                  (    -1         -1         -1      )

 cart.    s( 2) = (  1.0000000  0.0000000  0.0000000 )
                  (  0.0000000  1.0000000  0.0000000 )
                  (  0.0000000  0.0000000 -1.0000000 )

   Cartesian axes

     site n.     atom                  positions (alat units)
         1           Ba  tau(   1) = (   0.0024638   0.0015349   0.0000000  )
         2           Sn  tau(   2) = (   0.2252504   0.4518253   0.2643865  )
         3           Sn  tau(   3) = (   0.5048512   0.0030222   0.2643865  )
         4           Sn  tau(   4) = (   0.6009224   0.3743700   0.0000000  )
         5           Pt  tau(   5) = (   0.9416770   0.5866574   0.0000000  )

   Crystallographic axes

     site n.     atom                  positions (cryst. coord.)
         1           Ba  tau(   1) = (  0.0017100  0.0017100  0.0000000  )
         2           Sn  tau(   2) = (  0.2533670  0.7533670  0.5000000  )
         3           Sn  tau(   3) = (  0.7533670  0.2533670  0.5000000  )
         4           Sn  tau(   4) = (  0.4170760  0.4170760  0.0000000  )
         5           Pt  tau(   5) = (  0.6535800  0.6535800  0.0000000  )

     number of k points=     1  Methfessel-Paxton smearing, width (Ry)=  0.0010
                       cart. coord. in units 2pi/alat
        k(    1) = (   0.0000000   0.0000000   0.0000000), wk =   2.0000000

                       cryst. coord.
        k(    1) = (   0.0000000   0.0000000   0.0000000), wk =   2.0000000

     Initial potential from superposition of free atoms

     starting charge      64.4828, renormalised to      68.0000

     negative rho (up, down):  1.921E-01 0.000E+00
     Starting wfcs are   44 randomized atomic wfcs
     Checking if some PAW data can be deallocated...

     Self-consistent Calculation

     iteration #  1     ecut=    30.00 Ry     beta= 0.70
     Davidson diagonalization with overlap

     ethr =  1.00E-02,  avg # of iterations =  7.0

     negative rho (up, down):  2.068E-01 0.000E+00

     total energy              =   -1124.87867770 Ry
     estimated scf accuracy    <      16.56937251 Ry

[...]

     total energy              =   -1136.12355816 Ry
     estimated scf accuracy    <       0.00000131 Ry

     iteration # 26     ecut=    30.00 Ry     beta= 0.70
     Davidson diagonalization with overlap

     ethr =  1.92E-09,  avg # of iterations =  1.0

[...]

     End of self-consistent calculation

          k = 0.0000 0.0000 0.0000 (  1304 PWs)   bands (ev):

   -41.5039 -41.3065 -40.9849 -16.5615 -10.1390 -10.0647 -10.0341 -10.0087
    -9.9871  -9.9711  -9.9509  -9.8929  -9.8227  -9.6814  -9.5962  -9.5227
    -9.3603  -9.3214  -9.0055  -2.3835  -1.9281  -1.8874   1.3538   5.1536
     5.2720   7.3323   7.4150   8.0197   8.2746   8.6950   8.9944   9.8570
     9.9145  11.8745  11.8759  11.9055  12.9689  14.6126  14.6224  15.2800
    15.3216

     occupation numbers
     1.0000   1.0000   1.0000   1.0000   1.0000   1.0000   1.0000   1.0000
     1.0000   1.0000   1.0000   1.0000   1.0000   1.0000   1.0000   1.0000
     1.0000   1.0000   1.0000   1.0000   1.0000   1.0000   1.0000   1.0000
     1.0000   1.0000   1.0000   1.0000   1.0000   1.0000   1.0000   1.0000
     1.0000   0.5456   0.4580  -0.0036  -0.0000  -0.0000  -0.0000  -0.0000
    -0.0000

     the Fermi energy is    11.8752 ev

!    total energy              =   -1136.12355817 Ry
     estimated scf accuracy    <       0.00000013 Ry
     smearing contrib. (-TS)   =      -0.00054193 Ry
     internal energy E=F+TS    =   -1136.12301623 Ry

     The total energy is F=E-TS. E is the sum of the following terms:
     one-electron contribution =    -279.71854259 Ry
     hartree contribution      =     185.73105496 Ry
     xc contribution           =    -219.93526797 Ry
     ewald contribution        =    -447.23042658 Ry
     one-center paw contrib.   =    -374.96983405 Ry
      -> PAW hartree energy AE =      29.08849944 Ry
      -> PAW hartree energy PS =     -28.95907275 Ry
      -> PAW xc energy AE      =    -394.27878386 Ry
      -> PAW xc energy PS      =      19.17952313 Ry
      -> total E_H with PAW    =     185.86048164 Ry
      -> total E_XC with PAW   =    -595.03452870 Ry

     convergence has been achieved in  26 iterations

     negative rho (up, down):  1.686E-01 0.000E+00

     Forces acting on atoms (cartesian axes, Ry/au):

     atom    1 type  1   force =     0.02403663   -0.02869020    0.00000000
     atom    2 type  2   force =     0.01958443    0.00266785   -0.01089404
     atom    3 type  2   force =     0.01958443    0.00266785    0.01089404
     atom    4 type  2   force =    -0.00631512    0.02664971    0.00000000
     atom    5 type  3   force =    -0.05689037   -0.00329521   -0.00000000
     The non-local contrib.  to forces
     atom    1 type  1   force =    -0.05739151   -0.00799313   -0.00000000
     atom    2 type  2   force =    -0.33564630   -0.15860820   -0.06868333
     atom    3 type  2   force =    -0.33564630   -0.15860820    0.06868333
     atom    4 type  2   force =    -0.08426117   -0.06671184   -0.00000000
     atom    5 type  3   force =     0.09930436    0.10515747    0.00000000
     The ionic contribution  to forces
     atom    1 type  1   force =     0.49879578    0.31074586   -0.00000000
     atom    2 type  2   force =     2.20429210    1.37325672    0.00000000
     atom    3 type  2   force =     2.20429210    1.37325672    0.00000000
     atom    4 type  2   force =     1.05053495    0.65447505    0.00000000
     atom    5 type  3   force =    -5.95791492   -3.71173436   -0.00000000
     The local contribution  to forces
     atom    1 type  1   force =    -0.42338196   -0.32921601   -0.00017830
     atom    2 type  2   force =    -1.85915849   -1.21227021    0.05552994
     atom    3 type  2   force =    -1.85938598   -1.21524714   -0.05551932
     atom    4 type  2   force =    -0.97505591   -0.55895373   -0.00577136
     atom    5 type  3   force =     5.83128311    3.59994367    0.00678349
     The core correction contribution to forces
     atom    1 type  1   force =     0.00567057   -0.00014158   -0.00012526
     atom    2 type  2   force =     0.00957463    0.00368795    0.00231208
     atom    3 type  2   force =     0.00972552    0.00378434   -0.00223530
     atom    4 type  2   force =     0.00189776   -0.00019362   -0.00130854
     atom    5 type  3   force =    -0.02949935    0.00566333    0.00239009
     The Hubbard contrib.    to forces
     atom    1 type  1   force =     0.00000000    0.00000000    0.00000000
     atom    2 type  2   force =     0.00000000    0.00000000    0.00000000
     atom    3 type  2   force =     0.00000000    0.00000000    0.00000000
     atom    4 type  2   force =     0.00000000    0.00000000    0.00000000
     atom    5 type  3   force =     0.00000000    0.00000000    0.00000000
     The SCF correction term to forces
     atom    1 type  1   force =    -0.00003366   -0.00001154    0.00025349
     atom    2 type  2   force =     0.00036373    0.00004494    0.00024978
     atom    3 type  2   force =     0.00000300    0.00018638    0.00026784
     atom    4 type  2   force =     0.00019183    0.00010766   -0.00096280
     atom    5 type  3   force =    -0.00044099   -0.00025153   -0.00032553

     Total force =     0.080106     Total SCF correction =     0.001307

     Computing stress (Cartesian axis) and pressure

     negative rho (up, down):  1.686E-01 0.000E+00
          total   stress  (Ry/bohr**3)                   (kbar)     P=     -127.07
  -0.00075250   0.00010512  -0.00000000         -110.70       15.46       -0.00
   0.00010512  -0.00036566  -0.00000000           15.46      -53.79       -0.00
  -0.00000000  -0.00000000  -0.00147324           -0.00       -0.00     -216.72

     kinetic stress (kbar)  14492.18      1.15      0.00
                                1.15  14481.16      0.00
                                0.00      0.00  14473.57

     local   stress (kbar)   3112.00   3302.98     -4.58
                             3302.98   -107.53      1.15
                               -4.58      1.15  -2141.38

     nonloc. stress (kbar)   4939.21     30.64      0.00
                               30.64   4978.43      0.00
                                0.00      0.00   4793.80

     hartree stress (kbar)   8318.06  -1571.00      2.22
                            -1571.00   9848.91     -0.79
                                2.22     -0.79  10821.11

     exc-cor stress (kbar)  15307.32     -0.41     -0.01
                               -0.41  15307.71      0.13
                               -0.01      0.13  15308.34

     corecor stress (kbar) -21504.19      0.66     -0.29
                                0.66 -21504.57      0.70
                               -0.29      0.70 -21503.60

     ewald   stress (kbar) -24775.27  -1748.56      0.00
                            -1748.56 -23057.90     -0.00
                                0.00     -0.00 -21968.56

     hubbard stress (kbar)      0.00      0.00      0.00
                                0.00      0.00      0.00
                                0.00      0.00      0.00

     DFT-D   stress (kbar)      0.00      0.00      0.00
                                0.00      0.00      0.00
                                0.00      0.00      0.00

     XDM     stress (kbar)      0.00      0.00      0.00
                                0.00      0.00      0.00
                                0.00      0.00      0.00

     dft-nl  stress (kbar)      0.00      0.00      0.00
                                0.00      0.00      0.00
                                0.00      0.00      0.00

     TS-vdW  stress (kbar)      0.00      0.00      0.00
                                0.00      0.00      0.00
                                0.00      0.00      0.00

[...]

                                0.00      0.00      0.00

     Writing all to output data dir new_calculations/myprefix.save/

     General routines

     Parallel routines

     PAW routines

   This run was terminated on:   8:45:57  20May2023

   JOB DONE.