     Program PWSCF v.7.0 starts on 21May2023 at  5:52:11

     Reading input from espresso_19786.pwi
Warning: card &CELL ignored
Warning: card / ignored

     Current dimensions of program PWSCF are:
     Max number of different atomic species (ntypx) = 10
     Max number of k-points (npk) =  40000
     Max angular momentum in pseudopotentials (lmaxx) =  4
     file Ba.pbe-spn-kjpaw_psl.1.0.0.UPF: wavefunction(s)  5S 6S renormalized
     file In.pbe-dn-rrkjus_psl.0.2.2.UPF: wavefunction(s)  5S renormalized
     file O.pbe-n-kjpaw_psl.0.1.UPF: wavefunction(s)  2P renormalized

     gamma-point specific algorithms are used
     Message from routine setup:
     using ibrav=0 with symmetry is DISCOURAGED, use correct ibrav instead

     Subspace diagonalization in iterative solution of the eigenvalue problem:
     a serial algorithm will be used

     Using Slab Decomposition

     bravais-lattice index     =            0
     lattice parameter (alat)  =      13.8926  a.u.
     unit-cell volume          =    1630.8528 (a.u.)^3
     number of atoms/cell      =           14
     number of atomic types    =            4
     number of electrons       =       116.00
     number of Kohn-Sham states=           70
     kinetic-energy cutoff     =      30.0000  Ry
     charge density cutoff     =     240.0000  Ry
     scf convergence threshold =      1.0E-06
     mixing beta               =       0.7000
     number of iterations used =            8  plain     mixing
     Exchange-correlation= SLA  PW   PBX  PBC
                           (   1   4   3   4   0   0   0)

     celldm(1)=  13.892559  celldm(2)=   0.000000  celldm(3)=   0.000000
     celldm(4)=   0.000000  celldm(5)=   0.000000  celldm(6)=   0.000000

     crystal axes: (cart. coord. in units of alat)
               a(1) = (   1.000000   0.000000   0.000000 )
               a(2) = (  -0.667463   0.744643   0.000000 )
               a(3) = (   0.000000   0.000000   0.816808 )

     reciprocal axes: (cart. coord. in units 2 pi/alat)
               b(1) = (  1.000000  0.896354  0.000000 )
               b(2) = (  0.000000  1.342926  0.000000 )
               b(3) = (  0.000000  0.000000  1.224278 )

     PseudoPot. # 1 for Ba read from file:
     /home/pragov/projects/rrg-bengioy-ad/pragov/crystal_structure_design/SSSP/Ba.pbe-spn-kjpaw_psl.1.0.0.UPF
     MD5 check sum: c432291d3e53af55f19d5e8866385beb
     Pseudo is Projector augmented-wave + core cor, Zval = 10.0
     Generated using "atomic" code by A. Dal Corso  v.5.1
     Shape of augmentation charge: PSQ
     Using radial grid of 1251 points,  7 beta functions with:
                l(1) =   0
                l(2) =   0
                l(3) =   0
                l(4) =   1
                l(5) =   1
                l(6) =   2
                l(7) =   2
     Q(r) pseudized with 0 coefficients

     PseudoPot. # 2 for In read from file:
     /home/pragov/projects/rrg-bengioy-ad/pragov/crystal_structure_design/SSSP/In.pbe-dn-rrkjus_psl.0.2.2.UPF
     MD5 check sum: 25e7c42c3b55b68f4bf926be2e7201a4
     Pseudo is Ultrasoft + core correction, Zval = 13.0
     Generated using "atomic" code by A. Dal Corso  v.5.0.99 svn rev. 10869
     Using radial grid of 1241 points,  6 beta functions with:
                l(1) =   0
                l(2) =   0
                l(3) =   1
                l(4) =   1
                l(5) =   2
                l(6) =   2
     Q(r) pseudized with 0 coefficients

     PseudoPot. # 3 for Sb read from file:
     /home/pragov/projects/rrg-bengioy-ad/pragov/crystal_structure_design/SSSP/sb_pbe_v1.4.uspp.F.UPF
     MD5 check sum: 9bc50dfb53373b713f5709b9110fe27f
     Pseudo is Ultrasoft + core correction, Zval = 15.0
     Generated by new atomic code, or converted to UPF format
     Using radial grid of  891 points,  6 beta functions with:
                l(1) =   0
                l(2) =   0
                l(3) =   1
                l(4) =   1
                l(5) =   2
                l(6) =   2
     Q(r) pseudized with  8 coefficients,  rinner =    1.350   1.350   1.350
                                                       1.350   1.350

     PseudoPot. # 4 for O  read from file:
     /home/pragov/projects/rrg-bengioy-ad/pragov/crystal_structure_design/SSSP/O.pbe-n-kjpaw_psl.0.1.UPF
     MD5 check sum: 0234752ac141de4415c5fc33072bef88
     Pseudo is Projector augmented-wave + core cor, Zval =  6.0
     Generated using "atomic" code by A. Dal Corso  v.5.0.99 svn rev. 10869
     Shape of augmentation charge: BESSEL
     Using radial grid of 1095 points,  4 beta functions with:
                l(1) =   0
                l(2) =   0
                l(3) =   1
                l(4) =   1
     Q(r) pseudized with 0 coefficients

     atomic species   valence    mass     pseudopotential
        Ba            10.00   137.32700     Ba( 1.00)
        In            13.00   114.81800     In( 1.00)
        Sb            15.00   121.76000     Sb( 1.00)
        O              6.00    15.99900     O ( 1.00)

      4 Sym. Ops., with inversion, found

                                    s                        frac. trans.

      isym =  1     identity

 cryst.   s( 1) = (     1          0          0      )
                  (     0          1          0      )
                  (     0          0          1      )

 cart.    s( 1) = (  1.0000000  0.0000000  0.0000000 )
                  (  0.0000000  1.0000000  0.0000000 )
                  (  0.0000000  0.0000000  1.0000000 )

      isym =  2     180 deg rotation - cart. axis [0,0,1]

[...]

      isym =  3     inversion

[...]

      isym =  4     inv. 180 deg rotation - cart. axis [0,0,1]

 cryst.   s( 4) = (     1          0          0      )
                  (     0          1          0      )
                  (     0          0         -1      )

 cart.    s( 4) = (  1.0000000  0.0000000  0.0000000 )
                  (  0.0000000  1.0000000  0.0000000 )
                  (  0.0000000  0.0000000 -1.0000000 )

   Cartesian axes

     site n.     atom                  positions (alat units)
         1           Ba  tau(   1) = (  -0.0766861   0.4808180   0.0000000  )
         2           Ba  tau(   2) = (   0.7579827   0.1080782   0.4084041  )
         3           Ba  tau(   3) = (  -0.4254460   0.6365645   0.4084041  )
         4           Ba  tau(   4) = (   0.4092228   0.2638247   0.0000000  )
         5           In  tau(   5) = (   0.0000000   0.0000000   0.0000000  )
         6           Sb  tau(   6) = (   0.1662683   0.3723213   0.4084041  )
         7           O   tau(   7) = (   0.0869048   0.1946042   0.6012190  )
         8           O   tau(   8) = (   0.2456319   0.5500385   0.2155892  )
         9           O   tau(   9) = (   0.2456319   0.5500385   0.6012190  )
        10           O   tau(  10) = (   0.0869048   0.1946042   0.2155892  )
        11           O   tau(  11) = (  -0.4011711   0.6257240   0.0000000  )
        12           O   tau(  12) = (   0.4208516   0.2586315   0.4084041  )
        13           O   tau(  13) = (  -0.0883150   0.4860112   0.4084041  )
        14           O   tau(  14) = (   0.7337078   0.1189187   0.0000000  )

   Crystallographic axes

     site n.     atom                  positions (cryst. coord.)
         1           Ba  tau(   1) = (  0.3542970  0.6457030  0.0000000  )
         2           Ba  tau(   2) = (  0.8548590  0.1451410  0.5000000  )
         3           Ba  tau(   3) = (  0.1451410  0.8548590  0.5000000  )
         4           Ba  tau(   4) = (  0.6457030  0.3542970  0.0000000  )
         5           In  tau(   5) = (  0.0000000  0.0000000  0.0000000  )
         6           Sb  tau(   6) = (  0.5000000  0.5000000  0.5000000  )
         7           O   tau(   7) = (  0.2613390  0.2613390  0.7360590  )
         8           O   tau(   8) = (  0.7386610  0.7386610  0.2639410  )
         9           O   tau(   9) = (  0.7386610  0.7386610  0.7360590  )
        10           O   tau(  10) = (  0.2613390  0.2613390  0.2639410  )
        11           O   tau(  11) = (  0.1596990  0.8403010  0.0000000  )
        12           O   tau(  12) = (  0.6526770  0.3473230  0.5000000  )
        13           O   tau(  13) = (  0.3473230  0.6526770  0.5000000  )
        14           O   tau(  14) = (  0.8403010  0.1596990  0.0000000  )

     number of k points=     1  Methfessel-Paxton smearing, width (Ry)=  0.0010
                       cart. coord. in units 2pi/alat
        k(    1) = (   0.0000000   0.0000000   0.0000000), wk =   2.0000000

                       cryst. coord.
        k(    1) = (   0.0000000   0.0000000   0.0000000), wk =   2.0000000

     Check: negative core charge=   -0.000008

     Initial potential from superposition of free atoms

     starting charge     114.9282, renormalised to     116.0000
     Starting wfcs are   70 randomized atomic wfcs
     Checking if some PAW data can be deallocated...

     Self-consistent Calculation

     iteration #  1     ecut=    30.00 Ry     beta= 0.70
     Davidson diagonalization with overlap

     ethr =  1.00E-02,  avg # of iterations =  8.0

     negative rho (up, down):  5.622E-02 0.000E+00

     total energy              =   -2406.28402964 Ry
     estimated scf accuracy    <       3.77039173 Ry

[...]

     negative rho (up, down):  1.001E-04 0.000E+00

[...]

     total energy              =   -2408.03310284 Ry
     estimated scf accuracy    <       0.00000157 Ry

     iteration # 28     ecut=    30.00 Ry     beta= 0.70
     Davidson diagonalization with overlap

     ethr =  1.35E-09,  avg # of iterations =  1.0

     End of self-consistent calculation

          k = 0.0000 0.0000 0.0000 (  2245 PWs)   bands (ev):

   -19.5725 -19.4802 -19.4188 -19.3666 -19.3573 -16.9958 -16.8832 -16.7676
   -16.6934  -8.9832  -7.9893  -7.9791  -7.3409  -7.0993  -6.8028  -6.7926
    -6.3941  -3.7248  -3.6535  -3.6529  -3.3551  -3.3316  -2.5072  -2.3287
    -2.3009  -2.1650  -2.0218  -2.0216  -1.9932  -1.9320  -1.9080  -1.8798
    -1.8664  -1.5965   0.9806   4.2825   4.2859   5.2217   6.0505   6.4999
     7.0167   7.1501   7.2027   7.2363   7.6672   7.6685   8.0301   8.2540
     8.2818   8.2833   8.3733   8.4849   8.5211   8.5346   8.6689   8.7024
     8.7608   8.9518  11.1820  12.7006  13.0007  13.3667  13.7985  13.9788
    14.1580  14.7478  14.7640  14.8227  14.8566  15.2591

     occupation numbers
     1.0000   1.0000   1.0000   1.0000   1.0000   1.0000   1.0000   1.0000
     1.0000   1.0000   1.0000   1.0000   1.0000   1.0000   1.0000   1.0000
     1.0000   1.0000   1.0000   1.0000   1.0000   1.0000   1.0000   1.0000
     1.0000   1.0000   1.0000   1.0000   1.0000   1.0000   1.0000   1.0000
     1.0000   1.0000   1.0000   1.0000   1.0000   1.0000   1.0000   1.0000
     1.0000   1.0000   1.0000   1.0000   1.0000   1.0000   1.0000   1.0000
     1.0000   1.0000   1.0000   1.0000   1.0000   1.0000   1.0000   1.0000
     1.0000   1.0000  -0.0000  -0.0000  -0.0000  -0.0000  -0.0000  -0.0000
    -0.0000  -0.0000  -0.0000  -0.0000  -0.0000  -0.0000

     the Fermi energy is    11.0072 ev

!    total energy              =   -2408.03310266 Ry
     estimated scf accuracy    <       0.00000061 Ry
     smearing contrib. (-TS)   =       0.00000000 Ry
     internal energy E=F+TS    =   -2408.03310266 Ry

     The total energy is F=E-TS. E is the sum of the following terms:
     one-electron contribution =    -294.52561845 Ry
     hartree contribution      =     230.91621672 Ry
     xc contribution           =    -233.45118737 Ry
     ewald contribution        =    -534.96939046 Ry
     one-center paw contrib.   =   -1576.00312310 Ry
      -> PAW hartree energy AE =     351.97535866 Ry
      -> PAW hartree energy PS =    -350.66477301 Ry
      -> PAW xc energy AE      =   -1714.29619971 Ry
      -> PAW xc energy PS      =     136.98249097 Ry
      -> total E_H with PAW    =     232.22680237 Ry
      -> total E_XC with PAW   =   -1810.76489612 Ry

     convergence has been achieved in  28 iterations

     Forces acting on atoms (cartesian axes, Ry/au):

     atom    1 type  1   force =     0.01974445   -0.00881981    0.00000000
     atom    2 type  1   force =     0.03098723   -0.01382804    0.00000000
     atom    3 type  1   force =    -0.03098723    0.01382804    0.00000000
     atom    4 type  1   force =    -0.01974445    0.00881981    0.00000000
     atom    5 type  2   force =     0.00000000    0.00000000    0.00000000
     atom    6 type  3   force =     0.00000000    0.00000000    0.00000000
     atom    7 type  4   force =     0.00385399    0.00863170   -0.00845887
     atom    8 type  4   force =    -0.00385399   -0.00863170    0.00845887
     atom    9 type  4   force =    -0.00385399   -0.00863170   -0.00845887
     atom   10 type  4   force =     0.00385399    0.00863170    0.00845887
     atom   11 type  4   force =     0.01859167   -0.00830272    0.00000000
     atom   12 type  4   force =    -0.00369796    0.00165146    0.00000000
     atom   13 type  4   force =     0.00369796   -0.00165146    0.00000000
     atom   14 type  4   force =    -0.01859167    0.00830272    0.00000000
     The non-local contrib.  to forces
     atom    1 type  1   force =    -0.05850868    0.02613760    0.00000000
     atom    2 type  1   force =    -0.06464878    0.02884306    0.00000000
     atom    3 type  1   force =     0.06464878   -0.02884306    0.00000000
     atom    4 type  1   force =     0.05850868   -0.02613760    0.00000000
     atom    5 type  2   force =     0.00000000    0.00000000    0.00000000
     atom    6 type  3   force =     0.00000000    0.00000000    0.00000000
     atom    7 type  4   force =     0.14525109    0.32525791   -0.31556242
     atom    8 type  4   force =    -0.14525109   -0.32525791    0.31556242
     atom    9 type  4   force =    -0.14525109   -0.32525791   -0.31556242
     atom   10 type  4   force =     0.14525109    0.32525791    0.31556242
     atom   11 type  4   force =    -0.57424021    0.25643914    0.00000000
     atom   12 type  4   force =    -0.60943824    0.27215825   -0.00000000
     atom   13 type  4   force =     0.60943824   -0.27215825   -0.00000000
     atom   14 type  4   force =     0.57424021   -0.25643914    0.00000000
     The ionic contribution  to forces
     atom    1 type  1   force =    -8.53161353    3.80998105   -0.00000000
     atom    2 type  1   force =    -8.88095508    3.96598726    0.00000000
     atom    3 type  1   force =     8.88095508   -3.96598726    0.00000000
     atom    4 type  1   force =     8.53161353   -3.80998105    0.00000000
     atom    5 type  2   force =    -0.00000000    0.00000000   -0.00000000
     atom    6 type  3   force =    -0.00000000    0.00000000    0.00000000
     atom    7 type  4   force =    -1.28339329   -2.87387664    3.26041264
     atom    8 type  4   force =     1.28339329    2.87387664   -3.26041264
     atom    9 type  4   force =     1.28339329    2.87387664    3.26041264
     atom   10 type  4   force =    -1.28339329   -2.87387664   -3.26041264
     atom   11 type  4   force =     8.15748934   -3.64290760   -0.00000000
     atom   12 type  4   force =    11.53455953   -5.15101312    0.00000000
     atom   13 type  4   force =   -11.53455953    5.15101312    0.00000000
     atom   14 type  4   force =    -8.15748934    3.64290760    0.00000000
     The local contribution  to forces
     atom    1 type  1   force =     8.60351620   -3.84174396   -0.00039564
     atom    2 type  1   force =     8.97138009   -4.00619888   -0.00050198
     atom    3 type  1   force =    -8.97048530    4.00607342    0.00066568
     atom    4 type  1   force =    -8.60359871    3.84250088    0.00037546
     atom    5 type  2   force =     0.00000370   -0.00000814   -0.00000596
     atom    6 type  3   force =     0.00001077   -0.00000265    0.00001013
     atom    7 type  4   force =     1.14342366    2.56045381   -2.95623751
     atom    8 type  4   force =    -1.14342173   -2.56045507    2.95623561
     atom    9 type  4   force =    -1.14342645   -2.56045269   -2.95623544
     atom   10 type  4   force =     1.14342701    2.56044830    2.95623942
     atom   11 type  4   force =    -7.57162342    3.38127221   -0.00000019
     atom   12 type  4   force =   -10.93501781    4.88327664    0.00000051
     atom   13 type  4   force =    10.93501699   -4.88327580    0.00000578
     atom   14 type  4   force =     7.57160912   -3.38127017   -0.00000374
     The core correction contribution to forces
     atom    1 type  1   force =     0.00628698   -0.00280768    0.00000197
     atom    2 type  1   force =     0.00567968   -0.00252927   -0.00002152
     atom    3 type  1   force =    -0.00565030    0.00252908    0.00002117
     atom    4 type  1   force =    -0.00630435    0.00281613    0.00000651
     atom    5 type  2   force =    -0.00000026    0.00000005   -0.00000003
     atom    6 type  3   force =    -0.00000001   -0.00000010    0.00000009
     atom    7 type  4   force =    -0.00143713   -0.00321806    0.00294505
     atom    8 type  4   force =     0.00143706    0.00321804   -0.00294507
     atom    9 type  4   force =     0.00143708    0.00321809    0.00294505
     atom   10 type  4   force =    -0.00143712   -0.00321808   -0.00294506
     atom   11 type  4   force =     0.00695818   -0.00310735   -0.00000002
     atom   12 type  4   force =     0.00621098   -0.00277367   -0.00000001
     atom   13 type  4   force =    -0.00621103    0.00277365   -0.00000000
     atom   14 type  4   force =    -0.00695831    0.00310736    0.00000003
     The Hubbard contrib.    to forces
     atom    1 type  1   force =     0.00000000    0.00000000    0.00000000
     atom    2 type  1   force =     0.00000000    0.00000000    0.00000000
     atom    3 type  1   force =     0.00000000    0.00000000    0.00000000
     atom    4 type  1   force =     0.00000000    0.00000000    0.00000000
     atom    5 type  2   force =     0.00000000    0.00000000    0.00000000
     atom    6 type  3   force =     0.00000000    0.00000000    0.00000000
     atom    7 type  4   force =     0.00000000    0.00000000    0.00000000
     atom    8 type  4   force =     0.00000000    0.00000000    0.00000000
     atom    9 type  4   force =     0.00000000    0.00000000    0.00000000
     atom   10 type  4   force =     0.00000000    0.00000000    0.00000000
     atom   11 type  4   force =     0.00000000    0.00000000    0.00000000
     atom   12 type  4   force =     0.00000000    0.00000000    0.00000000
     atom   13 type  4   force =     0.00000000    0.00000000    0.00000000
     atom   14 type  4   force =     0.00000000    0.00000000    0.00000000
     The SCF correction term to forces
     atom    1 type  1   force =     0.00001127   -0.00005592    0.00006531
     atom    2 type  1   force =    -0.00005741    0.00001482    0.00005439
     atom    3 type  1   force =    -0.00004422    0.00000090   -0.00008349
     atom    4 type  1   force =    -0.00001581   -0.00004766   -0.00004438
     atom    5 type  2   force =    -0.00000612    0.00000937    0.00000626
     atom    6 type  3   force =    -0.00001397    0.00000282   -0.00001228
     atom    7 type  4   force =     0.00000766    0.00001474   -0.00001731
     atom    8 type  4   force =    -0.00001439   -0.00001466    0.00001756
     atom    9 type  4   force =    -0.00000805   -0.00001482   -0.00001870
     atom   10 type  4   force =     0.00000421    0.00001992    0.00001505
     atom   11 type  4   force =     0.00000563    0.00000151   -0.00000050
     atom   12 type  4   force =    -0.00001376    0.00000312   -0.00000206
     atom   13 type  4   force =     0.00001197   -0.00000441   -0.00000685
     atom   14 type  4   force =     0.00000450   -0.00000229    0.00000583

     Total force =     0.068875     Total SCF correction =     0.000176

     Computing stress (Cartesian axis) and pressure

          total   stress  (Ry/bohr**3)                   (kbar)     P=     -216.06
  -0.00202833   0.00039978   0.00000000         -298.38       58.81        0.00
   0.00039978  -0.00131166   0.00000000           58.81     -192.95        0.00
   0.00000000   0.00000000  -0.00106628            0.00        0.00     -156.85

     kinetic stress (kbar)  16326.46    130.50      0.00
                              130.50  16560.40      0.00
                                0.00      0.00  16618.20

     local   stress (kbar)    526.85  -5914.32      0.00
                            -5914.32 -10075.79     -0.00
                                0.00     -0.00 -12537.87

     nonloc. stress (kbar)   4285.29     -2.23      0.00
                               -2.23   4281.30      0.00
                                0.00      0.00   4281.71

     hartree stress (kbar)   3062.58   2903.92     -0.00
                             2903.92   8268.46     -0.00
                               -0.00     -0.00   9497.91

     exc-cor stress (kbar)   5185.59     -2.37      0.00
                               -2.37   5181.34     -0.00
                                0.00     -0.00   5179.79

     corecor stress (kbar)  -9676.04     -1.74     -0.00
                               -1.74  -9679.16     -0.00
                               -0.00     -0.00  -9680.25

     ewald   stress (kbar) -20009.11   2945.05     -0.00
                             2945.05 -14729.50      0.00
                               -0.00      0.00 -13516.34

     hubbard stress (kbar)      0.00      0.00      0.00
                                0.00      0.00      0.00
                                0.00      0.00      0.00

     DFT-D   stress (kbar)      0.00      0.00      0.00
                                0.00      0.00      0.00
                                0.00      0.00      0.00

     XDM     stress (kbar)      0.00      0.00      0.00
                                0.00      0.00      0.00
                                0.00      0.00      0.00

     dft-nl  stress (kbar)      0.00      0.00      0.00
                                0.00      0.00      0.00
                                0.00      0.00      0.00

     TS-vdW  stress (kbar)      0.00      0.00      0.00
                                0.00      0.00      0.00
                                0.00      0.00      0.00

[...]

                                0.00      0.00      0.00

     Writing all to output data dir new_calculations/myprefix.save/

     General routines

     Parallel routines

     PAW routines

   This run was terminated on:   5:53:11  21May2023

   JOB DONE.