     Program PWSCF v.7.0 starts on 20May2023 at 15: 3:37

     Reading input from espresso_6381.pwi
Warning: card &CELL ignored
Warning: card / ignored

     Current dimensions of program PWSCF are:
     Max number of different atomic species (ntypx) = 10
     Max number of k-points (npk) =  40000
     Max angular momentum in pseudopotentials (lmaxx) =  4

     gamma-point specific algorithms are used
     Message from routine setup:
     using ibrav=0 with symmetry is DISCOURAGED, use correct ibrav instead

     Subspace diagonalization in iterative solution of the eigenvalue problem:
     a serial algorithm will be used

     Using Slab Decomposition

     bravais-lattice index     =            0
     lattice parameter (alat)  =      17.4390  a.u.
     unit-cell volume          =    2647.7048 (a.u.)^3
     number of atoms/cell      =           10
     number of atomic types    =            3
     number of electrons       =        72.00
     number of Kohn-Sham states=           43
     kinetic-energy cutoff     =      30.0000  Ry
     charge density cutoff     =     240.0000  Ry
     scf convergence threshold =      1.0E-06
     mixing beta               =       0.7000
     number of iterations used =            8  plain     mixing
     Exchange-correlation=  SLA  PW   PBX  PBC
                           (   1   4   3   4   0   0   0)

     celldm(1)=  17.439022  celldm(2)=   0.000000  celldm(3)=   0.000000
     celldm(4)=   0.000000  celldm(5)=   0.000000  celldm(6)=   0.000000

     crystal axes: (cart. coord. in units of alat)
               a(1) = (   1.000000   0.000000   0.000000 )
               a(2) = (   0.000000   0.619549   0.000000 )
               a(3) = (   0.000000   0.097885   0.805800 )

     reciprocal axes: (cart. coord. in units 2 pi/alat)
               b(1) = (  1.000000  0.000000  0.000000 )
               b(2) = (  0.000000  1.614077 -0.196071 )
               b(3) = (  0.000000  0.000000  1.241003 )

     PseudoPot. # 1 for Rb read from file:
     /home/pragov/projects/rrg-bengioy-ad/pragov/crystal_structure_design/SSSP/Rb_ONCV_PBE-1.0.oncvpsp.upf
     MD5 check sum: 55a5172d6bfbce6759a58e35d43f6aa9
     Pseudo is Norm-conserving, Zval =  9.0
     Generated using ONCVPSP code by D. R. Hamann
     Using radial grid of 2308 points,  6 beta functions with:
                l(1) =   0
                l(2) =   0
                l(3) =   1
                l(4) =   1
                l(5) =   2
                l(6) =   2

     PseudoPot. # 2 for Se read from file:
     /home/pragov/projects/rrg-bengioy-ad/pragov/crystal_structure_design/SSSP/Se_pbe_v1.uspp.F.UPF
     MD5 check sum: 1b3568f3a8ae88f9a2a0ad0698632c85
     Pseudo is Ultrasoft + core correction, Zval =  6.0
     Generated by new atomic code, or converted to UPF format
     Using radial grid of  877 points,  6 beta functions with:
                l(1) =   0
                l(2) =   0
                l(3) =   1
                l(4) =   1
                l(5) =   2
                l(6) =   2
     Q(r) pseudized with  8 coefficients,  rinner =    1.300   1.300   1.300
                                                       1.300   1.300

     PseudoPot. # 3 for Br read from file:
     /home/pragov/projects/rrg-bengioy-ad/pragov/crystal_structure_design/SSSP/br_pbe_v1.4.uspp.F.UPF
     MD5 check sum: d3ffb7b29f6225aa16fe06858fb2a80b
     Pseudo is Ultrasoft + core correction, Zval =  7.0
     Generated by new atomic code, or converted to UPF format
     Using radial grid of  879 points,  6 beta functions with:
                l(1) =   0
                l(2) =   0
                l(3) =   1
                l(4) =   1
                l(5) =   2
                l(6) =   2
     Q(r) pseudized with  8 coefficients,  rinner =    1.100   1.100   1.100
                                                       1.100   1.100

     atomic species   valence    mass     pseudopotential
        Rb             9.00    85.46780     Rb( 1.00)
        Se             6.00    78.97100     Se( 1.00)
        Br             7.00    79.90400     Br( 1.00)

      4 Sym. Ops., with inversion, found ( 2 have fractional translation)

                                    s                        frac. trans.

      isym =  1     identity

 cryst.   s( 1) = (     1          0          0      )
                  (     0          1          0      )
                  (     0          0          1      )

 cart.    s( 1) = (  1.0000000  0.0000000  0.0000000 )
                  (  0.0000000  1.0000000  0.0000000 )
                  (  0.0000000  0.0000000  1.0000000 )

      isym =  2     180 deg rotation - cart. axis [1,0,0]

 cryst.   s( 2) = (     1          0          0      )    f =( -0.5000000 )
                  (     0         -1          0      )       (  0.0000000 )
                  (     0          0         -1      )       ( -0.0000000 )

 cart.    s( 2) = (  1.0000000  0.0000000  0.0000000 )    f =( -0.5000000 )
                  (  0.0000000 -1.0000000 -0.0000000 )       (  0.0000000 )
                  (  0.0000000  0.0000000 -1.0000000 )       ( -0.0000000 )

      isym =  3     inversion

 cryst.   s( 3) = (    -1          0          0      )
                  (     0         -1          0      )
                  (     0          0         -1      )

 cart.    s( 3) = ( -1.0000000  0.0000000  0.0000000 )
                  (  0.0000000 -1.0000000 -0.0000000 )
                  (  0.0000000  0.0000000 -1.0000000 )

      isym =  4     inv. 180 deg rotation - cart. axis [1,0,0]

 cryst.   s( 4) = (    -1          0          0      )    f =(  0.5000000 )
                  (     0          1          0      )       (  0.0000000 )
                  (     0          0          1      )       (  0.0000000 )

 cart.    s( 4) = ( -1.0000000  0.0000000  0.0000000 )    f =(  0.5000000 )
                  (  0.0000000  1.0000000  0.0000000 )       (  0.0000000 )
                  (  0.0000000  0.0000000  1.0000000 )       (  0.0000000 )

   Cartesian axes

     site n.     atom                  positions (alat units)
         1           Rb  tau(   1) = (   0.2500000   0.1633264   0.3174885  )
         2           Rb  tau(   2) = (   0.7500000   0.5541080   0.4883117  )
         3           Se  tau(   3) = (   0.0000000   0.0000000   0.0000000  )
         4           Se  tau(   4) = (   0.5000000   0.0000000   0.0000000  )
         5           Br  tau(   5) = (   0.9726880   0.2413763   0.5621117  )
         6           Br  tau(   6) = (   0.4726880   0.4760581   0.2436885  )
         7           Br  tau(   7) = (   0.5273120   0.2413763   0.5621117  )
         8           Br  tau(   8) = (   0.0273120   0.4760581   0.2436885  )
         9           Br  tau(   9) = (   0.2500000   0.6119907   0.7150155  )
        10           Br  tau(  10) = (   0.7500000   0.1054437   0.0907847  )

   Crystallographic axes

     site n.     atom                  positions (cryst. coord.)
         1           Rb  tau(   1) = (  0.2500000  0.2013710  0.3940040  )
         2           Rb  tau(   2) = (  0.7500000  0.7986290  0.6059960  )
         3           Se  tau(   3) = (  0.0000000  0.0000000  0.0000000  )
         4           Se  tau(   4) = (  0.5000000  0.0000000  0.0000000  )
         5           Br  tau(   5) = (  0.9726880  0.2793860  0.6975820  )
         6           Br  tau(   6) = (  0.4726880  0.7206140  0.3024180  )
         7           Br  tau(   7) = (  0.5273120  0.2793860  0.6975820  )
         8           Br  tau(   8) = (  0.0273120  0.7206140  0.3024180  )
         9           Br  tau(   9) = (  0.2500000  0.8476060  0.8873360  )
        10           Br  tau(  10) = (  0.7500000  0.1523940  0.1126640  )

     number of k points=     1  Methfessel-Paxton smearing, width (Ry)=  0.0010
                       cart. coord. in units 2pi/alat
        k(    1) = (   0.0000000   0.0000000   0.0000000), wk =   2.0000000

                       cryst. coord.
        k(    1) = (   0.0000000   0.0000000   0.0000000), wk =   2.0000000

     Check: negative core charge=   -0.000001

     Initial potential from superposition of free atoms

     starting charge      71.9502, renormalised to      72.0000
     Starting wfcs are   42 randomized atomic wfcs +    1 random wfcs

     Self-consistent Calculation

     iteration #  1     ecut=    30.00 Ry     beta= 0.70
     Davidson diagonalization with overlap

     ethr =  1.00E-02,  avg # of iterations =  4.0

     Threshold (ethr) on eigenvalues was too large:
     Diagonalizing with lowered threshold

     Davidson diagonalization with overlap

[...]

     total energy              =    -466.70099621 Ry
     estimated scf accuracy    <       0.23122411 Ry

[...]

     total energy              =    -466.79108083 Ry
     estimated scf accuracy    <       0.00001073 Ry

     iteration #  8     ecut=    30.00 Ry     beta= 0.70
     Davidson diagonalization with overlap

     ethr =  9.56E-09,  avg # of iterations =  2.0

     End of self-consistent calculation

          k = 0.0000 0.0000 0.0000 (  3681 PWs)   bands (ev):

   -24.0699 -24.0687 -13.5982 -12.9401 -12.7170 -12.2369 -12.2006 -12.1414
   -10.4615  -9.7908  -8.1759  -8.1644  -8.1590  -8.1545  -8.1471  -8.1193
    -3.5440  -2.6314  -2.3128  -2.1206  -1.1122  -0.6958  -0.5678  -0.5244
    -0.3932  -0.3523  -0.3240  -0.1040  -0.0680   0.0110   0.1242   0.3391
     0.3593   0.5264   1.0116   1.1292   2.8598   4.3566   4.3624   4.6550
     5.6229   7.3456   7.5423

     occupation numbers
     1.0000   1.0000   1.0000   1.0000   1.0000   1.0000   1.0000   1.0000
     1.0000   1.0000   1.0000   1.0000   1.0000   1.0000   1.0000   1.0000
     1.0000   1.0000   1.0000   1.0000   1.0000   1.0000   1.0000   1.0000
     1.0000   1.0000   1.0000   1.0000   1.0000   1.0000   1.0000   1.0000
     1.0000   1.0000   1.0000   1.0000  -0.0000  -0.0000  -0.0000  -0.0000
    -0.0000  -0.0000  -0.0000

     the Fermi energy is     1.7000 ev

!    total energy              =    -466.79108272 Ry
     estimated scf accuracy    <       0.00000023 Ry
     smearing contrib. (-TS)   =       0.00000000 Ry
     internal energy E=F+TS    =    -466.79108272 Ry

     The total energy is F=E-TS. E is the sum of the following terms:
     one-electron contribution =     -79.75441310 Ry
     hartree contribution      =      63.89004766 Ry
     xc contribution           =    -230.81170848 Ry
     ewald contribution        =    -220.11500880 Ry

     convergence has been achieved in   8 iterations

     Forces acting on atoms (cartesian axes, Ry/au):

     atom    1 type  1   force =     0.00000000    0.00082494   -0.00269461
     atom    2 type  1   force =     0.00000000   -0.00082494    0.00269461
     atom    3 type  2   force =     0.00000000    0.00000000    0.00000000
     atom    4 type  2   force =     0.00000000    0.00000000    0.00000000
     atom    5 type  3   force =     0.01247874    0.01673225   -0.00442067
     atom    6 type  3   force =     0.01247874   -0.01673225    0.00442067
     atom    7 type  3   force =    -0.01247874    0.01673225   -0.00442067
     atom    8 type  3   force =    -0.01247874   -0.01673225    0.00442067
     atom    9 type  3   force =     0.00000000   -0.00418920   -0.00316636
     atom   10 type  3   force =     0.00000000    0.00418920    0.00316636
     The non-local contrib.  to forces
     atom    1 type  1   force =     0.00000000   -0.00408196   -0.01683089
     atom    2 type  1   force =     0.00000000    0.00408196    0.01683089
     atom    3 type  2   force =     0.00000000    0.00000000    0.00000000
     atom    4 type  2   force =     0.00000000    0.00000000    0.00000000
     atom    5 type  3   force =     0.00582688    0.00852742   -0.01244476
     atom    6 type  3   force =     0.00582688   -0.00852742    0.01244476
     atom    7 type  3   force =    -0.00582688    0.00852742   -0.01244476
     atom    8 type  3   force =    -0.00582688   -0.00852742    0.01244476
     atom    9 type  3   force =     0.00000000   -0.05305311   -0.03389019
     atom   10 type  3   force =     0.00000000    0.05305311    0.03389019
     The ionic contribution  to forces
     atom    1 type  1   force =     0.00000000    0.59588162   -0.26434832
     atom    2 type  1   force =    -0.00000000   -0.59588161    0.26434832
     atom    3 type  2   force =     0.00000000    0.00000000   -0.00000000
     atom    4 type  2   force =    -0.00000000    0.00000000   -0.00000000
     atom    5 type  3   force =     0.25096109    1.68750783   -1.06170356
     atom    6 type  3   force =     0.25096109   -1.68750783    1.06170356
     atom    7 type  3   force =    -0.25096109    1.68750783   -1.06170356
     atom    8 type  3   force =    -0.25096109   -1.68750783    1.06170356
     atom    9 type  3   force =     0.00000000   -2.46062713   -1.51550270
     atom   10 type  3   force =    -0.00000000    2.46062713    1.51550270
     The local contribution  to forces
     atom    1 type  1   force =    -0.00005629   -0.59106116    0.27792208
     atom    2 type  1   force =     0.00005484    0.59105910   -0.27790370
     atom    3 type  2   force =     0.00008036   -0.00001567   -0.00003813
     atom    4 type  2   force =    -0.00008576   -0.00002348   -0.00002929
     atom    5 type  3   force =    -0.24591909   -1.68723954    1.07819075
     atom    6 type  3   force =    -0.24603182    1.68711122   -1.07794971
     atom    7 type  3   force =     0.24598655   -1.68711048    1.07795474
     atom    8 type  3   force =     0.24598323    1.68723998   -1.07818660
     atom    9 type  3   force =    -0.00032361    2.53302350    1.56122228
     atom   10 type  3   force =     0.00032703   -2.53303601   -1.56125035
     The core correction contribution to forces
     atom    1 type  1   force =     0.00000000    0.00000000    0.00000000
     atom    2 type  1   force =     0.00000000    0.00000000    0.00000000
     atom    3 type  2   force =     0.00000366   -0.00000093   -0.00000196
     atom    4 type  2   force =    -0.00000414   -0.00000139   -0.00000123
     atom    5 type  3   force =     0.00153408    0.00791735   -0.00818972
     atom    6 type  3   force =     0.00153552   -0.00791308    0.00818220
     atom    7 type  3   force =    -0.00153436    0.00791268   -0.00818176
     atom    8 type  3   force =    -0.00153548   -0.00791794    0.00819049
     atom    9 type  3   force =     0.00000036   -0.02356798   -0.01479049
     atom   10 type  3   force =    -0.00000093    0.02357203    0.01479363
     The Hubbard contrib.    to forces
     atom    1 type  1   force =     0.00000000    0.00000000    0.00000000
     atom    2 type  1   force =     0.00000000    0.00000000    0.00000000
     atom    3 type  2   force =     0.00000000    0.00000000    0.00000000
     atom    4 type  2   force =     0.00000000    0.00000000    0.00000000
     atom    5 type  3   force =     0.00000000    0.00000000    0.00000000
     atom    6 type  3   force =     0.00000000    0.00000000    0.00000000
     atom    7 type  3   force =     0.00000000    0.00000000    0.00000000
     atom    8 type  3   force =     0.00000000    0.00000000    0.00000000
     atom    9 type  3   force =     0.00000000    0.00000000    0.00000000
     atom   10 type  3   force =     0.00000000    0.00000000    0.00000000
     The SCF correction term to forces
     atom    1 type  1   force =     0.00012696    0.00008744    0.00055849
     atom    2 type  1   force =    -0.00012641   -0.00008339   -0.00058491
     atom    3 type  2   force =    -0.00006594    0.00001252    0.00002970
     atom    4 type  2   force =     0.00006806    0.00001701    0.00002440
     atom    5 type  3   force =     0.00006420    0.00002582   -0.00028739
     atom    6 type  3   force =     0.00020449    0.00011024    0.00002699
     atom    7 type  3   force =    -0.00014035   -0.00010824   -0.00003259
     atom    8 type  3   force =    -0.00013529   -0.00002081    0.00028007
     atom    9 type  3   force =     0.00036719    0.00002534   -0.00021276
     atom   10 type  3   force =    -0.00036899   -0.00003726    0.00022270

     Total force =     0.043497     Total SCF correction =     0.001162

     Computing stress (Cartesian axis) and pressure

          total   stress  (Ry/bohr**3)                   (kbar)     P=      -10.20
  -0.00004716   0.00000000   0.00000000           -6.94        0.00        0.00
   0.00000000   0.00001856   0.00006224            0.00        2.73        9.16
   0.00000000   0.00006224  -0.00017947            0.00        9.16      -26.40

     kinetic stress (kbar)   3424.53      0.00      0.00
                                0.00   3510.68     78.84
                                0.00     78.84   3366.84

     local   stress (kbar)    289.63      0.02     -0.00
                                0.02   3045.01   1160.62
                               -0.00   1160.62    796.60

     nonloc. stress (kbar)   -614.06      0.00      0.00
                                0.00   -579.18     11.13
                                0.00     11.13   -590.35

     hartree stress (kbar)   1611.30     -0.02      0.00
                               -0.02    546.41   -412.80
                                0.00   -412.80   1391.99

     exc-cor stress (kbar)   8305.42      0.00      0.00
                                0.00   8303.05     -1.68
                                0.00     -1.68   8304.64

     corecor stress (kbar)  -9637.26     -0.00     -0.00
                               -0.00  -9642.92     -6.39
                               -0.00     -6.39  -9633.47

     ewald   stress (kbar)  -3386.51     -0.00     -0.00
                               -0.00  -5180.32   -820.57
                               -0.00   -820.57  -3662.65

     hubbard stress (kbar)      0.00      0.00      0.00
                                0.00      0.00      0.00
                                0.00      0.00      0.00

     DFT-D   stress (kbar)      0.00      0.00      0.00
                                0.00      0.00      0.00
                                0.00      0.00      0.00

     XDM     stress (kbar)      0.00      0.00      0.00
                                0.00      0.00      0.00
                                0.00      0.00      0.00

     dft-nl  stress (kbar)      0.00      0.00      0.00
                                0.00      0.00      0.00
                                0.00      0.00      0.00

     TS-vdW  stress (kbar)      0.00      0.00      0.00
                                0.00      0.00      0.00
                                0.00      0.00      0.00

[...]

                                0.00      0.00      0.00

     Writing all to output data dir new_calculations/myprefix.save/

     General routines

     Parallel routines

   This run was terminated on:  15: 4: 8  20May2023

   JOB DONE.