     Program PWSCF v.7.0 starts on 21May2023 at 19:12:32

     Reading input from espresso_19962.pwi
Warning: card &CELL ignored
Warning: card / ignored

     Current dimensions of program PWSCF are:
     Max number of different atomic species (ntypx) = 10
     Max number of k-points (npk) =  40000
     Max angular momentum in pseudopotentials (lmaxx) =  4
     file O.pbe-n-kjpaw_psl.0.1.UPF: wavefunction(s)  2P renormalized

     gamma-point specific algorithms are used
     Message from routine setup:
     using ibrav=0 with symmetry is DISCOURAGED, use correct ibrav instead

     Subspace diagonalization in iterative solution of the eigenvalue problem:
     a serial algorithm will be used

     Using Slab Decomposition

     bravais-lattice index     =            0
     lattice parameter (alat)  =      11.0391  a.u.
     unit-cell volume          =     988.7464 (a.u.)^3
     number of atoms/cell      =           10
     number of atomic types    =            4
     number of electrons       =        82.00
     number of Kohn-Sham states=           49
     kinetic-energy cutoff     =      30.0000  Ry
     charge density cutoff     =     240.0000  Ry
     scf convergence threshold =      1.0E-06
     mixing beta               =       0.7000
     number of iterations used =            8  plain     mixing
     Exchange-correlation= SLA  PW   PBX  PBC
                           (   1   4   3   4   0   0   0)

     celldm(1)=  11.039131  celldm(2)=   0.000000  celldm(3)=   0.000000
     celldm(4)=   0.000000  celldm(5)=   0.000000  celldm(6)=   0.000000

     crystal axes: (cart. coord. in units of alat)
               a(1) = (   1.000000   0.000000   0.000000 )
               a(2) = (   0.473169   0.880972   0.000000 )
               a(3) = (   0.473169   0.282960   0.834293 )

     reciprocal axes: (cart. coord. in units 2 pi/alat)
               b(1) = (  1.000000 -0.537099 -0.384986 )
               b(2) = (  0.000000  1.135110 -0.384986 )
               b(3) = (  0.000000  0.000000  1.198620 )

     PseudoPot. # 1 for Ca read from file:
     /home/pragov/projects/rrg-bengioy-ad/pragov/crystal_structure_design/SSSP/Ca_pbe_v1.uspp.F.UPF
     MD5 check sum: 403a4c14b9e4d4dfdc3024c9a3812218
     Pseudo is Ultrasoft + core correction, Zval = 10.0
     Generated by new atomic code, or converted to UPF format
     Using radial grid of  845 points,  6 beta functions with:
                l(1) =   0
                l(2) =   0
                l(3) =   1
                l(4) =   1
                l(5) =   2
                l(6) =   2
     Q(r) pseudized with  8 coefficients,  rinner =    1.500   1.500   1.500
                                                       1.500   1.500

     PseudoPot. # 2 for La read from file:
     /home/pragov/projects/rrg-bengioy-ad/pragov/crystal_structure_design/SSSP/La.GGA-PBE-paw-v1.0.UPF
     MD5 check sum: 436541e95c1ad8901025bd0b0ed42ae2
     Pseudo is Projector augmented-wave + core cor, Zval = 11.0
     Generated using ATOMPAW code
     Shape of augmentation charge: BESSEL
     Using radial grid of 1101 points,  8 beta functions with:
                l(1) =   0
                l(2) =   0
                l(3) =   1
                l(4) =   1
                l(5) =   2
                l(6) =   2
                l(7) =   3
                l(8) =   3
     Q(r) pseudized with 0 coefficients

     PseudoPot. # 3 for Mo read from file:
     /home/pragov/projects/rrg-bengioy-ad/pragov/crystal_structure_design/SSSP/Mo_ONCV_PBE-1.0.oncvpsp.upf
     MD5 check sum: 1b5d28e075c9ccadda658a603575cd1f
     Pseudo is Norm-conserving, Zval = 14.0
     Generated using ONCVPSP code by D. R. Hamann
     Using radial grid of 1526 points,  6 beta functions with:
                l(1) =   0
                l(2) =   0
                l(3) =   1
                l(4) =   1
                l(5) =   2
                l(6) =   2

     PseudoPot. # 4 for O  read from file:
     /home/pragov/projects/rrg-bengioy-ad/pragov/crystal_structure_design/SSSP/O.pbe-n-kjpaw_psl.0.1.UPF
     MD5 check sum: 0234752ac141de4415c5fc33072bef88
     Pseudo is Projector augmented-wave + core cor, Zval =  6.0
     Generated using "atomic" code by A. Dal Corso  v.5.0.99 svn rev. 10869
     Shape of augmentation charge: BESSEL
     Using radial grid of 1095 points,  4 beta functions with:
                l(1) =   0
                l(2) =   0
                l(3) =   1
                l(4) =   1
     Q(r) pseudized with 0 coefficients

     atomic species   valence    mass     pseudopotential
        Ca            10.00    40.07800     Ca( 1.00)
        La            11.00   138.90547     La( 1.00)
        Mo            14.00    95.95000     Mo( 1.00)
        O              6.00    15.99900     O ( 1.00)

      2 Sym. Ops., with inversion, found

                                    s                        frac. trans.

      isym =  1     identity

 cryst.   s( 1) = (     1          0          0      )
                  (     0          1          0      )
                  (     0          0          1      )

 cart.    s( 1) = (  1.0000000 -0.0000000 -0.0000000 )
                  (  0.0000000  1.0000000  0.0000000 )
                  (  0.0000000  0.0000000  1.0000000 )

      isym =  2     inversion

 cryst.   s( 2) = (    -1          0          0      )
                  (     0         -1          0      )
                  (     0          0         -1      )

 cart.    s( 2) = ( -1.0000000  0.0000000  0.0000000 )
                  (  0.0000000 -1.0000000 -0.0000000 )
                  (  0.0000000  0.0000000 -1.0000000 )

   Cartesian axes

     site n.     atom                  positions (alat units)
         1           Ca  tau(   1) = (   0.9731693   0.5819660   0.4171463  )
         2           La  tau(   2) = (   1.4903738   0.8912600   0.6388446  )
         3           La  tau(   3) = (   0.4559649   0.2726720   0.1954481  )
         4           Mo  tau(   4) = (   0.0000000   0.0000000   0.0000000  )
         5           O   tau(   5) = (   1.0079813   0.3391556   0.1064532  )
         6           O   tau(   6) = (   0.6617266   0.7887572   0.2869933  )
         7           O   tau(   7) = (   0.7757322   0.3344874   0.6547846  )
         8           O   tau(   8) = (   0.9383573   0.8247764   0.7278394  )
         9           O   tau(   9) = (   1.1706064   0.8294445   0.1795081  )
        10           O   tau(  10) = (   1.2846120   0.3751748   0.5472993  )

   Crystallographic axes

     site n.     atom                  positions (cryst. coord.)
         1           Ca  tau(   1) = (  0.5000000  0.5000000  0.5000000  )
         2           La  tau(   2) = (  0.7657320  0.7657320  0.7657320  )
         3           La  tau(   3) = (  0.2342680  0.2342680  0.2342680  )
         4           Mo  tau(   4) = (  0.0000000  0.0000000  0.0000000  )
         5           O   tau(   5) = (  0.7848380  0.3439960  0.1275970  )
         6           O   tau(   6) = (  0.1275970  0.7848380  0.3439960  )
         7           O   tau(   7) = (  0.3439960  0.1275970  0.7848380  )
         8           O   tau(   8) = (  0.2151620  0.6560040  0.8724030  )
         9           O   tau(   9) = (  0.6560040  0.8724030  0.2151620  )
        10           O   tau(  10) = (  0.8724030  0.2151620  0.6560040  )

     number of k points=     1  Methfessel-Paxton smearing, width (Ry)=  0.0010
                       cart. coord. in units 2pi/alat
        k(    1) = (   0.0000000   0.0000000   0.0000000), wk =   2.0000000

                       cryst. coord.
        k(    1) = (   0.0000000   0.0000000   0.0000000), wk =   2.0000000

     Check: negative core charge=   -0.000012

     Initial potential from superposition of free atoms

     starting charge      81.9765, renormalised to      82.0000
     Starting wfcs are  108 randomized atomic wfcs
     Checking if some PAW data can be deallocated...

     Self-consistent Calculation

     iteration #  1     ecut=    30.00 Ry     beta= 0.70
     Davidson diagonalization with overlap

     ethr =  1.00E-02,  avg # of iterations =  2.0

     total energy              =   -1377.31061127 Ry
     estimated scf accuracy    <       3.23969332 Ry

[...]

     ethr =  2.24E-05,  avg # of iterations =  2.0
     Minimization algorithm failed to find Fermi energy: reverting to bisection
     Possible cause: smearing is larger than the electronic band-gap.

[...]

     total energy              =   -1379.06885702 Ry
     estimated scf accuracy    <       0.00000740 Ry

     iteration # 25     ecut=    30.00 Ry     beta= 0.70
     Davidson diagonalization with overlap

     ethr =  9.03E-09,  avg # of iterations =  2.0

     End of self-consistent calculation

          k = 0.0000 0.0000 0.0000 (  1370 PWs)   bands (ev):

   -50.3899 -28.0245 -24.6490 -24.6490 -24.1308 -20.4746 -20.3749  -9.4100
    -9.4099  -9.3403  -7.2413  -7.2411  -6.9153  -6.4326  -6.4324  -6.1902
    -4.4110  -3.9016  -3.5850  -3.5850  -3.5669  -3.5669   6.2172   6.3257
     6.3258   6.9653   6.9653   7.0873   7.7469   7.7471   7.8411   8.2817
     8.2818   8.4542   8.5170   8.6788   8.6789   9.0711   9.0712   9.4070
    12.2472  12.2571  12.2571  14.0895  14.1291  14.4245  14.4245  14.5890
    14.5892

     occupation numbers
     1.0000   1.0000   1.0000   1.0000   1.0000   1.0000   1.0000   1.0000
     1.0000   1.0000   1.0000   1.0000   1.0000   1.0000   1.0000   1.0000
     1.0000   1.0000   1.0000   1.0000   1.0000   1.0000   1.0000   1.0000
     1.0000   1.0000   1.0000   1.0000   1.0000   1.0000   1.0000   1.0000
     1.0000   1.0000   1.0000   1.0000   1.0000   1.0000   1.0000   1.0000
     0.7084   0.1460   0.1456  -0.0000  -0.0000  -0.0000  -0.0000  -0.0000
    -0.0000

     the Fermi energy is    12.2507 ev

!    total energy              =   -1379.06885688 Ry
     estimated scf accuracy    <       0.00000057 Ry
     smearing contrib. (-TS)   =      -0.00048052 Ry
     internal energy E=F+TS    =   -1379.06837636 Ry

     The total energy is F=E-TS. E is the sum of the following terms:
     one-electron contribution =    -130.49122729 Ry
     hartree contribution      =     116.10896738 Ry
     xc contribution           =     -90.10509916 Ry
     ewald contribution        =    -421.22442107 Ry
     one-center paw contrib.   =    -853.35659623 Ry
      -> PAW hartree energy AE =     248.71124782 Ry
      -> PAW hartree energy PS =    -248.15932890 Ry
      -> PAW xc energy AE      =    -913.90809668 Ry
      -> PAW xc energy PS      =      59.99958154 Ry
      -> total E_H with PAW    =     116.66088629 Ry
      -> total E_XC with PAW   =    -944.01361430 Ry

     convergence has been achieved in  25 iterations

     Forces acting on atoms (cartesian axes, Ry/au):

     atom    1 type  1   force =     0.00000000    0.00000000    0.00000000
     atom    2 type  2   force =     0.05051227    0.03022155    0.02168954
     atom    3 type  2   force =    -0.05051227   -0.03022155   -0.02168954
     atom    4 type  3   force =     0.00000000    0.00000000    0.00000000
     atom    5 type  4   force =    -0.00750886   -0.02688823   -0.06180376
     atom    6 type  4   force =    -0.06275029    0.02517145   -0.00567497
     atom    7 type  4   force =    -0.02722734   -0.05655495    0.02561559
     atom    8 type  4   force =     0.00750886    0.02688823    0.06180376
     atom    9 type  4   force =     0.02722734    0.05655495   -0.02561559
     atom   10 type  4   force =     0.06275029   -0.02517145    0.00567497
     The non-local contrib.  to forces
     atom    1 type  1   force =     0.00000000    0.00000000    0.00000000
     atom    2 type  2   force =    -0.06799363   -0.04067627   -0.02911966
     atom    3 type  2   force =     0.06799363    0.04067627    0.02911966
     atom    4 type  3   force =     0.00000000    0.00000000    0.00000000
     atom    5 type  4   force =     0.02605266   -0.32539211   -0.16515070
     atom    6 type  4   force =    -0.21761117    0.14631380   -0.25504080
     atom    7 type  4   force =    -0.27431151   -0.09963266    0.22041564
     atom    8 type  4   force =    -0.02605266    0.32539211    0.16515070
     atom    9 type  4   force =     0.27431151    0.09963266   -0.22041564
     atom   10 type  4   force =     0.21761117   -0.14631380    0.25504080
     The ionic contribution  to forces
     atom    1 type  1   force =    -0.00000000    0.00000000   -0.00000000
     atom    2 type  2   force =    -3.88169050   -2.32129407   -1.66387623
     atom    3 type  2   force =     3.88169050    2.32129407    1.66387624
     atom    4 type  3   force =    -0.00000000    0.00000000    0.00000000
     atom    5 type  4   force =    -1.95416758    4.24354740    1.65065056
     atom    6 type  4   force =     1.65322900   -3.10614447    3.48852508
     atom    7 type  4   force =     2.81379182    0.36531212   -4.06204771
     atom    8 type  4   force =     1.95416758   -4.24354740   -1.65065056
     atom    9 type  4   force =    -2.81379182   -0.36531212    4.06204770
     atom   10 type  4   force =    -1.65322900    3.10614447   -3.48852508
     The local contribution  to forces
     atom    1 type  1   force =     0.00000390    0.00005059    0.00012231
     atom    2 type  2   force =     3.99995607    2.39208713    1.71474362
     atom    3 type  2   force =    -3.99996222   -2.39206283   -1.71474697
     atom    4 type  3   force =     0.00004120   -0.00009637   -0.00010360
     atom    5 type  4   force =     1.92046613   -3.94875784   -1.54860568
     atom    6 type  4   force =    -1.50043986    2.98594747   -3.24230142
     atom    7 type  4   force =    -2.57002179   -0.32289409    3.86925746
     atom    8 type  4   force =    -1.92046195    3.94879010    1.54856373
     atom    9 type  4   force =     2.56999431    0.32292743   -3.86922679
     atom   10 type  4   force =     1.50040235   -2.98595630    3.24228853
     The core correction contribution to forces
     atom    1 type  1   force =     0.00000002    0.00000030    0.00000159
     atom    2 type  2   force =    -0.00007345   -0.00004392   -0.00003146
     atom    3 type  2   force =     0.00007343    0.00004392    0.00003147
     atom    4 type  3   force =     0.00000000    0.00000000    0.00000000
     atom    5 type  4   force =    -0.00008081    0.00377033    0.00122851
     atom    6 type  4   force =     0.00205391   -0.00119330    0.00317373
     atom    7 type  4   force =     0.00328225    0.00056842   -0.00214848
     atom    8 type  4   force =     0.00008068   -0.00376948   -0.00122832
     atom    9 type  4   force =    -0.00328267   -0.00056821    0.00214934
     atom   10 type  4   force =    -0.00205451    0.00119336   -0.00317424
     The Hubbard contrib.    to forces
     atom    1 type  1   force =     0.00000000    0.00000000    0.00000000
     atom    2 type  2   force =     0.00000000    0.00000000    0.00000000
     atom    3 type  2   force =     0.00000000    0.00000000    0.00000000
     atom    4 type  3   force =     0.00000000    0.00000000    0.00000000
     atom    5 type  4   force =     0.00000000    0.00000000    0.00000000
     atom    6 type  4   force =     0.00000000    0.00000000    0.00000000
     atom    7 type  4   force =     0.00000000    0.00000000    0.00000000
     atom    8 type  4   force =     0.00000000    0.00000000    0.00000000
     atom    9 type  4   force =     0.00000000    0.00000000    0.00000000
     atom   10 type  4   force =     0.00000000    0.00000000    0.00000000
     The SCF correction term to forces
     atom    1 type  1   force =     0.00000064   -0.00004597   -0.00012385
     atom    2 type  2   force =     0.00029728    0.00013508   -0.00002097
     atom    3 type  2   force =    -0.00032410   -0.00018657    0.00003583
     atom    4 type  3   force =     0.00000335    0.00009736    0.00013866
     atom    5 type  4   force =     0.00020951   -0.00002852    0.00007826
     atom    6 type  4   force =     0.00000135    0.00025429   -0.00005189
     atom    7 type  4   force =     0.00001680    0.00009796    0.00015540
     atom    8 type  4   force =    -0.00023603    0.00005038   -0.00002708
     atom    9 type  4   force =    -0.00001907   -0.00011809   -0.00015348
     atom   10 type  4   force =     0.00000380   -0.00023284    0.00002461

     Total force =     0.188328     Total SCF correction =     0.000773

     Computing stress (Cartesian axis) and pressure

          total   stress  (Ry/bohr**3)                   (kbar)     P=     -269.00
  -0.00186966  -0.00004993  -0.00003584         -275.04       -7.35       -5.27
  -0.00004993  -0.00181583  -0.00002192           -7.35     -267.12       -3.22
  -0.00003584  -0.00002192  -0.00180036           -5.27       -3.22     -264.84

     kinetic stress (kbar)  20122.43     37.57     26.82
                               37.57  20082.18     16.39
                               26.82     16.39  20070.68

     local   stress (kbar)  -7982.46    554.36    397.65
                              554.36  -8578.23    237.14
                              397.65    237.14  -8738.34

     nonloc. stress (kbar)   7410.60     42.31     30.32
                               42.31   7365.13     18.13
                               30.32     18.13   7352.85

     hartree stress (kbar)   5682.20    -93.48    -67.17
                              -93.48   5782.81    -39.93
                              -67.17    -39.93   5809.61

     exc-cor stress (kbar)  -3526.56     -3.18     -2.28
                               -3.18  -3523.14     -1.36
                               -2.28     -1.36  -3522.22

     corecor stress (kbar)   -648.29      0.06      0.04
                                0.06   -648.35      0.02
                                0.04      0.02   -648.37

     ewald   stress (kbar) -21332.95   -545.00   -390.65
                             -545.00 -20747.51   -233.61
                             -390.65   -233.61 -20589.05

     hubbard stress (kbar)      0.00      0.00      0.00
                                0.00      0.00      0.00
                                0.00      0.00      0.00

     DFT-D   stress (kbar)      0.00      0.00      0.00
                                0.00      0.00      0.00
                                0.00      0.00      0.00

     XDM     stress (kbar)      0.00      0.00      0.00
                                0.00      0.00      0.00
                                0.00      0.00      0.00

     dft-nl  stress (kbar)      0.00      0.00      0.00
                                0.00      0.00      0.00
                                0.00      0.00      0.00

     TS-vdW  stress (kbar)      0.00      0.00      0.00
                                0.00      0.00      0.00
                                0.00      0.00      0.00

[...]

                                0.00      0.00      0.00

     Writing all to output data dir new_calculations/myprefix.save/

     General routines

     Parallel routines

     PAW routines

   This run was terminated on:  19:13:33  21May2023

   JOB DONE.