     Program PWSCF v.7.0 starts on 20May2023 at  2:40:59

     Reading input from espresso_4086.pwi
Warning: card &CELL ignored
Warning: card / ignored

     Current dimensions of program PWSCF are:
     Max number of different atomic species (ntypx) = 10
     Max number of k-points (npk) =  40000
     Max angular momentum in pseudopotentials (lmaxx) =  4
     file Ba.pbe-spn-kjpaw_psl.1.0.0.UPF: wavefunction(s)  5S 6S renormalized
     file O.pbe-n-kjpaw_psl.0.1.UPF: wavefunction(s)  2P renormalized

     gamma-point specific algorithms are used
     Message from routine setup:
     using ibrav=0 with symmetry is DISCOURAGED, use correct ibrav instead

     Subspace diagonalization in iterative solution of the eigenvalue problem:
     a serial algorithm will be used

     Using Slab Decomposition

     bravais-lattice index     =            0
     lattice parameter (alat)  =      11.5141  a.u.
     unit-cell volume          =    1079.3846 (a.u.)^3
     number of atoms/cell      =           10
     number of atomic types    =            5
     number of electrons       =        86.00
     number of Kohn-Sham states=           52
     kinetic-energy cutoff     =      30.0000  Ry
     charge density cutoff     =     240.0000  Ry
     scf convergence threshold =      1.0E-06
     mixing beta               =       0.7000
     number of iterations used =            8  plain     mixing
     Exchange-correlation= SLA  PW   PBX  PBC
                           (   1   4   3   4   0   0   0)

     celldm(1)=  11.514111  celldm(2)=   0.000000  celldm(3)=   0.000000
     celldm(4)=   0.000000  celldm(5)=   0.000000  celldm(6)=   0.000000

     crystal axes: (cart. coord. in units of alat)
               a(1) = (   1.000000   0.000000   0.000000 )
               a(2) = (   0.500000   0.866025   0.000000 )
               a(3) = (   0.500000   0.288675   0.816497 )

     reciprocal axes: (cart. coord. in units 2 pi/alat)
               b(1) = (  1.000000 -0.577350 -0.408248 )
               b(2) = (  0.000000  1.154701 -0.408248 )
               b(3) = (  0.000000  0.000000  1.224745 )

     PseudoPot. # 1 for Ba read from file:
     /home/pragov/projects/rrg-bengioy-ad/pragov/crystal_structure_design/SSSP/Ba.pbe-spn-kjpaw_psl.1.0.0.UPF
     MD5 check sum: c432291d3e53af55f19d5e8866385beb
     Pseudo is Projector augmented-wave + core cor, Zval = 10.0
     Generated using "atomic" code by A. Dal Corso  v.5.1
     Shape of augmentation charge: PSQ
     Using radial grid of 1251 points,  7 beta functions with:
                l(1) =   0
                l(2) =   0
                l(3) =   0
                l(4) =   1
                l(5) =   1
                l(6) =   2
                l(7) =   2
     Q(r) pseudized with 0 coefficients

     PseudoPot. # 2 for Sr read from file:
     /home/pragov/projects/rrg-bengioy-ad/pragov/crystal_structure_design/SSSP/Sr_pbe_v1.uspp.F.UPF
     MD5 check sum: 6b418c05fbe9db5448babca5e47b7a5b
     Pseudo is Ultrasoft + core correction, Zval = 10.0
     Generated by new atomic code, or converted to UPF format
     Using radial grid of  883 points,  6 beta functions with:
                l(1) =   0
                l(2) =   0
                l(3) =   1
                l(4) =   1
                l(5) =   2
                l(6) =   2
     Q(r) pseudized with  6 coefficients,  rinner =    1.400   1.400   1.400
                                                       1.400   1.400

     PseudoPot. # 3 for Bi read from file:
     /home/pragov/projects/rrg-bengioy-ad/pragov/crystal_structure_design/SSSP/Bi_pbe_v1.uspp.F.UPF
     MD5 check sum: cceb9f28ec65b6d7ff33140f5b0b1758
     Pseudo is Ultrasoft + core correction, Zval = 15.0
     Generated by new atomic code, or converted to UPF format
     Using radial grid of  899 points,  6 beta functions with:
                l(1) =   0
                l(2) =   0
                l(3) =   1
                l(4) =   1
                l(5) =   2
                l(6) =   2
     Q(r) pseudized with  6 coefficients,  rinner =    1.000   1.000   1.000
                                                       1.000   1.000

     PseudoPot. # 4 for Sb read from file:
     /home/pragov/projects/rrg-bengioy-ad/pragov/crystal_structure_design/SSSP/sb_pbe_v1.4.uspp.F.UPF
     MD5 check sum: 9bc50dfb53373b713f5709b9110fe27f
     Pseudo is Ultrasoft + core correction, Zval = 15.0
     Generated by new atomic code, or converted to UPF format
     Using radial grid of  891 points,  6 beta functions with:
                l(1) =   0
                l(2) =   0
                l(3) =   1
                l(4) =   1
                l(5) =   2
                l(6) =   2
     Q(r) pseudized with  8 coefficients,  rinner =    1.350   1.350   1.350
                                                       1.350   1.350

     PseudoPot. # 5 for O  read from file:
     /home/pragov/projects/rrg-bengioy-ad/pragov/crystal_structure_design/SSSP/O.pbe-n-kjpaw_psl.0.1.UPF
     MD5 check sum: 0234752ac141de4415c5fc33072bef88
     Pseudo is Projector augmented-wave + core cor, Zval =  6.0
     Generated using "atomic" code by A. Dal Corso  v.5.0.99 svn rev. 10869
     Shape of augmentation charge: BESSEL
     Using radial grid of 1095 points,  4 beta functions with:
                l(1) =   0
                l(2) =   0
                l(3) =   1
                l(4) =   1
     Q(r) pseudized with 0 coefficients

     atomic species   valence    mass     pseudopotential
        Ba            10.00   137.32700     Ba( 1.00)
        Sr            10.00    87.62000     Sr( 1.00)
        Bi            15.00   208.98040     Bi( 1.00)
        Sb            15.00   121.76000     Sb( 1.00)
        O              6.00    15.99900     O ( 1.00)

      6 Sym. Ops. (no inversion) found

                                    s                        frac. trans.

      isym =  1     identity

 cryst.   s( 1) = (     1          0          0      )
                  (     0          1          0      )
                  (     0          0          1      )

 cart.    s( 1) = (  1.0000000  0.0000000  0.0000000 )
                  (  0.0000000  1.0000000  0.0000000 )
                  (  0.0000000  0.0000000  1.0000000 )

      isym =  2     120 deg rotation - cryst. axis [0,0,1]

[...]

      isym =  3     120 deg rotation - cryst. axis [0,0,-1]

[...]

      isym =  4     inv. 180 deg rotation - cart. axis [1,0,0]

[...]

      isym =  5     inv. 180 deg rotation - cryst. axis [0,1,0]

[...]

      isym =  6     inv. 180 deg rotation - cryst. axis [1,1,0]

 cryst.   s( 6) = (     1         -1          0      )
                  (     0         -1          0      )
                  (     0         -1          1      )

 cart.    s( 6) = (  0.5000000 -0.8660254 -0.0000000 )
                  ( -0.8660254 -0.5000000 -0.0000000 )
                  (  0.0000000  0.0000000  1.0000000 )

   Cartesian axes

     site n.     atom                  positions (alat units)
         1           Ba  tau(   1) = (   0.5000000   0.2886751   0.2041241  )
         2           Sr  tau(   2) = (   1.5000000   0.8660254   0.6123724  )
         3           Bi  tau(   3) = (   0.0000000   0.0000000   0.0000000  )
         4           Sb  tau(   4) = (   1.0000000   0.5773503   0.4082483  )
         5           O   tau(   5) = (   1.0000000   0.3078565   0.2176874  )
         6           O   tau(   6) = (   1.0000000   0.8468440   0.5988091  )
         7           O   tau(   7) = (   1.2333884   0.4426034   0.5988091  )
         8           O   tau(   8) = (   0.7666116   0.7120971   0.2176874  )
         9           O   tau(   9) = (   1.2333884   0.7120971   0.2176874  )
        10           O   tau(  10) = (   0.7666116   0.4426034   0.5988091  )

   Crystallographic axes

     site n.     atom                  positions (cryst. coord.)
         1           Ba  tau(   1) = (  0.2500000  0.2500000  0.2500000  )
         2           Sr  tau(   2) = (  0.7500000  0.7500000  0.7500000  )
         3           Bi  tau(   3) = (  0.0000000  0.0000000  0.0000000  )
         4           Sb  tau(   4) = (  0.5000000  0.5000000  0.5000000  )
         5           O   tau(   5) = (  0.7333884  0.2666116  0.2666116  )
         6           O   tau(   6) = (  0.2666116  0.7333884  0.7333884  )
         7           O   tau(   7) = (  0.7333884  0.2666116  0.7333884  )
         8           O   tau(   8) = (  0.2666116  0.7333884  0.2666116  )
         9           O   tau(   9) = (  0.7333884  0.7333884  0.2666116  )
        10           O   tau(  10) = (  0.2666116  0.2666116  0.7333884  )

     number of k points=     1  Methfessel-Paxton smearing, width (Ry)=  0.0010
                       cart. coord. in units 2pi/alat
        k(    1) = (   0.0000000   0.0000000   0.0000000), wk =   2.0000000

                       cryst. coord.
        k(    1) = (   0.0000000   0.0000000   0.0000000), wk =   2.0000000

     Check: negative core charge=   -0.000010

     Initial potential from superposition of free atoms

     starting charge      83.9493, renormalised to      86.0000

     negative rho (up, down):  1.048E-01 0.000E+00
     Starting wfcs are   60 randomized atomic wfcs
     Checking if some PAW data can be deallocated...

     Self-consistent Calculation

     iteration #  1     ecut=    30.00 Ry     beta= 0.70
     Davidson diagonalization with overlap

     ethr =  1.00E-02,  avg # of iterations =  6.0

     negative rho (up, down):  1.003E-01 0.000E+00

     total energy              =   -1124.92416866 Ry
     estimated scf accuracy    <       2.82771730 Ry

[...]

     total energy              =   -1126.20613194 Ry
     estimated scf accuracy    <       0.00000128 Ry

     iteration # 11     ecut=    30.00 Ry     beta= 0.70
     Davidson diagonalization with overlap

     ethr =  1.49E-09,  avg # of iterations =  4.0

[...]

     End of self-consistent calculation

          k = 0.0000 0.0000 0.0000 (  1488 PWs)   bands (ev):

   -25.6659 -18.8851 -18.8851 -18.7294 -18.7294 -18.7294 -17.1424 -13.0410
   -13.0410 -12.9725 -12.9725 -12.9725  -8.4740  -7.6081  -7.6081  -7.6081
    -6.9581  -6.9579  -6.9570  -5.8929  -5.8922  -2.4142  -2.4142  -2.4141
    -1.6476   4.4113   4.4114   4.4118   4.9693   7.3003   7.3006   7.3008
     8.4427   8.4434   8.6135   8.6139   8.6140   8.8202   8.8204   8.8205
     9.6119   9.6124   9.6125  12.6659  12.6660  12.6661  13.3553  13.3553
    13.7465  15.0965  15.0965  15.0965

     occupation numbers
     1.0000   1.0000   1.0000   1.0000   1.0000   1.0000   1.0000   1.0000
     1.0000   1.0000   1.0000   1.0000   1.0000   1.0000   1.0000   1.0000
     1.0000   1.0000   1.0000   1.0000   1.0000   1.0000   1.0000   1.0000
     1.0000   1.0000   1.0000   1.0000   1.0000   1.0000   1.0000   1.0000
     1.0000   1.0000   1.0000   1.0000   1.0000   1.0000   1.0000   1.0000
     1.0000   1.0000   1.0000  -0.0000  -0.0000  -0.0000  -0.0000  -0.0000
    -0.0000  -0.0000  -0.0000  -0.0000

     the Fermi energy is    10.1033 ev

!    total energy              =   -1126.20613193 Ry
     estimated scf accuracy    <       0.00000068 Ry
     smearing contrib. (-TS)   =       0.00000000 Ry
     internal energy E=F+TS    =   -1126.20613193 Ry

     The total energy is F=E-TS. E is the sum of the following terms:
     one-electron contribution =    -215.44764489 Ry
     hartree contribution      =     166.37670042 Ry
     xc contribution           =    -192.83327222 Ry
     ewald contribution        =    -452.26070853 Ry
     one-center paw contrib.   =    -432.04120672 Ry
      -> PAW hartree energy AE =     210.69152876 Ry
      -> PAW hartree energy PS =    -209.89642484 Ry
      -> PAW xc energy AE      =    -497.88723650 Ry
      -> PAW xc energy PS      =      65.05092586 Ry
      -> total E_H with PAW    =     167.17180435 Ry
      -> total E_XC with PAW   =    -625.66958286 Ry

     convergence has been achieved in  11 iterations

     negative rho (up, down):  1.056E-01 0.000E+00

     Forces acting on atoms (cartesian axes, Ry/au):

     atom    1 type  1   force =     0.00000000    0.00000000    0.00002543
     atom    2 type  2   force =     0.00000000    0.00000000   -0.00000820
     atom    3 type  3   force =     0.00000000    0.00000000    0.00029122
     atom    4 type  4   force =     0.00000000    0.00000000   -0.00026338
     atom    5 type  5   force =     0.00000000   -0.01596086   -0.01129102
     atom    6 type  5   force =     0.00000000    0.01595241    0.01127600
     atom    7 type  5   force =     0.01381519   -0.00797620    0.01127600
     atom    8 type  5   force =    -0.01382251    0.00798043   -0.01129102
     atom    9 type  5   force =     0.01382251    0.00798043   -0.01129102
     atom   10 type  5   force =    -0.01381519   -0.00797620    0.01127600
     The non-local contrib.  to forces
     atom    1 type  1   force =     0.00000000    0.00000000   -0.00025389
     atom    2 type  2   force =     0.00000000    0.00000000    0.00000296
     atom    3 type  3   force =     0.00000000    0.00000000    0.00025829
     atom    4 type  4   force =     0.00000000    0.00000000   -0.00012183
     atom    5 type  5   force =     0.00000000    0.10897315    0.07708930
     atom    6 type  5   force =     0.00000000   -0.10909753   -0.07711256
     atom    7 type  5   force =    -0.09448124    0.05454877   -0.07711256
     atom    8 type  5   force =     0.09437352   -0.05448658    0.07708930
     atom    9 type  5   force =    -0.09437352   -0.05448658    0.07708930
     atom   10 type  5   force =     0.09448124    0.05454877   -0.07711256
     The ionic contribution  to forces
     atom    1 type  1   force =    -0.00000000   -0.00000000   -0.00000000
     atom    2 type  2   force =    -0.00000000    0.00000000   -0.00000000
     atom    3 type  3   force =    -0.00000000    0.00000000    0.00000000
     atom    4 type  4   force =     0.00000000    0.00000000    0.00000000
     atom    5 type  5   force =    -0.00000000   -3.82050079   -2.70150202
     atom    6 type  5   force =    -0.00000000    3.82050079    2.70150202
     atom    7 type  5   force =     3.30865074   -1.91025039    2.70150202
     atom    8 type  5   force =    -3.30865074    1.91025040   -2.70150202
     atom    9 type  5   force =     3.30865074    1.91025040   -2.70150202
     atom   10 type  5   force =    -3.30865074   -1.91025039    2.70150202
     The local contribution  to forces
     atom    1 type  1   force =    -0.00069929   -0.00060475    0.00021703
     atom    2 type  2   force =     0.00000405   -0.00000117   -0.00002599
     atom    3 type  3   force =     0.00001361    0.00018270   -0.00041281
     atom    4 type  4   force =     0.00003793   -0.00017567    0.00046946
     atom    5 type  5   force =     0.00002262    3.69586912    2.61335802
     atom    6 type  5   force =     0.00000667   -3.69580602   -2.61335847
     atom    7 type  5   force =    -3.20059247    1.84787909   -2.61331005
     atom    8 type  5   force =     3.20075585   -1.84794128    2.61339435
     atom    9 type  5   force =    -3.20077609   -1.84796832    2.61341648
     atom   10 type  5   force =     3.20061599    1.84788000   -2.61329916
     The core correction contribution to forces
     atom    1 type  1   force =    -0.00001320   -0.00001075    0.00000004
     atom    2 type  2   force =     0.00000031    0.00000015   -0.00000056
     atom    3 type  3   force =    -0.00000043    0.00000166    0.00000026
     atom    4 type  4   force =     0.00000082   -0.00000084    0.00000236
     atom    5 type  5   force =     0.00000030   -0.00035380   -0.00025080
     atom    6 type  5   force =     0.00000005    0.00035502    0.00025042
     atom    7 type  5   force =     0.00030808   -0.00017754    0.00025103
     atom    8 type  5   force =    -0.00030595    0.00017698   -0.00025035
     atom    9 type  5   force =     0.00030590    0.00017670   -0.00025025
     atom   10 type  5   force =    -0.00030796   -0.00017771    0.00025118
     The Hubbard contrib.    to forces
     atom    1 type  1   force =     0.00000000    0.00000000    0.00000000
     atom    2 type  2   force =     0.00000000    0.00000000    0.00000000
     atom    3 type  3   force =     0.00000000    0.00000000    0.00000000
     atom    4 type  4   force =     0.00000000    0.00000000    0.00000000
     atom    5 type  5   force =     0.00000000    0.00000000    0.00000000
     atom    6 type  5   force =     0.00000000    0.00000000    0.00000000
     atom    7 type  5   force =     0.00000000    0.00000000    0.00000000
     atom    8 type  5   force =     0.00000000    0.00000000    0.00000000
     atom    9 type  5   force =     0.00000000    0.00000000    0.00000000
     atom   10 type  5   force =     0.00000000    0.00000000    0.00000000
     The SCF correction term to forces
     atom    1 type  1   force =     0.00009659    0.00007863    0.00006699
     atom    2 type  2   force =    -0.00000405    0.00000198    0.00002011
     atom    3 type  3   force =    -0.00000164   -0.00019285    0.00045021
     atom    4 type  4   force =    -0.00003604    0.00022774   -0.00060862
     atom    5 type  5   force =    -0.00000857    0.00003033   -0.00000488
     atom    6 type  5   force =    -0.00000158   -0.00001670   -0.00002615
     atom    7 type  5   force =    -0.00005293    0.00003554   -0.00004377
     atom    8 type  5   force =     0.00001499   -0.00000731   -0.00001099
     atom    9 type  5   force =    -0.00000553    0.00000818   -0.00002230
     atom   10 type  5   force =     0.00003581    0.00002532   -0.00004118

     Total force =     0.047872     Total SCF correction =     0.000835

     Computing stress (Cartesian axis) and pressure

     negative rho (up, down):  1.056E-01 0.000E+00
          total   stress  (Ry/bohr**3)                   (kbar)     P=     -229.35
  -0.00155907   0.00000000  -0.00000000         -229.35        0.00       -0.00
   0.00000000  -0.00155907  -0.00000000            0.00     -229.35       -0.00
   0.00000000  -0.00000000  -0.00155913            0.00       -0.00     -229.36

     kinetic stress (kbar)  17524.92      0.00     -0.00
                                0.00  17524.92      0.00
                                0.00      0.00  17524.91

     local   stress (kbar)  -6910.58      0.12     -0.16
                                0.12  -6910.66     -0.06
                               -0.16     -0.06  -6910.62

     nonloc. stress (kbar)   7640.26     -0.00      0.00
                                0.00   7640.26      0.00
                                0.00      0.00   7640.26

     hartree stress (kbar)   7558.25     -0.09      0.13
                               -0.09   7558.31      0.04
                                0.13      0.04   7558.27

     exc-cor stress (kbar)   7622.44     -0.00      0.00
                               -0.00   7622.44     -0.00
                                0.00     -0.00   7622.44

     corecor stress (kbar) -13119.01     -0.00      0.00
                               -0.00 -13119.01      0.00
                                0.00      0.00 -13119.01

     ewald   stress (kbar) -20545.61     -0.00     -0.00
                               -0.00 -20545.61      0.00
                               -0.00      0.00 -20545.61

     hubbard stress (kbar)      0.00      0.00      0.00
                                0.00      0.00      0.00
                                0.00      0.00      0.00

     DFT-D   stress (kbar)      0.00      0.00      0.00
                                0.00      0.00      0.00
                                0.00      0.00      0.00

     XDM     stress (kbar)      0.00      0.00      0.00
                                0.00      0.00      0.00
                                0.00      0.00      0.00

     dft-nl  stress (kbar)      0.00      0.00      0.00
                                0.00      0.00      0.00
                                0.00      0.00      0.00

     TS-vdW  stress (kbar)      0.00      0.00      0.00
                                0.00      0.00      0.00
                                0.00      0.00      0.00

[...]

                                0.00      0.00      0.00

     Writing all to output data dir new_calculations/myprefix.save/

     General routines

     Parallel routines

     PAW routines

   This run was terminated on:   2:41:29  20May2023

   JOB DONE.