     Program PWSCF v.7.0 starts on 20May2023 at 10:22: 1

     Reading input from espresso_17255.pwi
Warning: card &CELL ignored
Warning: card / ignored

     Current dimensions of program PWSCF are:
     Max number of different atomic species (ntypx) = 10
     Max number of k-points (npk) =  40000
     Max angular momentum in pseudopotentials (lmaxx) =  4

     gamma-point specific algorithms are used
     Message from routine setup:
     using ibrav=0 with symmetry is DISCOURAGED, use correct ibrav instead

     Subspace diagonalization in iterative solution of the eigenvalue problem:
     a serial algorithm will be used

     Using Slab Decomposition

     bravais-lattice index     =            0
     lattice parameter (alat)  =      12.5195  a.u.
     unit-cell volume          =     854.6282 (a.u.)^3
     number of atoms/cell      =            9
     number of atomic types    =            3
     number of electrons       =        93.00
     number of Kohn-Sham states=           56
     kinetic-energy cutoff     =      30.0000  Ry
     charge density cutoff     =     240.0000  Ry
     scf convergence threshold =      1.0E-06
     mixing beta               =       0.7000
     number of iterations used =            8  plain     mixing
     Exchange-correlation= PBE
                           (   1   4   3   4   0   0   0)

     celldm(1)=  12.519505  celldm(2)=   0.000000  celldm(3)=   0.000000
     celldm(4)=   0.000000  celldm(5)=   0.000000  celldm(6)=   0.000000

     crystal axes: (cart. coord. in units of alat)
               a(1) = (   1.000000   0.000000   0.000000 )
               a(2) = (  -0.500000   0.866025   0.000000 )
               a(3) = (   0.000000   0.000000   0.502904 )

     reciprocal axes: (cart. coord. in units 2 pi/alat)
               b(1) = (  1.000000  0.577350  0.000000 )
               b(2) = (  0.000000  1.154700  0.000000 )
               b(3) = (  0.000000  0.000000  1.988451 )

     PseudoPot. # 1 for Ti read from file:
     /home/pragov/projects/rrg-bengioy-ad/pragov/crystal_structure_design/SSSP/ti_pbe_v1.4.uspp.F.UPF
     MD5 check sum: 88a00a6731bd790ddea75d31a80cb452
     Pseudo is Ultrasoft + core correction, Zval = 12.0
     Generated by new atomic code, or converted to UPF format
     Using radial grid of  851 points,  6 beta functions with:
                l(1) =   0
                l(2) =   0
                l(3) =   1
                l(4) =   1
                l(5) =   2
                l(6) =   2
     Q(r) pseudized with  6 coefficients,  rinner =    1.000   1.000   1.000
                                                       1.000   1.000

     PseudoPot. # 2 for Cr read from file:
     /home/pragov/projects/rrg-bengioy-ad/pragov/crystal_structure_design/SSSP/cr_pbe_v1.5.uspp.F.UPF
     MD5 check sum: 0d52af634a40206e4dee301ad30da4bf
     Pseudo is Ultrasoft + core correction, Zval = 14.0
     Generated by new atomic code, or converted to UPF format
     Using radial grid of  857 points,  6 beta functions with:
                l(1) =   0
                l(2) =   0
                l(3) =   1
                l(4) =   1
                l(5) =   2
                l(6) =   2
     Q(r) pseudized with  8 coefficients,  rinner =    0.950   0.950   0.950
                                                       0.950   0.950

     PseudoPot. # 3 for As read from file:
     /home/pragov/projects/rrg-bengioy-ad/pragov/crystal_structure_design/SSSP/As.pbe-n-rrkjus_psl.0.2.UPF
     MD5 check sum: 767315de957beeeb34f87d97bf945c8f
     Pseudo is Ultrasoft + core correction, Zval =  5.0
     Generated using "atomic" code by A. Dal Corso  v.5.0.99 svn rev. 10869
     Using radial grid of 1209 points,  4 beta functions with:
                l(1) =   0
                l(2) =   0
                l(3) =   1
                l(4) =   1
     Q(r) pseudized with 0 coefficients

     atomic species   valence    mass     pseudopotential
        Ti            12.00    47.86700     Ti( 1.00)
        Cr            14.00    51.99610     Cr( 1.00)
        As             5.00    74.92159     As( 1.00)

     12 Sym. Ops. (no inversion) found

                                    s                        frac. trans.

      isym =  1     identity

 cryst.   s( 1) = (     1          0          0      )
                  (     0          1          0      )
                  (     0          0          1      )

 cart.    s( 1) = (  1.0000000  0.0000000  0.0000000 )
                  (  0.0000000  1.0000000  0.0000000 )
                  (  0.0000000  0.0000000  1.0000000 )

      isym =  2     180 deg rotation - cart. axis [1,0,0]

[...]

      isym =  3     120 deg rotation - cryst. axis [0,0,1]

[...]

      isym =  6     180 deg rotation - cryst. axis [1,1,0]

[...]

      isym =  7     inv. 180 deg rotation - cart. axis [0,0,1]

[...]

      isym =  8     inv. 180 deg rotation - cart. axis [0,1,0]

[...]

      isym =  9     inv.  60 deg rotation - cryst. axis [0,0,1]

 cryst.   s( 9) = (    -1         -1          0      )
                  (     1          0          0      )
                  (     0          0         -1      )

 cart.    s( 9) = ( -0.5000002  0.8660253  0.0000000 )
                  ( -0.8660255 -0.4999998  0.0000000 )
                  (  0.0000000  0.0000000 -1.0000000 )

[...]

 cryst.   s(10) = (     0          1          0      )
                  (    -1         -1          0      )
                  (     0          0         -1      )

 cart.    s(10) = ( -0.4999998 -0.8660253  0.0000000 )
                  (  0.8660255 -0.5000002  0.0000000 )
                  (  0.0000000  0.0000000 -1.0000000 )

[...]

      isym = 12     inv. 180 deg rotation - cryst. axis [2,1,0]

 cryst.   s(12) = (    -1         -1          0      )
                  (     0          1          0      )
                  (     0          0          1      )

 cart.    s(12) = ( -0.5000002 -0.8660251  0.0000000 )
                  ( -0.8660255  0.5000002  0.0000000 )
                  (  0.0000000  0.0000000  1.0000000 )

   Cartesian axes

     site n.     atom                  positions (alat units)
         1           Ti  tau(   1) = (   0.2023951   0.3505585   0.2514520  )
         2           Ti  tau(   2) = (   0.5952100   0.0000000   0.2514520  )
         3           Ti  tau(   3) = (  -0.2976049   0.5154670   0.2514520  )
         4           Cr  tau(   4) = (   0.3713106   0.6431287   0.0000000  )
         5           Cr  tau(   5) = (   0.2573790   0.0000000   0.0000000  )
         6           Cr  tau(   6) = (  -0.1286895   0.2228968   0.0000000  )
         7           As  tau(   7) = (   0.5000006   0.2886749   0.0000000  )
         8           As  tau(   8) = (  -0.0000004   0.5773506   0.0000000  )
         9           As  tau(   9) = (   0.0000000   0.0000000   0.2514520  )

   Crystallographic axes

     site n.     atom                  positions (cryst. coord.)
         1           Ti  tau(   1) = (  0.4047900  0.4047900  0.5000000  )
         2           Ti  tau(   2) = (  0.5952100  0.0000000  0.5000000  )
         3           Ti  tau(   3) = ( -0.0000000  0.5952100  0.5000000  )
         4           Cr  tau(   4) = (  0.7426210  0.7426210  0.0000000  )
         5           Cr  tau(   5) = (  0.2573790  0.0000000  0.0000000  )
         6           Cr  tau(   6) = ( -0.0000000  0.2573790  0.0000000  )
         7           As  tau(   7) = (  0.6666670  0.3333330  0.0000000  )
         8           As  tau(   8) = (  0.3333330  0.6666670  0.0000000  )
         9           As  tau(   9) = (  0.0000000  0.0000000  0.5000000  )

     number of k points=     1  Methfessel-Paxton smearing, width (Ry)=  0.0010
                       cart. coord. in units 2pi/alat
        k(    1) = (   0.0000000   0.0000000   0.0000000), wk =   2.0000000

                       cryst. coord.
        k(    1) = (   0.0000000   0.0000000   0.0000000), wk =   2.0000000

     Check: negative core charge=   -0.000007

     Initial potential from superposition of free atoms

     starting charge      86.9991, renormalised to      93.0000

     negative rho (up, down):  8.527E-03 0.000E+00
     Starting wfcs are   72 randomized atomic wfcs

     Self-consistent Calculation

     iteration #  1     ecut=    30.00 Ry     beta= 0.70
     Davidson diagonalization with overlap

     ethr =  1.00E-02,  avg # of iterations =  3.0

     negative rho (up, down):  1.878E-02 0.000E+00

     total energy              =    -921.39723510 Ry
     estimated scf accuracy    <      23.44680660 Ry

[...]

     total energy              =    -938.72368485 Ry
     estimated scf accuracy    <       0.00000105 Ry

     iteration # 31     ecut=    30.00 Ry     beta= 0.70
     Davidson diagonalization with overlap

     ethr =  1.13E-09,  avg # of iterations =  2.0

[...]

     End of self-consistent calculation

          k = 0.0000 0.0000 0.0000 (  1182 PWs)   bands (ev):

   -55.6712 -55.6638 -55.6632 -41.4666 -41.4596 -41.4594 -27.3132 -27.2811
   -27.2809 -27.2479 -27.2186 -27.2182 -26.6185 -26.6137 -26.6130 -17.9822
   -17.9057 -17.9056 -17.7911 -17.7910 -17.7797 -17.5577 -17.5479 -17.5476
     1.9145   3.1772   3.4276   9.5394   9.5394   9.9241   9.9242  11.5794
    11.5794  12.2124  12.6639  12.8717  13.8836  13.8837  14.0034  14.0823
    14.0824  14.8009  14.9603  14.9606  15.3163  15.3166  15.5309  15.8668
    15.8669  16.4023  16.4025  16.4335  16.6022  16.8418  16.8445  16.8448

     occupation numbers
     1.0000   1.0000   1.0000   1.0000   1.0000   1.0000   1.0000   1.0000
     1.0000   1.0000   1.0000   1.0000   1.0000   1.0000   1.0000   1.0000
     1.0000   1.0000   1.0000   1.0000   1.0000   1.0000   1.0000   1.0000
     1.0000   1.0000   1.0000   1.0000   1.0000   1.0000   1.0000   1.0000
     1.0000   1.0000   1.0000   1.0000   1.0000   1.0000   1.0000   1.0000
     1.0000   1.0000   1.0000   1.0000   1.0000   1.0000   0.5000  -0.0000
    -0.0000  -0.0000  -0.0000  -0.0000  -0.0000  -0.0000  -0.0000  -0.0000

     the Fermi energy is    15.5309 ev

!    total energy              =    -938.72368436 Ry
     estimated scf accuracy    <       0.00000059 Ry
     smearing contrib. (-TS)   =      -0.00028209 Ry
     internal energy E=F+TS    =    -938.72340226 Ry

     The total energy is F=E-TS. E is the sum of the following terms:
     one-electron contribution =    -361.63424118 Ry
     hartree contribution      =     225.97021780 Ry
     xc contribution           =    -150.22385983 Ry
     ewald contribution        =    -652.83551906 Ry

     convergence has been achieved in  31 iterations

     negative rho (up, down):  7.133E-03 0.000E+00

     Forces acting on atoms (cartesian axes, Ry/au):

     atom    1 type  1   force =     0.03545798    0.06141501    0.00000000
     atom    2 type  1   force =    -0.07091597    0.00000001    0.00000000
     atom    3 type  1   force =     0.03545798   -0.06141503   -0.00000000
     atom    4 type  2   force =     0.02184390    0.03783473    0.00000000
     atom    5 type  2   force =    -0.04368779    0.00000001    0.00000000
     atom    6 type  2   force =     0.02184390   -0.03783474    0.00000000
     atom    7 type  3   force =     0.00000000    0.00000000   -0.00000000
     atom    8 type  3   force =     0.00000000    0.00000000    0.00000000
     atom    9 type  3   force =     0.00000000    0.00000000    0.00000000
     The non-local contrib.  to forces
     atom    1 type  1   force =     0.05282005    0.09148699    0.00000000
     atom    2 type  1   force =    -0.10564010    0.00000002    0.00000000
     atom    3 type  1   force =     0.05282005   -0.09148701    0.00000000
     atom    4 type  2   force =     0.08658803    0.14997484   -0.00000000
     atom    5 type  2   force =    -0.17317606    0.00000003    0.00000000
     atom    6 type  2   force =     0.08658803   -0.14997487    0.00000000
     atom    7 type  3   force =     0.00000000    0.00000000   -0.00000000
     atom    8 type  3   force =    -0.00000000    0.00000000    0.00000000
     atom    9 type  3   force =     0.00000000    0.00000000    0.00000000
     The ionic contribution  to forces
     atom    1 type  1   force =     1.26982631    2.19940322   -0.00000000
     atom    2 type  1   force =    -2.53962575   -0.00001307   -0.00000000
     atom    3 type  1   force =     1.26980116   -2.19938718    0.00000000
     atom    4 type  2   force =    -2.62696032   -4.55002779    0.00000000
     atom    5 type  2   force =     5.25386788    0.00002860   -0.00000000
     atom    6 type  2   force =    -2.62690834    4.54999784    0.00000000
     atom    7 type  3   force =    -0.00003891    0.00002170    0.00000000
     atom    8 type  3   force =     0.00003824   -0.00002285    0.00000000
     atom    9 type  3   force =    -0.00000027   -0.00000048   -0.00000000
     The local contribution  to forces
     atom    1 type  1   force =    -1.28568141   -2.22780708    0.00000138
     atom    2 type  1   force =     2.57127954   -0.00042152   -0.00000271
     atom    3 type  1   force =    -1.28615632    2.22867203   -0.00000281
     atom    4 type  2   force =     2.56484487    4.44184787    0.00000468
     atom    5 type  2   force =    -5.12847397   -0.00063288   -0.00000075
     atom    6 type  2   force =     2.56451850   -4.44190800    0.00000338
     atom    7 type  3   force =    -0.00017596   -0.00014161    0.00000186
     atom    8 type  3   force =    -0.00019282    0.00046194   -0.00000041
     atom    9 type  3   force =     0.00044295   -0.00033476   -0.00000138
     The core correction contribution to forces
     atom    1 type  1   force =    -0.00098600   -0.00170511   -0.00000002
     atom    2 type  1   force =     0.00197059    0.00000036    0.00000008
     atom    3 type  1   force =    -0.00098308    0.00170466   -0.00000006
     atom    4 type  2   force =    -0.00249888   -0.00433431    0.00000002
     atom    5 type  2   force =     0.00500305   -0.00000166   -0.00000006
     atom    6 type  2   force =    -0.00249986    0.00433470   -0.00000006
     atom    7 type  3   force =     0.00000190    0.00000126    0.00000022
     atom    8 type  3   force =     0.00000240    0.00000001   -0.00000005
     atom    9 type  3   force =    -0.00000310    0.00000087   -0.00000008
     The Hubbard contrib.    to forces
     atom    1 type  1   force =     0.00000000    0.00000000    0.00000000
     atom    2 type  1   force =     0.00000000    0.00000000    0.00000000
     atom    3 type  1   force =     0.00000000    0.00000000    0.00000000
     atom    4 type  2   force =     0.00000000    0.00000000    0.00000000
     atom    5 type  2   force =     0.00000000    0.00000000    0.00000000
     atom    6 type  2   force =     0.00000000    0.00000000    0.00000000
     atom    7 type  3   force =     0.00000000    0.00000000    0.00000000
     atom    8 type  3   force =     0.00000000    0.00000000    0.00000000
     atom    9 type  3   force =     0.00000000    0.00000000    0.00000000
     The SCF correction term to forces
     atom    1 type  1   force =    -0.00047873    0.00000984   -0.00000158
     atom    2 type  1   force =     0.00103964    0.00043280    0.00000517
     atom    3 type  1   force =    -0.00003236   -0.00085583    0.00000326
     atom    4 type  2   force =    -0.00005645    0.00036845   -0.00000610
     atom    5 type  2   force =    -0.00087834    0.00057396    0.00000547
     atom    6 type  2   force =     0.00014395   -0.00028371   -0.00000575
     atom    7 type  3   force =     0.00021501    0.00012176   -0.00000085
     atom    8 type  3   force =     0.00015630   -0.00041817   -0.00000050
     atom    9 type  3   force =    -0.00044119    0.00032099    0.00000066

     Total force =     0.144267     Total SCF correction =     0.002032

     Computing stress (Cartesian axis) and pressure

     negative rho (up, down):  7.133E-03 0.000E+00
          total   stress  (Ry/bohr**3)                   (kbar)     P=       -7.22
  -0.00143876   0.00000000   0.00000000         -211.65        0.00        0.00
   0.00000000  -0.00143876   0.00000000            0.00     -211.65        0.00
   0.00000000   0.00000000   0.00273035            0.00        0.00      401.65

     kinetic stress (kbar)  23564.93     -0.00      0.00
                               -0.00  23564.93      0.00
                               -0.00     -0.00  25226.38

     local   stress (kbar)    784.50      0.10      0.00
                                0.10    784.69      0.00
                                0.00      0.00  -1646.18

     nonloc. stress (kbar)   7641.84     -0.00      0.00
                               -0.00   7641.84     -0.00
                                0.00     -0.00   7812.40

     hartree stress (kbar)  12506.96     -0.04     -0.00
                               -0.04  12506.73     -0.00
                               -0.00     -0.00  13882.02

     exc-cor stress (kbar)   -951.06     -0.00     -0.00
                               -0.00   -951.06     -0.00
                               -0.00     -0.00   -934.89

     corecor stress (kbar)  -6352.25      0.00     -0.00
                                0.00  -6352.25      0.00
                               -0.00      0.00  -6380.18

     ewald   stress (kbar) -37406.54     -0.01     -0.00
                               -0.01 -37406.55     -0.00
                               -0.00     -0.00 -37557.90

     hubbard stress (kbar)      0.00      0.00      0.00
                                0.00      0.00      0.00
                                0.00      0.00      0.00

     DFT-D   stress (kbar)      0.00      0.00      0.00
                                0.00      0.00      0.00
                                0.00      0.00      0.00

     XDM     stress (kbar)      0.00      0.00      0.00
                                0.00      0.00      0.00
                                0.00      0.00      0.00

     dft-nl  stress (kbar)      0.00      0.00      0.00
                                0.00      0.00      0.00
                                0.00      0.00      0.00

     TS-vdW  stress (kbar)      0.00      0.00      0.00
                                0.00      0.00      0.00
                                0.00      0.00      0.00

[...]

                                0.00      0.00      0.00

     Writing all to output data dir new_calculations/myprefix.save/

     General routines

     Parallel routines

   This run was terminated on:  10:22:31  20May2023

   JOB DONE.